       N       E                     dE             d eps       ncg     rms          rms(c)
DAV:   1     0.417349608038E+04    0.41735E+04   -0.25381E+05  9130   0.146E+03
DAV:   2    -0.767583062309E+02   -0.42503E+04   -0.41264E+04  8987   0.356E+02
DAV:   3    -0.404162716496E+03   -0.32740E+03   -0.32096E+03  8866   0.855E+01
DAV:   4    -0.419435765911E+03   -0.15273E+02   -0.15164E+02  9878   0.170E+01
DAV:   5    -0.419925830579E+03   -0.49006E+00   -0.48825E+00 10153   0.308E+00    0.101E+02
DAV:   6    -0.399559768413E+03    0.20366E+02   -0.17830E+02  8404   0.251E+01    0.398E+01
DAV:   7    -0.395845410961E+03    0.37144E+01   -0.71485E+01  8239   0.162E+01    0.239E+01
DAV:   8    -0.392634982062E+03    0.32104E+01   -0.11387E+01  8745   0.695E+00    0.821E+00
DAV:   9    -0.392761224339E+03   -0.12624E+00   -0.21609E+00  9823   0.220E+00    0.400E+00
DAV:  10    -0.392642124928E+03    0.11910E+00   -0.51145E-01  8800   0.147E+00    0.117E+00
DAV:  11    -0.392631933442E+03    0.10191E-01   -0.54440E-02  9658   0.596E-01    0.691E-01
DAV:  12    -0.392620007589E+03    0.11926E-01   -0.17696E-02  9086   0.396E-01    0.334E-01
DAV:  13    -0.392617094294E+03    0.29133E-02   -0.31293E-03  9152   0.151E-01    0.197E-01
DAV:  14    -0.392611744174E+03    0.53501E-02   -0.41419E-03  8778   0.162E-01    0.156E-01
DAV:  15    -0.392605218272E+03    0.65259E-02   -0.73677E-03  8679   0.187E-01    0.241E-01
DAV:  16    -0.392603540550E+03    0.16777E-02   -0.34088E-03  9141   0.102E-01    0.268E-01
DAV:  17    -0.392605408221E+03   -0.18677E-02   -0.18167E-03  8844   0.731E-02    0.119E-01
DAV:  18    -0.392608240609E+03   -0.28324E-02   -0.58472E-04  9735   0.428E-02    0.699E-02
DAV:  19    -0.392609442756E+03   -0.12021E-02   -0.80529E-05  9449   0.276E-02    0.558E-02
DAV:  20    -0.392611492900E+03   -0.20501E-02   -0.95745E-05  8855   0.310E-02    0.353E-02
DAV:  21    -0.392613671406E+03   -0.21785E-02   -0.11219E-04  8745   0.281E-02    0.223E-02
DAV:  22    -0.392613789678E+03   -0.11827E-03   -0.16697E-05  8558   0.941E-03    0.243E-02
DAV:  23    -0.392613817619E+03   -0.27941E-04   -0.12479E-06  5467   0.340E-03    0.217E-02
DAV:  24    -0.392613982927E+03   -0.16531E-03   -0.49465E-06  6633   0.492E-03    0.137E-02
DAV:  25    -0.392614149940E+03   -0.16701E-03   -0.70382E-06  6600   0.579E-03    0.857E-03
DAV:  26    -0.392614167931E+03   -0.17992E-04   -0.14232E-06  6237   0.223E-03    0.719E-03
DAV:  27    -0.392614172457E+03   -0.45258E-05   -0.19846E-07  4895   0.104E-03    0.553E-03
DAV:  28    -0.392614179613E+03   -0.71559E-05   -0.44736E-07  5280   0.192E-03    0.173E-03
DAV:  29    -0.392614179520E+03    0.92899E-07   -0.40698E-06  5742   0.317E-03
   1 F= -.41260763E+03 E0= -.41260763E+03  d E =-.217625E-23
