 vasp.6.5.1 10Mar25 (build Aug 29 2025 00:30:47) complex                        
  
 executed on             LinuxIFC date 2026.06.03  20:24:24
 running  264 mpi-ranks, with    1 threads/rank, on    6 nodes
 distrk:  each k-point on   44 cores,    6 groups
 distr:  one band on NCORE=   4 cores,   11 groups


--------------------------------------------------------------------------------------------------------


 INCAR:
   SYSTEM = MoS2_bilayer_3R phonon
   PREC = Accurate
   ENCUT = 520
   EDIFF = 1E-6
   ISMEAR = 0
   SIGMA = 0.05
   LREAL = Auto
   ALGO = Normal
   AMIN = 0.01
   NELM = 200
   NSW = 0
   IBRION = -1
   IVDW = 12
   KPAR = 6
   NCORE = 4
   LWAVE = .FALSE.
   LCHARG = .FALSE.

 POTCAR:    PAW_PBE Mo_sv 02Feb2006               
 POTCAR:    PAW_PBE S 06Sep2000                   
 POTCAR:    PAW_PBE Mo_sv 02Feb2006               
   SHA256 =  2731df97e41766cc617548c5a8267718fdef1f509ac6bafa01e745abea2bdfaa Mo_sv/POTCAR          
   COPYR  = (c) Copyright 02Feb2006 Georg Kresse                                                    
   COPYR  = This file is part of the software VASP. Any use, copying, and all other rights are regul
   COPYR  = If you do not have a valid VASP license, you may not use, copy or distribute this file. 
   VRHFIN =Mo: 4p5s4d                                                                               
   LEXCH  = PE                                                                                      
   EATOM  =  1862.2866 eV,  136.8742 Ry                                                             
                                                                                                    
   TITEL  = PAW_PBE Mo_sv 02Feb2006                                                                 
   LULTRA =        F    use ultrasoft PP ?                                                          
   IUNSCR =        1    unscreen: 0-lin 1-nonlin 2-no                                               
   RPACOR =    2.200    partial core radius                                                         
   POMASS =   95.940; ZVAL   =   14.000    mass and valenz                                          
   RCORE  =    2.500    outmost cutoff radius                                                       
   RWIGS  =    2.750; RWIGS  =    1.455    wigner-seitz radius (au A)                               
   ENMAX  =  242.676; ENMIN  =  182.007 eV                                                          
   ICORE  =        3    local potential                                                             
   LCOR   =        T    correct aug charges                                                         
   LPAW   =        T    paw PP                                                                      
   EAUG   =  446.014                                                                                
   DEXC   =    0.000                                                                                
   RMAX   =    2.563    core radius for proj-oper                                                   
   RAUG   =    1.300    factor for augmentation sphere                                              
   RDEP   =    2.641    radius for radial grids                                                     
   RDEPT  =    2.031    core radius for aug-charge                                                  
                                                                                                    
   Atomic configuration                                                                             
   11 entries                                                                                       
     n  l   j            E        occ.                                                              
     1  0  0.50    -19819.0341   2.0000                                                             
     2  0  0.50     -2799.0127   2.0000                                                             
     2  1  1.50     -2502.0276   6.0000                                                             
     3  0  0.50      -476.4449   2.0000                                                             
     3  1  1.50      -379.1496   6.0000                                                             
     3  2  2.50      -220.9367  10.0000                                                             
     4  0  0.50       -64.3378   2.0000                                                             
     5  0  0.50        -4.0862   1.0000                                                             
     4  1  1.50       -38.4773   6.0000                                                             
     4  2  2.50        -3.7535   5.0000                                                             
     4  3  2.50        -1.3606   0.0000                                                             
   Description                                                                                      
     l       E           TYP  RCUT    TYP  RCUT                                                     
     0    -64.3377829     23  2.100                                                                 
     0     -4.0861640     23  2.400                                                                 
     1    -38.4772993     23  2.100                                                                 
     1     13.6058260     23  2.100                                                                 
     2     -3.7534941     23  2.400                                                                 
     2     -5.1140767     23  2.400                                                                 
     3     -4.0817478     23  2.500                                                                 
  local pseudopotential read in
  partial core-charges read in
  partial kinetic energy density read in
  atomic valenz-charges read in
  non local Contribution for L=           0  read in
    real space projection operators read in
  non local Contribution for L=           0  read in
    real space projection operators read in
  non local Contribution for L=           1  read in
    real space projection operators read in
  non local Contribution for L=           1  read in
    real space projection operators read in
  non local Contribution for L=           2  read in
    real space projection operators read in
  non local Contribution for L=           2  read in
    real space projection operators read in
    PAW grid and wavefunctions read in
 
   number of l-projection  operators is LMAX  =           6
   number of lm-projection operators is LMMAX =          18
 
 POTCAR:    PAW_PBE S 06Sep2000                   
   SHA256 =  0fc7481fb0695f01bdc6462160264c5c84044ae9ec85a907d398b887a2bc3132 S/POTCAR              
   COPYR  = (c) Copyright 06Sep2000 Georg Kresse                                                    
   COPYR  = This file is part of the software VASP. Any use, copying, and all other rights are regul
   COPYR  = If you do not have a valid VASP license, you may not use, copy or distribute this file. 
   VRHFIN =S : s2p4                                                                                 
   LEXCH  = PE                                                                                      
   EATOM  =   276.8230 eV,   20.3459 Ry                                                             
                                                                                                    
   TITEL  = PAW_PBE S 06Sep2000                                                                     
   LULTRA =        F    use ultrasoft PP ?                                                          
   IUNSCR =        1    unscreen: 0-lin 1-nonlin 2-no                                               
   RPACOR =    1.500    partial core radius                                                         
   POMASS =   32.066; ZVAL   =    6.000    mass and valenz                                          
   RCORE  =    1.900    outmost cutoff radius                                                       
   RWIGS  =    2.200; RWIGS  =    1.164    wigner-seitz radius (au A)                               
   ENMAX  =  258.689; ENMIN  =  194.016 eV                                                          
   ICORE  =        2    local potential                                                             
   LCOR   =        T    correct aug charges                                                         
   LPAW   =        T    paw PP                                                                      
   EAUG   =  335.092                                                                                
   DEXC   =    0.000                                                                                
   RMAX   =    1.942    core radius for proj-oper                                                   
   RAUG   =    1.300    factor for augmentation sphere                                              
   RDEP   =    1.954    radius for radial grids                                                     
   RDEPT  =    1.744    core radius for aug-charge                                                  
                                                                                                    
   Atomic configuration                                                                             
    6 entries                                                                                       
     n  l   j            E        occ.                                                              
     1  0  0.50     -2405.8406   2.0000                                                             
     2  0  0.50      -211.7007   2.0000                                                             
     2  1  1.50      -156.4958   6.0000                                                             
     3  0  0.50       -17.2562   2.0000                                                             
     3  1  0.50        -7.0085   4.0000                                                             
     3  2  1.50        -6.8029   0.0000                                                             
   Description                                                                                      
     l       E           TYP  RCUT    TYP  RCUT                                                     
     0    -17.2561641     23  1.900                                                                 
     0    -15.8743224     23  1.900                                                                 
     1     -7.0085400     23  1.900                                                                 
     1     -2.7779785     23  1.900                                                                 
     2     -6.8029130     23  1.900                                                                 
  local pseudopotential read in
  partial core-charges read in
  partial kinetic energy density read in
  atomic valenz-charges read in
  non local Contribution for L=           0  read in
    real space projection operators read in
  non local Contribution for L=           0  read in
    real space projection operators read in
  non local Contribution for L=           1  read in
    real space projection operators read in
  non local Contribution for L=           1  read in
    real space projection operators read in
    PAW grid and wavefunctions read in
 
   number of l-projection  operators is LMAX  =           4
   number of lm-projection operators is LMMAX =           8
 
 Optimization of the real space projectors (new method)

 maximal supplied QI-value         = 15.12
 optimisation between [QCUT,QGAM] = [ 11.64, 23.28] = [ 37.95,151.78] Ry 
 Optimized for a Real-space Cutoff    1.53 Angstroem

   l    n(q)    QCUT    max X(q) W(low)/X(q) W(high)/X(q)  e(spline) 
   0     11    11.641     3.559    0.80E-05    0.27E-04    0.27E-06
   0     11    11.641    20.730    0.39E-04    0.26E-04    0.29E-06
   1     10    11.641     3.279    0.18E-05    0.27E-05    0.28E-07
   1     10    11.641     4.693    0.11E-03    0.12E-04    0.28E-06
   2     10    11.641    67.616    0.19E-03    0.29E-03    0.91E-06
   2     10    11.641    62.420    0.19E-03    0.29E-03    0.92E-06
 Optimization of the real space projectors (new method)

 maximal supplied QI-value         = 19.84
 optimisation between [QCUT,QGAM] = [ 11.51, 23.22] = [ 37.09,150.92] Ry 
 Optimized for a Real-space Cutoff    1.21 Angstroem

   l    n(q)    QCUT    max X(q) W(low)/X(q) W(high)/X(q)  e(spline) 
   0      8    11.508   187.594    0.96E-04    0.18E-03    0.54E-07
   0      8    11.508   164.243    0.96E-04    0.18E-03    0.54E-07
   1      8    11.508    67.533    0.18E-03    0.65E-04    0.94E-07
   1      8    11.508    50.729    0.18E-03    0.63E-04    0.92E-07
  PAW_PBE Mo_sv 02Feb2006               :
 energy of atom  1       EATOM=-1862.2866
 kinetic energy error for atom=    0.0070 (will be added to EATOM!!)
  PAW_PBE S 06Sep2000                   :
 energy of atom  2       EATOM= -276.8230
 kinetic energy error for atom=    0.0016 (will be added to EATOM!!)
 
 
 POSCAR: generated by phonopy
  positions in direct lattice
  No initial velocities read in
 IVDW         = 12
 VDW_S6       =    1.0000
 VDW_S8       =    0.7875
 VDW_A1       =    0.4289
 VDW_A2       =    4.4407
 VDW_RADIUS   =   50.2022 A
 VDW_CNRADIUS =   21.1671 A


 exchange-correlation table for PE
   RHO(1)=    0.500       N(1)  =     2000
   RHO(2)=  100.500       N(2)  =     4000
 


--------------------------------------------------------------------------------------------------------


 ion  position               nearest neighbor table
   1  0.000  0.000  0.513-  19 2.41  30 2.41  34 2.41  28 2.41  25 2.41  21 2.41   7 3.19   8 3.19
                             4 3.19   6 3.19   2 3.19   3 3.19
   2  0.333  0.000  0.513-  19 2.40  28 2.41  29 2.41  35 2.41  26 2.41  20 2.41   3 3.19   9 3.19
                             5 3.19   8 3.19   4 3.19   1 3.19
   3  0.667  0.000  0.513-  29 2.41  36 2.41  30 2.41  27 2.41  20 2.41  21 2.41   2 3.19   5 3.19
                             6 3.19   7 3.19   9 3.19   1 3.19
   4  0.000  0.333  0.513-  19 2.41  28 2.41  31 2.41  33 2.41  24 2.41  22 2.41   7 3.19   9 3.19
                             1 3.19   2 3.19   5 3.19   6 3.19
   5  0.333  0.333  0.513-  32 2.41  31 2.41  29 2.41  23 2.41  20 2.41  22 2.41   8 3.19   6 3.19
                             3 3.19   7 3.19   2 3.19   4 3.19
   6  0.667  0.333  0.513-  30 2.41  32 2.41  33 2.41  21 2.41  23 2.41  24 2.41   8 3.19   9 3.19
                             5 3.19   3 3.19   1 3.19   4 3.19
   7  0.000  0.667  0.513-  31 2.41  36 2.41  34 2.41  27 2.41  22 2.41  25 2.41   4 3.19   5 3.19
                             1 3.19   3 3.19   8 3.19   9 3.19
   8  0.333  0.667  0.513-  32 2.41  34 2.41  35 2.41  23 2.41  25 2.41  26 2.41   5 3.19   6 3.19
                             9 3.19   2 3.19   1 3.19   7 3.19
   9  0.667  0.667  0.513-  33 2.41  35 2.41  36 2.41  26 2.41  24 2.41  27 2.41   6 3.19   8 3.19
                             2 3.19   4 3.19   3 3.19   7 3.19
  10  0.111  0.111  0.812-  37 2.41  43 2.41  39 2.41  46 2.41  48 2.41  52 2.41  13 3.19  11 3.19
                            17 3.19  15 3.19  16 3.19  12 3.19
  11  0.444  0.111  0.812-  44 2.41  38 2.41  37 2.41  46 2.41  53 2.41  47 2.41  13 3.19  14 3.19
                            10 3.19  17 3.19  18 3.19  12 3.19
  12  0.778  0.111  0.812-  45 2.41  39 2.41  38 2.41  47 2.41  54 2.41  48 2.41  15 3.19  14 3.19
                            16 3.19  18 3.19  10 3.19  11 3.19
  13  0.111  0.444  0.812-  37 2.41  40 2.41  42 2.41  46 2.41  49 2.41  51 2.41  10 3.19  11 3.19
                            14 3.19  16 3.19  18 3.19  15 3.19
  14  0.444  0.444  0.812-  38 2.41  40 2.41  41 2.41  47 2.41  49 2.41  50 2.41  11 3.19  13 3.19
                            16 3.19  12 3.19  17 3.19  15 3.19
  15  0.778  0.444  0.812-  39 2.41  41 2.41  42 2.41  48 2.41  50 2.41  51 2.41  12 3.19  10 3.19
                            17 3.19  18 3.19  13 3.19  14 3.19
  16  0.111  0.778  0.812-  40 2.41  43 2.41  45 2.41  49 2.41  52 2.41  54 2.41  17 3.19  14 3.19
                            13 3.19  10 3.19  12 3.19  18 3.19
  17  0.444  0.778  0.812-  41 2.41  43 2.41  44 2.41  50 2.41  52 2.41  53 2.41  16 3.19  10 3.19
                            14 3.19  15 3.19  11 3.19  18 3.19
  18  0.778  0.778  0.812-  42 2.41  44 2.41  45 2.41  51 2.41  53 2.41  54 2.41  13 3.19  15 3.19
                            11 3.19  12 3.19  16 3.19  17 3.19
  19  0.112  0.111  0.436-   2 2.40   4 2.41   1 2.41
  20  0.444  0.111  0.435-   2 2.41   3 2.41   5 2.41
  21  0.778  0.111  0.435-   1 2.41   6 2.41   3 2.41
  22  0.111  0.444  0.435-   4 2.41   5 2.41   7 2.41
  23  0.444  0.444  0.435-   5 2.41   6 2.41   8 2.41
  24  0.778  0.444  0.435-   4 2.41   6 2.41   9 2.41
  25  0.111  0.778  0.435-   1 2.41   8 2.41   7 2.41
  26  0.444  0.778  0.435-   2 2.41   8 2.41   9 2.41
  27  0.778  0.778  0.435-   3 2.41   7 2.41   9 2.41
  28  0.111  0.111  0.590-   2 2.41   4 2.41   1 2.41
  29  0.444  0.111  0.590-   2 2.41   3 2.41   5 2.41
  30  0.778  0.111  0.590-   1 2.41   6 2.41   3 2.41
  31  0.111  0.444  0.590-   4 2.41   5 2.41   7 2.41
  32  0.444  0.444  0.590-   5 2.41   6 2.41   8 2.41
  33  0.778  0.444  0.590-   4 2.41   6 2.41   9 2.41
  34  0.111  0.778  0.590-   1 2.41   8 2.41   7 2.41
  35  0.444  0.778  0.590-   2 2.41   8 2.41   9 2.41
  36  0.778  0.778  0.590-   3 2.41   7 2.41   9 2.41
  37  0.222  0.222  0.734-  10 2.41  13 2.41  11 2.41
  38  0.556  0.222  0.734-  14 2.41  12 2.41  11 2.41
  39  0.889  0.222  0.734-  15 2.41  12 2.41  10 2.41
  40  0.222  0.556  0.734-  16 2.41  14 2.41  13 2.41
  41  0.556  0.556  0.734-  17 2.41  15 2.41  14 2.41
  42  0.889  0.556  0.734-  18 2.41  13 2.41  15 2.41
  43  0.222  0.889  0.734-  10 2.41  16 2.41  17 2.41
  44  0.556  0.889  0.734-  11 2.41  18 2.41  17 2.41
  45  0.889  0.889  0.734-  12 2.41  16 2.41  18 2.41
  46  0.222  0.222  0.890-  10 2.41  11 2.41  13 2.41
  47  0.556  0.222  0.890-  12 2.41  14 2.41  11 2.41
  48  0.889  0.222  0.890-  10 2.41  15 2.41  12 2.41
  49  0.222  0.556  0.890-  16 2.41  14 2.41  13 2.41
  50  0.556  0.556  0.890-  17 2.41  15 2.41  14 2.41
  51  0.889  0.556  0.890-  18 2.41  13 2.41  15 2.41
  52  0.222  0.889  0.890-  10 2.41  16 2.41  17 2.41
  53  0.556  0.889  0.890-  11 2.41  18 2.41  17 2.41
  54  0.889  0.889  0.890-  12 2.41  16 2.41  18 2.41
 
  LATTYP: Found a hexagonal cell.
 ALAT       =     9.5767137364
 C/A-ratio  =     2.0883990637
  
  Lattice vectors:
  
 A1 = (  -4.7883568682,  -8.2936773805,   0.0000000000)
 A2 = (   9.5767137364,   0.0000000000,   0.0000000000)
 A3 = (   0.0000000000,   0.0000000000,  20.0000000000)


Analysis of symmetry for initial positions (statically):
=====================================================================
 Subroutine PRICEL returns:
 Original cell was already a primitive cell.
 

 Routine SETGRP: Setting up the symmetry group for a 
 hexagonal supercell.


 Subroutine GETGRP returns: Found  1 space group operations
 (whereof  1 operations were pure point group operations)
 out of a pool of 24 trial point group operations.


The static configuration has the point symmetry C_1 .


Analysis of symmetry for dynamics (positions and initial velocities):
=====================================================================
 Subroutine PRICEL returns:
 Original cell was already a primitive cell.
 

 Routine SETGRP: Setting up the symmetry group for a 
 hexagonal supercell.


 Subroutine GETGRP returns: Found  1 space group operations
 (whereof  1 operations were pure point group operations)
 out of a pool of 24 trial point group operations.


The dynamic configuration has the point symmetry C_1 .


 Subroutine INISYM returns: Found  1 space group operations
 (whereof  1 operations are pure point group operations),
 and found     1 'primitive' translations


----------------------------------------------------------------------------------------

                                     Primitive cell                                     

  volume of cell :    1588.5235

  direct lattice vectors                    reciprocal lattice vectors
     9.576713736  0.000000000  0.000000000     0.104419953 -0.060286888  0.000000000
     4.788356868  8.293677380  0.000000000     0.000000000  0.120573776  0.000000000
     0.000000000  0.000000000 20.000000000     0.000000000  0.000000000  0.050000000

  length of vectors
     9.576713736  9.576713736 20.000000000     0.120573776  0.120573776  0.050000000

  position of ions in fractional coordinates (direct lattice)
     0.000000000  0.000000000  0.512968345
     0.333333333  0.000000000  0.512968345
     0.666666667  0.000000000  0.512968345
     1.000000000  0.333333333  0.512968345
     0.333333333  0.333333333  0.512968345
     0.666666667  0.333333333  0.512968345
     1.000000000  0.666666667  0.512968345
     0.333333333  0.666666667  0.512968345
     0.666666667  0.666666667  0.512968345
     0.111111111  0.111111111  0.812069022
     0.444444444  0.111111111  0.812069022
     0.777777778  0.111111111  0.812069022
     0.111111111  0.444444444  0.812069022
     0.444444444  0.444444444  0.812069022
     0.777777778  0.444444444  0.812069022
     0.111111111  0.777777778  0.812069022
     0.444444444  0.777777778  0.812069022
     0.777777778  0.777777778  0.812069022
     0.111562077  0.111111111  0.435713897
     0.444444444  0.111111111  0.435262930
     0.777777778  0.111111111  0.435262930
     0.111111111  0.444444444  0.435262930
     0.444444444  0.444444444  0.435262930
     0.777777778  0.444444444  0.435262930
     0.111111111  0.777777778  0.435262930
     0.444444444  0.777777778  0.435262930
     0.777777778  0.777777778  0.435262930
     0.111111111  0.111111111  0.590474459
     0.444444444  0.111111111  0.590474459
     0.777777778  0.111111111  0.590474459
     0.111111111  0.444444444  0.590474459
     0.444444444  0.444444444  0.590474459
     0.777777778  0.444444444  0.590474459
     0.111111111  0.777777778  0.590474459
     0.444444444  0.777777778  0.590474459
     0.777777778  0.777777778  0.590474459
     0.222222222  0.222222222  0.734499218
     0.555555556  0.222222222  0.734499218
     0.888888889  0.222222222  0.734499218
     0.222222222  0.555555556  0.734499218
     0.555555556  0.555555556  0.734499218
     0.888888889  0.555555556  0.734499218
     0.222222222  0.888888889  0.734499218
     0.555555556  0.888888889  0.734499218
     0.888888889  0.888888889  0.734499218
     0.222222222  0.222222222  0.889726027
     0.555555556  0.222222222  0.889726027
     0.888888889  0.222222222  0.889726027
     0.222222222  0.555555556  0.889726027
     0.555555556  0.555555556  0.889726027
     0.888888889  0.555555556  0.889726027
     0.222222222  0.888888889  0.889726027
     0.555555556  0.888888889  0.889726027
     0.888888889  0.888888889  0.889726027

  ion indices of the primitive-cell ions
   primitive index   ion index
                 1           1
                 2           2
                 3           3
                 4           4
                 5           5
                 6           6
                 7           7
                 8           8
                 9           9
                10          10
                11          11
                12          12
                13          13
                14          14
                15          15
                16          16
                17          17
                18          18
                19          19
                20          20
                21          21
                22          22
                23          23
                24          24
                25          25
                26          26
                27          27
                28          28
                29          29
                30          30
                31          31
                32          32
                33          33
                34          34
                35          35
                36          36
                37          37
                38          38
                39          39
                40          40
                41          41
                42          42
                43          43
                44          44
                45          45
                46          46
                47          47
                48          48
                49          49
                50          50
                51          51
                52          52
                53          53
                54          54

----------------------------------------------------------------------------------------

 
 
 KPOINTS: Automatic mesh                          

Automatic generation of k-mesh.
 Grid dimensions read from file:
 generate k-points for:    5    5    1

 Generating k-lattice:

  Cartesian coordinates                     Fractional coordinates (reciprocal lattice)
     0.020883991 -0.012057378  0.000000000     0.200000000  0.000000000  0.000000000
     0.000000000  0.024114755  0.000000000     0.000000000  0.200000000  0.000000000
     0.000000000  0.000000000  0.050000000     0.000000000  0.000000000  1.000000000

  Length of vectors
     0.024114755  0.024114755  0.050000000

  Shift w.r.t. Gamma in fractional coordinates (k-lattice)
     0.000000000  0.000000000  0.000000000

 
 Subroutine IBZKPT returns following result:
 ===========================================
 
 Found     13 irreducible k-points:
 
 Following reciprocal coordinates:
            Coordinates               Weight
  0.000000  0.000000  0.000000      1.000000
  0.200000  0.000000  0.000000      2.000000
  0.200000  0.200000  0.000000      2.000000
  0.000000  0.200000  0.000000      2.000000
  0.400000  0.000000  0.000000      2.000000
  0.400000  0.400000  0.000000      2.000000
  0.000000  0.400000  0.000000      2.000000
  0.400000  0.200000  0.000000      2.000000
  0.200000  0.400000  0.000000      2.000000
 -0.200000  0.200000  0.000000      2.000000
 -0.400000  0.200000  0.000000      2.000000
  0.400000 -0.400000  0.000000      2.000000
 -0.200000  0.400000  0.000000      2.000000
 
 Following cartesian coordinates:
            Coordinates               Weight
  0.000000  0.000000  0.000000      1.000000
  0.020884 -0.012057  0.000000      2.000000
  0.020884  0.012057  0.000000      2.000000
  0.000000  0.024115  0.000000      2.000000
  0.041768 -0.024115  0.000000      2.000000
  0.041768  0.024115  0.000000      2.000000
  0.000000  0.048230  0.000000      2.000000
  0.041768  0.000000  0.000000      2.000000
  0.020884  0.036172  0.000000      2.000000
 -0.020884  0.036172  0.000000      2.000000
 -0.041768  0.048230  0.000000      2.000000
  0.041768 -0.072344  0.000000      2.000000
 -0.020884  0.060287  0.000000      2.000000
 


--------------------------------------------------------------------------------------------------------




 Dimension of arrays:
   k-points           NKPTS =     13   k-points in BZ     NKDIM =     13   number of bands    NBANDS=    286
   number of dos      NEDOS =    301   number of ions     NIONS =     54
   non local maximal  LDIM  =      6   non local SUM 2l+1 LMDIM =     18
   total plane-waves  NPLWV = 777600
   max r-space proj   IRMAX =   7448   max aug-charges    IRDMAX=  21604
   dimension x,y,z NGX =    72 NGY =   72 NGZ =  150
   dimension x,y,z NGXF=   144 NGYF=  144 NGZF=  300
   support grid    NGXF=   144 NGYF=  144 NGZF=  300
   ions per type =              18  36
   NGX,Y,Z   is equivalent  to a cutoff of  12.50, 12.50, 12.47 a.u.
   NGXF,Y,Z  is equivalent  to a cutoff of  25.00, 25.00, 24.94 a.u.

 SYSTEM =  MoS2_bilayer_3R phonon                  
 POSCAR =  generated by phonopy                    

 Startparameter for this run:
   NWRITE =      2    write-flag & timer
   PREC   = accura    normal or accurate (medium, high low for compatibility)
   ISTART =      0    job   : 0-new  1-cont  2-samecut
   ICHARG =      2    charge: 1-file 2-atom 10-const
   ISPIN  =      1    spin polarized calculation?
   LNONCOLLINEAR =      F non collinear calculations
   LSORBIT =      F    spin-orbit coupling
   INIWAV =      1    electr: 0-lowe 1-rand  2-diag
   LASPH  =      F    aspherical Exc in radial PAW
 Electronic Relaxation 1
   ENCUT  =  520.0 eV  38.22 Ry    6.18 a.u.  17.81 17.81 37.19*2*pi/ulx,y,z
   ENINI  =  520.0     initial cutoff
   ENAUG  =  446.0 eV  augmentation charge cutoff
   NELM   =    200;   NELMIN=  2; NELMDL= -5     # of ELM steps 
   EDIFF  = 0.1E-05   stopping-criterion for ELM
   LREAL  =      T    real-space projection
   NLSPLINE    = F    spline interpolate recip. space projectors
   LCOMPAT=      F    compatible to vasp.4.4
   GGA_COMPAT  = T    GGA compatible to vasp.4.4-vasp.4.6
   LMAXPAW     = -100 max onsite density
   LMAXMIX     =    2 max onsite mixed and CHGCAR
   VOSKOWN=      0    Vosko Wilk Nusair interpolation
   ROPT   =   -0.00025  -0.00025
 Ionic relaxation
   EDIFFG = 0.1E-04   stopping-criterion for IOM
   NSW    =      0    number of steps for IOM
   NBLOCK =      1;   KBLOCK =      1    inner block; outer block 
   IBRION =     -1    ionic relax: 0-MD 1-quasi-New 2-CG
   NFREE  =      0    steps in history (QN), initial steepest desc. (CG)
   ISIF   =      2    stress and relaxation
   IWAVPR =     10    prediction:  0-non 1-charg 2-wave 3-comb
   ISYM   =      2    0-nonsym 1-usesym 2-fastsym
   LCORR  =      T    Harris-Foulkes like correction to forces

   POTIM  = 0.5000    time-step for ionic-motion
   TEIN   =    0.0    initial temperature
   TEBEG  =    0.0;   TEEND  =   0.0 temperature during run
   SMASS  =  -3.00    Nose mass-parameter (am)
   estimated Nose-frequenzy (Omega)   =  0.10E-29 period in steps = 0.13E+47 mass=  -0.210E-26a.u.
   SCALEE = 1.0000    scale energy and forces
   NPACO  =    256;   APACO  = 10.0  distance and # of slots for P.C.
   PSTRESS=    0.0 pullay stress

  Mass of Ions in am
   POMASS =  95.94 32.07
  Ionic Valenz
   ZVAL   =  14.00  6.00
  Atomic Wigner-Seitz radii
   RWIGS  =  -1.00 -1.00
  virtual crystal weights 
   VCA    =   1.00  1.00
   NELECT =     468.0000    total number of electrons
   NUPDOWN=      -1.0000    fix difference up-down

 DOS related values:
   EMIN   =  10.00;   EMAX   =-10.00  energy-range for DOS
   EFERMI =   0.00;   METHOD = LEGACY      
   ISMEAR =     0;   SIGMA  =   0.05  broadening in eV -4-tet -1-fermi 0-gaus
   EFERMI_NEDOS =   21; number of points for ismear=-14 and -15

 Electronic relaxation 2 (details)
   IALGO  =     38    algorithm
   LDIAG  =      T    sub-space diagonalisation (order eigenvalues)
   LSUBROT=      F    optimize rotation matrix (better conditioning)
   LROBUST=      F    robust break criterion during scf (extrapolated energy error)
   ISEARCH=      0    line search for conjugate gradient (0, 1=use gradient)
   TURBO    =      0    0=normal 1=particle mesh
   IRESTART =      0    0=no restart 2=restart with 2 vectors
   NREBOOT  =      0    no. of reboots
   NMIN     =      0    reboot dimension
   EREF     =   0.00    reference energy to select bands
   IMIX   =      4    mixing-type and parameters
     AMIX     =   0.40;   BMIX     =  1.00
     AMIX_MAG =   1.60;   BMIX_MAG =  1.00
     AMIN     =   0.01
     WC   =   100.;   INIMIX=   1;  MIXPRE=   1;  MAXMIX= -45

 Intra band minimization:
   WEIMIN = 0.0000     energy-eigenvalue tresh-hold
   EBREAK =  0.87E-09  absolut break condition
   DEPER  =   0.30     relativ break condition  

   TIME   =   0.40     timestep for ELM

  volume/ion in A,a.u.               =      29.42       198.52
  Fermi-wavevector in a.u.,A,eV,Ry     =   1.089329  2.058533 16.145174  1.186637
  Thomas-Fermi vector in A             =   2.225529
 
 Write flags
   LWAVE        =      F    write WAVECAR
   LDOWNSAMPLE  =      F    k-point downsampling of WAVECAR
   LCHARG       =      F    write CHGCAR
   LVTOT        =      F    write LOCPOT, total local potential
   LVHAR        =      F    write LOCPOT, Hartree potential only
   WRT_POTENTIAL= false  ! write potential to hdf5 file
   LELF         =      F    write electronic localiz. function (ELF)
   LORBIT       =      0    0 simple, 1 ext, 2 COOP (PROOUT), +10 PAW based schemes


 Python interface
   PLUGINS active      =      F    recompile with -DPLUGINS to activate
 
 Dipole corrections
   LMONO      =      F    monopole corrections only (constant potential shift)
   LDIPOL     =      F    correct potential (dipole corrections)
   IDIPOL     =      0    1-x, 2-y, 3-z, 4-all directions 
   EPSILON    =  1.0000000 bulk dielectric constant
   LVACPOTAV  =      F  vacuum potentials using an averaging scheme for the charge density
   VACPOTFLAT =  0.1000000 required flatness to determine vacuum potential
 
Coulomb truncation method
  LTRUNCATE          =      F  Coulomb kernel truncation to be used

 
 Exchange correlation treatment:
   GGA     = PE    functional components
   XC_C    = 1    coefficients multiplying the functional components
   LIBXC   =     F    Libxc                    
   VOSKOWN =     0    Vosko Wilk Nusair interpolation
   LHFCALC =     F    Hartree Fock is set to
   LHFONE  =     F    Hartree Fock one center treatment
   AEXX    =    0.0000 exact exchange contribution

 Parameters of functionals:
   PE:
     No parameter
 
 Van der Waals corrections
   IVDW    =    12    specifies the selected vdW correction

 Linear response parameters
   LEPSILON=     F    determine dielectric tensor
   LRPA    =     F    only Hartree local field effects (RPA)
   LNABLA  =     F    use nabla operator in PAW spheres
   LVEL    =     F    velocity operator in full k-point grid
   CSHIFT  =0.1000    complex shift for real part using Kramers Kronig
   OMEGAMAX=  -1.0    maximum frequency
   DEG_THRESHOLD= 0.2000000E-02 threshold for treating states as degnerate
   RTIME   =   -0.100 relaxation time in fs
  (WPLASMAI=    0.000 imaginary part of plasma frequency in eV, 0.658/RTIME)
   DFIELD  = 0.0000000 0.0000000 0.0000000 field for delta impulse in time
 
  Optional k-point grid parameters
   LKPOINTS_OPT  =     F    use optional k-point grid
   KPOINTS_OPT_MODE=     1    mode for optional k-point grid
 
 Orbital magnetization related:
   ORBITALMAG=     F  switch on orbital magnetization
   LCHIMAG   =     F  perturbation theory with respect to B field
   DQ        =  0.001000  dq finite difference perturbation B field
   LLRAUG    =     F  two centre corrections for induced B field
   LBONE     =     F  B-component reconstruction in AE one-centre
   LVGVCALC  =     T  calculate vGv susceptibility
   LVGVAPPL  =     F  apply vGv susceptibility instead of pGv for G=0

 Random number generation:
   RANDOM_GENERATOR = DEFAULT
   PCG_SEED         = not used


--------------------------------------------------------------------------------------------------------


 Static calculation
 charge density and potential will be updated during run
 non-spin polarized calculation
 Variant of blocked Davidson
 Davidson routine will perform the subspace rotation
 perform sub-space diagonalisation
    after iterative eigenvector-optimisation
 modified Broyden-mixing scheme, WC =      100.0
 initial mixing is a Kerker type mixing with AMIX =  0.4000 and BMIX =      1.0000
 Hartree-type preconditioning will be used
 using additional bands           52
 real space projection scheme for non local part
 use partial core corrections
 calculate Harris-corrections to forces 
   (improved forces if not selfconsistent)
 use gradient corrections 
 use of overlap-Matrix (Vanderbilt PP)
 Gauss-broadening in eV      SIGMA  =   0.05


--------------------------------------------------------------------------------------------------------


  energy-cutoff  :      520.00
  volume of cell :     1588.52
      direct lattice vectors                 reciprocal lattice vectors
     9.576713736  0.000000000  0.000000000     0.104419953 -0.060286888  0.000000000
     4.788356868  8.293677380  0.000000000     0.000000000  0.120573776  0.000000000
     0.000000000  0.000000000 20.000000000     0.000000000  0.000000000  0.050000000

  length of vectors
     9.576713736  9.576713736 20.000000000     0.120573776  0.120573776  0.050000000


 
 k-points in units of 2pi/SCALE and weight: Automatic mesh                          
   0.00000000  0.00000000  0.00000000       0.040
   0.02088399 -0.01205738  0.00000000       0.080
   0.02088399  0.01205738  0.00000000       0.080
   0.00000000  0.02411476  0.00000000       0.080
   0.04176798 -0.02411476  0.00000000       0.080
   0.04176798  0.02411476  0.00000000       0.080
   0.00000000  0.04822951  0.00000000       0.080
   0.04176798  0.00000000  0.00000000       0.080
   0.02088399  0.03617213  0.00000000       0.080
  -0.02088399  0.03617213  0.00000000       0.080
  -0.04176798  0.04822951  0.00000000       0.080
   0.04176798 -0.07234427  0.00000000       0.080
  -0.02088399  0.06028689  0.00000000       0.080
 
 k-points in reciprocal lattice and weights: Automatic mesh                          
   0.00000000  0.00000000  0.00000000       0.040
   0.20000000  0.00000000  0.00000000       0.080
   0.20000000  0.20000000  0.00000000       0.080
   0.00000000  0.20000000  0.00000000       0.080
   0.40000000  0.00000000  0.00000000       0.080
   0.40000000  0.40000000  0.00000000       0.080
   0.00000000  0.40000000  0.00000000       0.080
   0.40000000  0.20000000  0.00000000       0.080
   0.20000000  0.40000000  0.00000000       0.080
  -0.20000000  0.20000000  0.00000000       0.080
  -0.40000000  0.20000000  0.00000000       0.080
   0.40000000 -0.40000000  0.00000000       0.080
  -0.20000000  0.40000000  0.00000000       0.080
 
 position of ions in fractional coordinates (direct lattice) 
   0.00000000  0.00000000  0.51296834
   0.33333333  0.00000000  0.51296834
   0.66666667  0.00000000  0.51296834
   0.00000000  0.33333333  0.51296834
   0.33333333  0.33333333  0.51296834
   0.66666667  0.33333333  0.51296834
   0.00000000  0.66666667  0.51296834
   0.33333333  0.66666667  0.51296834
   0.66666667  0.66666667  0.51296834
   0.11111111  0.11111111  0.81206902
   0.44444444  0.11111111  0.81206902
   0.77777778  0.11111111  0.81206902
   0.11111111  0.44444444  0.81206902
   0.44444444  0.44444444  0.81206902
   0.77777778  0.44444444  0.81206902
   0.11111111  0.77777778  0.81206902
   0.44444444  0.77777778  0.81206902
   0.77777778  0.77777778  0.81206902
   0.11156208  0.11111111  0.43571390
   0.44444444  0.11111111  0.43526293
   0.77777778  0.11111111  0.43526293
   0.11111111  0.44444444  0.43526293
   0.44444444  0.44444444  0.43526293
   0.77777778  0.44444444  0.43526293
   0.11111111  0.77777778  0.43526293
   0.44444444  0.77777778  0.43526293
   0.77777778  0.77777778  0.43526293
   0.11111111  0.11111111  0.59047446
   0.44444444  0.11111111  0.59047446
   0.77777778  0.11111111  0.59047446
   0.11111111  0.44444444  0.59047446
   0.44444444  0.44444444  0.59047446
   0.77777778  0.44444444  0.59047446
   0.11111111  0.77777778  0.59047446
   0.44444444  0.77777778  0.59047446
   0.77777778  0.77777778  0.59047446
   0.22222222  0.22222222  0.73449922
   0.55555556  0.22222222  0.73449922
   0.88888889  0.22222222  0.73449922
   0.22222222  0.55555556  0.73449922
   0.55555556  0.55555556  0.73449922
   0.88888889  0.55555556  0.73449922
   0.22222222  0.88888889  0.73449922
   0.55555556  0.88888889  0.73449922
   0.88888889  0.88888889  0.73449922
   0.22222222  0.22222222  0.88972603
   0.55555556  0.22222222  0.88972603
   0.88888889  0.22222222  0.88972603
   0.22222222  0.55555556  0.88972603
   0.55555556  0.55555556  0.88972603
   0.88888889  0.55555556  0.88972603
   0.22222222  0.88888889  0.88972603
   0.55555556  0.88888889  0.88972603
   0.88888889  0.88888889  0.88972603
 
 position of ions in cartesian coordinates  (Angst):
   0.00000000  0.00000000 10.25936690
   3.19223791  0.00000000 10.25936690
   6.38447582  0.00000000 10.25936690
   1.59611896  2.76455913 10.25936690
   4.78835687  2.76455913 10.25936690
   7.98059478  2.76455913 10.25936690
   3.19223791  5.52911825 10.25936690
   6.38447582  5.52911825 10.25936690
   9.57671374  5.52911825 10.25936690
   1.59611896  0.92151971 16.24138043
   4.78835687  0.92151971 16.24138043
   7.98059478  0.92151971 16.24138043
   3.19223791  3.68607884 16.24138043
   6.38447582  3.68607884 16.24138043
   9.57671374  3.68607884 16.24138043
   4.78835687  6.45063796 16.24138043
   7.98059478  6.45063796 16.24138043
  11.17283269  6.45063796 16.24138043
   1.60043773  0.92151971  8.71427793
   4.78835687  0.92151971  8.70525861
   7.98059478  0.92151971  8.70525861
   3.19223791  3.68607884  8.70525861
   6.38447582  3.68607884  8.70525861
   9.57671374  3.68607884  8.70525861
   4.78835687  6.45063796  8.70525861
   7.98059478  6.45063796  8.70525861
  11.17283269  6.45063796  8.70525861
   1.59611896  0.92151971 11.80948917
   4.78835687  0.92151971 11.80948917
   7.98059478  0.92151971 11.80948917
   3.19223791  3.68607884 11.80948917
   6.38447582  3.68607884 11.80948917
   9.57671374  3.68607884 11.80948917
   4.78835687  6.45063796 11.80948917
   7.98059478  6.45063796 11.80948917
  11.17283269  6.45063796 11.80948917
   3.19223791  1.84303942 14.68998436
   6.38447582  1.84303942 14.68998436
   9.57671374  1.84303942 14.68998436
   4.78835687  4.60759854 14.68998436
   7.98059478  4.60759854 14.68998436
  11.17283269  4.60759854 14.68998436
   6.38447582  7.37215767 14.68998436
   9.57671374  7.37215767 14.68998436
  12.76895165  7.37215767 14.68998436
   3.19223791  1.84303942 17.79452053
   6.38447582  1.84303942 17.79452053
   9.57671374  1.84303942 17.79452053
   4.78835687  4.60759854 17.79452053
   7.98059478  4.60759854 17.79452053
  11.17283269  4.60759854 17.79452053
   6.38447582  7.37215767 17.79452053
   9.57671374  7.37215767 17.79452053
  12.76895165  7.37215767 17.79452053
 


--------------------------------------------------------------------------------------------------------


 k-point     1 :   0.0000 0.0000 0.0000  plane waves:   42765
 k-point     2 :   0.2000 0.0000 0.0000  plane waves:   42749
 k-point     3 :   0.2000 0.2000 0.0000  plane waves:   42749
 k-point     4 :   0.0000 0.2000 0.0000  plane waves:   42749
 k-point     5 :   0.4000 0.0000 0.0000  plane waves:   42789
 k-point     6 :   0.4000 0.4000 0.0000  plane waves:   42789
 k-point     7 :   0.0000 0.4000 0.0000  plane waves:   42789
 k-point     8 :   0.4000 0.2000 0.0000  plane waves:   42756
 k-point     9 :   0.2000 0.4000 0.0000  plane waves:   42756
 k-point    10 :  -0.2000 0.2000 0.0000  plane waves:   42756
 k-point    11 :  -0.4000 0.2000 0.0000  plane waves:   42772
 k-point    12 :   0.4000-0.4000 0.0000  plane waves:   42772
 k-point    13 :  -0.2000 0.4000 0.0000  plane waves:   42772

 maximum and minimum number of plane-waves per node :     10740    10644

 maximum number of plane-waves:     42789
 maximum index in each direction: 
   IXMAX=   18   IYMAX=   18   IZMAX=   37
   IXMIN=  -18   IYMIN=  -18   IZMIN=  -37


 real space projection operators:
  total allocation   :      26197.44 KBytes
  max/ min on nodes  :       6582.34       6516.84


 parallel 3D FFT for wavefunctions:
    minimum data exchange during FFTs selected (reduces bandwidth)
 parallel 3D FFT for charge:
    minimum data exchange during FFTs selected (reduces bandwidth)


 total amount of memory used by VASP MPI-rank0   132777. kBytes
=======================================================================

   base                                    :      30000. kBytes
   nonlr-proj                              :      14941. kBytes
   fftplans                                :      11326. kBytes
   grid                                    :      17519. kBytes
   one-center                              :        217. kBytes
   wavefun                                 :      58774. kBytes
 
     INWAV:  cpu time      0.0000: real time      0.0003
 Broyden mixing: mesh for mixing (old mesh)
   NGX = 35   NGY = 35   NGZ = 75
  (NGX  =144   NGY  =144   NGZ  =300)
  gives a total of  91875 points

 initial charge density was supplied:
 charge density of overlapping atoms calculated
 number of electron     468.0000000 magnetization 
 keeping initial charge density in first step


--------------------------------------------------------------------------------------------------------


 Maximum index for non-local projection operator         1809
 Maximum index for augmentation-charges         1326 (set IRDMAX)


--------------------------------------------------------------------------------------------------------


 First call to EWALD:  gamma=   0.152
 Maximum number of real-space cells   4x   4x   2
 Maximum number of reciprocal cells   2x   2x   4

    FEWALD:  cpu time      0.2068: real time      0.2068


--------------------------------------- Ionic step        1  -------------------------------------------




--------------------------------------- Iteration      1(   1)  ---------------------------------------


    POTLOK:  cpu time      0.1293: real time      0.1311
    SETDIJ:  cpu time      0.0193: real time      0.0194
     EDDAV:  cpu time      7.6117: real time      7.6319
       DOS:  cpu time      0.0071: real time      0.0071
    --------------------------------------------
      LOOP:  cpu time      7.7674: real time      7.7895

 eigenvalue-minimisations  :  9130
 total energy-change (2. order) : 0.4173496E+04  (-0.2538145E+05)
 number of electron     468.0000000 magnetization 
 augmentation part      468.0000000 magnetization 

 Free energy of the ion-electron system (eV)
  ---------------------------------------------------
  alpha Z        PSCENC =       964.87981809
  Ewald energy   TEWEN  =     52460.47467311
  -Hartree energ DENC   =    -92752.11046313
  -exchange      EXHF   =         0.00000000
  -V(xc)+E(xc)   XCENC  =      1646.92704215
  PAW double counting   =     34790.20238322   -34342.63393317
  entropy T*S    EENTRO =        -0.01963515
  eigenvalues    EBANDS =     -2080.82735316
  atomic energy  EATOM  =     43486.60354843
  Solvation  Ediel_sol  =         0.00000000
  ---------------------------------------------------
  free energy    TOTEN  =      4173.49608038 eV

  energy without entropy =     4173.51571552  energy(sigma->0) =     4173.50589795


--------------------------------------------------------------------------------------------------------




--------------------------------------- Iteration      1(   2)  ---------------------------------------


     EDDAV:  cpu time      7.5195: real time      7.5210
       DOS:  cpu time      0.0076: real time      0.0076
    --------------------------------------------
      LOOP:  cpu time      7.5271: real time      7.5286

 eigenvalue-minimisations  :  8987
 total energy-change (2. order) :-0.4250254E+04  (-0.4126438E+04)
 number of electron     468.0000000 magnetization 
 augmentation part      468.0000000 magnetization 

 Free energy of the ion-electron system (eV)
  ---------------------------------------------------
  alpha Z        PSCENC =       964.87981809
  Ewald energy   TEWEN  =     52460.47467311
  -Hartree energ DENC   =    -92752.11046313
  -exchange      EXHF   =         0.00000000
  -V(xc)+E(xc)   XCENC  =      1646.92704215
  PAW double counting   =     34790.20238322   -34342.63393317
  entropy T*S    EENTRO =        -0.00000000
  eigenvalues    EBANDS =     -6331.10137492
  atomic energy  EATOM  =     43486.60354843
  Solvation  Ediel_sol  =         0.00000000
  ---------------------------------------------------
  free energy    TOTEN  =       -76.75830623 eV

  energy without entropy =      -76.75830623  energy(sigma->0) =      -76.75830623


--------------------------------------------------------------------------------------------------------




--------------------------------------- Iteration      1(   3)  ---------------------------------------


     EDDAV:  cpu time      7.3413: real time      7.3430
       DOS:  cpu time      0.0018: real time      0.0018
    --------------------------------------------
      LOOP:  cpu time      7.3432: real time      7.3448

 eigenvalue-minimisations  :  8866
 total energy-change (2. order) :-0.3274044E+03  (-0.3209608E+03)
 number of electron     468.0000000 magnetization 
 augmentation part      468.0000000 magnetization 

 Free energy of the ion-electron system (eV)
  ---------------------------------------------------
  alpha Z        PSCENC =       964.87981809
  Ewald energy   TEWEN  =     52460.47467311
  -Hartree energ DENC   =    -92752.11046313
  -exchange      EXHF   =         0.00000000
  -V(xc)+E(xc)   XCENC  =      1646.92704215
  PAW double counting   =     34790.20238322   -34342.63393317
  entropy T*S    EENTRO =        -0.00000000
  eigenvalues    EBANDS =     -6658.50578518
  atomic energy  EATOM  =     43486.60354843
  Solvation  Ediel_sol  =         0.00000000
  ---------------------------------------------------
  free energy    TOTEN  =      -404.16271650 eV

  energy without entropy =     -404.16271650  energy(sigma->0) =     -404.16271650


--------------------------------------------------------------------------------------------------------




--------------------------------------- Iteration      1(   4)  ---------------------------------------


     EDDAV:  cpu time      8.1241: real time      8.1265
       DOS:  cpu time      0.0020: real time      0.0020
    --------------------------------------------
      LOOP:  cpu time      8.1262: real time      8.1285

 eigenvalue-minimisations  :  9878
 total energy-change (2. order) :-0.1527305E+02  (-0.1516406E+02)
 number of electron     468.0000000 magnetization 
 augmentation part      468.0000000 magnetization 

 Free energy of the ion-electron system (eV)
  ---------------------------------------------------
  alpha Z        PSCENC =       964.87981809
  Ewald energy   TEWEN  =     52460.47467311
  -Hartree energ DENC   =    -92752.11046313
  -exchange      EXHF   =         0.00000000
  -V(xc)+E(xc)   XCENC  =      1646.92704215
  PAW double counting   =     34790.20238322   -34342.63393317
  entropy T*S    EENTRO =        -0.00000000
  eigenvalues    EBANDS =     -6673.77883460
  atomic energy  EATOM  =     43486.60354843
  Solvation  Ediel_sol  =         0.00000000
  ---------------------------------------------------
  free energy    TOTEN  =      -419.43576591 eV

  energy without entropy =     -419.43576591  energy(sigma->0) =     -419.43576591


--------------------------------------------------------------------------------------------------------




--------------------------------------- Iteration      1(   5)  ---------------------------------------


     EDDAV:  cpu time      8.1750: real time      8.1782
       DOS:  cpu time      0.0106: real time      0.0106
    CHARGE:  cpu time      0.6283: real time      0.6286
    MIXING:  cpu time      0.0309: real time      0.0309
    --------------------------------------------
      LOOP:  cpu time      8.8448: real time      8.8484

 eigenvalue-minimisations  : 10153
 total energy-change (2. order) :-0.4900647E+00  (-0.4882533E+00)
 number of electron     468.0000002 magnetization 
 augmentation part        6.4689199 magnetization 

 Broyden mixing:
  rms(total) = 0.10057E+02    rms(broyden)= 0.10057E+02
  rms(prec ) = 0.10188E+02
  weight for this iteration     100.00

 Free energy of the ion-electron system (eV)
  ---------------------------------------------------
  alpha Z        PSCENC =       964.87981809
  Ewald energy   TEWEN  =     52460.47467311
  -Hartree energ DENC   =    -92752.11046313
  -exchange      EXHF   =         0.00000000
  -V(xc)+E(xc)   XCENC  =      1646.92704215
  PAW double counting   =     34790.20238322   -34342.63393317
  entropy T*S    EENTRO =        -0.00000000
  eigenvalues    EBANDS =     -6674.26889926
  atomic energy  EATOM  =     43486.60354843
  Solvation  Ediel_sol  =         0.00000000
  ---------------------------------------------------
  free energy    TOTEN  =      -419.92583058 eV

  energy without entropy =     -419.92583058  energy(sigma->0) =     -419.92583058


--------------------------------------------------------------------------------------------------------




--------------------------------------- Iteration      1(   6)  ---------------------------------------


    POTLOK:  cpu time      0.1226: real time      0.1232
    SETDIJ:  cpu time      0.0044: real time      0.0044
     EDDAV:  cpu time      5.7967: real time      5.7973
       DOS:  cpu time      0.0020: real time      0.0020
    CHARGE:  cpu time      0.3752: real time      0.3761
    MIXING:  cpu time      0.0310: real time      0.0327
    --------------------------------------------
      LOOP:  cpu time      6.3320: real time      6.3357

 eigenvalue-minimisations  :  8404
 total energy-change (2. order) : 0.2036606E+02  (-0.1783008E+02)
 number of electron     467.9999991 magnetization 
 augmentation part       17.6292715 magnetization 

 Broyden mixing:
  rms(total) = 0.39824E+01    rms(broyden)= 0.39823E+01
  rms(prec ) = 0.41163E+01
  weight for this iteration     100.00

 eigenvalues of (default mixing * dielectric matrix)
  average eigenvalue GAMMA=   1.0927
  1.0927

 Free energy of the ion-electron system (eV)
  ---------------------------------------------------
  alpha Z        PSCENC =       964.87981809
  Ewald energy   TEWEN  =     52460.47467311
  -Hartree energ DENC   =    -92228.33745902
  -exchange      EXHF   =         0.00000000
  -V(xc)+E(xc)   XCENC  =      1632.63410378
  PAW double counting   =     41135.73891567   -40749.51495272
  entropy T*S    EENTRO =        -0.00000000
  eigenvalues    EBANDS =     -7102.03841573
  atomic energy  EATOM  =     43486.60354843
  Solvation  Ediel_sol  =         0.00000000
  ---------------------------------------------------
  free energy    TOTEN  =      -399.55976841 eV

  energy without entropy =     -399.55976841  energy(sigma->0) =     -399.55976841


--------------------------------------------------------------------------------------------------------




--------------------------------------- Iteration      1(   7)  ---------------------------------------


    POTLOK:  cpu time      0.1114: real time      0.1119
    SETDIJ:  cpu time      0.0036: real time      0.0036
     EDDAV:  cpu time      7.0302: real time      7.0311
       DOS:  cpu time      0.0021: real time      0.0021
    CHARGE:  cpu time      0.6076: real time      0.6077
    MIXING:  cpu time      0.0268: real time      0.0271
    --------------------------------------------
      LOOP:  cpu time      7.7817: real time      7.7835

 eigenvalue-minimisations  :  8239
 total energy-change (2. order) : 0.3714357E+01  (-0.7148548E+01)
 number of electron     467.9999997 magnetization 
 augmentation part       11.7377486 magnetization 

 Broyden mixing:
  rms(total) = 0.23857E+01    rms(broyden)= 0.23857E+01
  rms(prec ) = 0.24703E+01
  weight for this iteration     100.00

 eigenvalues of (default mixing * dielectric matrix)
  average eigenvalue GAMMA=   1.2077
  1.7674  0.6480

 Free energy of the ion-electron system (eV)
  ---------------------------------------------------
  alpha Z        PSCENC =       964.87981809
  Ewald energy   TEWEN  =     52460.47467311
  -Hartree energ DENC   =    -92588.55424151
  -exchange      EXHF   =         0.00000000
  -V(xc)+E(xc)   XCENC  =      1638.43760672
  PAW double counting   =     46761.67693701   -46361.09791325
  entropy T*S    EENTRO =        -0.00000000
  eigenvalues    EBANDS =     -6758.26583955
  atomic energy  EATOM  =     43486.60354843
  Solvation  Ediel_sol  =         0.00000000
  ---------------------------------------------------
  free energy    TOTEN  =      -395.84541096 eV

  energy without entropy =     -395.84541096  energy(sigma->0) =     -395.84541096


--------------------------------------------------------------------------------------------------------




--------------------------------------- Iteration      1(   8)  ---------------------------------------


    POTLOK:  cpu time      0.1098: real time      0.1109
    SETDIJ:  cpu time      0.0036: real time      0.0036
     EDDAV:  cpu time      5.9004: real time      5.9011
       DOS:  cpu time      0.0021: real time      0.0021
    CHARGE:  cpu time      0.3598: real time      0.3598
    MIXING:  cpu time      0.0251: real time      0.0251
    --------------------------------------------
      LOOP:  cpu time      6.4008: real time      6.4026

 eigenvalue-minimisations  :  8745
 total energy-change (2. order) : 0.3210429E+01  (-0.1138651E+01)
 number of electron     467.9999994 magnetization 
 augmentation part       13.7886329 magnetization 

 Broyden mixing:
  rms(total) = 0.82137E+00    rms(broyden)= 0.82137E+00
  rms(prec ) = 0.82847E+00
  weight for this iteration     100.00

 eigenvalues of (default mixing * dielectric matrix)
  average eigenvalue GAMMA=   1.2487
  2.2804  0.8578  0.6077

 Free energy of the ion-electron system (eV)
  ---------------------------------------------------
  alpha Z        PSCENC =       964.87981809
  Ewald energy   TEWEN  =     52460.47467311
  -Hartree energ DENC   =    -92443.79388668
  -exchange      EXHF   =         0.00000000
  -V(xc)+E(xc)   XCENC  =      1634.95436112
  PAW double counting   =     51136.01204671   -50754.95108549
  entropy T*S    EENTRO =        -0.00000000
  eigenvalues    EBANDS =     -6876.81445734
  atomic energy  EATOM  =     43486.60354843
  Solvation  Ediel_sol  =         0.00000000
  ---------------------------------------------------
  free energy    TOTEN  =      -392.63498206 eV

  energy without entropy =     -392.63498206  energy(sigma->0) =     -392.63498206


--------------------------------------------------------------------------------------------------------




--------------------------------------- Iteration      1(   9)  ---------------------------------------


    POTLOK:  cpu time      0.1104: real time      0.1113
    SETDIJ:  cpu time      0.0034: real time      0.0034
     EDDAV:  cpu time      7.9644: real time      7.9659
       DOS:  cpu time      0.0021: real time      0.0021
    CHARGE:  cpu time      0.6061: real time      0.6062
    MIXING:  cpu time      0.0252: real time      0.0255
    --------------------------------------------
      LOOP:  cpu time      8.7115: real time      8.7144

 eigenvalue-minimisations  :  9823
 total energy-change (2. order) :-0.1262423E+00  (-0.2160883E+00)
 number of electron     467.9999994 magnetization 
 augmentation part       14.6553264 magnetization 

 Broyden mixing:
  rms(total) = 0.40020E+00    rms(broyden)= 0.40019E+00
  rms(prec ) = 0.42442E+00
  weight for this iteration     100.00

 eigenvalues of (default mixing * dielectric matrix)
  average eigenvalue GAMMA=   1.1991
  2.1583  1.2678  0.6851  0.6851

 Free energy of the ion-electron system (eV)
  ---------------------------------------------------
  alpha Z        PSCENC =       964.87981809
  Ewald energy   TEWEN  =     52460.47467311
  -Hartree energ DENC   =    -92433.75755204
  -exchange      EXHF   =         0.00000000
  -V(xc)+E(xc)   XCENC  =      1634.66011501
  PAW double counting   =     53125.27820321   -52749.42772429
  entropy T*S    EENTRO =        -0.00000000
  eigenvalues    EBANDS =     -6881.47230586
  atomic energy  EATOM  =     43486.60354843
  Solvation  Ediel_sol  =         0.00000000
  ---------------------------------------------------
  free energy    TOTEN  =      -392.76122434 eV

  energy without entropy =     -392.76122434  energy(sigma->0) =     -392.76122434


--------------------------------------------------------------------------------------------------------




--------------------------------------- Iteration      1(  10)  ---------------------------------------


    POTLOK:  cpu time      0.1097: real time      0.1104
    SETDIJ:  cpu time      0.0040: real time      0.0040
     EDDAV:  cpu time      5.9201: real time      5.9207
       DOS:  cpu time      0.0022: real time      0.0022
    CHARGE:  cpu time      0.3607: real time      0.3607
    MIXING:  cpu time      0.0247: real time      0.0247
    --------------------------------------------
      LOOP:  cpu time      6.4214: real time      6.4227

 eigenvalue-minimisations  :  8800
 total energy-change (2. order) : 0.1190994E+00  (-0.5114529E-01)
 number of electron     467.9999994 magnetization 
 augmentation part       14.0822287 magnetization 

 Broyden mixing:
  rms(total) = 0.11701E+00    rms(broyden)= 0.11701E+00
  rms(prec ) = 0.12824E+00
  weight for this iteration     100.00

 eigenvalues of (default mixing * dielectric matrix)
  average eigenvalue GAMMA=   1.2994
  2.3777  1.8334  0.9614  0.6624  0.6624

 Free energy of the ion-electron system (eV)
  ---------------------------------------------------
  alpha Z        PSCENC =       964.87981809
  Ewald energy   TEWEN  =     52460.47467311
  -Hartree energ DENC   =    -92473.83790643
  -exchange      EXHF   =         0.00000000
  -V(xc)+E(xc)   XCENC  =      1635.63072912
  PAW double counting   =     52966.97795959   -52588.36375591
  entropy T*S    EENTRO =        -0.00000000
  eigenvalues    EBANDS =     -6845.00719093
  atomic energy  EATOM  =     43486.60354843
  Solvation  Ediel_sol  =         0.00000000
  ---------------------------------------------------
  free energy    TOTEN  =      -392.64212493 eV

  energy without entropy =     -392.64212493  energy(sigma->0) =     -392.64212493


--------------------------------------------------------------------------------------------------------




--------------------------------------- Iteration      1(  11)  ---------------------------------------


    POTLOK:  cpu time      0.1113: real time      0.1128
    SETDIJ:  cpu time      0.0036: real time      0.0036
     EDDAV:  cpu time      8.0941: real time      8.0950
       DOS:  cpu time      0.0021: real time      0.0021
    CHARGE:  cpu time      0.6066: real time      0.6067
    MIXING:  cpu time      0.0241: real time      0.0241
    --------------------------------------------
      LOOP:  cpu time      8.8419: real time      8.8443

 eigenvalue-minimisations  :  9658
 total energy-change (2. order) : 0.1019149E-01  (-0.5444000E-02)
 number of electron     467.9999994 magnetization 
 augmentation part       14.0604762 magnetization 

 Broyden mixing:
  rms(total) = 0.69113E-01    rms(broyden)= 0.69112E-01
  rms(prec ) = 0.85454E-01
  weight for this iteration     100.00

 eigenvalues of (default mixing * dielectric matrix)
  average eigenvalue GAMMA=   1.2757
  2.6718  2.0439  1.0922  0.6468  0.6468  0.5526

 Free energy of the ion-electron system (eV)
  ---------------------------------------------------
  alpha Z        PSCENC =       964.87981809
  Ewald energy   TEWEN  =     52460.47467311
  -Hartree energ DENC   =    -92488.39894008
  -exchange      EXHF   =         0.00000000
  -V(xc)+E(xc)   XCENC  =      1635.90751883
  PAW double counting   =     53124.96025883   -52746.29848815
  entropy T*S    EENTRO =        -0.00000000
  eigenvalues    EBANDS =     -6830.76032249
  atomic energy  EATOM  =     43486.60354843
  Solvation  Ediel_sol  =         0.00000000
  ---------------------------------------------------
  free energy    TOTEN  =      -392.63193344 eV

  energy without entropy =     -392.63193344  energy(sigma->0) =     -392.63193344


--------------------------------------------------------------------------------------------------------




--------------------------------------- Iteration      1(  12)  ---------------------------------------


    POTLOK:  cpu time      0.1097: real time      0.1104
    SETDIJ:  cpu time      0.0035: real time      0.0035
     EDDAV:  cpu time      6.1473: real time      6.1479
       DOS:  cpu time      0.0020: real time      0.0020
    CHARGE:  cpu time      0.3603: real time      0.3604
    MIXING:  cpu time      0.0238: real time      0.0238
    --------------------------------------------
      LOOP:  cpu time      6.6467: real time      6.6480

 eigenvalue-minimisations  :  9086
 total energy-change (2. order) : 0.1192585E-01  (-0.1769648E-02)
 number of electron     467.9999994 magnetization 
 augmentation part       14.0799692 magnetization 

 Broyden mixing:
  rms(total) = 0.33373E-01    rms(broyden)= 0.33372E-01
  rms(prec ) = 0.50853E-01
  weight for this iteration     100.00

 eigenvalues of (default mixing * dielectric matrix)
  average eigenvalue GAMMA=   1.2007
  2.2812  2.2812  1.2218  0.7851  0.6977  0.6977  0.4399

 Free energy of the ion-electron system (eV)
  ---------------------------------------------------
  alpha Z        PSCENC =       964.87981809
  Ewald energy   TEWEN  =     52460.47467311
  -Hartree energ DENC   =    -92497.79948830
  -exchange      EXHF   =         0.00000000
  -V(xc)+E(xc)   XCENC  =      1636.02052553
  PAW double counting   =     53146.64402381   -52767.99397422
  entropy T*S    EENTRO =        -0.00000000
  eigenvalues    EBANDS =     -6821.44913403
  atomic energy  EATOM  =     43486.60354843
  Solvation  Ediel_sol  =         0.00000000
  ---------------------------------------------------
  free energy    TOTEN  =      -392.62000759 eV

  energy without entropy =     -392.62000759  energy(sigma->0) =     -392.62000759


--------------------------------------------------------------------------------------------------------




--------------------------------------- Iteration      1(  13)  ---------------------------------------


    POTLOK:  cpu time      0.1101: real time      0.1106
    SETDIJ:  cpu time      0.0036: real time      0.0036
     EDDAV:  cpu time      7.7098: real time      7.7120
       DOS:  cpu time      0.0021: real time      0.0021
    CHARGE:  cpu time      0.6063: real time      0.6064
    MIXING:  cpu time      0.0248: real time      0.0248
    --------------------------------------------
      LOOP:  cpu time      8.4567: real time      8.4596

 eigenvalue-minimisations  :  9152
 total energy-change (2. order) : 0.2913295E-02  (-0.3129319E-03)
 number of electron     467.9999994 magnetization 
 augmentation part       14.0894806 magnetization 

 Broyden mixing:
  rms(total) = 0.19738E-01    rms(broyden)= 0.19737E-01
  rms(prec ) = 0.39435E-01
  weight for this iteration     100.00

 eigenvalues of (default mixing * dielectric matrix)
  average eigenvalue GAMMA=   1.1692
  2.3312  2.3312  1.2750  0.8437  0.8437  0.6463  0.6463  0.4364

 Free energy of the ion-electron system (eV)
  ---------------------------------------------------
  alpha Z        PSCENC =       964.87981809
  Ewald energy   TEWEN  =     52460.47467311
  -Hartree energ DENC   =    -92501.88908657
  -exchange      EXHF   =         0.00000000
  -V(xc)+E(xc)   XCENC  =      1636.00451435
  PAW double counting   =     53077.01222223   -52698.34586087
  entropy T*S    EENTRO =        -0.00000000
  eigenvalues    EBANDS =     -6817.35692306
  atomic energy  EATOM  =     43486.60354843
  Solvation  Ediel_sol  =         0.00000000
  ---------------------------------------------------
  free energy    TOTEN  =      -392.61709429 eV

  energy without entropy =     -392.61709429  energy(sigma->0) =     -392.61709429


--------------------------------------------------------------------------------------------------------




--------------------------------------- Iteration      1(  14)  ---------------------------------------


    POTLOK:  cpu time      0.1100: real time      0.1104
    SETDIJ:  cpu time      0.0036: real time      0.0036
     EDDAV:  cpu time      5.8808: real time      5.8814
       DOS:  cpu time      0.0021: real time      0.0021
    CHARGE:  cpu time      0.3625: real time      0.3625
    MIXING:  cpu time      0.0241: real time      0.0241
    --------------------------------------------
      LOOP:  cpu time      6.3831: real time      6.3842

 eigenvalue-minimisations  :  8778
 total energy-change (2. order) : 0.5350120E-02  (-0.4141865E-03)
 number of electron     467.9999994 magnetization 
 augmentation part       14.1108495 magnetization 

 Broyden mixing:
  rms(total) = 0.15572E-01    rms(broyden)= 0.15572E-01
  rms(prec ) = 0.33672E-01
  weight for this iteration     100.00

 eigenvalues of (default mixing * dielectric matrix)
  average eigenvalue GAMMA=   1.1912
  2.4492  2.4492  1.4564  1.0589  1.0589  0.6659  0.6659  0.4696  0.4466

 Free energy of the ion-electron system (eV)
  ---------------------------------------------------
  alpha Z        PSCENC =       964.87981809
  Ewald energy   TEWEN  =     52460.47467311
  -Hartree energ DENC   =    -92511.88883232
  -exchange      EXHF   =         0.00000000
  -V(xc)+E(xc)   XCENC  =      1636.04819940
  PAW double counting   =     53044.88423789   -52666.25696814
  entropy T*S    EENTRO =        -0.00000000
  eigenvalues    EBANDS =     -6807.35642062
  atomic energy  EATOM  =     43486.60354843
  Solvation  Ediel_sol  =         0.00000000
  ---------------------------------------------------
  free energy    TOTEN  =      -392.61174417 eV

  energy without entropy =     -392.61174417  energy(sigma->0) =     -392.61174417


--------------------------------------------------------------------------------------------------------




--------------------------------------- Iteration      1(  15)  ---------------------------------------


    POTLOK:  cpu time      0.1099: real time      0.1105
    SETDIJ:  cpu time      0.0035: real time      0.0035
     EDDAV:  cpu time      7.3029: real time      7.3037
       DOS:  cpu time      0.0021: real time      0.0021
    CHARGE:  cpu time      0.6069: real time      0.6069
    MIXING:  cpu time      0.0239: real time      0.0239
    --------------------------------------------
      LOOP:  cpu time      8.0493: real time      8.0507

 eigenvalue-minimisations  :  8679
 total energy-change (2. order) : 0.6525902E-02  (-0.7367715E-03)
 number of electron     467.9999994 magnetization 
 augmentation part       14.1347867 magnetization 

 Broyden mixing:
  rms(total) = 0.24104E-01    rms(broyden)= 0.24104E-01
  rms(prec ) = 0.32118E-01
  weight for this iteration     100.00

 eigenvalues of (default mixing * dielectric matrix)
  average eigenvalue GAMMA=   1.2601
  3.1389  2.4226  2.0468  1.2598  0.7714  0.7714  0.6608  0.6608  0.4549  0.4131

 Free energy of the ion-electron system (eV)
  ---------------------------------------------------
  alpha Z        PSCENC =       964.87981809
  Ewald energy   TEWEN  =     52460.47467311
  -Hartree energ DENC   =    -92529.81638429
  -exchange      EXHF   =         0.00000000
  -V(xc)+E(xc)   XCENC  =      1636.13490745
  PAW double counting   =     53015.59806693   -52637.02555937
  entropy T*S    EENTRO =        -0.00000000
  eigenvalues    EBANDS =     -6789.45428862
  atomic energy  EATOM  =     43486.60354843
  Solvation  Ediel_sol  =         0.00000000
  ---------------------------------------------------
  free energy    TOTEN  =      -392.60521827 eV

  energy without entropy =     -392.60521827  energy(sigma->0) =     -392.60521827


--------------------------------------------------------------------------------------------------------




--------------------------------------- Iteration      1(  16)  ---------------------------------------


    POTLOK:  cpu time      0.1098: real time      0.1106
    SETDIJ:  cpu time      0.0035: real time      0.0035
     EDDAV:  cpu time      6.1531: real time      6.1537
       DOS:  cpu time      0.0021: real time      0.0021
    CHARGE:  cpu time      0.3596: real time      0.3596
    MIXING:  cpu time      0.0241: real time      0.0241
    --------------------------------------------
      LOOP:  cpu time      6.6523: real time      6.6537

 eigenvalue-minimisations  :  9141
 total energy-change (2. order) : 0.1677723E-02  (-0.3408797E-03)
 number of electron     467.9999994 magnetization 
 augmentation part       14.1388252 magnetization 

 Broyden mixing:
  rms(total) = 0.26795E-01    rms(broyden)= 0.26795E-01
  rms(prec ) = 0.30221E-01
  weight for this iteration     100.00

 eigenvalues of (default mixing * dielectric matrix)
  average eigenvalue GAMMA=   1.3613
  3.9223  2.4477  2.2470  1.3372  1.0131  1.0131  0.7924  0.6706  0.6706  0.4461
  0.4142

 Free energy of the ion-electron system (eV)
  ---------------------------------------------------
  alpha Z        PSCENC =       964.87981809
  Ewald energy   TEWEN  =     52460.47467311
  -Hartree energ DENC   =    -92545.42693329
  -exchange      EXHF   =         0.00000000
  -V(xc)+E(xc)   XCENC  =      1636.20169860
  PAW double counting   =     53002.30254379   -52623.74497739
  entropy T*S    EENTRO =        -0.00000000
  eigenvalues    EBANDS =     -6773.89391189
  atomic energy  EATOM  =     43486.60354843
  Solvation  Ediel_sol  =         0.00000000
  ---------------------------------------------------
  free energy    TOTEN  =      -392.60354055 eV

  energy without entropy =     -392.60354055  energy(sigma->0) =     -392.60354055


--------------------------------------------------------------------------------------------------------




--------------------------------------- Iteration      1(  17)  ---------------------------------------


    POTLOK:  cpu time      0.1096: real time      0.1101
    SETDIJ:  cpu time      0.0036: real time      0.0036
     EDDAV:  cpu time      7.3880: real time      7.3896
       DOS:  cpu time      0.0020: real time      0.0020
    CHARGE:  cpu time      0.6072: real time      0.6073
    MIXING:  cpu time      0.0242: real time      0.0242
    --------------------------------------------
      LOOP:  cpu time      8.1346: real time      8.1367

 eigenvalue-minimisations  :  8844
 total energy-change (2. order) :-0.1867671E-02  (-0.1816725E-03)
 number of electron     467.9999994 magnetization 
 augmentation part       14.1208077 magnetization 

 Broyden mixing:
  rms(total) = 0.11870E-01    rms(broyden)= 0.11870E-01
  rms(prec ) = 0.13999E-01
  weight for this iteration     100.00

 eigenvalues of (default mixing * dielectric matrix)
  average eigenvalue GAMMA=   1.5017
  5.4406  2.6288  2.2398  1.5933  1.4024  0.9752  0.7694  0.7694  0.6700  0.6700
  0.4482  0.4128

 Free energy of the ion-electron system (eV)
  ---------------------------------------------------
  alpha Z        PSCENC =       964.87981809
  Ewald energy   TEWEN  =     52460.47467311
  -Hartree energ DENC   =    -92558.65039351
  -exchange      EXHF   =         0.00000000
  -V(xc)+E(xc)   XCENC  =      1636.25870194
  PAW double counting   =     53020.92047102   -52642.34118657
  entropy T*S    EENTRO =        -0.00000000
  eigenvalues    EBANDS =     -6760.75104073
  atomic energy  EATOM  =     43486.60354843
  Solvation  Ediel_sol  =         0.00000000
  ---------------------------------------------------
  free energy    TOTEN  =      -392.60540822 eV

  energy without entropy =     -392.60540822  energy(sigma->0) =     -392.60540822


--------------------------------------------------------------------------------------------------------




--------------------------------------- Iteration      1(  18)  ---------------------------------------


    POTLOK:  cpu time      0.1101: real time      0.1107
    SETDIJ:  cpu time      0.0036: real time      0.0036
     EDDAV:  cpu time      6.4675: real time      6.4676
       DOS:  cpu time      0.0020: real time      0.0020
    CHARGE:  cpu time      0.3594: real time      0.3594
    MIXING:  cpu time      0.0241: real time      0.0240
    --------------------------------------------
      LOOP:  cpu time      6.9667: real time      6.9674

 eigenvalue-minimisations  :  9735
 total energy-change (2. order) :-0.2832388E-02  (-0.5847215E-04)
 number of electron     467.9999994 magnetization 
 augmentation part       14.1119177 magnetization 

 Broyden mixing:
  rms(total) = 0.69950E-02    rms(broyden)= 0.69949E-02
  rms(prec ) = 0.82212E-02
  weight for this iteration     100.00

 eigenvalues of (default mixing * dielectric matrix)
  average eigenvalue GAMMA=   1.4761
  6.0671  2.6521  2.1719  1.5152  1.5152  1.0079  0.7652  0.7652  0.6622  0.6622
  0.5446  0.4483  0.4123

 Free energy of the ion-electron system (eV)
  ---------------------------------------------------
  alpha Z        PSCENC =       964.87981809
  Ewald energy   TEWEN  =     52460.47467311
  -Hartree energ DENC   =    -92565.54552389
  -exchange      EXHF   =         0.00000000
  -V(xc)+E(xc)   XCENC  =      1636.28034626
  PAW double counting   =     53031.39070512   -52652.81085980
  entropy T*S    EENTRO =        -0.00000000
  eigenvalues    EBANDS =     -6753.88094792
  atomic energy  EATOM  =     43486.60354843
  Solvation  Ediel_sol  =         0.00000000
  ---------------------------------------------------
  free energy    TOTEN  =      -392.60824061 eV

  energy without entropy =     -392.60824061  energy(sigma->0) =     -392.60824061


--------------------------------------------------------------------------------------------------------




--------------------------------------- Iteration      1(  19)  ---------------------------------------


    POTLOK:  cpu time      0.1098: real time      0.1104
    SETDIJ:  cpu time      0.0040: real time      0.0040
     EDDAV:  cpu time      7.8339: real time      7.8341
       DOS:  cpu time      0.0019: real time      0.0019
    CHARGE:  cpu time      0.6080: real time      0.6080
    MIXING:  cpu time      0.0239: real time      0.0239
    --------------------------------------------
      LOOP:  cpu time      8.5816: real time      8.5824

 eigenvalue-minimisations  :  9449
 total energy-change (2. order) :-0.1202147E-02  (-0.8052944E-05)
 number of electron     467.9999994 magnetization 
 augmentation part       14.1135662 magnetization 

 Broyden mixing:
  rms(total) = 0.55820E-02    rms(broyden)= 0.55820E-02
  rms(prec ) = 0.66025E-02
  weight for this iteration     100.00

 eigenvalues of (default mixing * dielectric matrix)
  average eigenvalue GAMMA=   1.4813
  6.4914  2.6736  2.1402  1.5218  1.5218  1.0733  0.9141  0.9141  0.6673  0.6673
  0.6459  0.6459  0.4479  0.4128

 Free energy of the ion-electron system (eV)
  ---------------------------------------------------
  alpha Z        PSCENC =       964.87981809
  Ewald energy   TEWEN  =     52460.47467311
  -Hartree energ DENC   =    -92567.19559559
  -exchange      EXHF   =         0.00000000
  -V(xc)+E(xc)   XCENC  =      1636.27976704
  PAW double counting   =     53026.56320572   -52647.99154137
  entropy T*S    EENTRO =        -0.00000000
  eigenvalues    EBANDS =     -6752.22331817
  atomic energy  EATOM  =     43486.60354843
  Solvation  Ediel_sol  =         0.00000000
  ---------------------------------------------------
  free energy    TOTEN  =      -392.60944276 eV

  energy without entropy =     -392.60944276  energy(sigma->0) =     -392.60944276


--------------------------------------------------------------------------------------------------------




--------------------------------------- Iteration      1(  20)  ---------------------------------------


    POTLOK:  cpu time      0.1094: real time      0.1100
    SETDIJ:  cpu time      0.0035: real time      0.0035
     EDDAV:  cpu time      5.9582: real time      5.9583
       DOS:  cpu time      0.0022: real time      0.0022
    CHARGE:  cpu time      0.3597: real time      0.3597
    MIXING:  cpu time      0.0245: real time      0.0245
    --------------------------------------------
      LOOP:  cpu time      6.4575: real time      6.4582

 eigenvalue-minimisations  :  8855
 total energy-change (2. order) :-0.2050144E-02  (-0.9574542E-05)
 number of electron     467.9999994 magnetization 
 augmentation part       14.1144004 magnetization 

 Broyden mixing:
  rms(total) = 0.35349E-02    rms(broyden)= 0.35349E-02
  rms(prec ) = 0.43673E-02
  weight for this iteration     100.00

 eigenvalues of (default mixing * dielectric matrix)
  average eigenvalue GAMMA=   1.8685
 10.8298  3.1151  2.3629  2.3629  1.8578  1.4224  0.9165  0.9165  0.7988  0.7988
  0.6686  0.6686  0.4128  0.4478  0.4485

 Free energy of the ion-electron system (eV)
  ---------------------------------------------------
  alpha Z        PSCENC =       964.87981809
  Ewald energy   TEWEN  =     52460.47467311
  -Hartree energ DENC   =    -92569.04907633
  -exchange      EXHF   =         0.00000000
  -V(xc)+E(xc)   XCENC  =      1636.27769991
  PAW double counting   =     53023.11888241   -52644.55508341
  entropy T*S    EENTRO =        -0.00000000
  eigenvalues    EBANDS =     -6750.36195510
  atomic energy  EATOM  =     43486.60354843
  Solvation  Ediel_sol  =         0.00000000
  ---------------------------------------------------
  free energy    TOTEN  =      -392.61149290 eV

  energy without entropy =     -392.61149290  energy(sigma->0) =     -392.61149290


--------------------------------------------------------------------------------------------------------




--------------------------------------- Iteration      1(  21)  ---------------------------------------


    POTLOK:  cpu time      0.1093: real time      0.1099
    SETDIJ:  cpu time      0.0036: real time      0.0036
     EDDAV:  cpu time      7.4038: real time      7.4051
       DOS:  cpu time      0.0018: real time      0.0018
    CHARGE:  cpu time      0.6060: real time      0.6060
    MIXING:  cpu time      0.0245: real time      0.0244
    --------------------------------------------
      LOOP:  cpu time      8.1490: real time      8.1509

 eigenvalue-minimisations  :  8745
 total energy-change (2. order) :-0.2178506E-02  (-0.1121923E-04)
 number of electron     467.9999994 magnetization 
 augmentation part       14.1114484 magnetization 

 Broyden mixing:
  rms(total) = 0.22325E-02    rms(broyden)= 0.22325E-02
  rms(prec ) = 0.23962E-02
  weight for this iteration     100.00

 eigenvalues of (default mixing * dielectric matrix)
  average eigenvalue GAMMA=   1.8628
 11.9804  3.0845  2.6904  2.1642  1.5859  1.5859  0.9460  0.8761  0.8761  0.8305
  0.6689  0.6689  0.5553  0.4482  0.4125  0.4305

 Free energy of the ion-electron system (eV)
  ---------------------------------------------------
  alpha Z        PSCENC =       964.87981809
  Ewald energy   TEWEN  =     52460.47467311
  -Hartree energ DENC   =    -92571.54361130
  -exchange      EXHF   =         0.00000000
  -V(xc)+E(xc)   XCENC  =      1636.28066798
  PAW double counting   =     53027.00745915   -52648.44349087
  entropy T*S    EENTRO =        -0.00000000
  eigenvalues    EBANDS =     -6747.87273598
  atomic energy  EATOM  =     43486.60354843
  Solvation  Ediel_sol  =         0.00000000
  ---------------------------------------------------
  free energy    TOTEN  =      -392.61367141 eV

  energy without entropy =     -392.61367141  energy(sigma->0) =     -392.61367141


--------------------------------------------------------------------------------------------------------




--------------------------------------- Iteration      1(  22)  ---------------------------------------


    POTLOK:  cpu time      0.1101: real time      0.1107
    SETDIJ:  cpu time      0.0035: real time      0.0036
     EDDAV:  cpu time      5.9028: real time      5.9029
       DOS:  cpu time      0.0020: real time      0.0020
    CHARGE:  cpu time      0.3605: real time      0.3605
    MIXING:  cpu time      0.0246: real time      0.0246
    --------------------------------------------
      LOOP:  cpu time      6.4035: real time      6.4041

 eigenvalue-minimisations  :  8558
 total energy-change (2. order) :-0.1182721E-03  (-0.1669738E-05)
 number of electron     467.9999994 magnetization 
 augmentation part       14.1104243 magnetization 

 Broyden mixing:
  rms(total) = 0.24338E-02    rms(broyden)= 0.24338E-02
  rms(prec ) = 0.25417E-02
  weight for this iteration     100.00

 eigenvalues of (default mixing * dielectric matrix)
  average eigenvalue GAMMA=   1.7665
 11.8658  3.1256  2.6501  2.1985  1.5228  1.5228  1.0429  0.8473  0.8473  0.7616
  0.6688  0.6688  0.5004  0.5004  0.4130  0.4473  0.4473

 Free energy of the ion-electron system (eV)
  ---------------------------------------------------
  alpha Z        PSCENC =       964.87981809
  Ewald energy   TEWEN  =     52460.47467311
  -Hartree energ DENC   =    -92571.63612672
  -exchange      EXHF   =         0.00000000
  -V(xc)+E(xc)   XCENC  =      1636.28155027
  PAW double counting   =     53028.50575725   -52649.93921727
  entropy T*S    EENTRO =        -0.00000000
  eigenvalues    EBANDS =     -6747.78379283
  atomic energy  EATOM  =     43486.60354843
  Solvation  Ediel_sol  =         0.00000000
  ---------------------------------------------------
  free energy    TOTEN  =      -392.61378968 eV

  energy without entropy =     -392.61378968  energy(sigma->0) =     -392.61378968


--------------------------------------------------------------------------------------------------------




--------------------------------------- Iteration      1(  23)  ---------------------------------------


    POTLOK:  cpu time      0.1095: real time      0.1102
    SETDIJ:  cpu time      0.0036: real time      0.0036
     EDDAV:  cpu time      5.1756: real time      5.1756
       DOS:  cpu time      0.0019: real time      0.0019
    CHARGE:  cpu time      0.6070: real time      0.6070
    MIXING:  cpu time      0.0245: real time      0.0245
    --------------------------------------------
      LOOP:  cpu time      5.9221: real time      5.9228

 eigenvalue-minimisations  :  5467
 total energy-change (2. order) :-0.2794115E-04  (-0.1247924E-06)
 number of electron     467.9999994 magnetization 
 augmentation part       14.1104806 magnetization 

 Broyden mixing:
  rms(total) = 0.21669E-02    rms(broyden)= 0.21669E-02
  rms(prec ) = 0.22695E-02
  weight for this iteration     100.00

 eigenvalues of (default mixing * dielectric matrix)
  average eigenvalue GAMMA=   1.7962
 12.3848  3.3566  2.4431  2.3228  1.2838  1.2838  1.3292  1.3292  1.1658  0.7867
  0.7867  0.6667  0.6667  0.7108  0.5170  0.4127  0.4484  0.4367

 Free energy of the ion-electron system (eV)
  ---------------------------------------------------
  alpha Z        PSCENC =       964.87981809
  Ewald energy   TEWEN  =     52460.47467311
  -Hartree energ DENC   =    -92571.60017692
  -exchange      EXHF   =         0.00000000
  -V(xc)+E(xc)   XCENC  =      1636.28122194
  PAW double counting   =     53028.67446857   -52650.10796142
  entropy T*S    EENTRO =        -0.00000000
  eigenvalues    EBANDS =     -6747.81940941
  atomic energy  EATOM  =     43486.60354843
  Solvation  Ediel_sol  =         0.00000000
  ---------------------------------------------------
  free energy    TOTEN  =      -392.61381762 eV

  energy without entropy =     -392.61381762  energy(sigma->0) =     -392.61381762


--------------------------------------------------------------------------------------------------------




--------------------------------------- Iteration      1(  24)  ---------------------------------------


    POTLOK:  cpu time      0.1091: real time      0.1097
    SETDIJ:  cpu time      0.0037: real time      0.0037
     EDDAV:  cpu time      4.8555: real time      4.8556
       DOS:  cpu time      0.0019: real time      0.0019
    CHARGE:  cpu time      0.3609: real time      0.3609
    MIXING:  cpu time      0.0245: real time      0.0245
    --------------------------------------------
      LOOP:  cpu time      5.3556: real time      5.3562

 eigenvalue-minimisations  :  6633
 total energy-change (2. order) :-0.1653077E-03  (-0.4946471E-06)
 number of electron     467.9999994 magnetization 
 augmentation part       14.1111030 magnetization 

 Broyden mixing:
  rms(total) = 0.13729E-02    rms(broyden)= 0.13729E-02
  rms(prec ) = 0.14627E-02
  weight for this iteration     100.00

 eigenvalues of (default mixing * dielectric matrix)
  average eigenvalue GAMMA=   1.9312
 14.5137  3.9193  2.5432  2.2520  1.7153  1.7153  1.6148  1.1405  1.0186  0.8429
  0.8429  0.8160  0.6696  0.6696  0.6666  0.4127  0.4481  0.4617  0.4293

 Free energy of the ion-electron system (eV)
  ---------------------------------------------------
  alpha Z        PSCENC =       964.87981809
  Ewald energy   TEWEN  =     52460.47467311
  -Hartree energ DENC   =    -92571.52790385
  -exchange      EXHF   =         0.00000000
  -V(xc)+E(xc)   XCENC  =      1636.27867087
  PAW double counting   =     53027.97253356   -52649.40694465
  entropy T*S    EENTRO =        -0.00000000
  eigenvalues    EBANDS =     -6747.88837848
  atomic energy  EATOM  =     43486.60354843
  Solvation  Ediel_sol  =         0.00000000
  ---------------------------------------------------
  free energy    TOTEN  =      -392.61398293 eV

  energy without entropy =     -392.61398293  energy(sigma->0) =     -392.61398293


--------------------------------------------------------------------------------------------------------




--------------------------------------- Iteration      1(  25)  ---------------------------------------


    POTLOK:  cpu time      0.1092: real time      0.1101
    SETDIJ:  cpu time      0.0036: real time      0.0036
     EDDAV:  cpu time      6.0001: real time      6.0002
       DOS:  cpu time      0.0018: real time      0.0018
    CHARGE:  cpu time      0.6062: real time      0.6062
    MIXING:  cpu time      0.0248: real time      0.0248
    --------------------------------------------
      LOOP:  cpu time      6.7457: real time      6.7467

 eigenvalue-minimisations  :  6600
 total energy-change (2. order) :-0.1670126E-03  (-0.7038191E-06)
 number of electron     467.9999994 magnetization 
 augmentation part       14.1113611 magnetization 

 Broyden mixing:
  rms(total) = 0.85749E-03    rms(broyden)= 0.85749E-03
  rms(prec ) = 0.90467E-03
  weight for this iteration     100.00

 eigenvalues of (default mixing * dielectric matrix)
  average eigenvalue GAMMA=   1.9013
 14.9707  4.0860  2.6362  2.1854  1.9739  1.4677  1.4677  1.2236  1.0109  0.8751
  0.8751  0.7819  0.7819  0.6683  0.6683  0.6196  0.4127  0.4483  0.4483  0.4250

 Free energy of the ion-electron system (eV)
  ---------------------------------------------------
  alpha Z        PSCENC =       964.87981809
  Ewald energy   TEWEN  =     52460.47467311
  -Hartree energ DENC   =    -92571.58037399
  -exchange      EXHF   =         0.00000000
  -V(xc)+E(xc)   XCENC  =      1636.27729259
  PAW double counting   =     53027.26195184   -52648.69510147
  entropy T*S    EENTRO =        -0.00000000
  eigenvalues    EBANDS =     -6747.83595853
  atomic energy  EATOM  =     43486.60354843
  Solvation  Ediel_sol  =         0.00000000
  ---------------------------------------------------
  free energy    TOTEN  =      -392.61414994 eV

  energy without entropy =     -392.61414994  energy(sigma->0) =     -392.61414994


--------------------------------------------------------------------------------------------------------




--------------------------------------- Iteration      1(  26)  ---------------------------------------


    POTLOK:  cpu time      0.1095: real time      0.1100
    SETDIJ:  cpu time      0.0036: real time      0.0036
     EDDAV:  cpu time      4.5813: real time      4.5825
       DOS:  cpu time      0.0020: real time      0.0020
    CHARGE:  cpu time      0.3601: real time      0.3601
    MIXING:  cpu time      0.0250: real time      0.0250
    --------------------------------------------
      LOOP:  cpu time      5.0815: real time      5.0833

 eigenvalue-minimisations  :  6237
 total energy-change (2. order) :-0.1799154E-04  (-0.1423163E-06)
 number of electron     467.9999994 magnetization 
 augmentation part       14.1115017 magnetization 

 Broyden mixing:
  rms(total) = 0.71880E-03    rms(broyden)= 0.71880E-03
  rms(prec ) = 0.75597E-03
  weight for this iteration     100.00

 eigenvalues of (default mixing * dielectric matrix)
  average eigenvalue GAMMA=   1.8534
 15.0793  4.0902  2.4754  2.2589  2.2589  1.4910  1.4910  0.9486  0.9486  0.9645
  0.9645  0.7676  0.7676  0.6639  0.6639  0.6738  0.6738  0.4127  0.4484  0.4540
  0.4257

 Free energy of the ion-electron system (eV)
  ---------------------------------------------------
  alpha Z        PSCENC =       964.87981809
  Ewald energy   TEWEN  =     52460.47467311
  -Hartree energ DENC   =    -92571.59175670
  -exchange      EXHF   =         0.00000000
  -V(xc)+E(xc)   XCENC  =      1636.27733113
  PAW double counting   =     53026.94839306   -52648.38125896
  entropy T*S    EENTRO =        -0.00000000
  eigenvalues    EBANDS =     -6747.82491608
  atomic energy  EATOM  =     43486.60354843
  Solvation  Ediel_sol  =         0.00000000
  ---------------------------------------------------
  free energy    TOTEN  =      -392.61416793 eV

  energy without entropy =     -392.61416793  energy(sigma->0) =     -392.61416793


--------------------------------------------------------------------------------------------------------




--------------------------------------- Iteration      1(  27)  ---------------------------------------


    POTLOK:  cpu time      0.1098: real time      0.1103
    SETDIJ:  cpu time      0.0036: real time      0.0036
     EDDAV:  cpu time      4.7876: real time      4.7878
       DOS:  cpu time      0.0015: real time      0.0015
    CHARGE:  cpu time      0.6078: real time      0.6079
    MIXING:  cpu time      0.0248: real time      0.0248
    --------------------------------------------
      LOOP:  cpu time      5.5352: real time      5.5359

 eigenvalue-minimisations  :  4895
 total energy-change (2. order) :-0.4525820E-05  (-0.1984573E-07)
 number of electron     467.9999994 magnetization 
 augmentation part       14.1114445 magnetization 

 Broyden mixing:
  rms(total) = 0.55271E-03    rms(broyden)= 0.55271E-03
  rms(prec ) = 0.59365E-03
  weight for this iteration     100.00

 eigenvalues of (default mixing * dielectric matrix)
  average eigenvalue GAMMA=   1.8423
 15.1601  3.9899  2.4596  2.4596  2.2637  1.2872  1.2872  1.4531  1.4531  1.0498
  0.7684  0.7684  0.8650  0.7846  0.7846  0.6687  0.6687  0.6230  0.4127  0.4481
  0.4499  0.4247

 Free energy of the ion-electron system (eV)
  ---------------------------------------------------
  alpha Z        PSCENC =       964.87981809
  Ewald energy   TEWEN  =     52460.47467311
  -Hartree energ DENC   =    -92571.60081537
  -exchange      EXHF   =         0.00000000
  -V(xc)+E(xc)   XCENC  =      1636.27741576
  PAW double counting   =     53026.92191337   -52648.35442874
  entropy T*S    EENTRO =        -0.00000000
  eigenvalues    EBANDS =     -6747.81629711
  atomic energy  EATOM  =     43486.60354843
  Solvation  Ediel_sol  =         0.00000000
  ---------------------------------------------------
  free energy    TOTEN  =      -392.61417246 eV

  energy without entropy =     -392.61417246  energy(sigma->0) =     -392.61417246


--------------------------------------------------------------------------------------------------------




--------------------------------------- Iteration      1(  28)  ---------------------------------------


    POTLOK:  cpu time      0.1098: real time      0.1103
    SETDIJ:  cpu time      0.0035: real time      0.0035
     EDDAV:  cpu time      4.1785: real time      4.1785
       DOS:  cpu time      0.0020: real time      0.0020
    CHARGE:  cpu time      0.3609: real time      0.3609
    MIXING:  cpu time      0.0253: real time      0.0253
    --------------------------------------------
      LOOP:  cpu time      4.6799: real time      4.6805

 eigenvalue-minimisations  :  5280
 total energy-change (2. order) :-0.7155904E-05  (-0.4473638E-07)
 number of electron     467.9999994 magnetization 
 augmentation part       14.1114879 magnetization 

 Broyden mixing:
  rms(total) = 0.17268E-03    rms(broyden)= 0.17268E-03
  rms(prec ) = 0.24328E-03
  weight for this iteration     100.00

 eigenvalues of (default mixing * dielectric matrix)
  average eigenvalue GAMMA=   1.8754
 15.1134  4.3808  2.9928  2.3875  2.2051  1.7336  1.7336  1.3904  1.3904  0.8782
  0.8782  1.0708  0.8887  0.7975  0.7975  0.7868  0.6691  0.6691  0.6345  0.4127
  0.4484  0.4503  0.4248

 Free energy of the ion-electron system (eV)
  ---------------------------------------------------
  alpha Z        PSCENC =       964.87981809
  Ewald energy   TEWEN  =     52460.47467311
  -Hartree energ DENC   =    -92571.66154397
  -exchange      EXHF   =         0.00000000
  -V(xc)+E(xc)   XCENC  =      1636.27784907
  PAW double counting   =     53026.67603805   -52648.10850594
  entropy T*S    EENTRO =        -0.00000000
  eigenvalues    EBANDS =     -6747.75605646
  atomic energy  EATOM  =     43486.60354843
  Solvation  Ediel_sol  =         0.00000000
  ---------------------------------------------------
  free energy    TOTEN  =      -392.61417961 eV

  energy without entropy =     -392.61417961  energy(sigma->0) =     -392.61417961


--------------------------------------------------------------------------------------------------------




--------------------------------------- Iteration      1(  29)  ---------------------------------------


    POTLOK:  cpu time      0.1099: real time      0.1105
    SETDIJ:  cpu time      0.0036: real time      0.0036
     EDDAV:  cpu time      5.3853: real time      5.3854
       DOS:  cpu time      0.0020: real time      0.0020
    --------------------------------------------
      LOOP:  cpu time      5.5007: real time      5.5014

 eigenvalue-minimisations  :  5742
 total energy-change (2. order) : 0.9289943E-07  (-0.4069823E-06)
 number of electron     467.9999994 magnetization 
 augmentation part       14.1114879 magnetization 

 Free energy of the ion-electron system (eV)
  ---------------------------------------------------
  alpha Z        PSCENC =       964.87981809
  Ewald energy   TEWEN  =     52460.47467311
  -Hartree energ DENC   =    -92571.71850781
  -exchange      EXHF   =         0.00000000
  -V(xc)+E(xc)   XCENC  =      1636.27803911
  PAW double counting   =     53026.49902674   -52647.93230535
  entropy T*S    EENTRO =        -0.00000000
  eigenvalues    EBANDS =     -6747.69847184
  atomic energy  EATOM  =     43486.60354843
  Solvation  Ediel_sol  =         0.00000000
  ---------------------------------------------------
  free energy    TOTEN  =      -392.61417952 eV

  energy without entropy =     -392.61417952  energy(sigma->0) =     -392.61417952


--------------------------------------------------------------------------------------------------------




 average (electrostatic) potential at core
  the test charge radii are     1.0818  0.9698
  (the norm of the test charge is              1.0000)
       1 -79.7632       2 -79.7622       3 -79.7645       4 -79.7626       5 -79.7647
       6 -79.7646       7 -79.7644       8 -79.7648       9 -79.7645      10 -79.8365
      11 -79.8365      12 -79.8366      13 -79.8365      14 -79.8366      15 -79.8366
      16 -79.8366      17 -79.8365      18 -79.8366      19 -89.4295      20 -89.4246
      21 -89.4237      22 -89.4244      23 -89.4249      24 -89.4239      25 -89.4240
      26 -89.4244      27 -89.4250      28 -89.4550      29 -89.4546      30 -89.4550
      31 -89.4550      32 -89.4552      33 -89.4547      34 -89.4552      35 -89.4545
      36 -89.4549      37 -89.5277      38 -89.5278      39 -89.5277      40 -89.5278
      41 -89.5278      42 -89.5277      43 -89.5277      44 -89.5277      45 -89.5277
      46 -89.5004      47 -89.5004      48 -89.5004      49 -89.5004      50 -89.5004
      51 -89.5004      52 -89.5004      53 -89.5004      54 -89.5004
 
 
 
 E-fermi :   2.8078     XC(G=0):  -7.0515     alpha+bet : -8.1787

 val. band max:        2.4625156824   @ k =   0.0000   0.0000   0.0000
 cond. band min:       3.3914693536   @ k =   0.0000   0.0000   0.0000
 fundamental gap:      0.9289536712
 Fermi energy:         2.8078324487

 k-point     1 :       0.0000    0.0000    0.0000
  band No.  band energies     occupation 
      1     -59.0898      2.00000
      2     -59.0628      2.00000
      3     -59.0628      2.00000
      4     -59.0628      2.00000
      5     -59.0628      2.00000
      6     -59.0628      2.00000
      7     -59.0627      2.00000
      8     -59.0492      2.00000
      9     -59.0492      2.00000
     10     -59.0176      2.00000
     11     -58.9910      2.00000
     12     -58.9909      2.00000
     13     -58.9909      2.00000
     14     -58.9902      2.00000
     15     -58.9900      2.00000
     16     -58.9900      2.00000
     17     -58.9769      2.00000
     18     -58.9768      2.00000
     19     -33.3064      2.00000
     20     -33.3063      2.00000
     21     -33.3063      2.00000
     22     -33.3063      2.00000
     23     -33.3063      2.00000
     24     -33.3063      2.00000
     25     -33.3063      2.00000
     26     -33.3063      2.00000
     27     -33.2636      2.00000
     28     -33.2636      2.00000
     29     -33.2356      2.00000
     30     -33.2347      2.00000
     31     -33.2345      2.00000
     32     -33.2344      2.00000
     33     -33.2344      2.00000
     34     -33.2340      2.00000
     35     -33.2338      2.00000
     36     -33.2338      2.00000
     37     -33.2269      2.00000
     38     -33.1917      2.00000
     39     -33.1916      2.00000
     40     -33.1724      2.00000
     41     -33.1724      2.00000
     42     -33.1724      2.00000
     43     -33.1724      2.00000
     44     -33.1724      2.00000
     45     -33.1723      2.00000
     46     -33.1551      2.00000
     47     -33.1450      2.00000
     48     -33.1450      2.00000
     49     -33.1009      2.00000
     50     -33.1009      2.00000
     51     -33.1008      2.00000
     52     -33.1005      2.00000
     53     -33.1002      2.00000
     54     -33.1000      2.00000
     55     -33.0964      2.00000
     56     -33.0964      2.00000
     57     -33.0964      2.00000
     58     -33.0964      2.00000
     59     -33.0964      2.00000
     60     -33.0964      2.00000
     61     -33.0732      2.00000
     62     -33.0731      2.00000
     63     -33.0335      2.00000
     64     -33.0335      2.00000
     65     -33.0248      2.00000
     66     -33.0248      2.00000
     67     -33.0244      2.00000
     68     -33.0244      2.00000
     69     -33.0243      2.00000
     70     -33.0235      2.00000
     71     -32.9614      2.00000
     72     -32.9614      2.00000
     73     -12.3915      2.00000
     74     -12.1892      2.00000
     75     -11.0932      2.00000
     76     -11.0869      2.00000
     77     -11.0850      2.00000
     78     -11.0850      2.00000
     79     -11.0849      2.00000
     80     -11.0849      2.00000
     81     -11.0849      2.00000
     82     -10.9254      2.00000
     83     -10.9187      2.00000
     84     -10.9187      2.00000
     85     -10.9186      2.00000
     86     -10.9184      2.00000
     87     -10.9184      2.00000
     88     -10.7994      2.00000
     89     -10.5175      2.00000
     90     -10.5152      2.00000
     91     -10.5152      2.00000
     92     -10.5152      2.00000
     93     -10.5150      2.00000
     94     -10.5150      2.00000
     95     -10.3496      2.00000
     96     -10.3475      2.00000
     97     -10.3474      2.00000
     98     -10.3474      2.00000
     99     -10.3472      2.00000
    100     -10.3471      2.00000
    101     -10.2190      2.00000
    102     -10.2190      2.00000
    103     -10.1519      2.00000
    104     -10.1497      2.00000
    105     -10.1122      2.00000
    106     -10.1122      2.00000
    107     -10.0418      2.00000
    108     -10.0386      2.00000
    109      -4.1577      2.00000
    110      -3.6332      2.00000
    111      -3.6332      2.00000
    112      -3.5999      2.00000
    113      -3.5985      2.00000
    114      -3.5980      2.00000
    115      -3.5974      2.00000
    116      -3.5974      2.00000
    117      -3.5973      2.00000
    118      -3.5751      2.00000
    119      -3.5741      2.00000
    120      -3.5176      2.00000
    121      -3.3591      2.00000
    122      -3.3575      2.00000
    123      -3.3569      2.00000
    124      -3.3553      2.00000
    125      -3.3552      2.00000
    126      -3.3550      2.00000
    127      -2.8562      2.00000
    128      -2.8561      2.00000
    129      -2.7521      2.00000
    130      -2.7499      2.00000
    131      -2.5442      2.00000
    132      -2.5440      2.00000
    133      -2.5431      2.00000
    134      -2.5429      2.00000
    135      -2.5429      2.00000
    136      -2.5429      2.00000
    137      -2.3219      2.00000
    138      -2.3214      2.00000
    139      -2.3208      2.00000
    140      -2.3198      2.00000
    141      -2.3193      2.00000
    142      -2.3187      2.00000
    143      -2.3067      2.00000
    144      -2.3046      2.00000
    145      -2.2804      2.00000
    146      -2.2802      2.00000
    147      -2.1490      2.00000
    148      -2.1481      2.00000
    149      -2.1481      2.00000
    150      -2.1480      2.00000
    151      -2.1480      2.00000
    152      -2.1475      2.00000
    153      -1.9338      2.00000
    154      -1.9335      2.00000
    155      -1.9330      2.00000
    156      -1.9317      2.00000
    157      -1.9315      2.00000
    158      -1.9310      2.00000
    159      -1.8035      2.00000
    160      -1.8016      2.00000
    161      -1.7553      2.00000
    162      -1.7550      2.00000
    163      -1.1182      2.00000
    164      -1.1179      2.00000
    165      -1.1174      2.00000
    166      -1.1174      2.00000
    167      -1.1174      2.00000
    168      -1.1174      2.00000
    169      -1.0835      2.00000
    170      -1.0833      2.00000
    171      -1.0351      2.00000
    172      -1.0321      2.00000
    173      -1.0281      2.00000
    174      -1.0278      2.00000
    175      -1.0277      2.00000
    176      -1.0275      2.00000
    177      -1.0127      2.00000
    178      -1.0109      2.00000
    179      -0.8874      2.00000
    180      -0.8874      2.00000
    181      -0.8186      2.00000
    182      -0.8180      2.00000
    183      -0.4818      2.00000
    184      -0.3763      2.00000
    185      -0.3763      2.00000
    186      -0.2115      2.00000
    187      -0.2100      2.00000
    188       0.0164      2.00000
    189       0.0166      2.00000
    190       0.0169      2.00000
    191       0.0170      2.00000
    192       0.0172      2.00000
    193       0.0185      2.00000
    194       0.2189      2.00000
    195       0.2190      2.00000
    196       0.2904      2.00000
    197       0.2926      2.00000
    198       0.3282      2.00000
    199       0.3282      2.00000
    200       0.3293      2.00000
    201       0.3293      2.00000
    202       0.3294      2.00000
    203       0.3294      2.00000
    204       0.4194      2.00000
    205       0.4194      2.00000
    206       0.4195      2.00000
    207       0.4203      2.00000
    208       0.4204      2.00000
    209       0.4249      2.00000
    210       0.4311      2.00000
    211       0.4313      2.00000
    212       0.4359      2.00000
    213       0.4360      2.00000
    214       0.4361      2.00000
    215       0.4362      2.00000
    216       0.6883      2.00000
    217       0.8114      2.00000
    218       0.8116      2.00000
    219       0.8116      2.00000
    220       0.8116      2.00000
    221       0.8118      2.00000
    222       0.8122      2.00000
    223       0.9364      2.00000
    224       0.9375      2.00000
    225       0.9378      2.00000
    226       0.9378      2.00000
    227       0.9382      2.00000
    228       0.9400      2.00000
    229       1.6913      2.00000
    230       1.7470      2.00000
    231       1.7470      2.00000
    232       1.8289      2.00000
    233       1.8294      2.00000
    234       2.4625      2.00000
    235       3.3915      0.00000
    236       3.3915      0.00000
    237       3.4599      0.00000
    238       3.4602      0.00000
    239       3.9404      0.00000
    240       3.9405      0.00000
    241       3.9406      0.00000
    242       3.9407      0.00000
    243       3.9410      0.00000
    244       3.9411      0.00000
    245       4.0058      0.00000
    246       4.0060      0.00000
    247       4.0061      0.00000
    248       4.0068      0.00000
    249       4.0069      0.00000
    250       4.0072      0.00000
    251       4.0682      0.00000
    252       4.0683      0.00000
    253       4.0688      0.00000
    254       4.0691      0.00000
    255       4.0709      0.00000
    256       4.0712      0.00000
    257       4.3865      0.00000
    258       4.3865      0.00000
    259       4.3867      0.00000
    260       4.3884      0.00000
    261       4.3891      0.00000
    262       4.3905      0.00000
    263       4.4869      0.00000
    264       4.4873      0.00000
    265       4.5805      0.00000
    266       4.5822      0.00000
    267       4.7702      0.00000
    268       4.7705      0.00000
    269       4.8351      0.00000
    270       4.8361      0.00000
    271       4.8449      0.00000
    272       4.8449      0.00000
    273       4.8762      0.00000
    274       4.8771      0.00000
    275       5.1228      0.00000
    276       5.1228      0.00000
    277       5.1231      0.00000
    278       5.1239      0.00000
    279       5.1242      0.00000
    280       5.1257      0.00000
    281       5.3679      0.00000
    282       5.3714      0.00000
    283       5.4566      0.00000
    284       5.4633      0.00000
    285       5.4673      0.00000
    286       5.4682      0.00000

 k-point     2 :       0.2000    0.0000    0.0000
  band No.  band energies     occupation 
      1     -59.0883      2.00000
      2     -59.0699      2.00000
      3     -59.0656      2.00000
      4     -59.0656      2.00000
      5     -59.0592      2.00000
      6     -59.0592      2.00000
      7     -59.0572      2.00000
      8     -59.0500      2.00000
      9     -59.0500      2.00000
     10     -59.0160      2.00000
     11     -58.9977      2.00000
     12     -58.9934      2.00000
     13     -58.9932      2.00000
     14     -58.9870      2.00000
     15     -58.9869      2.00000
     16     -58.9848      2.00000
     17     -58.9777      2.00000
     18     -58.9776      2.00000
     19     -33.3611      2.00000
     20     -33.3342      2.00000
     21     -33.3342      2.00000
     22     -33.3269      2.00000
     23     -33.3269      2.00000
     24     -33.2892      2.00000
     25     -33.2732      2.00000
     26     -33.2731      2.00000
     27     -33.2626      2.00000
     28     -33.2621      2.00000
     29     -33.2553      2.00000
     30     -33.2547      2.00000
     31     -33.2355      2.00000
     32     -33.2333      2.00000
     33     -33.2333      2.00000
     34     -33.2238      2.00000
     35     -33.2014      2.00000
     36     -33.2010      2.00000
     37     -33.1868      2.00000
     38     -33.1780      2.00000
     39     -33.1780      2.00000
     40     -33.1652      2.00000
     41     -33.1652      2.00000
     42     -33.1636      2.00000
     43     -33.1614      2.00000
     44     -33.1612      2.00000
     45     -33.1611      2.00000
     46     -33.1520      2.00000
     47     -33.1466      2.00000
     48     -33.1466      2.00000
     49     -33.1150      2.00000
     50     -33.1121      2.00000
     51     -33.1121      2.00000
     52     -33.1093      2.00000
     53     -33.1063      2.00000
     54     -33.1062      2.00000
     55     -33.0957      2.00000
     56     -33.0957      2.00000
     57     -33.0934      2.00000
     58     -33.0933      2.00000
     59     -33.0893      2.00000
     60     -33.0799      2.00000
     61     -33.0748      2.00000
     62     -33.0747      2.00000
     63     -33.0495      2.00000
     64     -33.0403      2.00000
     65     -33.0399      2.00000
     66     -33.0372      2.00000
     67     -33.0371      2.00000
     68     -33.0239      2.00000
     69     -33.0235      2.00000
     70     -33.0078      2.00000
     71     -32.9775      2.00000
     72     -32.9650      2.00000
     73     -12.3262      2.00000
     74     -12.1244      2.00000
     75     -11.4749      2.00000
     76     -11.2909      2.00000
     77     -11.2446      2.00000
     78     -11.2438      2.00000
     79     -11.0710      2.00000
     80     -11.0685      2.00000
     81     -11.0639      2.00000
     82     -10.8740      2.00000
     83     -10.8734      2.00000
     84     -10.7758      2.00000
     85     -10.7422      2.00000
     86     -10.7236      2.00000
     87     -10.7212      2.00000
     88     -10.6856      2.00000
     89     -10.6037      2.00000
     90     -10.5832      2.00000
     91     -10.5826      2.00000
     92     -10.4756      2.00000
     93     -10.4223      2.00000
     94     -10.4215      2.00000
     95     -10.3970      2.00000
     96     -10.3964      2.00000
     97     -10.3695      2.00000
     98     -10.2793      2.00000
     99     -10.2784      2.00000
    100     -10.2767      2.00000
    101     -10.2766      2.00000
    102     -10.2448      2.00000
    103     -10.1965      2.00000
    104     -10.1944      2.00000
    105     -10.1363      2.00000
    106     -10.1359      2.00000
    107     -10.0645      2.00000
    108     -10.0618      2.00000
    109      -4.0842      2.00000
    110      -3.8405      2.00000
    111      -3.6902      2.00000
    112      -3.6799      2.00000
    113      -3.6797      2.00000
    114      -3.5433      2.00000
    115      -3.5433      2.00000
    116      -3.4924      2.00000
    117      -3.4919      2.00000
    118      -3.4846      2.00000
    119      -3.4840      2.00000
    120      -3.4834      2.00000
    121      -3.4825      2.00000
    122      -3.4817      2.00000
    123      -3.4451      2.00000
    124      -3.1603      2.00000
    125      -3.1599      2.00000
    126      -3.1592      2.00000
    127      -3.1586      2.00000
    128      -3.0463      2.00000
    129      -3.0294      2.00000
    130      -3.0285      2.00000
    131      -2.8604      2.00000
    132      -2.7220      2.00000
    133      -2.7217      2.00000
    134      -2.6654      2.00000
    135      -2.5433      2.00000
    136      -2.5429      2.00000
    137      -2.3532      2.00000
    138      -2.3525      2.00000
    139      -2.2700      2.00000
    140      -2.2008      2.00000
    141      -2.1940      2.00000
    142      -2.1936      2.00000
    143      -2.1798      2.00000
    144      -2.1796      2.00000
    145      -2.1670      2.00000
    146      -2.1663      2.00000
    147      -2.0778      2.00000
    148      -2.0369      2.00000
    149      -2.0365      2.00000
    150      -2.0318      2.00000
    151      -1.9829      2.00000
    152      -1.9824      2.00000
    153      -1.9646      2.00000
    154      -1.9635      2.00000
    155      -1.9248      2.00000
    156      -1.8733      2.00000
    157      -1.8725      2.00000
    158      -1.6875      2.00000
    159      -1.6870      2.00000
    160      -1.6756      2.00000
    161      -1.4832      2.00000
    162      -1.4827      2.00000
    163      -1.3242      2.00000
    164      -1.3238      2.00000
    165      -1.3166      2.00000
    166      -1.2272      2.00000
    167      -1.2223      2.00000
    168      -1.2216      2.00000
    169      -1.2188      2.00000
    170      -1.2166      2.00000
    171      -1.1574      2.00000
    172      -1.1571      2.00000
    173      -1.0651      2.00000
    174      -1.0634      2.00000
    175      -1.0450      2.00000
    176      -1.0430      2.00000
    177      -1.0355      2.00000
    178      -0.9655      2.00000
    179      -0.8371      2.00000
    180      -0.8196      2.00000
    181      -0.7524      2.00000
    182      -0.7486      2.00000
    183      -0.7007      2.00000
    184      -0.2472      2.00000
    185      -0.2471      2.00000
    186      -0.1355      2.00000
    187      -0.0958      2.00000
    188      -0.0946      2.00000
    189      -0.0806      2.00000
    190       0.0090      2.00000
    191       0.0336      2.00000
    192       0.0340      2.00000
    193       0.0437      2.00000
    194       0.0439      2.00000
    195       0.0944      2.00000
    196       0.1125      2.00000
    197       0.1310      2.00000
    198       0.1328      2.00000
    199       0.1877      2.00000
    200       0.2001      2.00000
    201       0.2004      2.00000
    202       0.2417      2.00000
    203       0.2444      2.00000
    204       0.2904      2.00000
    205       0.2919      2.00000
    206       0.2965      2.00000
    207       0.2970      2.00000
    208       0.3893      2.00000
    209       0.3900      2.00000
    210       0.4006      2.00000
    211       0.5653      2.00000
    212       0.6201      2.00000
    213       0.6217      2.00000
    214       0.6748      2.00000
    215       0.6961      2.00000
    216       0.8981      2.00000
    217       0.9068      2.00000
    218       0.9068      2.00000
    219       0.9087      2.00000
    220       0.9628      2.00000
    221       0.9629      2.00000
    222       0.9873      2.00000
    223       1.0029      2.00000
    224       1.0034      2.00000
    225       1.0514      2.00000
    226       1.0522      2.00000
    227       1.0538      2.00000
    228       1.1084      2.00000
    229       1.6104      2.00000
    230       1.6104      2.00000
    231       1.6737      2.00000
    232       1.6953      2.00000
    233       1.6957      2.00000
    234       2.3489      2.00000
    235       3.5608      0.00000
    236       3.5608      0.00000
    237       3.6364      0.00000
    238       3.6369      0.00000
    239       3.7790      0.00000
    240       3.7794      0.00000
    241       3.8644      0.00000
    242       3.8837      0.00000
    243       3.8843      0.00000
    244       3.9405      0.00000
    245       3.9832      0.00000
    246       3.9835      0.00000
    247       4.0200      0.00000
    248       4.0210      0.00000
    249       4.0355      0.00000
    250       4.0382      0.00000
    251       4.1698      0.00000
    252       4.1704      0.00000
    253       4.1911      0.00000
    254       4.2260      0.00000
    255       4.2266      0.00000
    256       4.2390      0.00000
    257       4.2821      0.00000
    258       4.3527      0.00000
    259       4.3536      0.00000
    260       4.4208      0.00000
    261       4.4426      0.00000
    262       4.4429      0.00000
    263       4.4978      0.00000
    264       4.5098      0.00000
    265       4.5816      0.00000
    266       4.6277      0.00000
    267       4.6631      0.00000
    268       4.7116      0.00000
    269       4.7414      0.00000
    270       4.7445      0.00000
    271       4.8099      0.00000
    272       4.8102      0.00000
    273       4.8147      0.00000
    274       4.8441      0.00000
    275       4.8448      0.00000
    276       4.9049      0.00000
    277       4.9050      0.00000
    278       5.1178      0.00000
    279       5.1411      0.00000
    280       5.1415      0.00000
    281       5.1754      0.00000
    282       5.1781      0.00000
    283       5.1837      0.00000
    284       5.1847      0.00000
    285       5.3378      0.00000
    286       5.3966      0.00000

 k-point     3 :       0.2000    0.2000    0.0000
  band No.  band energies     occupation 
      1     -59.0883      2.00000
      2     -59.0699      2.00000
      3     -59.0656      2.00000
      4     -59.0656      2.00000
      5     -59.0592      2.00000
      6     -59.0592      2.00000
      7     -59.0572      2.00000
      8     -59.0500      2.00000
      9     -59.0500      2.00000
     10     -59.0160      2.00000
     11     -58.9977      2.00000
     12     -58.9933      2.00000
     13     -58.9933      2.00000
     14     -58.9870      2.00000
     15     -58.9869      2.00000
     16     -58.9849      2.00000
     17     -58.9777      2.00000
     18     -58.9776      2.00000
     19     -33.3611      2.00000
     20     -33.3342      2.00000
     21     -33.3342      2.00000
     22     -33.3269      2.00000
     23     -33.3269      2.00000
     24     -33.2892      2.00000
     25     -33.2732      2.00000
     26     -33.2731      2.00000
     27     -33.2626      2.00000
     28     -33.2621      2.00000
     29     -33.2554      2.00000
     30     -33.2546      2.00000
     31     -33.2355      2.00000
     32     -33.2333      2.00000
     33     -33.2333      2.00000
     34     -33.2238      2.00000
     35     -33.2015      2.00000
     36     -33.2010      2.00000
     37     -33.1868      2.00000
     38     -33.1780      2.00000
     39     -33.1780      2.00000
     40     -33.1652      2.00000
     41     -33.1652      2.00000
     42     -33.1635      2.00000
     43     -33.1614      2.00000
     44     -33.1612      2.00000
     45     -33.1611      2.00000
     46     -33.1520      2.00000
     47     -33.1466      2.00000
     48     -33.1466      2.00000
     49     -33.1150      2.00000
     50     -33.1121      2.00000
     51     -33.1121      2.00000
     52     -33.1093      2.00000
     53     -33.1063      2.00000
     54     -33.1062      2.00000
     55     -33.0957      2.00000
     56     -33.0957      2.00000
     57     -33.0934      2.00000
     58     -33.0933      2.00000
     59     -33.0893      2.00000
     60     -33.0799      2.00000
     61     -33.0748      2.00000
     62     -33.0747      2.00000
     63     -33.0495      2.00000
     64     -33.0403      2.00000
     65     -33.0399      2.00000
     66     -33.0372      2.00000
     67     -33.0371      2.00000
     68     -33.0239      2.00000
     69     -33.0235      2.00000
     70     -33.0079      2.00000
     71     -32.9774      2.00000
     72     -32.9651      2.00000
     73     -12.3262      2.00000
     74     -12.1244      2.00000
     75     -11.4749      2.00000
     76     -11.2910      2.00000
     77     -11.2445      2.00000
     78     -11.2438      2.00000
     79     -11.0708      2.00000
     80     -11.0685      2.00000
     81     -11.0639      2.00000
     82     -10.8739      2.00000
     83     -10.8734      2.00000
     84     -10.7758      2.00000
     85     -10.7423      2.00000
     86     -10.7235      2.00000
     87     -10.7212      2.00000
     88     -10.6855      2.00000
     89     -10.6040      2.00000
     90     -10.5834      2.00000
     91     -10.5826      2.00000
     92     -10.4755      2.00000
     93     -10.4224      2.00000
     94     -10.4214      2.00000
     95     -10.3972      2.00000
     96     -10.3964      2.00000
     97     -10.3694      2.00000
     98     -10.2795      2.00000
     99     -10.2784      2.00000
    100     -10.2767      2.00000
    101     -10.2766      2.00000
    102     -10.2445      2.00000
    103     -10.1965      2.00000
    104     -10.1944      2.00000
    105     -10.1363      2.00000
    106     -10.1359      2.00000
    107     -10.0645      2.00000
    108     -10.0618      2.00000
    109      -4.0843      2.00000
    110      -3.8405      2.00000
    111      -3.6901      2.00000
    112      -3.6800      2.00000
    113      -3.6796      2.00000
    114      -3.5433      2.00000
    115      -3.5433      2.00000
    116      -3.4926      2.00000
    117      -3.4918      2.00000
    118      -3.4850      2.00000
    119      -3.4838      2.00000
    120      -3.4833      2.00000
    121      -3.4826      2.00000
    122      -3.4817      2.00000
    123      -3.4451      2.00000
    124      -3.1604      2.00000
    125      -3.1599      2.00000
    126      -3.1591      2.00000
    127      -3.1585      2.00000
    128      -3.0464      2.00000
    129      -3.0295      2.00000
    130      -3.0286      2.00000
    131      -2.8604      2.00000
    132      -2.7221      2.00000
    133      -2.7218      2.00000
    134      -2.6657      2.00000
    135      -2.5434      2.00000
    136      -2.5429      2.00000
    137      -2.3533      2.00000
    138      -2.3524      2.00000
    139      -2.2701      2.00000
    140      -2.2008      2.00000
    141      -2.1938      2.00000
    142      -2.1936      2.00000
    143      -2.1797      2.00000
    144      -2.1795      2.00000
    145      -2.1667      2.00000
    146      -2.1664      2.00000
    147      -2.0778      2.00000
    148      -2.0368      2.00000
    149      -2.0364      2.00000
    150      -2.0322      2.00000
    151      -1.9827      2.00000
    152      -1.9822      2.00000
    153      -1.9640      2.00000
    154      -1.9637      2.00000
    155      -1.9249      2.00000
    156      -1.8730      2.00000
    157      -1.8722      2.00000
    158      -1.6880      2.00000
    159      -1.6868      2.00000
    160      -1.6754      2.00000
    161      -1.4834      2.00000
    162      -1.4826      2.00000
    163      -1.3241      2.00000
    164      -1.3238      2.00000
    165      -1.3167      2.00000
    166      -1.2281      2.00000
    167      -1.2220      2.00000
    168      -1.2215      2.00000
    169      -1.2174      2.00000
    170      -1.2167      2.00000
    171      -1.1573      2.00000
    172      -1.1570      2.00000
    173      -1.0647      2.00000
    174      -1.0635      2.00000
    175      -1.0448      2.00000
    176      -1.0434      2.00000
    177      -1.0355      2.00000
    178      -0.9659      2.00000
    179      -0.8372      2.00000
    180      -0.8196      2.00000
    181      -0.7529      2.00000
    182      -0.7486      2.00000
    183      -0.7005      2.00000
    184      -0.2472      2.00000
    185      -0.2471      2.00000
    186      -0.1354      2.00000
    187      -0.0960      2.00000
    188      -0.0946      2.00000
    189      -0.0798      2.00000
    190       0.0090      2.00000
    191       0.0338      2.00000
    192       0.0338      2.00000
    193       0.0436      2.00000
    194       0.0440      2.00000
    195       0.0945      2.00000
    196       0.1124      2.00000
    197       0.1312      2.00000
    198       0.1329      2.00000
    199       0.1860      2.00000
    200       0.2000      2.00000
    201       0.2003      2.00000
    202       0.2415      2.00000
    203       0.2450      2.00000
    204       0.2895      2.00000
    205       0.2913      2.00000
    206       0.2965      2.00000
    207       0.2972      2.00000
    208       0.3894      2.00000
    209       0.3899      2.00000
    210       0.4012      2.00000
    211       0.5653      2.00000
    212       0.6200      2.00000
    213       0.6217      2.00000
    214       0.6751      2.00000
    215       0.6960      2.00000
    216       0.8982      2.00000
    217       0.9067      2.00000
    218       0.9067      2.00000
    219       0.9090      2.00000
    220       0.9628      2.00000
    221       0.9629      2.00000
    222       0.9875      2.00000
    223       1.0021      2.00000
    224       1.0027      2.00000
    225       1.0519      2.00000
    226       1.0524      2.00000
    227       1.0540      2.00000
    228       1.1090      2.00000
    229       1.6104      2.00000
    230       1.6104      2.00000
    231       1.6737      2.00000
    232       1.6952      2.00000
    233       1.6958      2.00000
    234       2.3489      2.00000
    235       3.5608      0.00000
    236       3.5608      0.00000
    237       3.6366      0.00000
    238       3.6368      0.00000
    239       3.7792      0.00000
    240       3.7794      0.00000
    241       3.8645      0.00000
    242       3.8836      0.00000
    243       3.8842      0.00000
    244       3.9405      0.00000
    245       3.9834      0.00000
    246       3.9837      0.00000
    247       4.0199      0.00000
    248       4.0209      0.00000
    249       4.0355      0.00000
    250       4.0383      0.00000
    251       4.1695      0.00000
    252       4.1702      0.00000
    253       4.1909      0.00000
    254       4.2263      0.00000
    255       4.2267      0.00000
    256       4.2390      0.00000
    257       4.2818      0.00000
    258       4.3528      0.00000
    259       4.3536      0.00000
    260       4.4207      0.00000
    261       4.4429      0.00000
    262       4.4431      0.00000
    263       4.4962      0.00000
    264       4.5095      0.00000
    265       4.5818      0.00000
    266       4.6276      0.00000
    267       4.6633      0.00000
    268       4.7125      0.00000
    269       4.7428      0.00000
    270       4.7441      0.00000
    271       4.8101      0.00000
    272       4.8103      0.00000
    273       4.8140      0.00000
    274       4.8442      0.00000
    275       4.8448      0.00000
    276       4.9049      0.00000
    277       4.9049      0.00000
    278       5.1176      0.00000
    279       5.1403      0.00000
    280       5.1412      0.00000
    281       5.1758      0.00000
    282       5.1777      0.00000
    283       5.1836      0.00000
    284       5.1857      0.00000
    285       5.3418      0.00000
    286       5.3734      0.00000

 k-point     4 :       0.0000    0.2000    0.0000
  band No.  band energies     occupation 
      1     -59.0883      2.00000
      2     -59.0699      2.00000
      3     -59.0656      2.00000
      4     -59.0656      2.00000
      5     -59.0592      2.00000
      6     -59.0592      2.00000
      7     -59.0572      2.00000
      8     -59.0500      2.00000
      9     -59.0500      2.00000
     10     -59.0160      2.00000
     11     -58.9977      2.00000
     12     -58.9933      2.00000
     13     -58.9933      2.00000
     14     -58.9870      2.00000
     15     -58.9869      2.00000
     16     -58.9849      2.00000
     17     -58.9777      2.00000
     18     -58.9776      2.00000
     19     -33.3611      2.00000
     20     -33.3342      2.00000
     21     -33.3342      2.00000
     22     -33.3269      2.00000
     23     -33.3269      2.00000
     24     -33.2892      2.00000
     25     -33.2732      2.00000
     26     -33.2731      2.00000
     27     -33.2626      2.00000
     28     -33.2621      2.00000
     29     -33.2554      2.00000
     30     -33.2546      2.00000
     31     -33.2355      2.00000
     32     -33.2333      2.00000
     33     -33.2333      2.00000
     34     -33.2238      2.00000
     35     -33.2015      2.00000
     36     -33.2010      2.00000
     37     -33.1868      2.00000
     38     -33.1780      2.00000
     39     -33.1780      2.00000
     40     -33.1652      2.00000
     41     -33.1652      2.00000
     42     -33.1636      2.00000
     43     -33.1614      2.00000
     44     -33.1612      2.00000
     45     -33.1611      2.00000
     46     -33.1520      2.00000
     47     -33.1466      2.00000
     48     -33.1466      2.00000
     49     -33.1150      2.00000
     50     -33.1121      2.00000
     51     -33.1121      2.00000
     52     -33.1093      2.00000
     53     -33.1063      2.00000
     54     -33.1062      2.00000
     55     -33.0957      2.00000
     56     -33.0957      2.00000
     57     -33.0934      2.00000
     58     -33.0933      2.00000
     59     -33.0893      2.00000
     60     -33.0799      2.00000
     61     -33.0748      2.00000
     62     -33.0747      2.00000
     63     -33.0495      2.00000
     64     -33.0403      2.00000
     65     -33.0399      2.00000
     66     -33.0372      2.00000
     67     -33.0371      2.00000
     68     -33.0239      2.00000
     69     -33.0235      2.00000
     70     -33.0078      2.00000
     71     -32.9775      2.00000
     72     -32.9651      2.00000
     73     -12.3262      2.00000
     74     -12.1244      2.00000
     75     -11.4749      2.00000
     76     -11.2909      2.00000
     77     -11.2446      2.00000
     78     -11.2438      2.00000
     79     -11.0709      2.00000
     80     -11.0684      2.00000
     81     -11.0639      2.00000
     82     -10.8740      2.00000
     83     -10.8734      2.00000
     84     -10.7758      2.00000
     85     -10.7423      2.00000
     86     -10.7236      2.00000
     87     -10.7212      2.00000
     88     -10.6855      2.00000
     89     -10.6039      2.00000
     90     -10.5834      2.00000
     91     -10.5825      2.00000
     92     -10.4756      2.00000
     93     -10.4224      2.00000
     94     -10.4214      2.00000
     95     -10.3972      2.00000
     96     -10.3963      2.00000
     97     -10.3695      2.00000
     98     -10.2795      2.00000
     99     -10.2784      2.00000
    100     -10.2767      2.00000
    101     -10.2766      2.00000
    102     -10.2446      2.00000
    103     -10.1965      2.00000
    104     -10.1944      2.00000
    105     -10.1363      2.00000
    106     -10.1359      2.00000
    107     -10.0645      2.00000
    108     -10.0618      2.00000
    109      -4.0843      2.00000
    110      -3.8405      2.00000
    111      -3.6902      2.00000
    112      -3.6799      2.00000
    113      -3.6796      2.00000
    114      -3.5433      2.00000
    115      -3.5433      2.00000
    116      -3.4925      2.00000
    117      -3.4918      2.00000
    118      -3.4848      2.00000
    119      -3.4839      2.00000
    120      -3.4833      2.00000
    121      -3.4825      2.00000
    122      -3.4817      2.00000
    123      -3.4451      2.00000
    124      -3.1605      2.00000
    125      -3.1597      2.00000
    126      -3.1592      2.00000
    127      -3.1586      2.00000
    128      -3.0464      2.00000
    129      -3.0299      2.00000
    130      -3.0282      2.00000
    131      -2.8604      2.00000
    132      -2.7220      2.00000
    133      -2.7218      2.00000
    134      -2.6655      2.00000
    135      -2.5434      2.00000
    136      -2.5428      2.00000
    137      -2.3532      2.00000
    138      -2.3525      2.00000
    139      -2.2700      2.00000
    140      -2.2008      2.00000
    141      -2.1939      2.00000
    142      -2.1936      2.00000
    143      -2.1798      2.00000
    144      -2.1794      2.00000
    145      -2.1669      2.00000
    146      -2.1663      2.00000
    147      -2.0778      2.00000
    148      -2.0371      2.00000
    149      -2.0363      2.00000
    150      -2.0320      2.00000
    151      -1.9829      2.00000
    152      -1.9822      2.00000
    153      -1.9644      2.00000
    154      -1.9636      2.00000
    155      -1.9249      2.00000
    156      -1.8732      2.00000
    157      -1.8723      2.00000
    158      -1.6878      2.00000
    159      -1.6869      2.00000
    160      -1.6755      2.00000
    161      -1.4835      2.00000
    162      -1.4825      2.00000
    163      -1.3242      2.00000
    164      -1.3238      2.00000
    165      -1.3167      2.00000
    166      -1.2277      2.00000
    167      -1.2223      2.00000
    168      -1.2214      2.00000
    169      -1.2182      2.00000
    170      -1.2166      2.00000
    171      -1.1573      2.00000
    172      -1.1570      2.00000
    173      -1.0649      2.00000
    174      -1.0635      2.00000
    175      -1.0449      2.00000
    176      -1.0431      2.00000
    177      -1.0355      2.00000
    178      -0.9657      2.00000
    179      -0.8372      2.00000
    180      -0.8196      2.00000
    181      -0.7526      2.00000
    182      -0.7487      2.00000
    183      -0.7006      2.00000
    184      -0.2472      2.00000
    185      -0.2471      2.00000
    186      -0.1355      2.00000
    187      -0.0960      2.00000
    188      -0.0946      2.00000
    189      -0.0802      2.00000
    190       0.0090      2.00000
    191       0.0337      2.00000
    192       0.0339      2.00000
    193       0.0436      2.00000
    194       0.0439      2.00000
    195       0.0945      2.00000
    196       0.1125      2.00000
    197       0.1310      2.00000
    198       0.1329      2.00000
    199       0.1868      2.00000
    200       0.2001      2.00000
    201       0.2004      2.00000
    202       0.2416      2.00000
    203       0.2447      2.00000
    204       0.2898      2.00000
    205       0.2918      2.00000
    206       0.2965      2.00000
    207       0.2971      2.00000
    208       0.3893      2.00000
    209       0.3900      2.00000
    210       0.4009      2.00000
    211       0.5653      2.00000
    212       0.6200      2.00000
    213       0.6217      2.00000
    214       0.6749      2.00000
    215       0.6960      2.00000
    216       0.8982      2.00000
    217       0.9067      2.00000
    218       0.9068      2.00000
    219       0.9089      2.00000
    220       0.9628      2.00000
    221       0.9629      2.00000
    222       0.9874      2.00000
    223       1.0023      2.00000
    224       1.0032      2.00000
    225       1.0516      2.00000
    226       1.0523      2.00000
    227       1.0540      2.00000
    228       1.1087      2.00000
    229       1.6104      2.00000
    230       1.6104      2.00000
    231       1.6737      2.00000
    232       1.6952      2.00000
    233       1.6958      2.00000
    234       2.3489      2.00000
    235       3.5608      0.00000
    236       3.5608      0.00000
    237       3.6364      0.00000
    238       3.6369      0.00000
    239       3.7790      0.00000
    240       3.7795      0.00000
    241       3.8645      0.00000
    242       3.8837      0.00000
    243       3.8842      0.00000
    244       3.9405      0.00000
    245       3.9833      0.00000
    246       3.9836      0.00000
    247       4.0200      0.00000
    248       4.0210      0.00000
    249       4.0355      0.00000
    250       4.0382      0.00000
    251       4.1696      0.00000
    252       4.1703      0.00000
    253       4.1910      0.00000
    254       4.2261      0.00000
    255       4.2267      0.00000
    256       4.2390      0.00000
    257       4.2819      0.00000
    258       4.3527      0.00000
    259       4.3537      0.00000
    260       4.4208      0.00000
    261       4.4426      0.00000
    262       4.4431      0.00000
    263       4.4970      0.00000
    264       4.5097      0.00000
    265       4.5817      0.00000
    266       4.6276      0.00000
    267       4.6632      0.00000
    268       4.7121      0.00000
    269       4.7419      0.00000
    270       4.7444      0.00000
    271       4.8099      0.00000
    272       4.8103      0.00000
    273       4.8143      0.00000
    274       4.8441      0.00000
    275       4.8449      0.00000
    276       4.9049      0.00000
    277       4.9050      0.00000
    278       5.1177      0.00000
    279       5.1408      0.00000
    280       5.1413      0.00000
    281       5.1755      0.00000
    282       5.1780      0.00000
    283       5.1836      0.00000
    284       5.1852      0.00000
    285       5.3395      0.00000
    286       5.3769      0.00000

 k-point     5 :       0.4000    0.0000    0.0000
  band No.  band energies     occupation 
      1     -59.0839      2.00000
      2     -59.0774      2.00000
      3     -59.0671      2.00000
      4     -59.0671      2.00000
      5     -59.0555      2.00000
      6     -59.0555      2.00000
      7     -59.0541      2.00000
      8     -59.0522      2.00000
      9     -59.0522      2.00000
     10     -59.0116      2.00000
     11     -59.0051      2.00000
     12     -58.9949      2.00000
     13     -58.9948      2.00000
     14     -58.9833      2.00000
     15     -58.9832      2.00000
     16     -58.9818      2.00000
     17     -58.9799      2.00000
     18     -58.9797      2.00000
     19     -33.3909      2.00000
     20     -33.3488      2.00000
     21     -33.3488      2.00000
     22     -33.3461      2.00000
     23     -33.3461      2.00000
     24     -33.3190      2.00000
     25     -33.2772      2.00000
     26     -33.2766      2.00000
     27     -33.2745      2.00000
     28     -33.2739      2.00000
     29     -33.2484      2.00000
     30     -33.2484      2.00000
     31     -33.2149      2.00000
     32     -33.2019      2.00000
     33     -33.1865      2.00000
     34     -33.1865      2.00000
     35     -33.1811      2.00000
     36     -33.1811      2.00000
     37     -33.1766      2.00000
     38     -33.1762      2.00000
     39     -33.1606      2.00000
     40     -33.1576      2.00000
     41     -33.1576      2.00000
     42     -33.1549      2.00000
     43     -33.1511      2.00000
     44     -33.1510      2.00000
     45     -33.1435      2.00000
     46     -33.1435      2.00000
     47     -33.1432      2.00000
     48     -33.1301      2.00000
     49     -33.1163      2.00000
     50     -33.1147      2.00000
     51     -33.1144      2.00000
     52     -33.1094      2.00000
     53     -33.1093      2.00000
     54     -33.1021      2.00000
     55     -33.1021      2.00000
     56     -33.0947      2.00000
     57     -33.0887      2.00000
     58     -33.0859      2.00000
     59     -33.0858      2.00000
     60     -33.0831      2.00000
     61     -33.0793      2.00000
     62     -33.0791      2.00000
     63     -33.0717      2.00000
     64     -33.0714      2.00000
     65     -33.0626      2.00000
     66     -33.0474      2.00000
     67     -33.0442      2.00000
     68     -33.0302      2.00000
     69     -33.0299      2.00000
     70     -33.0227      2.00000
     71     -32.9905      2.00000
     72     -32.9753      2.00000
     73     -12.1366      2.00000
     74     -11.9370      2.00000
     75     -11.8419      2.00000
     76     -11.6473      2.00000
     77     -11.3293      2.00000
     78     -11.3286      2.00000
     79     -11.1513      2.00000
     80     -11.1489      2.00000
     81     -10.9794      2.00000
     82     -10.8480      2.00000
     83     -10.7074      2.00000
     84     -10.6421      2.00000
     85     -10.6416      2.00000
     86     -10.6183      2.00000
     87     -10.6177      2.00000
     88     -10.6025      2.00000
     89     -10.5320      2.00000
     90     -10.5116      2.00000
     91     -10.5091      2.00000
     92     -10.4297      2.00000
     93     -10.4293      2.00000
     94     -10.4224      2.00000
     95     -10.4217      2.00000
     96     -10.4200      2.00000
     97     -10.3239      2.00000
     98     -10.3215      2.00000
     99     -10.3140      2.00000
    100     -10.3132      2.00000
    101     -10.2842      2.00000
    102     -10.2103      2.00000
    103     -10.2093      2.00000
    104     -10.1995      2.00000
    105     -10.1983      2.00000
    106     -10.1885      2.00000
    107     -10.1223      2.00000
    108     -10.1207      2.00000
    109      -4.0127      2.00000
    110      -3.8902      2.00000
    111      -3.8832      2.00000
    112      -3.6652      2.00000
    113      -3.6650      2.00000
    114      -3.6276      2.00000
    115      -3.5136      2.00000
    116      -3.5133      2.00000
    117      -3.5008      2.00000
    118      -3.5003      2.00000
    119      -3.4025      2.00000
    120      -3.4014      2.00000
    121      -3.3508      2.00000
    122      -3.3502      2.00000
    123      -3.2762      2.00000
    124      -3.2761      2.00000
    125      -3.2509      2.00000
    126      -3.2057      2.00000
    127      -3.2047      2.00000
    128      -3.0439      2.00000
    129      -3.0344      2.00000
    130      -3.0045      2.00000
    131      -3.0034      2.00000
    132      -2.9686      2.00000
    133      -2.9684      2.00000
    134      -2.8704      2.00000
    135      -2.8677      2.00000
    136      -2.8668      2.00000
    137      -2.3612      2.00000
    138      -2.1909      2.00000
    139      -2.1900      2.00000
    140      -2.1889      2.00000
    141      -2.1886      2.00000
    142      -2.1588      2.00000
    143      -2.1578      2.00000
    144      -2.1241      2.00000
    145      -2.0717      2.00000
    146      -2.0715      2.00000
    147      -1.9607      2.00000
    148      -1.9594      2.00000
    149      -1.9345      2.00000
    150      -1.9335      2.00000
    151      -1.9189      2.00000
    152      -1.9184      2.00000
    153      -1.8495      2.00000
    154      -1.7912      2.00000
    155      -1.7900      2.00000
    156      -1.7789      2.00000
    157      -1.5522      2.00000
    158      -1.4930      2.00000
    159      -1.4922      2.00000
    160      -1.4513      2.00000
    161      -1.4505      2.00000
    162      -1.4194      2.00000
    163      -1.4104      2.00000
    164      -1.4065      2.00000
    165      -1.4061      2.00000
    166      -1.3388      2.00000
    167      -1.3291      2.00000
    168      -1.2938      2.00000
    169      -1.2925      2.00000
    170      -1.2317      2.00000
    171      -1.2308      2.00000
    172      -1.1576      2.00000
    173      -1.1561      2.00000
    174      -1.1508      2.00000
    175      -1.1126      2.00000
    176      -1.0166      2.00000
    177      -1.0162      2.00000
    178      -0.8071      2.00000
    179      -0.8062      2.00000
    180      -0.6257      2.00000
    181      -0.5991      2.00000
    182      -0.5547      2.00000
    183      -0.5051      2.00000
    184      -0.4210      2.00000
    185      -0.3352      2.00000
    186      -0.3348      2.00000
    187      -0.3271      2.00000
    188      -0.2549      2.00000
    189      -0.2089      2.00000
    190      -0.2087      2.00000
    191      -0.2050      2.00000
    192      -0.1704      2.00000
    193      -0.1693      2.00000
    194      -0.1578      2.00000
    195      -0.1203      2.00000
    196      -0.1173      2.00000
    197      -0.0797      2.00000
    198      -0.0331      2.00000
    199      -0.0330      2.00000
    200       0.0870      2.00000
    201       0.0872      2.00000
    202       0.1186      2.00000
    203       0.1197      2.00000
    204       0.1571      2.00000
    205       0.2924      2.00000
    206       0.2937      2.00000
    207       0.4574      2.00000
    208       0.5277      2.00000
    209       0.6202      2.00000
    210       0.6203      2.00000
    211       0.6853      2.00000
    212       0.8342      2.00000
    213       0.8496      2.00000
    214       0.8506      2.00000
    215       0.9269      2.00000
    216       0.9787      2.00000
    217       0.9788      2.00000
    218       1.0347      2.00000
    219       1.0593      2.00000
    220       1.0597      2.00000
    221       1.0970      2.00000
    222       1.1625      2.00000
    223       1.1625      2.00000
    224       1.2159      2.00000
    225       1.2484      2.00000
    226       1.2492      2.00000
    227       1.3343      2.00000
    228       1.3667      2.00000
    229       1.3667      2.00000
    230       1.4555      2.00000
    231       1.4558      2.00000
    232       1.5215      2.00000
    233       1.5800      2.00000
    234       2.0055      2.00000
    235       3.6347      0.00000
    236       3.6350      0.00000
    237       3.8291      0.00000
    238       3.8294      0.00000
    239       3.9029      0.00000
    240       3.9038      0.00000
    241       3.9255      0.00000
    242       3.9308      0.00000
    243       3.9314      0.00000
    244       3.9666      0.00000
    245       3.9675      0.00000
    246       3.9739      0.00000
    247       4.0540      0.00000
    248       4.1384      0.00000
    249       4.1396      0.00000
    250       4.2258      0.00000
    251       4.2312      0.00000
    252       4.2322      0.00000
    253       4.2364      0.00000
    254       4.2449      0.00000
    255       4.3064      0.00000
    256       4.3160      0.00000
    257       4.3164      0.00000
    258       4.3784      0.00000
    259       4.3898      0.00000
    260       4.3899      0.00000
    261       4.3918      0.00000
    262       4.4402      0.00000
    263       4.4438      0.00000
    264       4.4582      0.00000
    265       4.5000      0.00000
    266       4.5005      0.00000
    267       4.5156      0.00000
    268       4.5162      0.00000
    269       4.5904      0.00000
    270       4.5982      0.00000
    271       4.6183      0.00000
    272       4.6551      0.00000
    273       4.6553      0.00000
    274       4.7773      0.00000
    275       4.8522      0.00000
    276       4.8533      0.00000
    277       4.8575      0.00000
    278       4.8585      0.00000
    279       4.9092      0.00000
    280       5.0260      0.00000
    281       5.0345      0.00000
    282       5.0350      0.00000
    283       5.1277      0.00000
    284       5.1289      0.00000
    285       5.2279      0.00000
    286       5.2371      0.00000

 k-point     6 :       0.4000    0.4000    0.0000
  band No.  band energies     occupation 
      1     -59.0839      2.00000
      2     -59.0774      2.00000
      3     -59.0671      2.00000
      4     -59.0671      2.00000
      5     -59.0555      2.00000
      6     -59.0555      2.00000
      7     -59.0541      2.00000
      8     -59.0522      2.00000
      9     -59.0522      2.00000
     10     -59.0116      2.00000
     11     -59.0051      2.00000
     12     -58.9949      2.00000
     13     -58.9948      2.00000
     14     -58.9833      2.00000
     15     -58.9832      2.00000
     16     -58.9818      2.00000
     17     -58.9799      2.00000
     18     -58.9798      2.00000
     19     -33.3909      2.00000
     20     -33.3488      2.00000
     21     -33.3488      2.00000
     22     -33.3461      2.00000
     23     -33.3461      2.00000
     24     -33.3190      2.00000
     25     -33.2772      2.00000
     26     -33.2766      2.00000
     27     -33.2745      2.00000
     28     -33.2739      2.00000
     29     -33.2484      2.00000
     30     -33.2484      2.00000
     31     -33.2149      2.00000
     32     -33.2019      2.00000
     33     -33.1865      2.00000
     34     -33.1865      2.00000
     35     -33.1811      2.00000
     36     -33.1811      2.00000
     37     -33.1767      2.00000
     38     -33.1762      2.00000
     39     -33.1606      2.00000
     40     -33.1576      2.00000
     41     -33.1576      2.00000
     42     -33.1549      2.00000
     43     -33.1511      2.00000
     44     -33.1510      2.00000
     45     -33.1435      2.00000
     46     -33.1435      2.00000
     47     -33.1432      2.00000
     48     -33.1301      2.00000
     49     -33.1163      2.00000
     50     -33.1147      2.00000
     51     -33.1144      2.00000
     52     -33.1094      2.00000
     53     -33.1093      2.00000
     54     -33.1021      2.00000
     55     -33.1021      2.00000
     56     -33.0947      2.00000
     57     -33.0886      2.00000
     58     -33.0859      2.00000
     59     -33.0858      2.00000
     60     -33.0831      2.00000
     61     -33.0793      2.00000
     62     -33.0791      2.00000
     63     -33.0717      2.00000
     64     -33.0713      2.00000
     65     -33.0626      2.00000
     66     -33.0474      2.00000
     67     -33.0443      2.00000
     68     -33.0302      2.00000
     69     -33.0298      2.00000
     70     -33.0226      2.00000
     71     -32.9905      2.00000
     72     -32.9754      2.00000
     73     -12.1366      2.00000
     74     -11.9370      2.00000
     75     -11.8419      2.00000
     76     -11.6474      2.00000
     77     -11.3292      2.00000
     78     -11.3286      2.00000
     79     -11.1511      2.00000
     80     -11.1489      2.00000
     81     -10.9793      2.00000
     82     -10.8480      2.00000
     83     -10.7074      2.00000
     84     -10.6420      2.00000
     85     -10.6416      2.00000
     86     -10.6185      2.00000
     87     -10.6177      2.00000
     88     -10.6025      2.00000
     89     -10.5321      2.00000
     90     -10.5115      2.00000
     91     -10.5092      2.00000
     92     -10.4297      2.00000
     93     -10.4293      2.00000
     94     -10.4228      2.00000
     95     -10.4217      2.00000
     96     -10.4201      2.00000
     97     -10.3238      2.00000
     98     -10.3215      2.00000
     99     -10.3140      2.00000
    100     -10.3132      2.00000
    101     -10.2841      2.00000
    102     -10.2103      2.00000
    103     -10.2093      2.00000
    104     -10.1996      2.00000
    105     -10.1983      2.00000
    106     -10.1881      2.00000
    107     -10.1224      2.00000
    108     -10.1206      2.00000
    109      -4.0127      2.00000
    110      -3.8900      2.00000
    111      -3.8833      2.00000
    112      -3.6653      2.00000
    113      -3.6649      2.00000
    114      -3.6277      2.00000
    115      -3.5136      2.00000
    116      -3.5133      2.00000
    117      -3.5010      2.00000
    118      -3.5004      2.00000
    119      -3.4024      2.00000
    120      -3.4013      2.00000
    121      -3.3509      2.00000
    122      -3.3503      2.00000
    123      -3.2762      2.00000
    124      -3.2761      2.00000
    125      -3.2510      2.00000
    126      -3.2058      2.00000
    127      -3.2046      2.00000
    128      -3.0439      2.00000
    129      -3.0345      2.00000
    130      -3.0045      2.00000
    131      -3.0034      2.00000
    132      -2.9686      2.00000
    133      -2.9685      2.00000
    134      -2.8710      2.00000
    135      -2.8674      2.00000
    136      -2.8670      2.00000
    137      -2.3612      2.00000
    138      -2.1908      2.00000
    139      -2.1896      2.00000
    140      -2.1891      2.00000
    141      -2.1886      2.00000
    142      -2.1583      2.00000
    143      -2.1581      2.00000
    144      -2.1245      2.00000
    145      -2.0715      2.00000
    146      -2.0714      2.00000
    147      -1.9601      2.00000
    148      -1.9595      2.00000
    149      -1.9341      2.00000
    150      -1.9335      2.00000
    151      -1.9186      2.00000
    152      -1.9182      2.00000
    153      -1.8495      2.00000
    154      -1.7908      2.00000
    155      -1.7896      2.00000
    156      -1.7792      2.00000
    157      -1.5520      2.00000
    158      -1.4927      2.00000
    159      -1.4923      2.00000
    160      -1.4511      2.00000
    161      -1.4506      2.00000
    162      -1.4195      2.00000
    163      -1.4104      2.00000
    164      -1.4063      2.00000
    165      -1.4058      2.00000
    166      -1.3392      2.00000
    167      -1.3299      2.00000
    168      -1.2929      2.00000
    169      -1.2923      2.00000
    170      -1.2313      2.00000
    171      -1.2303      2.00000
    172      -1.1576      2.00000
    173      -1.1567      2.00000
    174      -1.1504      2.00000
    175      -1.1123      2.00000
    176      -1.0168      2.00000
    177      -1.0162      2.00000
    178      -0.8074      2.00000
    179      -0.8063      2.00000
    180      -0.6257      2.00000
    181      -0.5985      2.00000
    182      -0.5543      2.00000
    183      -0.5052      2.00000
    184      -0.4220      2.00000
    185      -0.3353      2.00000
    186      -0.3348      2.00000
    187      -0.3271      2.00000
    188      -0.2547      2.00000
    189      -0.2090      2.00000
    190      -0.2087      2.00000
    191      -0.2048      2.00000
    192      -0.1708      2.00000
    193      -0.1696      2.00000
    194      -0.1579      2.00000
    195      -0.1202      2.00000
    196      -0.1174      2.00000
    197      -0.0811      2.00000
    198      -0.0331      2.00000
    199      -0.0330      2.00000
    200       0.0871      2.00000
    201       0.0872      2.00000
    202       0.1182      2.00000
    203       0.1193      2.00000
    204       0.1577      2.00000
    205       0.2922      2.00000
    206       0.2930      2.00000
    207       0.4573      2.00000
    208       0.5279      2.00000
    209       0.6200      2.00000
    210       0.6205      2.00000
    211       0.6852      2.00000
    212       0.8340      2.00000
    213       0.8494      2.00000
    214       0.8513      2.00000
    215       0.9270      2.00000
    216       0.9788      2.00000
    217       0.9788      2.00000
    218       1.0348      2.00000
    219       1.0584      2.00000
    220       1.0589      2.00000
    221       1.0972      2.00000
    222       1.1625      2.00000
    223       1.1625      2.00000
    224       1.2165      2.00000
    225       1.2482      2.00000
    226       1.2496      2.00000
    227       1.3345      2.00000
    228       1.3667      2.00000
    229       1.3667      2.00000
    230       1.4553      2.00000
    231       1.4561      2.00000
    232       1.5219      2.00000
    233       1.5801      2.00000
    234       2.0057      2.00000
    235       3.6349      0.00000
    236       3.6351      0.00000
    237       3.8291      0.00000
    238       3.8294      0.00000
    239       3.9028      0.00000
    240       3.9036      0.00000
    241       3.9257      0.00000
    242       3.9312      0.00000
    243       3.9313      0.00000
    244       3.9667      0.00000
    245       3.9673      0.00000
    246       3.9739      0.00000
    247       4.0544      0.00000
    248       4.1384      0.00000
    249       4.1395      0.00000
    250       4.2256      0.00000
    251       4.2310      0.00000
    252       4.2317      0.00000
    253       4.2367      0.00000
    254       4.2445      0.00000
    255       4.3064      0.00000
    256       4.3160      0.00000
    257       4.3165      0.00000
    258       4.3769      0.00000
    259       4.3899      0.00000
    260       4.3900      0.00000
    261       4.3915      0.00000
    262       4.4396      0.00000
    263       4.4438      0.00000
    264       4.4579      0.00000
    265       4.5002      0.00000
    266       4.5010      0.00000
    267       4.5159      0.00000
    268       4.5165      0.00000
    269       4.5904      0.00000
    270       4.5985      0.00000
    271       4.6179      0.00000
    272       4.6552      0.00000
    273       4.6554      0.00000
    274       4.7772      0.00000
    275       4.8525      0.00000
    276       4.8536      0.00000
    277       4.8568      0.00000
    278       4.8577      0.00000
    279       4.9096      0.00000
    280       5.0272      0.00000
    281       5.0346      0.00000
    282       5.0349      0.00000
    283       5.1279      0.00000
    284       5.1294      0.00000
    285       5.2283      0.00000
    286       5.2354      0.00000

 k-point     7 :       0.0000    0.4000    0.0000
  band No.  band energies     occupation 
      1     -59.0839      2.00000
      2     -59.0774      2.00000
      3     -59.0671      2.00000
      4     -59.0671      2.00000
      5     -59.0555      2.00000
      6     -59.0555      2.00000
      7     -59.0541      2.00000
      8     -59.0522      2.00000
      9     -59.0522      2.00000
     10     -59.0116      2.00000
     11     -59.0051      2.00000
     12     -58.9949      2.00000
     13     -58.9948      2.00000
     14     -58.9833      2.00000
     15     -58.9832      2.00000
     16     -58.9818      2.00000
     17     -58.9799      2.00000
     18     -58.9798      2.00000
     19     -33.3909      2.00000
     20     -33.3488      2.00000
     21     -33.3488      2.00000
     22     -33.3461      2.00000
     23     -33.3461      2.00000
     24     -33.3190      2.00000
     25     -33.2772      2.00000
     26     -33.2766      2.00000
     27     -33.2745      2.00000
     28     -33.2739      2.00000
     29     -33.2484      2.00000
     30     -33.2484      2.00000
     31     -33.2149      2.00000
     32     -33.2019      2.00000
     33     -33.1865      2.00000
     34     -33.1865      2.00000
     35     -33.1811      2.00000
     36     -33.1811      2.00000
     37     -33.1767      2.00000
     38     -33.1762      2.00000
     39     -33.1606      2.00000
     40     -33.1576      2.00000
     41     -33.1576      2.00000
     42     -33.1549      2.00000
     43     -33.1511      2.00000
     44     -33.1510      2.00000
     45     -33.1435      2.00000
     46     -33.1435      2.00000
     47     -33.1432      2.00000
     48     -33.1301      2.00000
     49     -33.1163      2.00000
     50     -33.1147      2.00000
     51     -33.1144      2.00000
     52     -33.1094      2.00000
     53     -33.1093      2.00000
     54     -33.1021      2.00000
     55     -33.1021      2.00000
     56     -33.0947      2.00000
     57     -33.0886      2.00000
     58     -33.0859      2.00000
     59     -33.0858      2.00000
     60     -33.0831      2.00000
     61     -33.0793      2.00000
     62     -33.0791      2.00000
     63     -33.0717      2.00000
     64     -33.0713      2.00000
     65     -33.0626      2.00000
     66     -33.0474      2.00000
     67     -33.0443      2.00000
     68     -33.0302      2.00000
     69     -33.0298      2.00000
     70     -33.0226      2.00000
     71     -32.9905      2.00000
     72     -32.9754      2.00000
     73     -12.1366      2.00000
     74     -11.9370      2.00000
     75     -11.8419      2.00000
     76     -11.6474      2.00000
     77     -11.3293      2.00000
     78     -11.3285      2.00000
     79     -11.1513      2.00000
     80     -11.1488      2.00000
     81     -10.9793      2.00000
     82     -10.8480      2.00000
     83     -10.7074      2.00000
     84     -10.6421      2.00000
     85     -10.6416      2.00000
     86     -10.6185      2.00000
     87     -10.6176      2.00000
     88     -10.6025      2.00000
     89     -10.5320      2.00000
     90     -10.5115      2.00000
     91     -10.5091      2.00000
     92     -10.4297      2.00000
     93     -10.4293      2.00000
     94     -10.4227      2.00000
     95     -10.4216      2.00000
     96     -10.4201      2.00000
     97     -10.3239      2.00000
     98     -10.3215      2.00000
     99     -10.3140      2.00000
    100     -10.3132      2.00000
    101     -10.2841      2.00000
    102     -10.2103      2.00000
    103     -10.2093      2.00000
    104     -10.1996      2.00000
    105     -10.1983      2.00000
    106     -10.1883      2.00000
    107     -10.1224      2.00000
    108     -10.1206      2.00000
    109      -4.0127      2.00000
    110      -3.8901      2.00000
    111      -3.8833      2.00000
    112      -3.6653      2.00000
    113      -3.6649      2.00000
    114      -3.6277      2.00000
    115      -3.5137      2.00000
    116      -3.5133      2.00000
    117      -3.5011      2.00000
    118      -3.5002      2.00000
    119      -3.4025      2.00000
    120      -3.4013      2.00000
    121      -3.3511      2.00000
    122      -3.3500      2.00000
    123      -3.2762      2.00000
    124      -3.2761      2.00000
    125      -3.2510      2.00000
    126      -3.2058      2.00000
    127      -3.2046      2.00000
    128      -3.0439      2.00000
    129      -3.0344      2.00000
    130      -3.0045      2.00000
    131      -3.0034      2.00000
    132      -2.9686      2.00000
    133      -2.9684      2.00000
    134      -2.8707      2.00000
    135      -2.8677      2.00000
    136      -2.8668      2.00000
    137      -2.3612      2.00000
    138      -2.1908      2.00000
    139      -2.1898      2.00000
    140      -2.1890      2.00000
    141      -2.1886      2.00000
    142      -2.1585      2.00000
    143      -2.1579      2.00000
    144      -2.1243      2.00000
    145      -2.0716      2.00000
    146      -2.0714      2.00000
    147      -1.9604      2.00000
    148      -1.9594      2.00000
    149      -1.9343      2.00000
    150      -1.9335      2.00000
    151      -1.9189      2.00000
    152      -1.9181      2.00000
    153      -1.8495      2.00000
    154      -1.7910      2.00000
    155      -1.7897      2.00000
    156      -1.7790      2.00000
    157      -1.5521      2.00000
    158      -1.4929      2.00000
    159      -1.4921      2.00000
    160      -1.4513      2.00000
    161      -1.4504      2.00000
    162      -1.4194      2.00000
    163      -1.4104      2.00000
    164      -1.4064      2.00000
    165      -1.4059      2.00000
    166      -1.3390      2.00000
    167      -1.3295      2.00000
    168      -1.2934      2.00000
    169      -1.2924      2.00000
    170      -1.2315      2.00000
    171      -1.2305      2.00000
    172      -1.1577      2.00000
    173      -1.1563      2.00000
    174      -1.1506      2.00000
    175      -1.1125      2.00000
    176      -1.0168      2.00000
    177      -1.0160      2.00000
    178      -0.8076      2.00000
    179      -0.8058      2.00000
    180      -0.6257      2.00000
    181      -0.5988      2.00000
    182      -0.5545      2.00000
    183      -0.5051      2.00000
    184      -0.4215      2.00000
    185      -0.3354      2.00000
    186      -0.3346      2.00000
    187      -0.3271      2.00000
    188      -0.2548      2.00000
    189      -0.2089      2.00000
    190      -0.2087      2.00000
    191      -0.2049      2.00000
    192      -0.1710      2.00000
    193      -0.1691      2.00000
    194      -0.1578      2.00000
    195      -0.1204      2.00000
    196      -0.1172      2.00000
    197      -0.0804      2.00000
    198      -0.0331      2.00000
    199      -0.0330      2.00000
    200       0.0870      2.00000
    201       0.0872      2.00000
    202       0.1184      2.00000
    203       0.1196      2.00000
    204       0.1574      2.00000
    205       0.2922      2.00000
    206       0.2933      2.00000
    207       0.4573      2.00000
    208       0.5278      2.00000
    209       0.6201      2.00000
    210       0.6204      2.00000
    211       0.6853      2.00000
    212       0.8341      2.00000
    213       0.8495      2.00000
    214       0.8510      2.00000
    215       0.9269      2.00000
    216       0.9787      2.00000
    217       0.9788      2.00000
    218       1.0348      2.00000
    219       1.0587      2.00000
    220       1.0595      2.00000
    221       1.0971      2.00000
    222       1.1625      2.00000
    223       1.1625      2.00000
    224       1.2162      2.00000
    225       1.2482      2.00000
    226       1.2495      2.00000
    227       1.3344      2.00000
    228       1.3667      2.00000
    229       1.3668      2.00000
    230       1.4553      2.00000
    231       1.4560      2.00000
    232       1.5217      2.00000
    233       1.5801      2.00000
    234       2.0056      2.00000
    235       3.6347      0.00000
    236       3.6352      0.00000
    237       3.8291      0.00000
    238       3.8294      0.00000
    239       3.9029      0.00000
    240       3.9037      0.00000
    241       3.9256      0.00000
    242       3.9310      0.00000
    243       3.9314      0.00000
    244       3.9667      0.00000
    245       3.9674      0.00000
    246       3.9739      0.00000
    247       4.0542      0.00000
    248       4.1384      0.00000
    249       4.1396      0.00000
    250       4.2257      0.00000
    251       4.2311      0.00000
    252       4.2320      0.00000
    253       4.2365      0.00000
    254       4.2447      0.00000
    255       4.3064      0.00000
    256       4.3160      0.00000
    257       4.3165      0.00000
    258       4.3776      0.00000
    259       4.3898      0.00000
    260       4.3900      0.00000
    261       4.3917      0.00000
    262       4.4399      0.00000
    263       4.4438      0.00000
    264       4.4580      0.00000
    265       4.5000      0.00000
    266       4.5009      0.00000
    267       4.5157      0.00000
    268       4.5165      0.00000
    269       4.5904      0.00000
    270       4.5983      0.00000
    271       4.6181      0.00000
    272       4.6552      0.00000
    273       4.6554      0.00000
    274       4.7772      0.00000
    275       4.8523      0.00000
    276       4.8535      0.00000
    277       4.8575      0.00000
    278       4.8577      0.00000
    279       4.9094      0.00000
    280       5.0266      0.00000
    281       5.0345      0.00000
    282       5.0350      0.00000
    283       5.1278      0.00000
    284       5.1291      0.00000
    285       5.2285      0.00000
    286       5.2373      0.00000

 k-point     8 :       0.4000    0.2000    0.0000
  band No.  band energies     occupation 
      1     -59.0853      2.00000
      2     -59.0729      2.00000
      3     -59.0729      2.00000
      4     -59.0606      2.00000
      5     -59.0606      2.00000
      6     -59.0549      2.00000
      7     -59.0549      2.00000
      8     -59.0520      2.00000
      9     -59.0509      2.00000
     10     -59.0130      2.00000
     11     -59.0008      2.00000
     12     -59.0004      2.00000
     13     -58.9885      2.00000
     14     -58.9881      2.00000
     15     -58.9828      2.00000
     16     -58.9824      2.00000
     17     -58.9797      2.00000
     18     -58.9786      2.00000
     19     -33.3753      2.00000
     20     -33.3753      2.00000
     21     -33.3533      2.00000
     22     -33.3306      2.00000
     23     -33.3050      2.00000
     24     -33.3050      2.00000
     25     -33.3037      2.00000
     26     -33.3033      2.00000
     27     -33.2814      2.00000
     28     -33.2587      2.00000
     29     -33.2333      2.00000
     30     -33.2329      2.00000
     31     -33.2178      2.00000
     32     -33.2044      2.00000
     33     -33.2023      2.00000
     34     -33.2023      2.00000
     35     -33.1947      2.00000
     36     -33.1928      2.00000
     37     -33.1928      2.00000
     38     -33.1679      2.00000
     39     -33.1679      2.00000
     40     -33.1564      2.00000
     41     -33.1564      2.00000
     42     -33.1507      2.00000
     43     -33.1485      2.00000
     44     -33.1460      2.00000
     45     -33.1324      2.00000
     46     -33.1305      2.00000
     47     -33.1301      2.00000
     48     -33.1253      2.00000
     49     -33.1253      2.00000
     50     -33.1232      2.00000
     51     -33.1232      2.00000
     52     -33.1227      2.00000
     53     -33.1211      2.00000
     54     -33.1208      2.00000
     55     -33.0963      2.00000
     56     -33.0960      2.00000
     57     -33.0848      2.00000
     58     -33.0844      2.00000
     59     -33.0796      2.00000
     60     -33.0789      2.00000
     61     -33.0768      2.00000
     62     -33.0768      2.00000
     63     -33.0766      2.00000
     64     -33.0534      2.00000
     65     -33.0532      2.00000
     66     -33.0514      2.00000
     67     -33.0509      2.00000
     68     -33.0446      2.00000
     69     -33.0076      2.00000
     70     -33.0050      2.00000
     71     -33.0046      2.00000
     72     -32.9726      2.00000
     73     -12.1987      2.00000
     74     -11.9983      2.00000
     75     -11.6250      2.00000
     76     -11.6243      2.00000
     77     -11.4367      2.00000
     78     -11.4345      2.00000
     79     -11.0071      2.00000
     80     -10.9624      2.00000
     81     -10.9618      2.00000
     82     -10.8040      2.00000
     83     -10.8017      2.00000
     84     -10.7513      2.00000
     85     -10.7508      2.00000
     86     -10.7297      2.00000
     87     -10.5909      2.00000
     88     -10.5905      2.00000
     89     -10.5261      2.00000
     90     -10.5258      2.00000
     91     -10.4701      2.00000
     92     -10.4677      2.00000
     93     -10.4549      2.00000
     94     -10.4542      2.00000
     95     -10.4245      2.00000
     96     -10.3360      2.00000
     97     -10.3163      2.00000
     98     -10.3031      2.00000
     99     -10.3022      2.00000
    100     -10.2992      2.00000
    101     -10.2986      2.00000
    102     -10.2464      2.00000
    103     -10.2016      2.00000
    104     -10.1981      2.00000
    105     -10.1970      2.00000
    106     -10.1711      2.00000
    107     -10.1128      2.00000
    108     -10.0937      2.00000
    109      -3.9464      2.00000
    110      -3.8879      2.00000
    111      -3.8875      2.00000
    112      -3.7550      2.00000
    113      -3.7536      2.00000
    114      -3.5208      2.00000
    115      -3.5002      2.00000
    116      -3.4993      2.00000
    117      -3.4957      2.00000
    118      -3.4947      2.00000
    119      -3.4010      2.00000
    120      -3.3929      2.00000
    121      -3.3720      2.00000
    122      -3.3107      2.00000
    123      -3.3092      2.00000
    124      -3.3023      2.00000
    125      -3.2575      2.00000
    126      -3.2562      2.00000
    127      -3.2555      2.00000
    128      -3.1671      2.00000
    129      -3.0045      2.00000
    130      -3.0043      2.00000
    131      -2.9690      2.00000
    132      -2.9668      2.00000
    133      -2.8503      2.00000
    134      -2.8487      2.00000
    135      -2.5608      2.00000
    136      -2.5602      2.00000
    137      -2.4555      2.00000
    138      -2.4539      2.00000
    139      -2.3060      2.00000
    140      -2.3055      2.00000
    141      -2.2569      2.00000
    142      -2.0951      2.00000
    143      -2.0947      2.00000
    144      -2.0687      2.00000
    145      -2.0670      2.00000
    146      -2.0516      2.00000
    147      -2.0515      2.00000
    148      -2.0190      2.00000
    149      -1.9763      2.00000
    150      -1.9755      2.00000
    151      -1.9431      2.00000
    152      -1.9021      2.00000
    153      -1.9013      2.00000
    154      -1.8824      2.00000
    155      -1.7500      2.00000
    156      -1.7494      2.00000
    157      -1.5058      2.00000
    158      -1.5049      2.00000
    159      -1.4489      2.00000
    160      -1.4310      2.00000
    161      -1.4300      2.00000
    162      -1.4070      2.00000
    163      -1.4069      2.00000
    164      -1.3618      2.00000
    165      -1.3567      2.00000
    166      -1.3199      2.00000
    167      -1.3179      2.00000
    168      -1.2936      2.00000
    169      -1.2752      2.00000
    170      -1.2517      2.00000
    171      -1.2500      2.00000
    172      -1.2244      2.00000
    173      -1.2229      2.00000
    174      -1.1528      2.00000
    175      -1.0446      2.00000
    176      -0.9855      2.00000
    177      -0.8807      2.00000
    178      -0.8803      2.00000
    179      -0.8146      2.00000
    180      -0.7898      2.00000
    181      -0.7888      2.00000
    182      -0.6908      2.00000
    183      -0.6212      2.00000
    184      -0.4262      2.00000
    185      -0.2893      2.00000
    186      -0.2888      2.00000
    187      -0.1838      2.00000
    188      -0.1836      2.00000
    189      -0.1785      2.00000
    190      -0.1761      2.00000
    191      -0.1453      2.00000
    192      -0.1248      2.00000
    193      -0.1243      2.00000
    194      -0.1224      2.00000
    195      -0.1041      2.00000
    196      -0.1031      2.00000
    197      -0.0480      2.00000
    198      -0.0206      2.00000
    199      -0.0043      2.00000
    200       0.1307      2.00000
    201       0.1939      2.00000
    202       0.1950      2.00000
    203       0.3140      2.00000
    204       0.3143      2.00000
    205       0.3632      2.00000
    206       0.3637      2.00000
    207       0.4624      2.00000
    208       0.4635      2.00000
    209       0.5249      2.00000
    210       0.5257      2.00000
    211       0.5545      2.00000
    212       0.5589      2.00000
    213       0.5611      2.00000
    214       0.8935      2.00000
    215       0.8958      2.00000
    216       0.9822      2.00000
    217       0.9823      2.00000
    218       1.0467      2.00000
    219       1.0692      2.00000
    220       1.0707      2.00000
    221       1.1426      2.00000
    222       1.1432      2.00000
    223       1.1529      2.00000
    224       1.1531      2.00000
    225       1.2521      2.00000
    226       1.2536      2.00000
    227       1.2540      2.00000
    228       1.2556      2.00000
    229       1.3689      2.00000
    230       1.4533      2.00000
    231       1.4953      2.00000
    232       1.5920      2.00000
    233       1.6187      2.00000
    234       2.1203      2.00000
    235       3.7207      0.00000
    236       3.7211      0.00000
    237       3.7587      0.00000
    238       3.7700      0.00000
    239       3.7899      0.00000
    240       3.7902      0.00000
    241       3.8294      0.00000
    242       3.9295      0.00000
    243       3.9809      0.00000
    244       3.9811      0.00000
    245       4.0513      0.00000
    246       4.0521      0.00000
    247       4.0542      0.00000
    248       4.0562      0.00000
    249       4.0607      0.00000
    250       4.0615      0.00000
    251       4.2254      0.00000
    252       4.2265      0.00000
    253       4.2883      0.00000
    254       4.2885      0.00000
    255       4.2944      0.00000
    256       4.2957      0.00000
    257       4.2984      0.00000
    258       4.3437      0.00000
    259       4.3815      0.00000
    260       4.3821      0.00000
    261       4.3836      0.00000
    262       4.3879      0.00000
    263       4.3883      0.00000
    264       4.4774      0.00000
    265       4.4782      0.00000
    266       4.5338      0.00000
    267       4.5614      0.00000
    268       4.5627      0.00000
    269       4.5658      0.00000
    270       4.6607      0.00000
    271       4.6782      0.00000
    272       4.8016      0.00000
    273       4.8020      0.00000
    274       4.8270      0.00000
    275       4.8276      0.00000
    276       4.8378      0.00000
    277       4.8511      0.00000
    278       4.8623      0.00000
    279       4.9291      0.00000
    280       4.9550      0.00000
    281       5.0149      0.00000
    282       5.0850      0.00000
    283       5.1015      0.00000
    284       5.1026      0.00000
    285       5.1381      0.00000
    286       5.3032      0.00000

 k-point     9 :       0.2000    0.4000    0.0000
  band No.  band energies     occupation 
      1     -59.0853      2.00000
      2     -59.0729      2.00000
      3     -59.0729      2.00000
      4     -59.0606      2.00000
      5     -59.0606      2.00000
      6     -59.0549      2.00000
      7     -59.0549      2.00000
      8     -59.0520      2.00000
      9     -59.0509      2.00000
     10     -59.0130      2.00000
     11     -59.0008      2.00000
     12     -59.0004      2.00000
     13     -58.9885      2.00000
     14     -58.9881      2.00000
     15     -58.9828      2.00000
     16     -58.9824      2.00000
     17     -58.9797      2.00000
     18     -58.9786      2.00000
     19     -33.3754      2.00000
     20     -33.3753      2.00000
     21     -33.3533      2.00000
     22     -33.3306      2.00000
     23     -33.3051      2.00000
     24     -33.3050      2.00000
     25     -33.3036      2.00000
     26     -33.3033      2.00000
     27     -33.2815      2.00000
     28     -33.2587      2.00000
     29     -33.2334      2.00000
     30     -33.2329      2.00000
     31     -33.2178      2.00000
     32     -33.2044      2.00000
     33     -33.2023      2.00000
     34     -33.2023      2.00000
     35     -33.1947      2.00000
     36     -33.1928      2.00000
     37     -33.1928      2.00000
     38     -33.1680      2.00000
     39     -33.1679      2.00000
     40     -33.1564      2.00000
     41     -33.1564      2.00000
     42     -33.1507      2.00000
     43     -33.1485      2.00000
     44     -33.1460      2.00000
     45     -33.1325      2.00000
     46     -33.1305      2.00000
     47     -33.1302      2.00000
     48     -33.1253      2.00000
     49     -33.1253      2.00000
     50     -33.1232      2.00000
     51     -33.1232      2.00000
     52     -33.1227      2.00000
     53     -33.1212      2.00000
     54     -33.1207      2.00000
     55     -33.0964      2.00000
     56     -33.0959      2.00000
     57     -33.0848      2.00000
     58     -33.0844      2.00000
     59     -33.0796      2.00000
     60     -33.0789      2.00000
     61     -33.0768      2.00000
     62     -33.0768      2.00000
     63     -33.0766      2.00000
     64     -33.0533      2.00000
     65     -33.0532      2.00000
     66     -33.0514      2.00000
     67     -33.0509      2.00000
     68     -33.0446      2.00000
     69     -33.0075      2.00000
     70     -33.0050      2.00000
     71     -33.0046      2.00000
     72     -32.9726      2.00000
     73     -12.1988      2.00000
     74     -11.9983      2.00000
     75     -11.6251      2.00000
     76     -11.6242      2.00000
     77     -11.4368      2.00000
     78     -11.4344      2.00000
     79     -11.0071      2.00000
     80     -10.9624      2.00000
     81     -10.9618      2.00000
     82     -10.8039      2.00000
     83     -10.8017      2.00000
     84     -10.7513      2.00000
     85     -10.7507      2.00000
     86     -10.7297      2.00000
     87     -10.5909      2.00000
     88     -10.5905      2.00000
     89     -10.5262      2.00000
     90     -10.5257      2.00000
     91     -10.4702      2.00000
     92     -10.4676      2.00000
     93     -10.4549      2.00000
     94     -10.4542      2.00000
     95     -10.4246      2.00000
     96     -10.3360      2.00000
     97     -10.3164      2.00000
     98     -10.3031      2.00000
     99     -10.3022      2.00000
    100     -10.2993      2.00000
    101     -10.2985      2.00000
    102     -10.2463      2.00000
    103     -10.2015      2.00000
    104     -10.1980      2.00000
    105     -10.1970      2.00000
    106     -10.1711      2.00000
    107     -10.1127      2.00000
    108     -10.0939      2.00000
    109      -3.9464      2.00000
    110      -3.8879      2.00000
    111      -3.8875      2.00000
    112      -3.7551      2.00000
    113      -3.7534      2.00000
    114      -3.5208      2.00000
    115      -3.5002      2.00000
    116      -3.4993      2.00000
    117      -3.4958      2.00000
    118      -3.4947      2.00000
    119      -3.4010      2.00000
    120      -3.3929      2.00000
    121      -3.3721      2.00000
    122      -3.3108      2.00000
    123      -3.3089      2.00000
    124      -3.3023      2.00000
    125      -3.2577      2.00000
    126      -3.2563      2.00000
    127      -3.2555      2.00000
    128      -3.1671      2.00000
    129      -3.0045      2.00000
    130      -3.0043      2.00000
    131      -2.9691      2.00000
    132      -2.9668      2.00000
    133      -2.8506      2.00000
    134      -2.8488      2.00000
    135      -2.5608      2.00000
    136      -2.5602      2.00000
    137      -2.4554      2.00000
    138      -2.4538      2.00000
    139      -2.3061      2.00000
    140      -2.3055      2.00000
    141      -2.2568      2.00000
    142      -2.0951      2.00000
    143      -2.0946      2.00000
    144      -2.0691      2.00000
    145      -2.0667      2.00000
    146      -2.0517      2.00000
    147      -2.0515      2.00000
    148      -2.0190      2.00000
    149      -1.9761      2.00000
    150      -1.9757      2.00000
    151      -1.9430      2.00000
    152      -1.9020      2.00000
    153      -1.9011      2.00000
    154      -1.8825      2.00000
    155      -1.7499      2.00000
    156      -1.7495      2.00000
    157      -1.5056      2.00000
    158      -1.5048      2.00000
    159      -1.4489      2.00000
    160      -1.4307      2.00000
    161      -1.4301      2.00000
    162      -1.4070      2.00000
    163      -1.4069      2.00000
    164      -1.3617      2.00000
    165      -1.3568      2.00000
    166      -1.3201      2.00000
    167      -1.3178      2.00000
    168      -1.2936      2.00000
    169      -1.2753      2.00000
    170      -1.2514      2.00000
    171      -1.2501      2.00000
    172      -1.2243      2.00000
    173      -1.2230      2.00000
    174      -1.1527      2.00000
    175      -1.0446      2.00000
    176      -0.9854      2.00000
    177      -0.8807      2.00000
    178      -0.8803      2.00000
    179      -0.8146      2.00000
    180      -0.7905      2.00000
    181      -0.7886      2.00000
    182      -0.6908      2.00000
    183      -0.6210      2.00000
    184      -0.4258      2.00000
    185      -0.2893      2.00000
    186      -0.2888      2.00000
    187      -0.1838      2.00000
    188      -0.1836      2.00000
    189      -0.1789      2.00000
    190      -0.1760      2.00000
    191      -0.1453      2.00000
    192      -0.1248      2.00000
    193      -0.1244      2.00000
    194      -0.1224      2.00000
    195      -0.1040      2.00000
    196      -0.1031      2.00000
    197      -0.0488      2.00000
    198      -0.0207      2.00000
    199      -0.0047      2.00000
    200       0.1307      2.00000
    201       0.1939      2.00000
    202       0.1952      2.00000
    203       0.3139      2.00000
    204       0.3143      2.00000
    205       0.3631      2.00000
    206       0.3637      2.00000
    207       0.4624      2.00000
    208       0.4634      2.00000
    209       0.5248      2.00000
    210       0.5257      2.00000
    211       0.5548      2.00000
    212       0.5589      2.00000
    213       0.5608      2.00000
    214       0.8935      2.00000
    215       0.8960      2.00000
    216       0.9822      2.00000
    217       0.9823      2.00000
    218       1.0468      2.00000
    219       1.0690      2.00000
    220       1.0705      2.00000
    221       1.1425      2.00000
    222       1.1432      2.00000
    223       1.1529      2.00000
    224       1.1532      2.00000
    225       1.2525      2.00000
    226       1.2535      2.00000
    227       1.2540      2.00000
    228       1.2557      2.00000
    229       1.3689      2.00000
    230       1.4533      2.00000
    231       1.4953      2.00000
    232       1.5920      2.00000
    233       1.6188      2.00000
    234       2.1204      2.00000
    235       3.7207      0.00000
    236       3.7211      0.00000
    237       3.7587      0.00000
    238       3.7701      0.00000
    239       3.7899      0.00000
    240       3.7903      0.00000
    241       3.8292      0.00000
    242       3.9295      0.00000
    243       3.9809      0.00000
    244       3.9810      0.00000
    245       4.0513      0.00000
    246       4.0521      0.00000
    247       4.0542      0.00000
    248       4.0563      0.00000
    249       4.0609      0.00000
    250       4.0614      0.00000
    251       4.2254      0.00000
    252       4.2265      0.00000
    253       4.2882      0.00000
    254       4.2885      0.00000
    255       4.2944      0.00000
    256       4.2955      0.00000
    257       4.2984      0.00000
    258       4.3438      0.00000
    259       4.3813      0.00000
    260       4.3817      0.00000
    261       4.3834      0.00000
    262       4.3879      0.00000
    263       4.3883      0.00000
    264       4.4774      0.00000
    265       4.4783      0.00000
    266       4.5336      0.00000
    267       4.5615      0.00000
    268       4.5627      0.00000
    269       4.5658      0.00000
    270       4.6607      0.00000
    271       4.6784      0.00000
    272       4.8016      0.00000
    273       4.8021      0.00000
    274       4.8270      0.00000
    275       4.8273      0.00000
    276       4.8378      0.00000
    277       4.8512      0.00000
    278       4.8625      0.00000
    279       4.9293      0.00000
    280       4.9557      0.00000
    281       5.0146      0.00000
    282       5.0850      0.00000
    283       5.1016      0.00000
    284       5.1023      0.00000
    285       5.1382      0.00000
    286       5.3027      0.00000

 k-point    10 :      -0.2000    0.2000    0.0000
  band No.  band energies     occupation 
      1     -59.0853      2.00000
      2     -59.0729      2.00000
      3     -59.0729      2.00000
      4     -59.0606      2.00000
      5     -59.0606      2.00000
      6     -59.0549      2.00000
      7     -59.0549      2.00000
      8     -59.0520      2.00000
      9     -59.0509      2.00000
     10     -59.0130      2.00000
     11     -59.0009      2.00000
     12     -59.0003      2.00000
     13     -58.9886      2.00000
     14     -58.9880      2.00000
     15     -58.9829      2.00000
     16     -58.9824      2.00000
     17     -58.9797      2.00000
     18     -58.9786      2.00000
     19     -33.3754      2.00000
     20     -33.3753      2.00000
     21     -33.3533      2.00000
     22     -33.3306      2.00000
     23     -33.3051      2.00000
     24     -33.3050      2.00000
     25     -33.3037      2.00000
     26     -33.3033      2.00000
     27     -33.2814      2.00000
     28     -33.2588      2.00000
     29     -33.2333      2.00000
     30     -33.2328      2.00000
     31     -33.2178      2.00000
     32     -33.2044      2.00000
     33     -33.2023      2.00000
     34     -33.2023      2.00000
     35     -33.1947      2.00000
     36     -33.1928      2.00000
     37     -33.1928      2.00000
     38     -33.1680      2.00000
     39     -33.1679      2.00000
     40     -33.1564      2.00000
     41     -33.1564      2.00000
     42     -33.1507      2.00000
     43     -33.1485      2.00000
     44     -33.1460      2.00000
     45     -33.1324      2.00000
     46     -33.1305      2.00000
     47     -33.1301      2.00000
     48     -33.1253      2.00000
     49     -33.1253      2.00000
     50     -33.1232      2.00000
     51     -33.1232      2.00000
     52     -33.1228      2.00000
     53     -33.1211      2.00000
     54     -33.1208      2.00000
     55     -33.0963      2.00000
     56     -33.0960      2.00000
     57     -33.0848      2.00000
     58     -33.0844      2.00000
     59     -33.0796      2.00000
     60     -33.0789      2.00000
     61     -33.0768      2.00000
     62     -33.0768      2.00000
     63     -33.0766      2.00000
     64     -33.0534      2.00000
     65     -33.0532      2.00000
     66     -33.0514      2.00000
     67     -33.0509      2.00000
     68     -33.0446      2.00000
     69     -33.0076      2.00000
     70     -33.0050      2.00000
     71     -33.0046      2.00000
     72     -32.9725      2.00000
     73     -12.1987      2.00000
     74     -11.9983      2.00000
     75     -11.6250      2.00000
     76     -11.6243      2.00000
     77     -11.4367      2.00000
     78     -11.4345      2.00000
     79     -11.0071      2.00000
     80     -10.9625      2.00000
     81     -10.9618      2.00000
     82     -10.8041      2.00000
     83     -10.8017      2.00000
     84     -10.7513      2.00000
     85     -10.7507      2.00000
     86     -10.7297      2.00000
     87     -10.5909      2.00000
     88     -10.5905      2.00000
     89     -10.5262      2.00000
     90     -10.5257      2.00000
     91     -10.4699      2.00000
     92     -10.4677      2.00000
     93     -10.4548      2.00000
     94     -10.4542      2.00000
     95     -10.4245      2.00000
     96     -10.3360      2.00000
     97     -10.3163      2.00000
     98     -10.3032      2.00000
     99     -10.3022      2.00000
    100     -10.2990      2.00000
    101     -10.2986      2.00000
    102     -10.2465      2.00000
    103     -10.2016      2.00000
    104     -10.1983      2.00000
    105     -10.1970      2.00000
    106     -10.1711      2.00000
    107     -10.1129      2.00000
    108     -10.0936      2.00000
    109      -3.9463      2.00000
    110      -3.8879      2.00000
    111      -3.8876      2.00000
    112      -3.7548      2.00000
    113      -3.7538      2.00000
    114      -3.5208      2.00000
    115      -3.5002      2.00000
    116      -3.4994      2.00000
    117      -3.4957      2.00000
    118      -3.4947      2.00000
    119      -3.4010      2.00000
    120      -3.3929      2.00000
    121      -3.3720      2.00000
    122      -3.3107      2.00000
    123      -3.3093      2.00000
    124      -3.3023      2.00000
    125      -3.2573      2.00000
    126      -3.2562      2.00000
    127      -3.2556      2.00000
    128      -3.1671      2.00000
    129      -3.0044      2.00000
    130      -3.0044      2.00000
    131      -2.9690      2.00000
    132      -2.9668      2.00000
    133      -2.8501      2.00000
    134      -2.8486      2.00000
    135      -2.5608      2.00000
    136      -2.5602      2.00000
    137      -2.4558      2.00000
    138      -2.4539      2.00000
    139      -2.3059      2.00000
    140      -2.3056      2.00000
    141      -2.2570      2.00000
    142      -2.0951      2.00000
    143      -2.0948      2.00000
    144      -2.0682      2.00000
    145      -2.0672      2.00000
    146      -2.0517      2.00000
    147      -2.0515      2.00000
    148      -2.0191      2.00000
    149      -1.9764      2.00000
    150      -1.9754      2.00000
    151      -1.9433      2.00000
    152      -1.9022      2.00000
    153      -1.9015      2.00000
    154      -1.8824      2.00000
    155      -1.7504      2.00000
    156      -1.7491      2.00000
    157      -1.5060      2.00000
    158      -1.5048      2.00000
    159      -1.4489      2.00000
    160      -1.4315      2.00000
    161      -1.4299      2.00000
    162      -1.4069      2.00000
    163      -1.4069      2.00000
    164      -1.3618      2.00000
    165      -1.3566      2.00000
    166      -1.3197      2.00000
    167      -1.3180      2.00000
    168      -1.2936      2.00000
    169      -1.2751      2.00000
    170      -1.2519      2.00000
    171      -1.2500      2.00000
    172      -1.2244      2.00000
    173      -1.2229      2.00000
    174      -1.1529      2.00000
    175      -1.0446      2.00000
    176      -0.9857      2.00000
    177      -0.8807      2.00000
    178      -0.8803      2.00000
    179      -0.8146      2.00000
    180      -0.7895      2.00000
    181      -0.7885      2.00000
    182      -0.6908      2.00000
    183      -0.6215      2.00000
    184      -0.4265      2.00000
    185      -0.2893      2.00000
    186      -0.2889      2.00000
    187      -0.1837      2.00000
    188      -0.1836      2.00000
    189      -0.1781      2.00000
    190      -0.1762      2.00000
    191      -0.1453      2.00000
    192      -0.1248      2.00000
    193      -0.1243      2.00000
    194      -0.1223      2.00000
    195      -0.1042      2.00000
    196      -0.1031      2.00000
    197      -0.0472      2.00000
    198      -0.0206      2.00000
    199      -0.0040      2.00000
    200       0.1307      2.00000
    201       0.1939      2.00000
    202       0.1948      2.00000
    203       0.3140      2.00000
    204       0.3144      2.00000
    205       0.3632      2.00000
    206       0.3636      2.00000
    207       0.4624      2.00000
    208       0.4636      2.00000
    209       0.5250      2.00000
    210       0.5257      2.00000
    211       0.5544      2.00000
    212       0.5589      2.00000
    213       0.5612      2.00000
    214       0.8935      2.00000
    215       0.8956      2.00000
    216       0.9823      2.00000
    217       0.9823      2.00000
    218       1.0466      2.00000
    219       1.0695      2.00000
    220       1.0707      2.00000
    221       1.1426      2.00000
    222       1.1431      2.00000
    223       1.1528      2.00000
    224       1.1531      2.00000
    225       1.2519      2.00000
    226       1.2537      2.00000
    227       1.2541      2.00000
    228       1.2552      2.00000
    229       1.3689      2.00000
    230       1.4532      2.00000
    231       1.4953      2.00000
    232       1.5921      2.00000
    233       1.6187      2.00000
    234       2.1202      2.00000
    235       3.7206      0.00000
    236       3.7211      0.00000
    237       3.7587      0.00000
    238       3.7700      0.00000
    239       3.7899      0.00000
    240       3.7902      0.00000
    241       3.8295      0.00000
    242       3.9294      0.00000
    243       3.9809      0.00000
    244       3.9811      0.00000
    245       4.0511      0.00000
    246       4.0523      0.00000
    247       4.0541      0.00000
    248       4.0561      0.00000
    249       4.0607      0.00000
    250       4.0615      0.00000
    251       4.2253      0.00000
    252       4.2266      0.00000
    253       4.2883      0.00000
    254       4.2886      0.00000
    255       4.2945      0.00000
    256       4.2960      0.00000
    257       4.2983      0.00000
    258       4.3436      0.00000
    259       4.3816      0.00000
    260       4.3821      0.00000
    261       4.3841      0.00000
    262       4.3878      0.00000
    263       4.3882      0.00000
    264       4.4774      0.00000
    265       4.4781      0.00000
    266       4.5340      0.00000
    267       4.5613      0.00000
    268       4.5627      0.00000
    269       4.5658      0.00000
    270       4.6607      0.00000
    271       4.6781      0.00000
    272       4.8015      0.00000
    273       4.8020      0.00000
    274       4.8272      0.00000
    275       4.8278      0.00000
    276       4.8377      0.00000
    277       4.8511      0.00000
    278       4.8621      0.00000
    279       4.9289      0.00000
    280       4.9543      0.00000
    281       5.0151      0.00000
    282       5.0850      0.00000
    283       5.1016      0.00000
    284       5.1026      0.00000
    285       5.1380      0.00000
    286       5.3032      0.00000

 k-point    11 :      -0.4000    0.2000    0.0000
  band No.  band energies     occupation 
      1     -59.0799      2.00000
      2     -59.0799      2.00000
      3     -59.0739      2.00000
      4     -59.0611      2.00000
      5     -59.0558      2.00000
      6     -59.0558      2.00000
      7     -59.0533      2.00000
      8     -59.0527      2.00000
      9     -59.0527      2.00000
     10     -59.0078      2.00000
     11     -59.0074      2.00000
     12     -59.0016      2.00000
     13     -58.9888      2.00000
     14     -58.9837      2.00000
     15     -58.9833      2.00000
     16     -58.9812      2.00000
     17     -58.9805      2.00000
     18     -58.9800      2.00000
     19     -33.3898      2.00000
     20     -33.3726      2.00000
     21     -33.3725      2.00000
     22     -33.3249      2.00000
     23     -33.3249      2.00000
     24     -33.3180      2.00000
     25     -33.3008      2.00000
     26     -33.3005      2.00000
     27     -33.2912      2.00000
     28     -33.2532      2.00000
     29     -33.2528      2.00000
     30     -33.2192      2.00000
     31     -33.2068      2.00000
     32     -33.2068      2.00000
     33     -33.1949      2.00000
     34     -33.1880      2.00000
     35     -33.1689      2.00000
     36     -33.1642      2.00000
     37     -33.1642      2.00000
     38     -33.1583      2.00000
     39     -33.1583      2.00000
     40     -33.1536      2.00000
     41     -33.1535      2.00000
     42     -33.1533      2.00000
     43     -33.1520      2.00000
     44     -33.1519      2.00000
     45     -33.1353      2.00000
     46     -33.1348      2.00000
     47     -33.1338      2.00000
     48     -33.1337      2.00000
     49     -33.1335      2.00000
     50     -33.1271      2.00000
     51     -33.1231      2.00000
     52     -33.1160      2.00000
     53     -33.0971      2.00000
     54     -33.0923      2.00000
     55     -33.0921      2.00000
     56     -33.0867      2.00000
     57     -33.0862      2.00000
     58     -33.0818      2.00000
     59     -33.0815      2.00000
     60     -33.0814      2.00000
     61     -33.0804      2.00000
     62     -33.0798      2.00000
     63     -33.0783      2.00000
     64     -33.0620      2.00000
     65     -33.0616      2.00000
     66     -33.0614      2.00000
     67     -33.0588      2.00000
     68     -33.0587      2.00000
     69     -33.0551      2.00000
     70     -33.0063      2.00000
     71     -32.9868      2.00000
     72     -32.9866      2.00000
     73     -11.9568      2.00000
     74     -11.9559      2.00000
     75     -11.7607      2.00000
     76     -11.7583      2.00000
     77     -11.6764      2.00000
     78     -11.4858      2.00000
     79     -10.9932      2.00000
     80     -10.8991      2.00000
     81     -10.8985      2.00000
     82     -10.8313      2.00000
     83     -10.7735      2.00000
     84     -10.6716      2.00000
     85     -10.6711      2.00000
     86     -10.6431      2.00000
     87     -10.6426      2.00000
     88     -10.5433      2.00000
     89     -10.5354      2.00000
     90     -10.5332      2.00000
     91     -10.4808      2.00000
     92     -10.4656      2.00000
     93     -10.4468      2.00000
     94     -10.4465      2.00000
     95     -10.3757      2.00000
     96     -10.3435      2.00000
     97     -10.3412      2.00000
     98     -10.3189      2.00000
     99     -10.3181      2.00000
    100     -10.3054      2.00000
    101     -10.2591      2.00000
    102     -10.2320      2.00000
    103     -10.2312      2.00000
    104     -10.1981      2.00000
    105     -10.1969      2.00000
    106     -10.1692      2.00000
    107     -10.1442      2.00000
    108     -10.1428      2.00000
    109      -3.9726      2.00000
    110      -3.8522      2.00000
    111      -3.7725      2.00000
    112      -3.7724      2.00000
    113      -3.7127      2.00000
    114      -3.7116      2.00000
    115      -3.6455      2.00000
    116      -3.6442      2.00000
    117      -3.5025      2.00000
    118      -3.4830      2.00000
    119      -3.4826      2.00000
    120      -3.4188      2.00000
    121      -3.2761      2.00000
    122      -3.2754      2.00000
    123      -3.1976      2.00000
    124      -3.1974      2.00000
    125      -3.1440      2.00000
    126      -3.1075      2.00000
    127      -3.0957      2.00000
    128      -3.0950      2.00000
    129      -3.0933      2.00000
    130      -3.0927      2.00000
    131      -2.9589      2.00000
    132      -2.9413      2.00000
    133      -2.9407      2.00000
    134      -2.9407      2.00000
    135      -2.8861      2.00000
    136      -2.8828      2.00000
    137      -2.4627      2.00000
    138      -2.4169      2.00000
    139      -2.3603      2.00000
    140      -2.3003      2.00000
    141      -2.2993      2.00000
    142      -2.1223      2.00000
    143      -2.0613      2.00000
    144      -2.0592      2.00000
    145      -2.0482      2.00000
    146      -2.0258      2.00000
    147      -2.0246      2.00000
    148      -1.9867      2.00000
    149      -1.9262      2.00000
    150      -1.8876      2.00000
    151      -1.8544      2.00000
    152      -1.8541      2.00000
    153      -1.6909      2.00000
    154      -1.6908      2.00000
    155      -1.6234      2.00000
    156      -1.6201      2.00000
    157      -1.6108      2.00000
    158      -1.5987      2.00000
    159      -1.5529      2.00000
    160      -1.5525      2.00000
    161      -1.4341      2.00000
    162      -1.4340      2.00000
    163      -1.4306      2.00000
    164      -1.3584      2.00000
    165      -1.3581      2.00000
    166      -1.3516      2.00000
    167      -1.3124      2.00000
    168      -1.3112      2.00000
    169      -1.2665      2.00000
    170      -1.2593      2.00000
    171      -1.2581      2.00000
    172      -1.2532      2.00000
    173      -1.0326      2.00000
    174      -0.9265      2.00000
    175      -0.8911      2.00000
    176      -0.8893      2.00000
    177      -0.8474      2.00000
    178      -0.8470      2.00000
    179      -0.7137      2.00000
    180      -0.7128      2.00000
    181      -0.5154      2.00000
    182      -0.5153      2.00000
    183      -0.5032      2.00000
    184      -0.4570      2.00000
    185      -0.4570      2.00000
    186      -0.4350      2.00000
    187      -0.4340      2.00000
    188      -0.4046      2.00000
    189      -0.3847      2.00000
    190      -0.3793      2.00000
    191      -0.3278      2.00000
    192      -0.3270      2.00000
    193      -0.2760      2.00000
    194      -0.1983      2.00000
    195      -0.1821      2.00000
    196      -0.1469      2.00000
    197      -0.1461      2.00000
    198      -0.0622      2.00000
    199      -0.0618      2.00000
    200       0.1285      2.00000
    201       0.1301      2.00000
    202       0.1396      2.00000
    203       0.2429      2.00000
    204       0.2429      2.00000
    205       0.3613      2.00000
    206       0.3798      2.00000
    207       0.3817      2.00000
    208       0.5152      2.00000
    209       0.5222      2.00000
    210       0.6354      2.00000
    211       0.6367      2.00000
    212       0.6531      2.00000
    213       0.7225      2.00000
    214       0.9747      2.00000
    215       1.0423      2.00000
    216       1.0694      2.00000
    217       1.0725      2.00000
    218       1.0758      2.00000
    219       1.1291      2.00000
    220       1.1291      2.00000
    221       1.2139      2.00000
    222       1.2231      2.00000
    223       1.2240      2.00000
    224       1.2563      2.00000
    225       1.3135      2.00000
    226       1.3439      2.00000
    227       1.3441      2.00000
    228       1.3601      2.00000
    229       1.4443      2.00000
    230       1.4457      2.00000
    231       1.4479      2.00000
    232       1.4500      2.00000
    233       1.7020      2.00000
    234       1.7029      2.00000
    235       3.6496      0.00000
    236       3.7489      0.00000
    237       3.8157      0.00000
    238       3.8162      0.00000
    239       3.9524      0.00000
    240       3.9524      0.00000
    241       3.9908      0.00000
    242       3.9911      0.00000
    243       4.0030      0.00000
    244       4.0175      0.00000
    245       4.0381      0.00000
    246       4.0385      0.00000
    247       4.0551      0.00000
    248       4.0659      0.00000
    249       4.1946      0.00000
    250       4.1951      0.00000
    251       4.2039      0.00000
    252       4.2050      0.00000
    253       4.2166      0.00000
    254       4.2563      0.00000
    255       4.2694      0.00000
    256       4.2714      0.00000
    257       4.3113      0.00000
    258       4.3339      0.00000
    259       4.3354      0.00000
    260       4.3485      0.00000
    261       4.3548      0.00000
    262       4.4012      0.00000
    263       4.4013      0.00000
    264       4.4374      0.00000
    265       4.4388      0.00000
    266       4.4890      0.00000
    267       4.4893      0.00000
    268       4.5077      0.00000
    269       4.5906      0.00000
    270       4.5909      0.00000
    271       4.6228      0.00000
    272       4.6310      0.00000
    273       4.6320      0.00000
    274       4.6331      0.00000
    275       4.7011      0.00000
    276       4.7322      0.00000
    277       4.7327      0.00000
    278       4.8481      0.00000
    279       4.8486      0.00000
    280       4.9445      0.00000
    281       5.0816      0.00000
    282       5.0831      0.00000
    283       5.2196      0.00000
    284       5.2206      0.00000
    285       5.3206      0.00000
    286       5.3274      0.00000

 k-point    12 :       0.4000   -0.4000    0.0000
  band No.  band energies     occupation 
      1     -59.0799      2.00000
      2     -59.0798      2.00000
      3     -59.0739      2.00000
      4     -59.0611      2.00000
      5     -59.0558      2.00000
      6     -59.0558      2.00000
      7     -59.0533      2.00000
      8     -59.0527      2.00000
      9     -59.0527      2.00000
     10     -59.0079      2.00000
     11     -59.0073      2.00000
     12     -59.0016      2.00000
     13     -58.9888      2.00000
     14     -58.9838      2.00000
     15     -58.9833      2.00000
     16     -58.9811      2.00000
     17     -58.9806      2.00000
     18     -58.9800      2.00000
     19     -33.3898      2.00000
     20     -33.3726      2.00000
     21     -33.3725      2.00000
     22     -33.3249      2.00000
     23     -33.3249      2.00000
     24     -33.3179      2.00000
     25     -33.3009      2.00000
     26     -33.3005      2.00000
     27     -33.2912      2.00000
     28     -33.2532      2.00000
     29     -33.2528      2.00000
     30     -33.2193      2.00000
     31     -33.2068      2.00000
     32     -33.2068      2.00000
     33     -33.1949      2.00000
     34     -33.1880      2.00000
     35     -33.1689      2.00000
     36     -33.1642      2.00000
     37     -33.1642      2.00000
     38     -33.1583      2.00000
     39     -33.1583      2.00000
     40     -33.1536      2.00000
     41     -33.1535      2.00000
     42     -33.1533      2.00000
     43     -33.1520      2.00000
     44     -33.1519      2.00000
     45     -33.1352      2.00000
     46     -33.1349      2.00000
     47     -33.1338      2.00000
     48     -33.1337      2.00000
     49     -33.1335      2.00000
     50     -33.1271      2.00000
     51     -33.1231      2.00000
     52     -33.1161      2.00000
     53     -33.0971      2.00000
     54     -33.0924      2.00000
     55     -33.0920      2.00000
     56     -33.0866      2.00000
     57     -33.0863      2.00000
     58     -33.0818      2.00000
     59     -33.0815      2.00000
     60     -33.0813      2.00000
     61     -33.0803      2.00000
     62     -33.0799      2.00000
     63     -33.0783      2.00000
     64     -33.0620      2.00000
     65     -33.0616      2.00000
     66     -33.0613      2.00000
     67     -33.0588      2.00000
     68     -33.0587      2.00000
     69     -33.0551      2.00000
     70     -33.0062      2.00000
     71     -32.9868      2.00000
     72     -32.9866      2.00000
     73     -11.9568      2.00000
     74     -11.9559      2.00000
     75     -11.7607      2.00000
     76     -11.7584      2.00000
     77     -11.6764      2.00000
     78     -11.4857      2.00000
     79     -10.9932      2.00000
     80     -10.8990      2.00000
     81     -10.8985      2.00000
     82     -10.8312      2.00000
     83     -10.7735      2.00000
     84     -10.6716      2.00000
     85     -10.6711      2.00000
     86     -10.6430      2.00000
     87     -10.6425      2.00000
     88     -10.5434      2.00000
     89     -10.5354      2.00000
     90     -10.5332      2.00000
     91     -10.4809      2.00000
     92     -10.4657      2.00000
     93     -10.4468      2.00000
     94     -10.4465      2.00000
     95     -10.3760      2.00000
     96     -10.3433      2.00000
     97     -10.3413      2.00000
     98     -10.3189      2.00000
     99     -10.3181      2.00000
    100     -10.3055      2.00000
    101     -10.2591      2.00000
    102     -10.2320      2.00000
    103     -10.2312      2.00000
    104     -10.1980      2.00000
    105     -10.1970      2.00000
    106     -10.1688      2.00000
    107     -10.1445      2.00000
    108     -10.1428      2.00000
    109      -3.9725      2.00000
    110      -3.8520      2.00000
    111      -3.7726      2.00000
    112      -3.7724      2.00000
    113      -3.7128      2.00000
    114      -3.7116      2.00000
    115      -3.6452      2.00000
    116      -3.6447      2.00000
    117      -3.5025      2.00000
    118      -3.4831      2.00000
    119      -3.4826      2.00000
    120      -3.4188      2.00000
    121      -3.2762      2.00000
    122      -3.2754      2.00000
    123      -3.1976      2.00000
    124      -3.1974      2.00000
    125      -3.1440      2.00000
    126      -3.1075      2.00000
    127      -3.0957      2.00000
    128      -3.0952      2.00000
    129      -3.0933      2.00000
    130      -3.0924      2.00000
    131      -2.9595      2.00000
    132      -2.9412      2.00000
    133      -2.9407      2.00000
    134      -2.9407      2.00000
    135      -2.8866      2.00000
    136      -2.8829      2.00000
    137      -2.4627      2.00000
    138      -2.4163      2.00000
    139      -2.3604      2.00000
    140      -2.3000      2.00000
    141      -2.2994      2.00000
    142      -2.1227      2.00000
    143      -2.0606      2.00000
    144      -2.0595      2.00000
    145      -2.0481      2.00000
    146      -2.0255      2.00000
    147      -2.0247      2.00000
    148      -1.9867      2.00000
    149      -1.9258      2.00000
    150      -1.8874      2.00000
    151      -1.8543      2.00000
    152      -1.8542      2.00000
    153      -1.6909      2.00000
    154      -1.6908      2.00000
    155      -1.6241      2.00000
    156      -1.6199      2.00000
    157      -1.6111      2.00000
    158      -1.5986      2.00000
    159      -1.5528      2.00000
    160      -1.5525      2.00000
    161      -1.4341      2.00000
    162      -1.4339      2.00000
    163      -1.4306      2.00000
    164      -1.3581      2.00000
    165      -1.3578      2.00000
    166      -1.3524      2.00000
    167      -1.3117      2.00000
    168      -1.3110      2.00000
    169      -1.2669      2.00000
    170      -1.2585      2.00000
    171      -1.2581      2.00000
    172      -1.2532      2.00000
    173      -1.0323      2.00000
    174      -0.9262      2.00000
    175      -0.8900      2.00000
    176      -0.8894      2.00000
    177      -0.8474      2.00000
    178      -0.8470      2.00000
    179      -0.7140      2.00000
    180      -0.7130      2.00000
    181      -0.5154      2.00000
    182      -0.5153      2.00000
    183      -0.5032      2.00000
    184      -0.4571      2.00000
    185      -0.4569      2.00000
    186      -0.4370      2.00000
    187      -0.4336      2.00000
    188      -0.4045      2.00000
    189      -0.3847      2.00000
    190      -0.3793      2.00000
    191      -0.3278      2.00000
    192      -0.3271      2.00000
    193      -0.2761      2.00000
    194      -0.1985      2.00000
    195      -0.1819      2.00000
    196      -0.1471      2.00000
    197      -0.1462      2.00000
    198      -0.0621      2.00000
    199      -0.0619      2.00000
    200       0.1282      2.00000
    201       0.1294      2.00000
    202       0.1402      2.00000
    203       0.2429      2.00000
    204       0.2430      2.00000
    205       0.3612      2.00000
    206       0.3798      2.00000
    207       0.3812      2.00000
    208       0.5151      2.00000
    209       0.5222      2.00000
    210       0.6355      2.00000
    211       0.6367      2.00000
    212       0.6534      2.00000
    213       0.7225      2.00000
    214       0.9746      2.00000
    215       1.0423      2.00000
    216       1.0697      2.00000
    217       1.0725      2.00000
    218       1.0750      2.00000
    219       1.1291      2.00000
    220       1.1291      2.00000
    221       1.2138      2.00000
    222       1.2230      2.00000
    223       1.2244      2.00000
    224       1.2564      2.00000
    225       1.3130      2.00000
    226       1.3439      2.00000
    227       1.3440      2.00000
    228       1.3605      2.00000
    229       1.4444      2.00000
    230       1.4456      2.00000
    231       1.4483      2.00000
    232       1.4499      2.00000
    233       1.7025      2.00000
    234       1.7030      2.00000
    235       3.6497      0.00000
    236       3.7489      0.00000
    237       3.8157      0.00000
    238       3.8162      0.00000
    239       3.9523      0.00000
    240       3.9524      0.00000
    241       3.9909      0.00000
    242       3.9913      0.00000
    243       4.0030      0.00000
    244       4.0179      0.00000
    245       4.0378      0.00000
    246       4.0386      0.00000
    247       4.0551      0.00000
    248       4.0663      0.00000
    249       4.1945      0.00000
    250       4.1952      0.00000
    251       4.2038      0.00000
    252       4.2047      0.00000
    253       4.2164      0.00000
    254       4.2563      0.00000
    255       4.2693      0.00000
    256       4.2708      0.00000
    257       4.3111      0.00000
    258       4.3338      0.00000
    259       4.3346      0.00000
    260       4.3494      0.00000
    261       4.3546      0.00000
    262       4.4012      0.00000
    263       4.4013      0.00000
    264       4.4373      0.00000
    265       4.4378      0.00000
    266       4.4890      0.00000
    267       4.4900      0.00000
    268       4.5077      0.00000
    269       4.5907      0.00000
    270       4.5909      0.00000
    271       4.6230      0.00000
    272       4.6310      0.00000
    273       4.6321      0.00000
    274       4.6339      0.00000
    275       4.7003      0.00000
    276       4.7324      0.00000
    277       4.7325      0.00000
    278       4.8480      0.00000
    279       4.8489      0.00000
    280       4.9439      0.00000
    281       5.0818      0.00000
    282       5.0837      0.00000
    283       5.2196      0.00000
    284       5.2209      0.00000
    285       5.3259      0.00000
    286       5.3429      0.00000

 k-point    13 :      -0.2000    0.4000    0.0000
  band No.  band energies     occupation 
      1     -59.0799      2.00000
      2     -59.0799      2.00000
      3     -59.0739      2.00000
      4     -59.0611      2.00000
      5     -59.0558      2.00000
      6     -59.0558      2.00000
      7     -59.0533      2.00000
      8     -59.0527      2.00000
      9     -59.0527      2.00000
     10     -59.0078      2.00000
     11     -59.0074      2.00000
     12     -59.0016      2.00000
     13     -58.9888      2.00000
     14     -58.9838      2.00000
     15     -58.9833      2.00000
     16     -58.9812      2.00000
     17     -58.9805      2.00000
     18     -58.9800      2.00000
     19     -33.3898      2.00000
     20     -33.3725      2.00000
     21     -33.3725      2.00000
     22     -33.3249      2.00000
     23     -33.3249      2.00000
     24     -33.3180      2.00000
     25     -33.3009      2.00000
     26     -33.3005      2.00000
     27     -33.2912      2.00000
     28     -33.2532      2.00000
     29     -33.2528      2.00000
     30     -33.2192      2.00000
     31     -33.2068      2.00000
     32     -33.2068      2.00000
     33     -33.1949      2.00000
     34     -33.1880      2.00000
     35     -33.1689      2.00000
     36     -33.1642      2.00000
     37     -33.1642      2.00000
     38     -33.1583      2.00000
     39     -33.1583      2.00000
     40     -33.1536      2.00000
     41     -33.1535      2.00000
     42     -33.1533      2.00000
     43     -33.1520      2.00000
     44     -33.1520      2.00000
     45     -33.1352      2.00000
     46     -33.1349      2.00000
     47     -33.1337      2.00000
     48     -33.1337      2.00000
     49     -33.1335      2.00000
     50     -33.1271      2.00000
     51     -33.1231      2.00000
     52     -33.1160      2.00000
     53     -33.0971      2.00000
     54     -33.0923      2.00000
     55     -33.0921      2.00000
     56     -33.0866      2.00000
     57     -33.0863      2.00000
     58     -33.0818      2.00000
     59     -33.0816      2.00000
     60     -33.0813      2.00000
     61     -33.0803      2.00000
     62     -33.0799      2.00000
     63     -33.0783      2.00000
     64     -33.0620      2.00000
     65     -33.0616      2.00000
     66     -33.0614      2.00000
     67     -33.0587      2.00000
     68     -33.0587      2.00000
     69     -33.0551      2.00000
     70     -33.0063      2.00000
     71     -32.9868      2.00000
     72     -32.9866      2.00000
     73     -11.9568      2.00000
     74     -11.9559      2.00000
     75     -11.7606      2.00000
     76     -11.7584      2.00000
     77     -11.6764      2.00000
     78     -11.4858      2.00000
     79     -10.9932      2.00000
     80     -10.8990      2.00000
     81     -10.8986      2.00000
     82     -10.8312      2.00000
     83     -10.7735      2.00000
     84     -10.6716      2.00000
     85     -10.6711      2.00000
     86     -10.6428      2.00000
     87     -10.6428      2.00000
     88     -10.5433      2.00000
     89     -10.5354      2.00000
     90     -10.5332      2.00000
     91     -10.4809      2.00000
     92     -10.4656      2.00000
     93     -10.4468      2.00000
     94     -10.4465      2.00000
     95     -10.3759      2.00000
     96     -10.3434      2.00000
     97     -10.3412      2.00000
     98     -10.3189      2.00000
     99     -10.3181      2.00000
    100     -10.3054      2.00000
    101     -10.2591      2.00000
    102     -10.2320      2.00000
    103     -10.2312      2.00000
    104     -10.1981      2.00000
    105     -10.1970      2.00000
    106     -10.1690      2.00000
    107     -10.1444      2.00000
    108     -10.1428      2.00000
    109      -3.9725      2.00000
    110      -3.8521      2.00000
    111      -3.7726      2.00000
    112      -3.7724      2.00000
    113      -3.7128      2.00000
    114      -3.7116      2.00000
    115      -3.6454      2.00000
    116      -3.6445      2.00000
    117      -3.5025      2.00000
    118      -3.4830      2.00000
    119      -3.4827      2.00000
    120      -3.4188      2.00000
    121      -3.2761      2.00000
    122      -3.2754      2.00000
    123      -3.1976      2.00000
    124      -3.1974      2.00000
    125      -3.1440      2.00000
    126      -3.1075      2.00000
    127      -3.0959      2.00000
    128      -3.0949      2.00000
    129      -3.0933      2.00000
    130      -3.0925      2.00000
    131      -2.9592      2.00000
    132      -2.9413      2.00000
    133      -2.9407      2.00000
    134      -2.9407      2.00000
    135      -2.8863      2.00000
    136      -2.8829      2.00000
    137      -2.4627      2.00000
    138      -2.4166      2.00000
    139      -2.3603      2.00000
    140      -2.3001      2.00000
    141      -2.2994      2.00000
    142      -2.1225      2.00000
    143      -2.0609      2.00000
    144      -2.0593      2.00000
    145      -2.0482      2.00000
    146      -2.0257      2.00000
    147      -2.0246      2.00000
    148      -1.9867      2.00000
    149      -1.9260      2.00000
    150      -1.8875      2.00000
    151      -1.8544      2.00000
    152      -1.8541      2.00000
    153      -1.6909      2.00000
    154      -1.6908      2.00000
    155      -1.6238      2.00000
    156      -1.6200      2.00000
    157      -1.6110      2.00000
    158      -1.5987      2.00000
    159      -1.5528      2.00000
    160      -1.5526      2.00000
    161      -1.4342      2.00000
    162      -1.4339      2.00000
    163      -1.4306      2.00000
    164      -1.3582      2.00000
    165      -1.3580      2.00000
    166      -1.3520      2.00000
    167      -1.3121      2.00000
    168      -1.3110      2.00000
    169      -1.2667      2.00000
    170      -1.2589      2.00000
    171      -1.2581      2.00000
    172      -1.2532      2.00000
    173      -1.0325      2.00000
    174      -0.9263      2.00000
    175      -0.8906      2.00000
    176      -0.8894      2.00000
    177      -0.8474      2.00000
    178      -0.8470      2.00000
    179      -0.7139      2.00000
    180      -0.7129      2.00000
    181      -0.5154      2.00000
    182      -0.5153      2.00000
    183      -0.5032      2.00000
    184      -0.4571      2.00000
    185      -0.4570      2.00000
    186      -0.4359      2.00000
    187      -0.4339      2.00000
    188      -0.4045      2.00000
    189      -0.3847      2.00000
    190      -0.3793      2.00000
    191      -0.3278      2.00000
    192      -0.3271      2.00000
    193      -0.2760      2.00000
    194      -0.1984      2.00000
    195      -0.1820      2.00000
    196      -0.1470      2.00000
    197      -0.1462      2.00000
    198      -0.0621      2.00000
    199      -0.0619      2.00000
    200       0.1283      2.00000
    201       0.1298      2.00000
    202       0.1399      2.00000
    203       0.2429      2.00000
    204       0.2430      2.00000
    205       0.3612      2.00000
    206       0.3798      2.00000
    207       0.3814      2.00000
    208       0.5152      2.00000
    209       0.5222      2.00000
    210       0.6355      2.00000
    211       0.6366      2.00000
    212       0.6532      2.00000
    213       0.7225      2.00000
    214       0.9746      2.00000
    215       1.0423      2.00000
    216       1.0696      2.00000
    217       1.0725      2.00000
    218       1.0754      2.00000
    219       1.1291      2.00000
    220       1.1291      2.00000
    221       1.2138      2.00000
    222       1.2230      2.00000
    223       1.2243      2.00000
    224       1.2564      2.00000
    225       1.3133      2.00000
    226       1.3439      2.00000
    227       1.3440      2.00000
    228       1.3603      2.00000
    229       1.4444      2.00000
    230       1.4456      2.00000
    231       1.4481      2.00000
    232       1.4499      2.00000
    233       1.7023      2.00000
    234       1.7029      2.00000
    235       3.6497      0.00000
    236       3.7489      0.00000
    237       3.8157      0.00000
    238       3.8162      0.00000
    239       3.9524      0.00000
    240       3.9524      0.00000
    241       3.9909      0.00000
    242       3.9912      0.00000
    243       4.0030      0.00000
    244       4.0177      0.00000
    245       4.0379      0.00000
    246       4.0386      0.00000
    247       4.0551      0.00000
    248       4.0661      0.00000
    249       4.1946      0.00000
    250       4.1952      0.00000
    251       4.2039      0.00000
    252       4.2047      0.00000
    253       4.2165      0.00000
    254       4.2563      0.00000
    255       4.2695      0.00000
    256       4.2710      0.00000
    257       4.3112      0.00000
    258       4.3338      0.00000
    259       4.3350      0.00000
    260       4.3489      0.00000
    261       4.3547      0.00000
    262       4.4012      0.00000
    263       4.4012      0.00000
    264       4.4372      0.00000
    265       4.4384      0.00000
    266       4.4889      0.00000
    267       4.4897      0.00000
    268       4.5077      0.00000
    269       4.5906      0.00000
    270       4.5909      0.00000
    271       4.6229      0.00000
    272       4.6310      0.00000
    273       4.6320      0.00000
    274       4.6336      0.00000
    275       4.7007      0.00000
    276       4.7323      0.00000
    277       4.7327      0.00000
    278       4.8481      0.00000
    279       4.8487      0.00000
    280       4.9442      0.00000
    281       5.0817      0.00000
    282       5.0834      0.00000
    283       5.2197      0.00000
    284       5.2217      0.00000
    285       5.3195      0.00000
    286       5.3379      0.00000


--------------------------------------------------------------------------------------------------------


 soft charge-density along one line, spin component           1
         0         1         2         3         4         5         6         7         8         9
 total charge-density along one line
 
 pseudopotential strength for first ion, spin component:           1
 -4.786  12.296  -0.000  -0.000  -0.000   0.000   0.000   0.000
 12.296   3.221   0.000   0.000   0.000  -0.000  -0.000  -0.000
 -0.000   0.000 -19.084  -0.000  -0.000  10.013   0.000   0.000
 -0.000   0.000  -0.000 -19.077  -0.000   0.000  10.005   0.000
 -0.000   0.000  -0.000  -0.000 -19.085   0.000   0.000  10.013
  0.000  -0.000  10.013   0.000   0.000   5.129  -0.000  -0.000
  0.000  -0.000   0.000  10.005   0.000  -0.000   5.131  -0.000
  0.000  -0.000   0.000   0.000  10.013  -0.000  -0.000   5.129
 -0.000   0.000  -0.000   0.000  -0.007   0.000  -0.000   0.004
 -0.000   0.000  -0.000  -0.000   0.000   0.000   0.000  -0.000
  0.006  -0.004   0.000  -0.000   0.000  -0.000   0.000  -0.000
 -0.000   0.000   0.000  -0.000  -0.000  -0.000   0.000   0.000
 -0.000   0.000  -0.007   0.000  -0.000   0.003  -0.000   0.000
 -0.000   0.000  -0.000   0.000  -0.008   0.000  -0.000   0.004
 -0.000   0.000  -0.000  -0.000   0.000   0.000   0.000  -0.000
  0.006  -0.004   0.000  -0.000   0.000  -0.000   0.000  -0.000
 -0.000   0.000   0.000  -0.000  -0.000  -0.000   0.000   0.000
 -0.000   0.000  -0.008   0.000  -0.000   0.004  -0.000   0.000
 total augmentation occupancy for first ion, spin component:           1
  1.995  -0.041   0.000   0.000   0.000   0.000   0.000   0.000   0.000   0.000  -0.010   0.000   0.000  -0.000  -0.000   0.008
 -0.041   1.192  -0.000   0.000  -0.000   0.000  -0.000   0.000  -0.002   0.001  -0.013   0.002  -0.002   0.003  -0.001   0.119
  0.000  -0.000   1.998  -0.000   0.000  -0.044  -0.000  -0.000  -0.000   0.000  -0.000   0.000  -0.010   0.000   0.000   0.000
  0.000   0.000  -0.000   1.998  -0.000  -0.000  -0.050  -0.000   0.000  -0.000  -0.000  -0.000   0.000  -0.000   0.000   0.000
  0.000  -0.000   0.000  -0.000   1.998  -0.000  -0.000  -0.044  -0.010   0.000  -0.000   0.000  -0.000  -0.002  -0.000   0.000
  0.000   0.000  -0.044  -0.000  -0.000   0.100  -0.000   0.000  -0.001  -0.003   0.000   0.000  -0.194   0.001   0.002  -0.000
  0.000  -0.000  -0.000  -0.050  -0.000  -0.000   0.122  -0.000   0.000  -0.000  -0.001  -0.001   0.000  -0.001   0.000   0.001
  0.000   0.000  -0.000  -0.000  -0.044   0.000  -0.000   0.100  -0.195   0.001   0.001  -0.002  -0.001   0.223  -0.001  -0.001
  0.000  -0.002  -0.000   0.000  -0.010  -0.001   0.000  -0.195   2.548  -0.005  -0.003   0.010   0.004  -2.942   0.005   0.004
  0.000   0.001   0.000  -0.000   0.000  -0.003  -0.000   0.001  -0.005   3.950   0.002   0.004   0.015   0.005  -4.911  -0.003
 -0.010  -0.013  -0.000  -0.000  -0.000   0.000  -0.001   0.001  -0.003   0.002   1.762   0.002  -0.002   0.004  -0.003  -1.852
  0.000   0.002   0.000  -0.000   0.000   0.000  -0.001  -0.002   0.010   0.004   0.002   3.959  -0.006  -0.007  -0.005  -0.005
  0.000  -0.002  -0.010   0.000  -0.000  -0.194   0.000  -0.001   0.004   0.015  -0.002  -0.006   2.546  -0.004  -0.013   0.003
 -0.000   0.003   0.000  -0.000  -0.002   0.001  -0.001   0.223  -2.942   0.005   0.004  -0.007  -0.004   4.106  -0.006  -0.005
 -0.000  -0.001   0.000   0.000  -0.000   0.002   0.000  -0.001   0.005  -4.911  -0.003  -0.005  -0.013  -0.006   6.514   0.004
  0.008   0.119   0.000   0.000   0.000  -0.000   0.001  -0.001   0.004  -0.003  -1.852  -0.005   0.003  -0.005   0.004   2.816
 -0.000  -0.003  -0.000   0.000   0.000  -0.001   0.001   0.001  -0.007  -0.005  -0.005  -4.920   0.008   0.005   0.006   0.006
 -0.000   0.002  -0.002  -0.000   0.000   0.222  -0.001   0.001  -0.004  -0.013   0.003   0.008  -2.940   0.004   0.012  -0.003


------------------------ aborting loop because EDIFF is reached ----------------------------------------


    CHARGE:  cpu time      0.6060: real time      0.6061
    FORLOC:  cpu time      0.0209: real time      0.0209
    FORNL :  cpu time      1.7007: real time      1.7007
    STRESS:  cpu time      4.9858: real time      4.9858
    FORCOR:  cpu time      0.1168: real time      0.1168
    FORHAR:  cpu time      0.0432: real time      0.0432
    MIXING:  cpu time      0.0251: real time      0.0251
    OFIELD:  cpu time      0.0001: real time      0.0001

 ---------------------------------------------------------------------------------------------

         DFTD3 V3.0 Rev 1        
 DF pbe       
 parameters
 k1-k3        =   16.0000    1.3333   -4.0000
 Edisp (eV)  -19.99345

 E6    (eV) :   -11.6646
 E8    (eV) :    -8.3289
 % E8        : 41.66
    FORVDW:  cpu time      0.2635: real time      0.2721

  FORCE on cell =-STRESS in cart. coord.  units (eV):
  Direction    XX          YY          ZZ          XY          YZ          ZX
  --------------------------------------------------------------------------------------
  Alpha Z   964.87982   964.87982   964.87982
  Ewald   77771.88986 77771.89149************    -0.62075    -0.00224     0.43772
  Hartree 88158.07073 88158.07175-83744.43688    -0.22457    -0.00059     0.12816
  E(xc)   -1975.13318 -1975.13318 -1977.24769    -0.00125    -0.00000     0.00097
  Local  ************************178129.20930     0.83257     0.00271    -0.57281
  n-local  2141.52478  2141.52517  2235.80059    -0.01922    -0.00014     0.03354
  augment   -10.18142   -10.18125   -30.33744    -0.00049     0.00002    -0.00123
  Kinetic  7450.18383  7450.18382  7519.70055     0.01955     0.00003     0.03504
  Fock        0.00000     0.00000     0.00000     0.00000     0.00000     0.00000
  vdW       -20.67137   -20.67137   -14.67820     0.00011     0.00000    -0.00011
  -------------------------------------------------------------------------------------
  Total     -20.19093   -20.19064    -0.55052    -0.01404    -0.00022     0.06129
  in kB     -20.36448   -20.36419    -0.55526    -0.01416    -0.00022     0.06181
  external pressure =      -13.76 kB  Pullay stress =        0.00 kB


 VOLUME and BASIS-vectors are now :
 -----------------------------------------------------------------------------
  energy-cutoff  :      520.00
  volume of cell :     1588.52
      direct lattice vectors                 reciprocal lattice vectors
     9.576713736  0.000000000  0.000000000     0.104419953 -0.060286888  0.000000000
     4.788356868  8.293677380  0.000000000     0.000000000  0.120573776  0.000000000
     0.000000000  0.000000000 20.000000000     0.000000000  0.000000000  0.050000000

  length of vectors
     9.576713736  9.576713736 20.000000000     0.120573776  0.120573776  0.050000000


 FORCES acting on ions
    electron-ion (+dipol)            ewald-force                    non-local-force                 convergence-correction
 -----------------------------------------------------------------------------------------------
   0.831E+00 0.278E+00 0.150E+04   -.837E+00 -.285E+00 -.150E+04   -.182E-02 -.220E-02 0.538E-01   -.103E-03 0.125E-02 -.346E-02
   -.112E+01 0.849E+00 0.150E+04   0.114E+01 -.859E+00 -.150E+04   0.259E-01 -.139E-01 0.784E-01   0.331E-03 0.140E-02 -.339E-02
   -.132E+00 0.156E-01 0.150E+04   0.132E+00 -.168E-01 -.150E+04   0.512E-03 0.647E-03 0.423E-01   -.202E-03 0.569E-03 -.352E-02
   0.349E+00 -.113E+01 0.150E+04   -.344E+00 0.114E+01 -.150E+04   0.192E-02 0.160E-01 0.661E-01   0.220E-03 0.668E-03 -.344E-02
   -.239E+00 -.160E+00 0.150E+04   0.242E+00 0.162E+00 -.150E+04   -.162E-02 -.818E-03 0.430E-01   -.634E-03 0.471E-04 -.345E-02
   0.253E-01 0.660E-02 0.150E+04   -.264E-01 -.737E-02 -.150E+04   0.442E-03 -.395E-03 0.435E-01   0.404E-03 0.190E-03 -.351E-02
   -.302E-02 -.723E-01 0.150E+04   0.347E-02 0.741E-01 -.150E+04   0.574E-03 0.156E-05 0.424E-01   -.754E-03 -.153E-02 -.352E-02
   0.378E-01 0.154E+00 0.150E+04   -.395E-01 -.155E+00 -.150E+04   -.221E-03 0.123E-02 0.433E-01   -.154E-04 -.128E-02 -.349E-02
   -.324E-01 0.592E-01 0.150E+04   0.324E-01 -.575E-01 -.150E+04   -.601E-03 -.604E-03 0.421E-01   0.790E-03 -.131E-02 -.347E-02
   0.251E-02 0.230E-04 -.150E+04   -.332E-02 -.235E-10 0.150E+04   -.134E-04 -.868E-05 -.571E-01   0.797E-03 -.347E-05 -.273E-02
   -.679E-02 -.202E-03 -.150E+04   0.798E-02 -.666E-10 0.150E+04   0.845E-04 -.116E-04 -.571E-01   -.128E-02 0.217E-03 -.275E-02
   0.429E-02 -.764E-03 -.150E+04   -.467E-02 -.406E-10 0.150E+04   -.633E-04 -.508E-04 -.571E-01   0.475E-03 0.817E-03 -.274E-02
   -.241E-02 -.563E-02 -.150E+04   0.240E-02 0.688E-02 0.150E+04   0.285E-04 0.919E-04 -.571E-01   -.343E-04 -.135E-02 -.279E-02
   -.161E-02 -.140E-03 -.150E+04   0.153E-02 0.225E-05 0.150E+04   -.194E-04 0.764E-05 -.572E-01   0.124E-03 0.117E-03 -.275E-02
   0.403E-02 -.379E-02 -.150E+04   -.393E-02 0.408E-02 0.150E+04   -.714E-06 0.663E-04 -.571E-01   -.915E-04 -.395E-03 -.277E-02
   0.267E-02 0.400E-02 -.150E+04   -.393E-02 -.408E-02 0.150E+04   -.712E-04 -.502E-04 -.571E-01   0.132E-02 0.167E-03 -.269E-02
   -.204E-02 0.636E-02 -.150E+04   0.240E-02 -.688E-02 0.150E+04   0.336E-04 -.503E-04 -.571E-01   -.396E-03 0.576E-03 -.268E-02
   -.643E-03 0.130E-03 -.150E+04   0.153E-02 -.225E-05 0.150E+04   0.429E-04 0.146E-05 -.571E-01   -.922E-03 -.125E-03 -.271E-02
   0.661E+00 -.232E-02 0.131E+04   -.661E+00 0.145E-02 -.131E+04   -.470E-01 0.166E-03 0.446E+01   -.757E-04 0.812E-03 -.555E-03
   -.158E+00 -.518E-03 0.131E+04   0.158E+00 -.193E-10 -.131E+04   0.150E-02 -.131E-03 0.456E+01   0.171E-04 0.754E-03 -.624E-03
   -.156E+00 -.225E-03 0.131E+04   0.159E+00 -.156E-10 -.131E+04   0.813E-03 0.276E-03 0.455E+01   0.554E-04 0.372E-03 -.820E-03
   0.259E-02 -.918E-01 0.131E+04   -.296E-02 0.925E-01 -.131E+04   0.608E-03 0.472E-03 0.456E+01   -.761E-04 -.455E-03 -.206E-04
   -.291E-01 0.618E-03 0.131E+04   0.295E-01 0.556E-04 -.131E+04   -.339E-03 -.427E-05 0.456E+01   -.285E-03 -.658E-03 -.596E-03
   0.219E-02 0.910E-01 0.131E+04   -.215E-02 -.934E-01 -.131E+04   0.131E-03 0.589E-04 0.455E+01   0.365E-03 -.407E-04 -.108E-03
   0.288E-02 -.916E-01 0.131E+04   -.215E-02 0.934E-01 -.131E+04   0.646E-03 0.145E-03 0.456E+01   -.361E-03 -.574E-04 -.113E-02
   0.119E-02 0.929E-01 0.131E+04   -.296E-02 -.925E-01 -.131E+04   0.879E-03 -.805E-03 0.455E+01   0.569E-03 -.261E-03 -.101E-02
   -.293E-01 0.522E-03 0.131E+04   0.295E-01 -.556E-04 -.131E+04   -.181E-03 -.772E-05 0.456E+01   -.210E-03 -.456E-03 -.682E-03
   0.637E-01 -.820E-03 -.234E+02   -.648E-01 -.806E-11 0.281E+02   -.921E-04 -.132E-05 -.465E+01   -.421E-04 0.805E-03 -.212E-02
   -.892E-01 -.224E-02 -.232E+02   0.904E-01 -.218E-10 0.278E+02   0.111E-02 0.327E-02 -.466E+01   -.388E-04 0.762E-03 -.209E-02
   0.365E-01 -.141E-02 -.231E+02   -.379E-01 -.168E-10 0.277E+02   0.416E-03 0.167E-02 -.466E+01   0.759E-04 0.389E-03 -.196E-02
   -.262E-01 -.711E-01 -.231E+02   0.267E-01 0.738E-01 0.278E+02   0.892E-03 -.129E-02 -.466E+01   -.791E-04 -.493E-03 -.270E-02
   -.116E-01 0.645E-03 -.231E+02   0.120E-01 0.205E-04 0.277E+02   0.153E-04 -.339E-05 -.466E+01   -.301E-03 -.650E-03 -.215E-02
   0.384E-01 -.361E-01 -.231E+02   -.374E-01 0.373E-01 0.278E+02   -.373E-02 -.568E-03 -.466E+01   0.378E-03 -.491E-04 -.264E-02
   0.362E-01 0.357E-01 -.231E+02   -.374E-01 -.373E-01 0.278E+02   0.125E-02 0.928E-03 -.466E+01   -.330E-03 -.560E-04 -.164E-02
   -.254E-01 0.748E-01 -.232E+02   0.267E-01 -.738E-01 0.278E+02   -.266E-02 -.401E-02 -.465E+01   0.561E-03 -.237E-03 -.166E-02
   -.117E-01 0.506E-03 -.231E+02   0.120E-01 -.205E-04 0.277E+02   -.118E-05 -.111E-04 -.466E+01   -.227E-03 -.474E-03 -.214E-02
   -.702E-02 -.609E-02 0.234E+02   0.719E-02 0.617E-02 -.280E+02   -.126E-03 -.622E-04 0.458E+01   -.252E-04 -.148E-04 -.110E-02
   -.370E-02 -.142E-02 0.234E+02   0.390E-02 0.145E-02 -.280E+02   0.134E-04 0.605E-05 0.458E+01   -.203E-03 -.114E-04 -.153E-02
   0.106E-01 -.431E-02 0.234E+02   -.111E-01 0.437E-02 -.280E+02   0.173E-03 -.860E-04 0.458E+01   0.231E-03 0.432E-04 -.135E-02
   -.153E-02 -.107E-02 0.234E+02   0.166E-02 0.129E-02 -.280E+02   0.101E-04 0.536E-04 0.458E+01   -.111E-03 -.282E-03 -.155E-02
   0.738E-03 0.231E-02 0.234E+02   -.851E-03 -.274E-02 -.280E+02   0.118E-04 -.262E-04 0.458E+01   0.883E-04 0.434E-03 -.120E-02
   0.777E-03 -.683E-02 0.234E+02   -.810E-03 0.739E-02 -.280E+02   -.395E-05 0.866E-04 0.458E+01   0.238E-04 -.622E-03 -.170E-02
   0.296E-02 0.103E-01 0.234E+02   -.350E-02 -.105E-01 -.280E+02   -.556E-04 0.155E-03 0.458E+01   0.585E-03 0.452E-04 -.955E-03
   -.735E-02 0.505E-02 0.234E+02   0.814E-02 -.517E-02 -.280E+02   0.105E-03 -.329E-04 0.458E+01   -.860E-03 0.146E-03 -.127E-02
   0.440E-02 0.201E-02 0.234E+02   -.466E-02 -.222E-02 -.280E+02   -.303E-04 -.676E-04 0.458E+01   0.278E-03 0.277E-03 -.188E-02
   -.366E-03 -.396E-03 -.131E+04   0.375E-03 0.447E-03 0.131E+04   0.164E-04 0.129E-04 -.456E+01   -.307E-04 -.684E-04 -.158E-02
   -.274E-03 -.105E-03 -.131E+04   0.483E-03 0.123E-03 0.131E+04   -.169E-04 0.305E-04 -.456E+01   -.190E-03 -.371E-04 -.114E-02
   0.629E-03 -.305E-03 -.131E+04   -.857E-03 0.265E-03 0.131E+04   0.242E-05 0.287E-04 -.456E+01   0.226E-03 0.134E-04 -.130E-02
   -.845E-04 0.839E-05 -.131E+04   0.152E-03 0.191E-03 0.131E+04   0.270E-04 0.250E-04 -.456E+01   -.807E-04 -.220E-03 -.107E-02
   0.433E-05 -.144E-03 -.131E+04   -.602E-04 -.314E-03 0.131E+04   -.101E-04 -.323E-04 -.456E+01   0.601E-04 0.469E-03 -.140E-02
   0.844E-04 0.371E-04 -.131E+04   -.915E-04 0.562E-03 0.131E+04   -.171E-04 0.185E-04 -.456E+01   0.201E-04 -.598E-03 -.965E-03
   -.170E-03 0.716E-03 -.131E+04   -.399E-03 -.712E-03 0.131E+04   -.420E-04 -.215E-04 -.456E+01   0.591E-03 0.235E-04 -.155E-02
   0.176E-03 0.282E-03 -.131E+04   0.686E-03 -.450E-03 0.131E+04   0.443E-04 0.796E-05 -.456E+01   -.877E-03 0.158E-03 -.129E-02
   -.186E-04 -.143E-03 -.131E+04   -.288E-03 -.114E-03 0.131E+04   0.497E-05 -.366E-04 -.456E+01   0.292E-03 0.280E-03 -.685E-03
 -----------------------------------------------------------------------------------------------
   0.225E-01 -.215E-03 0.970E+00   0.877E-13 0.187E-12 0.637E-11   -.204E-01 0.158E-03 -.911E+00   0.373E-04 0.729E-04 -.104E+00
 
 
 POSITION                                       TOTAL-FORCE (eV/Angst)
 -----------------------------------------------------------------------------------
      0.00000      0.00000     10.25937        -0.007520     -0.008432      0.028729
      3.19224      0.00000     10.25937         0.044572     -0.021681      0.055506
      6.38448      0.00000     10.25937         0.000471      0.000045      0.002182
      1.59612      2.76456     10.25937         0.007055      0.029949      0.042013
      4.78836      2.76456     10.25937         0.000605      0.001475      0.003059
      7.98059      2.76456     10.25937        -0.000281     -0.000973      0.001611
      3.19224      5.52912     10.25937         0.000227      0.000171      0.002160
      6.38448      5.52912     10.25937        -0.001957     -0.000484      0.002332
      9.57671      5.52912     10.25937         0.000109     -0.000181      0.002203
      1.59612      0.92152     16.24138        -0.000056      0.000011     -0.000441
      4.78836      0.92152     16.24138        -0.000045      0.000003     -0.000340
      7.98059      0.92152     16.24138        -0.000004      0.000001     -0.000340
      3.19224      3.68608     16.24138        -0.000059     -0.000010     -0.000345
      6.38448      3.68608     16.24138        -0.000017     -0.000014     -0.000358
      9.57671      3.68608     16.24138        -0.000031     -0.000040     -0.000341
      4.78836      6.45064     16.24138        -0.000045      0.000035     -0.000353
      7.98059      6.45064     16.24138        -0.000046      0.000015     -0.000353
     11.17283      6.45064     16.24138        -0.000029      0.000004     -0.000344
      1.60044      0.92152      8.71428        -0.046452      0.000110     -0.130292
      4.78836      0.92152      8.70526         0.001958      0.000105     -0.003194
      7.98059      0.92152      8.70526         0.003632      0.000423     -0.003976
      3.19224      3.68608      8.70526         0.000145      0.000718     -0.003309
      6.38448      3.68608      8.70526        -0.000277      0.000011      0.000340
      9.57671      3.68608      8.70526         0.000512     -0.002444     -0.003928
      4.78836      6.45064      8.70526         0.000999      0.001865     -0.003667
      7.98059      6.45064      8.70526        -0.000338     -0.000667     -0.003506
     11.17283      6.45064      8.70526        -0.000276      0.000002      0.000356
      1.59612      0.92152     11.80949        -0.001282     -0.000017      0.017208
      4.78836      0.92152     11.80949         0.002227      0.001790      0.001266
      7.98059      0.92152     11.80949        -0.000914      0.000651     -0.000180
      3.19224      3.68608     11.80949         0.001275      0.000899      0.000443
      6.38448      3.68608     11.80949         0.000055      0.000012     -0.000547
      9.57671      3.68608     11.80949        -0.002438      0.000612      0.000695
      4.78836      6.45064     11.80949        -0.000293     -0.000697     -0.000306
      7.98059      6.45064     11.80949        -0.000866     -0.003267      0.001390
     11.17283      6.45064     11.80949         0.000049      0.000001     -0.000528
      3.19224      1.84304     14.68998        -0.000020      0.000003     -0.000075
      6.38448      1.84304     14.68998        -0.000035      0.000025     -0.000150
      9.57671      1.84304     14.68998        -0.000053      0.000016     -0.000060
      4.78836      4.60760     14.68998        -0.000008     -0.000004     -0.000156
      7.98059      4.60760     14.68998        -0.000051     -0.000025     -0.000150
     11.17283      4.60760     14.68998        -0.000052      0.000018     -0.000090
      6.38448      7.37216     14.68998        -0.000048     -0.000017     -0.000072
      9.57671      7.37216     14.68998        -0.000009     -0.000009     -0.000107
     12.76895      7.37216     14.68998        -0.000044     -0.000007     -0.000076
      3.19224      1.84304     17.79452        -0.000044     -0.000005     -0.000418
      6.38448      1.84304     17.79452        -0.000036      0.000011     -0.000443
      9.57671      1.84304     17.79452        -0.000038      0.000002     -0.000423
      4.78836      4.60760     17.79452        -0.000024      0.000005     -0.000448
      7.98059      4.60760     17.79452        -0.000044     -0.000021     -0.000429
     11.17283      4.60760     17.79452        -0.000043      0.000019     -0.000445
      6.38448      7.37216     17.79452        -0.000058      0.000006     -0.000415
      9.57671      7.37216     17.79452        -0.000009     -0.000003     -0.000434
     12.76895      7.37216     17.79452        -0.000048     -0.000014     -0.000455
 -----------------------------------------------------------------------------------
    total drift:                                0.002074      0.000015     -0.044875


--------------------------------------------------------------------------------------------------------



  FREE ENERGIE OF THE ION-ELECTRON SYSTEM (eV)
  ---------------------------------------------------
  free  energy   TOTEN  =      -412.60763382 eV

  energy  without entropy=     -412.60763382  energy(sigma->0) =     -412.60763382
 


--------------------------------------------------------------------------------------------------------


    POTLOK:  cpu time      0.2107: real time      0.2107


--------------------------------------------------------------------------------------------------------


     LOOP+:  cpu time    211.8032: real time    211.8815
    4ORBIT:  cpu time      0.0000: real time      0.0000

 total amount of memory used by VASP MPI-rank0   132777. kBytes
=======================================================================

   base                                    :      30000. kBytes
   nonlr-proj                              :      14941. kBytes
   fftplans                                :      11326. kBytes
   grid                                    :      17519. kBytes
   one-center                              :        217. kBytes
   wavefun                                 :      58774. kBytes
 
  
  
 General timing and accounting informations for this job:
 ========================================================
  
                  Total CPU time used (sec):      218.453
                            User time (sec):      211.409
                          System time (sec):        7.044
                         Elapsed time (sec):      226.144
  
                   Maximum memory used (kb):      427624.
                   Average memory used (kb):          N/A
  
                          Minor page faults:        55657
                          Major page faults:          709
                 Voluntary context switches:         2752
