cpu-bind=MASK - c028, task  0  0 [1934498]: mask 0xfffffffffff0 set
 running  264 mpi-ranks, with    1 threads/rank, on    6 nodes
 distrk:  each k-point on   44 cores,    6 groups
 distr:  one band on    4 cores,   11 groups
 vasp.6.5.1 10Mar25 (build Aug 29 2025 00:30:47) complex                        
  
 POSCAR found type information on POSCAR B N Ga
 POSCAR found :  3 types and      36 ions
 scaLAPACK will be used
 LDA part: xc-table for (Slater+PW92), standard interpolation
 POSCAR, INCAR and KPOINTS ok, starting setup
 FFT: planning ... GRIDC
 FFT: planning ... GRID_SOFT
 FFT: planning ... GRID
 WAVECAR not read
 entering main loop
       N       E                     dE             d eps       ncg     rms          rms(c)
DAV:   1     0.125511514219E+04    0.12551E+04   -0.54286E+04  2596   0.113E+03
DAV:   2    -0.144618935036E+02   -0.12696E+04   -0.12199E+04  3828   0.257E+02
DAV:   3    -0.261346827462E+03   -0.24688E+03   -0.24481E+03  3047   0.121E+02
DAV:   4    -0.272379940780E+03   -0.11033E+02   -0.11006E+02  3322   0.313E+01
DAV:   5    -0.272668163437E+03   -0.28822E+00   -0.28793E+00  3432   0.432E+00    0.463E+01
DAV:   6    -0.225377484079E+03    0.47291E+02   -0.16602E+02  3036   0.320E+01    0.192E+01
DAV:   7    -0.223093722543E+03    0.22838E+01   -0.11251E+01  3223   0.744E+00    0.975E+00
DAV:   8    -0.221849632878E+03    0.12441E+01   -0.10642E+00  3267   0.297E+00    0.376E+00
DAV:   9    -0.221526604187E+03    0.32303E+00   -0.30227E-01  3289   0.144E+00    0.715E-01
DAV:  10    -0.221501820837E+03    0.24783E-01   -0.39475E-02  3245   0.418E-01    0.463E-01
DAV:  11    -0.221449535182E+03    0.52286E-01   -0.45298E-02  3168   0.529E-01    0.278E-01
DAV:  12    -0.221435223376E+03    0.14312E-01   -0.16992E-02  3157   0.281E-01    0.204E-01
DAV:  13    -0.221373342177E+03    0.61881E-01   -0.26114E-02  3091   0.296E-01    0.158E-01
DAV:  14    -0.221354933056E+03    0.18409E-01   -0.71179E-03  3245   0.188E-01    0.144E-01
DAV:  15    -0.221390902286E+03   -0.35969E-01   -0.23887E-02  2992   0.260E-01    0.880E-02
DAV:  16    -0.221395516635E+03   -0.46143E-02   -0.28911E-03  3278   0.112E-01    0.568E-02
DAV:  17    -0.221396434036E+03   -0.91740E-03   -0.51323E-04  3190   0.598E-02    0.314E-02
DAV:  18    -0.221398352654E+03   -0.19186E-02   -0.42369E-04  2992   0.401E-02    0.241E-02
DAV:  19    -0.221399305997E+03   -0.95334E-03   -0.11435E-04  3036   0.276E-02    0.110E-02
DAV:  20    -0.221399672001E+03   -0.36600E-03   -0.35141E-05  2981   0.140E-02    0.765E-03
DAV:  21    -0.221399789276E+03   -0.11728E-03   -0.18521E-05  2970   0.835E-03    0.392E-03
DAV:  22    -0.221399757436E+03    0.31840E-04   -0.16864E-05  2530   0.735E-03    0.277E-03
DAV:  23    -0.221399732547E+03    0.24890E-04   -0.39500E-06  2794   0.412E-03    0.270E-03
DAV:  24    -0.221399726142E+03    0.64047E-05   -0.32864E-06  2530   0.402E-03    0.285E-03
DAV:  25    -0.221399747459E+03   -0.21317E-04   -0.57550E-06  2739   0.461E-03    0.185E-03
DAV:  26    -0.221399791468E+03   -0.44009E-04   -0.59985E-06  2442   0.372E-03    0.862E-04
DAV:  27    -0.221399795371E+03   -0.39035E-05   -0.37565E-07  2288   0.140E-03    0.511E-04
DAV:  28    -0.221399796879E+03   -0.15076E-05   -0.20729E-07  2024   0.807E-04    0.329E-04
DAV:  29    -0.221399797373E+03   -0.49405E-06   -0.79148E-08  2090   0.488E-04
   1 F= -.22467750E+03 E0= -.22467750E+03  d E =-.240656E-12
