  27  27   0   0
  0.5853913E+02  0.9552669E-09  0.9552669E-09  0.2000000E-08  0.5000000E-15
  1.000000000000000E-004
  CAR 
 WS2 phonon                              
      5.89702533    -79.82436302  301     -1.49644442      1.00000000
    -79.824  0.0000E+00  0.0000E+00
    -79.539  0.0000E+00  0.0000E+00
    -79.253  0.0000E+00  0.0000E+00
    -78.967  0.0000E+00  0.0000E+00
    -78.681  0.0000E+00  0.0000E+00
    -78.396  0.0000E+00  0.0000E+00
    -78.110  0.0000E+00  0.0000E+00
    -77.824  0.0000E+00  0.0000E+00
    -77.538  0.0000E+00  0.0000E+00
    -77.253  0.0000E+00  0.0000E+00
    -76.967  0.0000E+00  0.0000E+00
    -76.681  0.0000E+00  0.0000E+00
    -76.396  0.0000E+00  0.0000E+00
    -76.110  0.1777E-05  0.5078E-06
    -75.824  0.6267E+02  0.1791E+02
    -75.538  0.3278E+00  0.1800E+02
    -75.253  0.0000E+00  0.1800E+02
    -74.967  0.0000E+00  0.1800E+02
    -74.681  0.0000E+00  0.1800E+02
    -74.395  0.0000E+00  0.1800E+02
    -74.110  0.0000E+00  0.1800E+02
    -73.824  0.0000E+00  0.1800E+02
    -73.538  0.0000E+00  0.1800E+02
    -73.252  0.0000E+00  0.1800E+02
    -72.967  0.0000E+00  0.1800E+02
    -72.681  0.0000E+00  0.1800E+02
    -72.395  0.0000E+00  0.1800E+02
    -72.109  0.0000E+00  0.1800E+02
    -71.824  0.0000E+00  0.1800E+02
    -71.538  0.0000E+00  0.1800E+02
    -71.252  0.0000E+00  0.1800E+02
    -70.966  0.0000E+00  0.1800E+02
    -70.681  0.0000E+00  0.1800E+02
    -70.395  0.0000E+00  0.1800E+02
    -70.109  0.0000E+00  0.1800E+02
    -69.824  0.0000E+00  0.1800E+02
    -69.538  0.0000E+00  0.1800E+02
    -69.252  0.0000E+00  0.1800E+02
    -68.966  0.0000E+00  0.1800E+02
    -68.681  0.0000E+00  0.1800E+02
    -68.395  0.0000E+00  0.1800E+02
    -68.109  0.0000E+00  0.1800E+02
    -67.823  0.0000E+00  0.1800E+02
    -67.538  0.0000E+00  0.1800E+02
    -67.252  0.0000E+00  0.1800E+02
    -66.966  0.0000E+00  0.1800E+02
    -66.680  0.0000E+00  0.1800E+02
    -66.395  0.0000E+00  0.1800E+02
    -66.109  0.0000E+00  0.1800E+02
    -65.823  0.0000E+00  0.1800E+02
    -65.537  0.0000E+00  0.1800E+02
    -65.252  0.0000E+00  0.1800E+02
    -64.966  0.0000E+00  0.1800E+02
    -64.680  0.0000E+00  0.1800E+02
    -64.395  0.0000E+00  0.1800E+02
    -64.109  0.0000E+00  0.1800E+02
    -63.823  0.0000E+00  0.1800E+02
    -63.537  0.0000E+00  0.1800E+02
    -63.252  0.0000E+00  0.1800E+02
    -62.966  0.0000E+00  0.1800E+02
    -62.680  0.0000E+00  0.1800E+02
    -62.394  0.0000E+00  0.1800E+02
    -62.109  0.0000E+00  0.1800E+02
    -61.823  0.0000E+00  0.1800E+02
    -61.537  0.0000E+00  0.1800E+02
    -61.251  0.0000E+00  0.1800E+02
    -60.966  0.0000E+00  0.1800E+02
    -60.680  0.0000E+00  0.1800E+02
    -60.394  0.0000E+00  0.1800E+02
    -60.108  0.0000E+00  0.1800E+02
    -59.823  0.0000E+00  0.1800E+02
    -59.537  0.0000E+00  0.1800E+02
    -59.251  0.0000E+00  0.1800E+02
    -58.965  0.0000E+00  0.1800E+02
    -58.680  0.0000E+00  0.1800E+02
    -58.394  0.0000E+00  0.1800E+02
    -58.108  0.0000E+00  0.1800E+02
    -57.823  0.0000E+00  0.1800E+02
    -57.537  0.0000E+00  0.1800E+02
    -57.251  0.0000E+00  0.1800E+02
    -56.965  0.0000E+00  0.1800E+02
    -56.680  0.0000E+00  0.1800E+02
    -56.394  0.0000E+00  0.1800E+02
    -56.108  0.0000E+00  0.1800E+02
    -55.822  0.0000E+00  0.1800E+02
    -55.537  0.0000E+00  0.1800E+02
    -55.251  0.0000E+00  0.1800E+02
    -54.965  0.0000E+00  0.1800E+02
    -54.679  0.0000E+00  0.1800E+02
    -54.394  0.0000E+00  0.1800E+02
    -54.108  0.0000E+00  0.1800E+02
    -53.822  0.0000E+00  0.1800E+02
    -53.536  0.0000E+00  0.1800E+02
    -53.251  0.0000E+00  0.1800E+02
    -52.965  0.0000E+00  0.1800E+02
    -52.679  0.0000E+00  0.1800E+02
    -52.394  0.0000E+00  0.1800E+02
    -52.108  0.0000E+00  0.1800E+02
    -51.822  0.0000E+00  0.1800E+02
    -51.536  0.0000E+00  0.1800E+02
    -51.251  0.0000E+00  0.1800E+02
    -50.965  0.0000E+00  0.1800E+02
    -50.679  0.0000E+00  0.1800E+02
    -50.393  0.0000E+00  0.1800E+02
    -50.108  0.0000E+00  0.1800E+02
    -49.822  0.0000E+00  0.1800E+02
    -49.536  0.0000E+00  0.1800E+02
    -49.250  0.0000E+00  0.1800E+02
    -48.965  0.0000E+00  0.1800E+02
    -48.679  0.0000E+00  0.1800E+02
    -48.393  0.0000E+00  0.1800E+02
    -48.107  0.0000E+00  0.1800E+02
    -47.822  0.0000E+00  0.1800E+02
    -47.536  0.0000E+00  0.1800E+02
    -47.250  0.0000E+00  0.1800E+02
    -46.964  0.0000E+00  0.1800E+02
    -46.679  0.0000E+00  0.1800E+02
    -46.393  0.0000E+00  0.1800E+02
    -46.107  0.0000E+00  0.1800E+02
    -45.822  0.0000E+00  0.1800E+02
    -45.536  0.0000E+00  0.1800E+02
    -45.250  0.0000E+00  0.1800E+02
    -44.964  0.0000E+00  0.1800E+02
    -44.679  0.0000E+00  0.1800E+02
    -44.393  0.0000E+00  0.1800E+02
    -44.107  0.0000E+00  0.1800E+02
    -43.821  0.0000E+00  0.1800E+02
    -43.536  0.0000E+00  0.1800E+02
    -43.250  0.0000E+00  0.1800E+02
    -42.964  0.0000E+00  0.1800E+02
    -42.678  0.0000E+00  0.1800E+02
    -42.393  0.0000E+00  0.1800E+02
    -42.107  0.0000E+00  0.1800E+02
    -41.821  0.0000E+00  0.1800E+02
    -41.535  0.0000E+00  0.1800E+02
    -41.250  0.0000E+00  0.1800E+02
    -40.964  0.0000E+00  0.1800E+02
    -40.678  0.0000E+00  0.1800E+02
    -40.393  0.4757E+00  0.1814E+02
    -40.107  0.1172E+03  0.5161E+02
    -39.821  0.7134E+02  0.7200E+02
    -39.535  0.0000E+00  0.7200E+02
    -39.250  0.0000E+00  0.7200E+02
    -38.964  0.0000E+00  0.7200E+02
    -38.678  0.0000E+00  0.7200E+02
    -38.392  0.0000E+00  0.7200E+02
    -38.107  0.0000E+00  0.7200E+02
    -37.821  0.0000E+00  0.7200E+02
    -37.535  0.0000E+00  0.7200E+02
    -37.249  0.0000E+00  0.7200E+02
    -36.964  0.0000E+00  0.7200E+02
    -36.678  0.0000E+00  0.7200E+02
    -36.392  0.0000E+00  0.7200E+02
    -36.106  0.0000E+00  0.7200E+02
    -35.821  0.0000E+00  0.7200E+02
    -35.535  0.0000E+00  0.7200E+02
    -35.249  0.0000E+00  0.7200E+02
    -34.964  0.0000E+00  0.7200E+02
    -34.678  0.0000E+00  0.7200E+02
    -34.392  0.0000E+00  0.7200E+02
    -34.106  0.0000E+00  0.7200E+02
    -33.821  0.0000E+00  0.7200E+02
    -33.535  0.0000E+00  0.7200E+02
    -33.249  0.0000E+00  0.7200E+02
    -32.963  0.0000E+00  0.7200E+02
    -32.678  0.0000E+00  0.7200E+02
    -32.392  0.0000E+00  0.7200E+02
    -32.106  0.0000E+00  0.7200E+02
    -31.820  0.0000E+00  0.7200E+02
    -31.535  0.0000E+00  0.7200E+02
    -31.249  0.0000E+00  0.7200E+02
    -30.963  0.0000E+00  0.7200E+02
    -30.677  0.0000E+00  0.7200E+02
    -30.392  0.0000E+00  0.7200E+02
    -30.106  0.0000E+00  0.7200E+02
    -29.820  0.0000E+00  0.7200E+02
    -29.534  0.0000E+00  0.7200E+02
    -29.249  0.0000E+00  0.7200E+02
    -28.963  0.0000E+00  0.7200E+02
    -28.677  0.0000E+00  0.7200E+02
    -28.392  0.0000E+00  0.7200E+02
    -28.106  0.0000E+00  0.7200E+02
    -27.820  0.0000E+00  0.7200E+02
    -27.534  0.0000E+00  0.7200E+02
    -27.249  0.0000E+00  0.7200E+02
    -26.963  0.0000E+00  0.7200E+02
    -26.677  0.0000E+00  0.7200E+02
    -26.391  0.0000E+00  0.7200E+02
    -26.106  0.0000E+00  0.7200E+02
    -25.820  0.0000E+00  0.7200E+02
    -25.534  0.0000E+00  0.7200E+02
    -25.248  0.0000E+00  0.7200E+02
    -24.963  0.0000E+00  0.7200E+02
    -24.677  0.0000E+00  0.7200E+02
    -24.391  0.0000E+00  0.7200E+02
    -24.105  0.0000E+00  0.7200E+02
    -23.820  0.0000E+00  0.7200E+02
    -23.534  0.0000E+00  0.7200E+02
    -23.248  0.0000E+00  0.7200E+02
    -22.963  0.0000E+00  0.7200E+02
    -22.677  0.0000E+00  0.7200E+02
    -22.391  0.0000E+00  0.7200E+02
    -22.105  0.0000E+00  0.7200E+02
    -21.820  0.0000E+00  0.7200E+02
    -21.534  0.0000E+00  0.7200E+02
    -21.248  0.0000E+00  0.7200E+02
    -20.962  0.0000E+00  0.7200E+02
    -20.677  0.0000E+00  0.7200E+02
    -20.391  0.0000E+00  0.7200E+02
    -20.105  0.0000E+00  0.7200E+02
    -19.819  0.0000E+00  0.7200E+02
    -19.534  0.0000E+00  0.7200E+02
    -19.248  0.0000E+00  0.7200E+02
    -18.962  0.0000E+00  0.7200E+02
    -18.676  0.0000E+00  0.7200E+02
    -18.391  0.0000E+00  0.7200E+02
    -18.105  0.0000E+00  0.7200E+02
    -17.819  0.0000E+00  0.7200E+02
    -17.533  0.0000E+00  0.7200E+02
    -17.248  0.0000E+00  0.7200E+02
    -16.962  0.0000E+00  0.7200E+02
    -16.676  0.5489E-01  0.7202E+02
    -16.391  0.3658E+01  0.7306E+02
    -16.105  0.4750E+01  0.7442E+02
    -15.819  0.3692E+01  0.7547E+02
    -15.533  0.4943E+01  0.7689E+02
    -15.248  0.6743E+01  0.7881E+02
    -14.962  0.9424E+01  0.8151E+02
    -14.676  0.2175E+02  0.8772E+02
    -14.390  0.3439E+02  0.9755E+02
    -14.105  0.3560E+02  0.1077E+03
    -13.819  0.9780E+00  0.1080E+03
    -13.533  0.0000E+00  0.1080E+03
    -13.247  0.0000E+00  0.1080E+03
    -12.962  0.0000E+00  0.1080E+03
    -12.676  0.0000E+00  0.1080E+03
    -12.390  0.0000E+00  0.1080E+03
    -12.104  0.0000E+00  0.1080E+03
    -11.819  0.0000E+00  0.1080E+03
    -11.533  0.0000E+00  0.1080E+03
    -11.247  0.0000E+00  0.1080E+03
    -10.962  0.0000E+00  0.1080E+03
    -10.676  0.0000E+00  0.1080E+03
    -10.390  0.0000E+00  0.1080E+03
    -10.104  0.0000E+00  0.1080E+03
     -9.819  0.0000E+00  0.1080E+03
     -9.533  0.0000E+00  0.1080E+03
     -9.247  0.0000E+00  0.1080E+03
     -8.961  0.0000E+00  0.1080E+03
     -8.676  0.0000E+00  0.1080E+03
     -8.390  0.1154E+00  0.1080E+03
     -8.104  0.9537E+01  0.1108E+03
     -7.818  0.1357E+02  0.1146E+03
     -7.533  0.2173E+02  0.1208E+03
     -7.247  0.2596E+02  0.1283E+03
     -6.961  0.1236E+02  0.1318E+03
     -6.675  0.9184E+01  0.1344E+03
     -6.390  0.1839E+02  0.1397E+03
     -6.104  0.4342E+02  0.1521E+03
     -5.818  0.1250E+02  0.1557E+03
     -5.532  0.8924E+01  0.1582E+03
     -5.247  0.3996E+02  0.1696E+03
     -4.961  0.2275E+02  0.1761E+03
     -4.675  0.1396E+02  0.1801E+03
     -4.390  0.9044E+01  0.1827E+03
     -4.104  0.2971E+02  0.1912E+03
     -3.818  0.3389E+02  0.2009E+03
     -3.532  0.2713E+02  0.2086E+03
     -3.247  0.1749E+02  0.2136E+03
     -2.961  0.1199E+02  0.2170E+03
     -2.675  0.2235E+02  0.2234E+03
     -2.389  0.1892E+02  0.2288E+03
     -2.104  0.1078E+02  0.2319E+03
     -1.818  0.7290E+01  0.2340E+03
     -1.532  0.6813E-02  0.2340E+03
     -1.246  0.0000E+00  0.2340E+03
     -0.961  0.0000E+00  0.2340E+03
     -0.675  0.0000E+00  0.2340E+03
     -0.389  0.0000E+00  0.2340E+03
     -0.103  0.1568E+00  0.2340E+03
      0.182  0.5184E+01  0.2355E+03
      0.468  0.2298E+02  0.2421E+03
      0.754  0.3038E+02  0.2508E+03
      1.039  0.4435E+02  0.2634E+03
      1.325  0.2782E+02  0.2714E+03
      1.611  0.3202E+02  0.2805E+03
      1.897  0.1715E+02  0.2854E+03
      2.182  0.1937E+01  0.2860E+03
      2.468  0.0000E+00  0.2860E+03
      2.754  0.0000E+00  0.2860E+03
      3.040  0.0000E+00  0.2860E+03
      3.325  0.0000E+00  0.2860E+03
      3.611  0.0000E+00  0.2860E+03
      3.897  0.0000E+00  0.2860E+03
      4.183  0.0000E+00  0.2860E+03
      4.468  0.0000E+00  0.2860E+03
      4.754  0.0000E+00  0.2860E+03
      5.040  0.0000E+00  0.2860E+03
      5.326  0.0000E+00  0.2860E+03
      5.611  0.0000E+00  0.2860E+03
      5.897  0.0000E+00  0.2860E+03
