cpu-bind=MASK - c197, task  0  0 [3173307]: mask 0x7ffefffefffe set
 running  264 mpi-ranks, with    1 threads/rank, on    6 nodes
 distrk:  each k-point on   44 cores,    6 groups
 distr:  one band on    4 cores,   11 groups
 vasp.6.5.1 10Mar25 (build Aug 29 2025 00:30:47) complex                        
  
 POSCAR found type information on POSCAR W S 
 POSCAR found :  2 types and      27 ions
 scaLAPACK will be used
 LDA part: xc-table for (Slater+PW92), standard interpolation
 POSCAR, INCAR and KPOINTS ok, starting setup
 FFT: planning ... GRIDC
 FFT: planning ... GRID_SOFT
 FFT: planning ... GRID
 WAVECAR not read
 entering main loop
       N       E                     dE             d eps       ncg     rms          rms(c)
DAV:   1     0.220432640392E+04    0.22043E+04   -0.11739E+05  4543   0.134E+03
DAV:   2    -0.752919611313E+01   -0.22119E+04   -0.21744E+04  4906   0.323E+02
DAV:   3    -0.218618650131E+03   -0.21109E+03   -0.20945E+03  4521   0.978E+01
DAV:   4    -0.225495311767E+03   -0.68767E+01   -0.68220E+01  4785   0.187E+01
DAV:   5    -0.225721007735E+03   -0.22570E+00   -0.22512E+00  5115   0.333E+00    0.786E+01
DAV:   6    -0.214588108245E+03    0.11133E+02   -0.56314E+01  4543   0.215E+01    0.349E+01
DAV:   7    -0.213519089549E+03    0.10690E+01   -0.13309E+01  4411   0.867E+00    0.128E+01
DAV:   8    -0.213049817361E+03    0.46927E+00   -0.18322E+00  4631   0.410E+00    0.334E+00
DAV:   9    -0.213040789966E+03    0.90274E-02   -0.27503E-01  4873   0.125E+00    0.176E+00
DAV:  10    -0.213022411066E+03    0.18379E-01   -0.11018E-01  4697   0.106E+00    0.608E-01
DAV:  11    -0.213017139627E+03    0.52714E-02   -0.11833E-02  4752   0.475E-01    0.238E-01
DAV:  12    -0.213014794474E+03    0.23452E-02   -0.40273E-03  4785   0.217E-01    0.238E-01
DAV:  13    -0.213010189663E+03    0.46048E-02   -0.33403E-03  4631   0.160E-01    0.181E-01
DAV:  14    -0.213007319854E+03    0.28698E-02   -0.15081E-03  4455   0.115E-01    0.119E-01
DAV:  15    -0.213007158945E+03    0.16091E-03   -0.36962E-04  4664   0.817E-02    0.780E-02
DAV:  16    -0.213002659004E+03    0.44999E-02   -0.33453E-03  4224   0.918E-02    0.483E-02
DAV:  17    -0.213001644203E+03    0.10148E-02   -0.28678E-04  4587   0.305E-02    0.428E-02
DAV:  18    -0.213005575338E+03   -0.39311E-02   -0.56467E-04  4411   0.499E-02    0.443E-02
DAV:  19    -0.213008108021E+03   -0.25327E-02   -0.27334E-04  4730   0.468E-02    0.476E-02
DAV:  20    -0.213009982792E+03   -0.18748E-02   -0.15988E-04  4543   0.334E-02    0.282E-02
DAV:  21    -0.213012048801E+03   -0.20660E-02   -0.27231E-04  4609   0.277E-02    0.202E-02
DAV:  22    -0.213012468783E+03   -0.41998E-03   -0.27881E-05  4290   0.110E-02    0.102E-02
DAV:  23    -0.213012672130E+03   -0.20335E-03   -0.83558E-06  3883   0.860E-03    0.774E-03
DAV:  24    -0.213012826962E+03   -0.15483E-03   -0.70307E-06  3575   0.677E-03    0.539E-03
DAV:  25    -0.213012868890E+03   -0.41928E-04   -0.10094E-06  3278   0.244E-03    0.266E-03
DAV:  26    -0.213012890372E+03   -0.21482E-04   -0.46165E-07  3025   0.122E-03    0.166E-03
DAV:  27    -0.213012902552E+03   -0.12180E-04   -0.48827E-07  3058   0.115E-03    0.383E-04
DAV:  28    -0.213012903505E+03   -0.95327E-06   -0.28827E-08  2585   0.513E-04
   1 F= -.22127059E+03 E0= -.22127059E+03  d E =-.222676E-30
