Mo S  W 
 1.0000000000000000
     3.1863709999999998   -0.0000000000000007    0.0000000000000000
     1.5931854999999984    2.7594782318820106    0.0000000000000000
     0.0000000000000000    0.0000000000000000   20.0000000000000000
 Mo  S   W  
   1   4   1
Direct
  0.0000000000000000  0.0000000000000000  0.4649003403588135
  0.3333333333333358  0.3333333333333356  0.3868278775799450
  0.3333333333333358  0.3333333333333356  0.5429753837292495
  0.6666666666666716  0.6666666666666713  0.7620253837292523
  0.6666666666666716  0.6666666666666713  0.9191882517424217
  0.3333333333333358  0.3333333333333356  0.8406084446508481
Cartesian
  0.0000000000000000  0.0000000000000000  0.0000000000000000
  0.0000000000000000  0.0000000000000000  0.0000000000000000
  0.0000000000000000  0.0000000000000000  0.0000000000000000
  0.0000000000000000  0.0000000000000000  0.0000000000000000
  0.0000000000000000  0.0000000000000000  0.0000000000000000
  0.0000000000000000  0.0000000000000000  0.0000000000000000
