Bilayer MoTe2/WS2 3R (relaxed monolayers
   1.00000000000000     
     3.2809461299999998    0.0000000000000000    0.0000000000000000
     1.6404730649999999    2.8413826970282408    0.0000000000000000
     0.0000000000000000    0.0000000000000000   20.0000000000000000
   Mo   Te   W    S 
     1     2     1     2
Direct
    -0.0000000000000000    0.0000000000000000    0.4946293512357019
     0.3333333333333357    0.3333333333333357    0.3991151824345844
     0.3333333333333357    0.3333333333333357    0.5900065101523304
     0.3333333333333357    0.3333333333333357    0.8255434676858009
     0.6666666666666714    0.6666666666666714    0.7488481341863178
     0.6666666666666714    0.6666666666666714    0.9022125816991594
 
  0.00000000E+00  0.00000000E+00  0.00000000E+00
  0.00000000E+00  0.00000000E+00  0.00000000E+00
  0.00000000E+00  0.00000000E+00  0.00000000E+00
  0.00000000E+00  0.00000000E+00  0.00000000E+00
  0.00000000E+00  0.00000000E+00  0.00000000E+00
  0.00000000E+00  0.00000000E+00  0.00000000E+00
