  54  54   0   0
  0.2941710E+02  0.9576714E-09  0.9576714E-09  0.2000000E-08  0.5000000E-15
  1.000000000000000E-004
  CAR 
 MoS2_bilayer_3R phonon                  
      8.69586823    -62.31747236  301      2.80767874      1.00000000
    -62.317  0.0000E+00  0.0000E+00
    -62.081  0.0000E+00  0.0000E+00
    -61.844  0.0000E+00  0.0000E+00
    -61.607  0.0000E+00  0.0000E+00
    -61.371  0.0000E+00  0.0000E+00
    -61.134  0.0000E+00  0.0000E+00
    -60.897  0.0000E+00  0.0000E+00
    -60.660  0.0000E+00  0.0000E+00
    -60.424  0.0000E+00  0.0000E+00
    -60.187  0.0000E+00  0.0000E+00
    -59.950  0.0000E+00  0.0000E+00
    -59.714  0.0000E+00  0.0000E+00
    -59.477  0.0000E+00  0.0000E+00
    -59.240  0.7314E-04  0.1731E-04
    -59.004  0.9940E+02  0.2353E+02
    -58.767  0.5268E+02  0.3600E+02
    -58.530  0.0000E+00  0.3600E+02
    -58.293  0.0000E+00  0.3600E+02
    -58.057  0.0000E+00  0.3600E+02
    -57.820  0.0000E+00  0.3600E+02
    -57.583  0.0000E+00  0.3600E+02
    -57.347  0.0000E+00  0.3600E+02
    -57.110  0.0000E+00  0.3600E+02
    -56.873  0.0000E+00  0.3600E+02
    -56.636  0.0000E+00  0.3600E+02
    -56.400  0.0000E+00  0.3600E+02
    -56.163  0.0000E+00  0.3600E+02
    -55.926  0.0000E+00  0.3600E+02
    -55.690  0.0000E+00  0.3600E+02
    -55.453  0.0000E+00  0.3600E+02
    -55.216  0.0000E+00  0.3600E+02
    -54.979  0.0000E+00  0.3600E+02
    -54.743  0.0000E+00  0.3600E+02
    -54.506  0.0000E+00  0.3600E+02
    -54.269  0.0000E+00  0.3600E+02
    -54.033  0.0000E+00  0.3600E+02
    -53.796  0.0000E+00  0.3600E+02
    -53.559  0.0000E+00  0.3600E+02
    -53.322  0.0000E+00  0.3600E+02
    -53.086  0.0000E+00  0.3600E+02
    -52.849  0.0000E+00  0.3600E+02
    -52.612  0.0000E+00  0.3600E+02
    -52.376  0.0000E+00  0.3600E+02
    -52.139  0.0000E+00  0.3600E+02
    -51.902  0.0000E+00  0.3600E+02
    -51.665  0.0000E+00  0.3600E+02
    -51.429  0.0000E+00  0.3600E+02
    -51.192  0.0000E+00  0.3600E+02
    -50.955  0.0000E+00  0.3600E+02
    -50.719  0.0000E+00  0.3600E+02
    -50.482  0.0000E+00  0.3600E+02
    -50.245  0.0000E+00  0.3600E+02
    -50.008  0.0000E+00  0.3600E+02
    -49.772  0.0000E+00  0.3600E+02
    -49.535  0.0000E+00  0.3600E+02
    -49.298  0.0000E+00  0.3600E+02
    -49.062  0.0000E+00  0.3600E+02
    -48.825  0.0000E+00  0.3600E+02
    -48.588  0.0000E+00  0.3600E+02
    -48.352  0.0000E+00  0.3600E+02
    -48.115  0.0000E+00  0.3600E+02
    -47.878  0.0000E+00  0.3600E+02
    -47.641  0.0000E+00  0.3600E+02
    -47.405  0.0000E+00  0.3600E+02
    -47.168  0.0000E+00  0.3600E+02
    -46.931  0.0000E+00  0.3600E+02
    -46.695  0.0000E+00  0.3600E+02
    -46.458  0.0000E+00  0.3600E+02
    -46.221  0.0000E+00  0.3600E+02
    -45.984  0.0000E+00  0.3600E+02
    -45.748  0.0000E+00  0.3600E+02
    -45.511  0.0000E+00  0.3600E+02
    -45.274  0.0000E+00  0.3600E+02
    -45.038  0.0000E+00  0.3600E+02
    -44.801  0.0000E+00  0.3600E+02
    -44.564  0.0000E+00  0.3600E+02
    -44.327  0.0000E+00  0.3600E+02
    -44.091  0.0000E+00  0.3600E+02
    -43.854  0.0000E+00  0.3600E+02
    -43.617  0.0000E+00  0.3600E+02
    -43.381  0.0000E+00  0.3600E+02
    -43.144  0.0000E+00  0.3600E+02
    -42.907  0.0000E+00  0.3600E+02
    -42.670  0.0000E+00  0.3600E+02
    -42.434  0.0000E+00  0.3600E+02
    -42.197  0.0000E+00  0.3600E+02
    -41.960  0.0000E+00  0.3600E+02
    -41.724  0.0000E+00  0.3600E+02
    -41.487  0.0000E+00  0.3600E+02
    -41.250  0.0000E+00  0.3600E+02
    -41.013  0.0000E+00  0.3600E+02
    -40.777  0.0000E+00  0.3600E+02
    -40.540  0.0000E+00  0.3600E+02
    -40.303  0.0000E+00  0.3600E+02
    -40.067  0.0000E+00  0.3600E+02
    -39.830  0.0000E+00  0.3600E+02
    -39.593  0.0000E+00  0.3600E+02
    -39.356  0.0000E+00  0.3600E+02
    -39.120  0.0000E+00  0.3600E+02
    -38.883  0.0000E+00  0.3600E+02
    -38.646  0.0000E+00  0.3600E+02
    -38.410  0.0000E+00  0.3600E+02
    -38.173  0.0000E+00  0.3600E+02
    -37.936  0.0000E+00  0.3600E+02
    -37.700  0.0000E+00  0.3600E+02
    -37.463  0.0000E+00  0.3600E+02
    -37.226  0.0000E+00  0.3600E+02
    -36.989  0.0000E+00  0.3600E+02
    -36.753  0.0000E+00  0.3600E+02
    -36.516  0.0000E+00  0.3600E+02
    -36.279  0.0000E+00  0.3600E+02
    -36.043  0.0000E+00  0.3600E+02
    -35.806  0.0000E+00  0.3600E+02
    -35.569  0.0000E+00  0.3600E+02
    -35.332  0.0000E+00  0.3600E+02
    -35.096  0.0000E+00  0.3600E+02
    -34.859  0.0000E+00  0.3600E+02
    -34.622  0.0000E+00  0.3600E+02
    -34.386  0.0000E+00  0.3600E+02
    -34.149  0.0000E+00  0.3600E+02
    -33.912  0.0000E+00  0.3600E+02
    -33.675  0.1313E-14  0.3600E+02
    -33.439  0.6943E+00  0.3616E+02
    -33.202  0.1344E+03  0.6799E+02
    -32.965  0.3135E+03  0.1422E+03
    -32.729  0.7603E+01  0.1440E+03
    -32.492  0.0000E+00  0.1440E+03
    -32.255  0.0000E+00  0.1440E+03
    -32.018  0.0000E+00  0.1440E+03
    -31.782  0.0000E+00  0.1440E+03
    -31.545  0.0000E+00  0.1440E+03
    -31.308  0.0000E+00  0.1440E+03
    -31.072  0.0000E+00  0.1440E+03
    -30.835  0.0000E+00  0.1440E+03
    -30.598  0.0000E+00  0.1440E+03
    -30.361  0.0000E+00  0.1440E+03
    -30.125  0.0000E+00  0.1440E+03
    -29.888  0.0000E+00  0.1440E+03
    -29.651  0.0000E+00  0.1440E+03
    -29.415  0.0000E+00  0.1440E+03
    -29.178  0.0000E+00  0.1440E+03
    -28.941  0.0000E+00  0.1440E+03
    -28.704  0.0000E+00  0.1440E+03
    -28.468  0.0000E+00  0.1440E+03
    -28.231  0.0000E+00  0.1440E+03
    -27.994  0.0000E+00  0.1440E+03
    -27.758  0.0000E+00  0.1440E+03
    -27.521  0.0000E+00  0.1440E+03
    -27.284  0.0000E+00  0.1440E+03
    -27.048  0.0000E+00  0.1440E+03
    -26.811  0.0000E+00  0.1440E+03
    -26.574  0.0000E+00  0.1440E+03
    -26.337  0.0000E+00  0.1440E+03
    -26.101  0.0000E+00  0.1440E+03
    -25.864  0.0000E+00  0.1440E+03
    -25.627  0.0000E+00  0.1440E+03
    -25.391  0.0000E+00  0.1440E+03
    -25.154  0.0000E+00  0.1440E+03
    -24.917  0.0000E+00  0.1440E+03
    -24.680  0.0000E+00  0.1440E+03
    -24.444  0.0000E+00  0.1440E+03
    -24.207  0.0000E+00  0.1440E+03
    -23.970  0.0000E+00  0.1440E+03
    -23.734  0.0000E+00  0.1440E+03
    -23.497  0.0000E+00  0.1440E+03
    -23.260  0.0000E+00  0.1440E+03
    -23.023  0.0000E+00  0.1440E+03
    -22.787  0.0000E+00  0.1440E+03
    -22.550  0.0000E+00  0.1440E+03
    -22.313  0.0000E+00  0.1440E+03
    -22.077  0.0000E+00  0.1440E+03
    -21.840  0.0000E+00  0.1440E+03
    -21.603  0.0000E+00  0.1440E+03
    -21.366  0.0000E+00  0.1440E+03
    -21.130  0.0000E+00  0.1440E+03
    -20.893  0.0000E+00  0.1440E+03
    -20.656  0.0000E+00  0.1440E+03
    -20.420  0.0000E+00  0.1440E+03
    -20.183  0.0000E+00  0.1440E+03
    -19.946  0.0000E+00  0.1440E+03
    -19.709  0.0000E+00  0.1440E+03
    -19.473  0.0000E+00  0.1440E+03
    -19.236  0.0000E+00  0.1440E+03
    -18.999  0.0000E+00  0.1440E+03
    -18.763  0.0000E+00  0.1440E+03
    -18.526  0.0000E+00  0.1440E+03
    -18.289  0.0000E+00  0.1440E+03
    -18.052  0.0000E+00  0.1440E+03
    -17.816  0.0000E+00  0.1440E+03
    -17.579  0.0000E+00  0.1440E+03
    -17.342  0.0000E+00  0.1440E+03
    -17.106  0.0000E+00  0.1440E+03
    -16.869  0.0000E+00  0.1440E+03
    -16.632  0.0000E+00  0.1440E+03
    -16.396  0.0000E+00  0.1440E+03
    -16.159  0.0000E+00  0.1440E+03
    -15.922  0.0000E+00  0.1440E+03
    -15.685  0.0000E+00  0.1440E+03
    -15.449  0.0000E+00  0.1440E+03
    -15.212  0.0000E+00  0.1440E+03
    -14.975  0.0000E+00  0.1440E+03
    -14.739  0.0000E+00  0.1440E+03
    -14.502  0.0000E+00  0.1440E+03
    -14.265  0.0000E+00  0.1440E+03
    -14.028  0.0000E+00  0.1440E+03
    -13.792  0.0000E+00  0.1440E+03
    -13.555  0.0000E+00  0.1440E+03
    -13.318  0.0000E+00  0.1440E+03
    -13.082  0.0000E+00  0.1440E+03
    -12.845  0.0000E+00  0.1440E+03
    -12.608  0.1097E-09  0.1440E+03
    -12.371  0.4220E+00  0.1441E+03
    -12.135  0.5964E+01  0.1455E+03
    -11.898  0.1009E+02  0.1479E+03
    -11.661  0.9035E+01  0.1500E+03
    -11.425  0.1182E+02  0.1528E+03
    -11.188  0.1229E+02  0.1557E+03
    -10.951  0.2062E+02  0.1606E+03
    -10.714  0.3466E+02  0.1688E+03
    -10.478  0.5770E+02  0.1825E+03
    -10.241  0.8593E+02  0.2028E+03
    -10.004  0.5531E+02  0.2159E+03
     -9.768  0.3408E+00  0.2160E+03
     -9.531  0.0000E+00  0.2160E+03
     -9.294  0.0000E+00  0.2160E+03
     -9.057  0.0000E+00  0.2160E+03
     -8.821  0.0000E+00  0.2160E+03
     -8.584  0.0000E+00  0.2160E+03
     -8.347  0.0000E+00  0.2160E+03
     -8.111  0.0000E+00  0.2160E+03
     -7.874  0.0000E+00  0.2160E+03
     -7.637  0.0000E+00  0.2160E+03
     -7.400  0.0000E+00  0.2160E+03
     -7.164  0.0000E+00  0.2160E+03
     -6.927  0.0000E+00  0.2160E+03
     -6.690  0.0000E+00  0.2160E+03
     -6.454  0.0000E+00  0.2160E+03
     -6.217  0.0000E+00  0.2160E+03
     -5.980  0.0000E+00  0.2160E+03
     -5.744  0.0000E+00  0.2160E+03
     -5.507  0.0000E+00  0.2160E+03
     -5.270  0.0000E+00  0.2160E+03
     -5.033  0.0000E+00  0.2160E+03
     -4.797  0.0000E+00  0.2160E+03
     -4.560  0.0000E+00  0.2160E+03
     -4.323  0.3927E-06  0.2160E+03
     -4.087  0.1292E+01  0.2163E+03
     -3.850  0.1585E+02  0.2201E+03
     -3.613  0.3115E+02  0.2274E+03
     -3.376  0.5906E+02  0.2414E+03
     -3.140  0.4758E+02  0.2527E+03
     -2.903  0.4907E+02  0.2643E+03
     -2.666  0.2113E+02  0.2693E+03
     -2.430  0.1695E+02  0.2733E+03
     -2.193  0.3608E+02  0.2818E+03
     -1.956  0.7463E+02  0.2995E+03
     -1.719  0.4924E+02  0.3112E+03
     -1.483  0.3296E+02  0.3190E+03
     -1.246  0.7854E+02  0.3376E+03
     -1.009  0.5322E+02  0.3502E+03
     -0.773  0.3665E+02  0.3588E+03
     -0.536  0.2290E+02  0.3643E+03
     -0.299  0.3679E+02  0.3730E+03
     -0.062  0.6796E+02  0.3890E+03
      0.174  0.5261E+02  0.4015E+03
      0.411  0.5198E+02  0.4138E+03
      0.648  0.4058E+02  0.4234E+03
      0.884  0.2359E+02  0.4290E+03
      1.121  0.6482E+02  0.4443E+03
      1.358  0.4630E+02  0.4553E+03
      1.595  0.2948E+02  0.4623E+03
      1.831  0.1741E+02  0.4664E+03
      2.068  0.2422E+01  0.4670E+03
      2.305  0.2182E+01  0.4675E+03
      2.541  0.2149E+01  0.4680E+03
      2.778  0.4355E-02  0.4680E+03
      3.015  0.0000E+00  0.4680E+03
      3.252  0.2027E-04  0.4680E+03
      3.488  0.1270E+01  0.4683E+03
      3.725  0.1792E+02  0.4725E+03
      3.962  0.5321E+02  0.4851E+03
      4.198  0.7165E+02  0.5021E+03
      4.435  0.9441E+02  0.5244E+03
      4.672  0.7004E+02  0.5410E+03
      4.908  0.6085E+02  0.5554E+03
      5.145  0.3752E+02  0.5643E+03
      5.382  0.2990E+02  0.5714E+03
      5.619  0.2595E+01  0.5720E+03
      5.855  0.8535E-05  0.5720E+03
      6.092  0.0000E+00  0.5720E+03
      6.329  0.0000E+00  0.5720E+03
      6.565  0.0000E+00  0.5720E+03
      6.802  0.0000E+00  0.5720E+03
      7.039  0.0000E+00  0.5720E+03
      7.276  0.0000E+00  0.5720E+03
      7.512  0.0000E+00  0.5720E+03
      7.749  0.0000E+00  0.5720E+03
      7.986  0.0000E+00  0.5720E+03
      8.222  0.0000E+00  0.5720E+03
      8.459  0.0000E+00  0.5720E+03
      8.696  0.0000E+00  0.5720E+03
