Bilayer silicene/silicene AB (relaxed mo
   1.00000000000000     
     3.8313174605314950    0.0000000000000000    0.0000000000000000
     1.9156587302657475    3.3180182507831577    0.0000000000000000
     0.0000000000000000    0.0000000000000000   20.0000000000000000
   Si
     4
Direct
     0.0000000000000000    0.0000000000000000    0.5181433342469451
     0.3333333333333357    0.3333333333333357    0.4898836833643307
     0.3333333333333357    0.3333333333333357    0.6862345129126693
     0.6666666666666714    0.6666666666666714    0.6579748620300502
 
  0.00000000E+00  0.00000000E+00  0.00000000E+00
  0.00000000E+00  0.00000000E+00  0.00000000E+00
  0.00000000E+00  0.00000000E+00  0.00000000E+00
  0.00000000E+00  0.00000000E+00  0.00000000E+00
