  27  27   0   0
  0.5883420E+02  0.9576714E-09  0.9576714E-09  0.2000000E-08  0.5000000E-15
  1.000000000000000E-004
  CAR 
 MoS2 phonon                             
      4.61676106    -66.15259934  301     -1.69350690      1.00000000
    -66.153  0.0000E+00  0.0000E+00
    -65.917  0.0000E+00  0.0000E+00
    -65.681  0.0000E+00  0.0000E+00
    -65.445  0.0000E+00  0.0000E+00
    -65.209  0.0000E+00  0.0000E+00
    -64.973  0.0000E+00  0.0000E+00
    -64.737  0.0000E+00  0.0000E+00
    -64.501  0.0000E+00  0.0000E+00
    -64.265  0.0000E+00  0.0000E+00
    -64.030  0.0000E+00  0.0000E+00
    -63.794  0.0000E+00  0.0000E+00
    -63.558  0.0000E+00  0.0000E+00
    -63.322  0.0000E+00  0.0000E+00
    -63.086  0.7873E-04  0.1857E-04
    -62.850  0.7206E+02  0.1700E+02
    -62.614  0.4249E+01  0.1800E+02
    -62.378  0.0000E+00  0.1800E+02
    -62.142  0.0000E+00  0.1800E+02
    -61.906  0.0000E+00  0.1800E+02
    -61.671  0.0000E+00  0.1800E+02
    -61.435  0.0000E+00  0.1800E+02
    -61.199  0.0000E+00  0.1800E+02
    -60.963  0.0000E+00  0.1800E+02
    -60.727  0.0000E+00  0.1800E+02
    -60.491  0.0000E+00  0.1800E+02
    -60.255  0.0000E+00  0.1800E+02
    -60.019  0.0000E+00  0.1800E+02
    -59.783  0.0000E+00  0.1800E+02
    -59.547  0.0000E+00  0.1800E+02
    -59.312  0.0000E+00  0.1800E+02
    -59.076  0.0000E+00  0.1800E+02
    -58.840  0.0000E+00  0.1800E+02
    -58.604  0.0000E+00  0.1800E+02
    -58.368  0.0000E+00  0.1800E+02
    -58.132  0.0000E+00  0.1800E+02
    -57.896  0.0000E+00  0.1800E+02
    -57.660  0.0000E+00  0.1800E+02
    -57.424  0.0000E+00  0.1800E+02
    -57.188  0.0000E+00  0.1800E+02
    -56.953  0.0000E+00  0.1800E+02
    -56.717  0.0000E+00  0.1800E+02
    -56.481  0.0000E+00  0.1800E+02
    -56.245  0.0000E+00  0.1800E+02
    -56.009  0.0000E+00  0.1800E+02
    -55.773  0.0000E+00  0.1800E+02
    -55.537  0.0000E+00  0.1800E+02
    -55.301  0.0000E+00  0.1800E+02
    -55.065  0.0000E+00  0.1800E+02
    -54.830  0.0000E+00  0.1800E+02
    -54.594  0.0000E+00  0.1800E+02
    -54.358  0.0000E+00  0.1800E+02
    -54.122  0.0000E+00  0.1800E+02
    -53.886  0.0000E+00  0.1800E+02
    -53.650  0.0000E+00  0.1800E+02
    -53.414  0.0000E+00  0.1800E+02
    -53.178  0.0000E+00  0.1800E+02
    -52.942  0.0000E+00  0.1800E+02
    -52.706  0.0000E+00  0.1800E+02
    -52.471  0.0000E+00  0.1800E+02
    -52.235  0.0000E+00  0.1800E+02
    -51.999  0.0000E+00  0.1800E+02
    -51.763  0.0000E+00  0.1800E+02
    -51.527  0.0000E+00  0.1800E+02
    -51.291  0.0000E+00  0.1800E+02
    -51.055  0.0000E+00  0.1800E+02
    -50.819  0.0000E+00  0.1800E+02
    -50.583  0.0000E+00  0.1800E+02
    -50.347  0.0000E+00  0.1800E+02
    -50.112  0.0000E+00  0.1800E+02
    -49.876  0.0000E+00  0.1800E+02
    -49.640  0.0000E+00  0.1800E+02
    -49.404  0.0000E+00  0.1800E+02
    -49.168  0.0000E+00  0.1800E+02
    -48.932  0.0000E+00  0.1800E+02
    -48.696  0.0000E+00  0.1800E+02
    -48.460  0.0000E+00  0.1800E+02
    -48.224  0.0000E+00  0.1800E+02
    -47.988  0.0000E+00  0.1800E+02
    -47.753  0.0000E+00  0.1800E+02
    -47.517  0.0000E+00  0.1800E+02
    -47.281  0.0000E+00  0.1800E+02
    -47.045  0.0000E+00  0.1800E+02
    -46.809  0.0000E+00  0.1800E+02
    -46.573  0.0000E+00  0.1800E+02
    -46.337  0.0000E+00  0.1800E+02
    -46.101  0.0000E+00  0.1800E+02
    -45.865  0.0000E+00  0.1800E+02
    -45.629  0.0000E+00  0.1800E+02
    -45.394  0.0000E+00  0.1800E+02
    -45.158  0.0000E+00  0.1800E+02
    -44.922  0.0000E+00  0.1800E+02
    -44.686  0.0000E+00  0.1800E+02
    -44.450  0.0000E+00  0.1800E+02
    -44.214  0.0000E+00  0.1800E+02
    -43.978  0.0000E+00  0.1800E+02
    -43.742  0.0000E+00  0.1800E+02
    -43.506  0.0000E+00  0.1800E+02
    -43.271  0.0000E+00  0.1800E+02
    -43.035  0.0000E+00  0.1800E+02
    -42.799  0.0000E+00  0.1800E+02
    -42.563  0.0000E+00  0.1800E+02
    -42.327  0.0000E+00  0.1800E+02
    -42.091  0.0000E+00  0.1800E+02
    -41.855  0.0000E+00  0.1800E+02
    -41.619  0.0000E+00  0.1800E+02
    -41.383  0.0000E+00  0.1800E+02
    -41.147  0.0000E+00  0.1800E+02
    -40.912  0.0000E+00  0.1800E+02
    -40.676  0.0000E+00  0.1800E+02
    -40.440  0.0000E+00  0.1800E+02
    -40.204  0.0000E+00  0.1800E+02
    -39.968  0.0000E+00  0.1800E+02
    -39.732  0.0000E+00  0.1800E+02
    -39.496  0.0000E+00  0.1800E+02
    -39.260  0.0000E+00  0.1800E+02
    -39.024  0.0000E+00  0.1800E+02
    -38.788  0.0000E+00  0.1800E+02
    -38.553  0.0000E+00  0.1800E+02
    -38.317  0.0000E+00  0.1800E+02
    -38.081  0.0000E+00  0.1800E+02
    -37.845  0.0000E+00  0.1800E+02
    -37.609  0.0000E+00  0.1800E+02
    -37.373  0.2271E-03  0.1800E+02
    -37.137  0.4322E+02  0.2820E+02
    -36.901  0.1719E+03  0.6875E+02
    -36.665  0.1377E+02  0.7200E+02
    -36.429  0.0000E+00  0.7200E+02
    -36.194  0.0000E+00  0.7200E+02
    -35.958  0.0000E+00  0.7200E+02
    -35.722  0.0000E+00  0.7200E+02
    -35.486  0.0000E+00  0.7200E+02
    -35.250  0.0000E+00  0.7200E+02
    -35.014  0.0000E+00  0.7200E+02
    -34.778  0.0000E+00  0.7200E+02
    -34.542  0.0000E+00  0.7200E+02
    -34.306  0.0000E+00  0.7200E+02
    -34.070  0.0000E+00  0.7200E+02
    -33.835  0.0000E+00  0.7200E+02
    -33.599  0.0000E+00  0.7200E+02
    -33.363  0.0000E+00  0.7200E+02
    -33.127  0.0000E+00  0.7200E+02
    -32.891  0.0000E+00  0.7200E+02
    -32.655  0.0000E+00  0.7200E+02
    -32.419  0.0000E+00  0.7200E+02
    -32.183  0.0000E+00  0.7200E+02
    -31.947  0.0000E+00  0.7200E+02
    -31.712  0.0000E+00  0.7200E+02
    -31.476  0.0000E+00  0.7200E+02
    -31.240  0.0000E+00  0.7200E+02
    -31.004  0.0000E+00  0.7200E+02
    -30.768  0.0000E+00  0.7200E+02
    -30.532  0.0000E+00  0.7200E+02
    -30.296  0.0000E+00  0.7200E+02
    -30.060  0.0000E+00  0.7200E+02
    -29.824  0.0000E+00  0.7200E+02
    -29.588  0.0000E+00  0.7200E+02
    -29.353  0.0000E+00  0.7200E+02
    -29.117  0.0000E+00  0.7200E+02
    -28.881  0.0000E+00  0.7200E+02
    -28.645  0.0000E+00  0.7200E+02
    -28.409  0.0000E+00  0.7200E+02
    -28.173  0.0000E+00  0.7200E+02
    -27.937  0.0000E+00  0.7200E+02
    -27.701  0.0000E+00  0.7200E+02
    -27.465  0.0000E+00  0.7200E+02
    -27.229  0.0000E+00  0.7200E+02
    -26.994  0.0000E+00  0.7200E+02
    -26.758  0.0000E+00  0.7200E+02
    -26.522  0.0000E+00  0.7200E+02
    -26.286  0.0000E+00  0.7200E+02
    -26.050  0.0000E+00  0.7200E+02
    -25.814  0.0000E+00  0.7200E+02
    -25.578  0.0000E+00  0.7200E+02
    -25.342  0.0000E+00  0.7200E+02
    -25.106  0.0000E+00  0.7200E+02
    -24.870  0.0000E+00  0.7200E+02
    -24.635  0.0000E+00  0.7200E+02
    -24.399  0.0000E+00  0.7200E+02
    -24.163  0.0000E+00  0.7200E+02
    -23.927  0.0000E+00  0.7200E+02
    -23.691  0.0000E+00  0.7200E+02
    -23.455  0.0000E+00  0.7200E+02
    -23.219  0.0000E+00  0.7200E+02
    -22.983  0.0000E+00  0.7200E+02
    -22.747  0.0000E+00  0.7200E+02
    -22.511  0.0000E+00  0.7200E+02
    -22.276  0.0000E+00  0.7200E+02
    -22.040  0.0000E+00  0.7200E+02
    -21.804  0.0000E+00  0.7200E+02
    -21.568  0.0000E+00  0.7200E+02
    -21.332  0.0000E+00  0.7200E+02
    -21.096  0.0000E+00  0.7200E+02
    -20.860  0.0000E+00  0.7200E+02
    -20.624  0.0000E+00  0.7200E+02
    -20.388  0.0000E+00  0.7200E+02
    -20.153  0.0000E+00  0.7200E+02
    -19.917  0.0000E+00  0.7200E+02
    -19.681  0.0000E+00  0.7200E+02
    -19.445  0.0000E+00  0.7200E+02
    -19.209  0.0000E+00  0.7200E+02
    -18.973  0.0000E+00  0.7200E+02
    -18.737  0.0000E+00  0.7200E+02
    -18.501  0.0000E+00  0.7200E+02
    -18.265  0.0000E+00  0.7200E+02
    -18.029  0.0000E+00  0.7200E+02
    -17.794  0.0000E+00  0.7200E+02
    -17.558  0.0000E+00  0.7200E+02
    -17.322  0.0000E+00  0.7200E+02
    -17.086  0.0000E+00  0.7200E+02
    -16.850  0.0000E+00  0.7200E+02
    -16.614  0.0000E+00  0.7200E+02
    -16.378  0.2580E-12  0.7200E+02
    -16.142  0.1423E+00  0.7203E+02
    -15.906  0.4231E+01  0.7303E+02
    -15.670  0.5173E+01  0.7425E+02
    -15.435  0.3777E+01  0.7514E+02
    -15.199  0.6813E+01  0.7675E+02
    -14.963  0.7929E+01  0.7862E+02
    -14.727  0.9787E+01  0.8093E+02
    -14.491  0.2175E+02  0.8606E+02
    -14.255  0.3412E+02  0.9411E+02
    -14.019  0.4862E+02  0.1056E+03
    -13.783  0.1027E+02  0.1080E+03
    -13.547  0.6706E-05  0.1080E+03
    -13.311  0.0000E+00  0.1080E+03
    -13.076  0.0000E+00  0.1080E+03
    -12.840  0.0000E+00  0.1080E+03
    -12.604  0.0000E+00  0.1080E+03
    -12.368  0.0000E+00  0.1080E+03
    -12.132  0.0000E+00  0.1080E+03
    -11.896  0.0000E+00  0.1080E+03
    -11.660  0.0000E+00  0.1080E+03
    -11.424  0.0000E+00  0.1080E+03
    -11.188  0.0000E+00  0.1080E+03
    -10.952  0.0000E+00  0.1080E+03
    -10.717  0.0000E+00  0.1080E+03
    -10.481  0.0000E+00  0.1080E+03
    -10.245  0.0000E+00  0.1080E+03
    -10.009  0.0000E+00  0.1080E+03
     -9.773  0.0000E+00  0.1080E+03
     -9.537  0.0000E+00  0.1080E+03
     -9.301  0.0000E+00  0.1080E+03
     -9.065  0.0000E+00  0.1080E+03
     -8.829  0.0000E+00  0.1080E+03
     -8.594  0.0000E+00  0.1080E+03
     -8.358  0.0000E+00  0.1080E+03
     -8.122  0.0000E+00  0.1080E+03
     -7.886  0.2100E-02  0.1080E+03
     -7.650  0.6198E+01  0.1095E+03
     -7.414  0.1625E+02  0.1133E+03
     -7.178  0.3049E+02  0.1205E+03
     -6.942  0.3614E+02  0.1290E+03
     -6.706  0.1850E+02  0.1334E+03
     -6.470  0.4835E+01  0.1345E+03
     -6.235  0.9309E+01  0.1367E+03
     -5.999  0.1807E+02  0.1410E+03
     -5.763  0.4862E+02  0.1524E+03
     -5.527  0.1357E+02  0.1556E+03
     -5.291  0.1914E+02  0.1602E+03
     -5.055  0.4697E+02  0.1712E+03
     -4.819  0.1865E+02  0.1756E+03
     -4.583  0.2072E+02  0.1805E+03
     -4.347  0.8486E+01  0.1825E+03
     -4.111  0.1805E+02  0.1868E+03
     -3.876  0.3395E+02  0.1948E+03
     -3.640  0.3273E+02  0.2025E+03
     -3.404  0.2373E+02  0.2081E+03
     -3.168  0.1547E+02  0.2118E+03
     -2.932  0.2205E+02  0.2170E+03
     -2.696  0.2732E+02  0.2234E+03
     -2.460  0.2296E+02  0.2288E+03
     -2.224  0.1300E+02  0.2319E+03
     -1.988  0.8748E+01  0.2340E+03
     -1.752  0.1735E+00  0.2340E+03
     -1.517  0.0000E+00  0.2340E+03
     -1.281  0.0000E+00  0.2340E+03
     -1.045  0.0000E+00  0.2340E+03
     -0.809  0.0000E+00  0.2340E+03
     -0.573  0.8754E-04  0.2340E+03
     -0.337  0.7967E+00  0.2342E+03
     -0.101  0.5619E+01  0.2355E+03
      0.135  0.4050E+02  0.2451E+03
      0.371  0.3492E+02  0.2533E+03
      0.606  0.5301E+02  0.2658E+03
      0.842  0.2876E+02  0.2726E+03
      1.078  0.2816E+02  0.2792E+03
      1.314  0.1694E+02  0.2832E+03
      1.550  0.1172E+02  0.2860E+03
      1.786  0.2556E-04  0.2860E+03
      2.022  0.0000E+00  0.2860E+03
      2.258  0.0000E+00  0.2860E+03
      2.494  0.0000E+00  0.2860E+03
      2.730  0.0000E+00  0.2860E+03
      2.965  0.0000E+00  0.2860E+03
      3.201  0.0000E+00  0.2860E+03
      3.437  0.0000E+00  0.2860E+03
      3.673  0.0000E+00  0.2860E+03
      3.909  0.0000E+00  0.2860E+03
      4.145  0.0000E+00  0.2860E+03
      4.381  0.0000E+00  0.2860E+03
      4.617  0.0000E+00  0.2860E+03
