Bilayer WS2/WSe2 3R (relaxed monolayers)
   1.00000000000000     
     3.2520779082620388    0.0000000000000000    0.0000000000000000
     1.6260389541310194    2.8163820836410847    0.0000000000000000
     0.0000000000000000    0.0000000000000000   20.0000000000000000
   W    S    Se
     2     2     2
Direct
    -0.0000000000000000   -0.0000000000000000    0.5079624732909029
     0.3333333333333357    0.3333333333333357    0.8170610196714847
     0.3333333333333357    0.3333333333333357    0.4307702835408165
     0.3333333333333357    0.3333333333333357    0.5850047810306515
     0.6666666666666714    0.6666666666666714    0.7321470458084157
     0.6666666666666714    0.6666666666666714    0.9020543966577479
 
  0.00000000E+00  0.00000000E+00  0.00000000E+00
  0.00000000E+00  0.00000000E+00  0.00000000E+00
  0.00000000E+00  0.00000000E+00  0.00000000E+00
  0.00000000E+00  0.00000000E+00  0.00000000E+00
  0.00000000E+00  0.00000000E+00  0.00000000E+00
  0.00000000E+00  0.00000000E+00  0.00000000E+00
