Bilayer MoSe2/WTe2 2H (relaxed monolayer
   1.00000000000000     
     3.3966990027809927    0.0000000000000000    0.0000000000000000
     1.6983495013904963    2.9416276254176092    0.0000000000000000
     0.0000000000000000    0.0000000000000000   20.0000000000000000
   Mo   Se   W    Te
     1     2     1     2
Direct
    -0.0000000000000000    0.0000000000000000    0.4969794514956482
     0.3333333333333357    0.3333333333333357    0.4151350283953454
     0.3333333333333357    0.3333333333333357    0.5789119612907652
     0.3333333333333357    0.3333333333333357    0.8280062738797443
     0.0000000000000000   -0.0000000000000000    0.7343764087871733
    -0.0000000000000000    0.0000000000000000    0.9215908761513073
 
  0.00000000E+00  0.00000000E+00  0.00000000E+00
  0.00000000E+00  0.00000000E+00  0.00000000E+00
  0.00000000E+00  0.00000000E+00  0.00000000E+00
  0.00000000E+00  0.00000000E+00  0.00000000E+00
  0.00000000E+00  0.00000000E+00  0.00000000E+00
  0.00000000E+00  0.00000000E+00  0.00000000E+00
