MoS2_MoTe2_3R phonon                    
           1
    10.136839    0.000000    0.000000
     5.068419    8.778760    0.000000
     0.000000    0.000000   20.000000
   Mo   S    Te
    18    18    18
Direct configuration=     1
   0.99955401  0.00000000  0.50353964
   0.33333333  0.00000000  0.50398563
   0.66666667  0.00000000  0.50398563
   0.00000000  0.33333333  0.50398563
   0.33333333  0.33333333  0.50398563
   0.66666667  0.33333333  0.50398563
   0.00000000  0.66666667  0.50398563
   0.33333333  0.66666667  0.50398563
   0.66666667  0.66666667  0.50398563
   0.11111111  0.11111111  0.82103692
   0.44444444  0.11111111  0.82103692
   0.77777778  0.11111111  0.82103692
   0.11111111  0.44444444  0.82103692
   0.44444444  0.44444444  0.82103692
   0.77777778  0.44444444  0.82103692
   0.11111111  0.77777778  0.82103692
   0.44444444  0.77777778  0.82103692
   0.77777778  0.77777778  0.82103692
   0.11111111  0.11111111  0.42912941
   0.44444444  0.11111111  0.42912941
   0.77777778  0.11111111  0.42912941
   0.11111111  0.44444444  0.42912941
   0.44444444  0.44444444  0.42912941
   0.77777778  0.44444444  0.42912941
   0.11111111  0.77777778  0.42912941
   0.44444444  0.77777778  0.42912941
   0.77777778  0.77777778  0.42912941
   0.11111111  0.11111111  0.57877696
   0.44444444  0.11111111  0.57877696
   0.77777778  0.11111111  0.57877696
   0.11111111  0.44444444  0.57877696
   0.44444444  0.44444444  0.57877696
   0.77777778  0.44444444  0.57877696
   0.11111111  0.77777778  0.57877696
   0.44444444  0.77777778  0.57877696
   0.77777778  0.77777778  0.57877696
   0.22222222  0.22222222  0.72765792
   0.55555556  0.22222222  0.72765792
   0.88888889  0.22222222  0.72765792
   0.22222222  0.55555556  0.72765792
   0.55555556  0.55555556  0.72765792
   0.88888889  0.55555556  0.72765792
   0.22222222  0.88888889  0.72765792
   0.55555556  0.88888889  0.72765792
   0.88888889  0.88888889  0.72765792
   0.22222222  0.22222222  0.91441316
   0.55555556  0.22222222  0.91441316
   0.88888889  0.22222222  0.91441316
   0.22222222  0.55555556  0.91441316
   0.55555556  0.55555556  0.91441316
   0.88888889  0.55555556  0.91441316
   0.22222222  0.88888889  0.91441316
   0.55555556  0.88888889  0.91441316
   0.88888889  0.88888889  0.91441316
