Bilayer MoTe2/WS2 2H (relaxed monolayers
   1.00000000000000     
     3.3762816000000000    0.0000000000000000    0.0000000000000000
     1.6881408000000000    2.9239456359299707    0.0000000000000000
     0.0000000000000000    0.0000000000000000   20.0000000000000000
   Mo   Te   W    S 
     1     2     1     2
Direct
    -0.0000000000000000    0.0000000000000000    0.4984511969145828
     0.3333333333333357    0.3333333333333357    0.4050501000853924
     0.3333333333333357    0.3333333333333357    0.5919073486273535
     0.3333333333333357    0.3333333333333357    0.8216629081749643
    -0.0000000000000000    0.0000000000000000    0.7464178812320783
    -0.0000000000000000   -0.0000000000000000    0.8968657923595769
 
  0.00000000E+00  0.00000000E+00  0.00000000E+00
  0.00000000E+00  0.00000000E+00  0.00000000E+00
  0.00000000E+00  0.00000000E+00  0.00000000E+00
  0.00000000E+00  0.00000000E+00  0.00000000E+00
  0.00000000E+00  0.00000000E+00  0.00000000E+00
  0.00000000E+00  0.00000000E+00  0.00000000E+00
