Bilayer MoS2/MoTe2 3R (relaxed monolayer
    1.000000000000000     
     3.3209909999999998    0.0000000000000000    0.0000000000000000
     1.6604954999999999    2.8760625717394865    0.0000000000000000
     0.0000000000000000    0.0000000000000000   20.0000000000000000
  Mo              S               Te            
     2     2     2
Direct
    -0.0000000000000000    0.0000000000000000    0.4996851882983577
     0.3333333333333357    0.3333333333333357    0.8194534646377049
     0.3333333333333357    0.3333333333333357    0.4240222528828020
     0.3333333333333357    0.3333333333333357    0.5752681197787463
     0.6666666666666714    0.6666666666666714    0.7248607841524189
     0.6666666666666714    0.6666666666666714    0.9140069888329069
 
  0.00000000E+00  0.00000000E+00  0.00000000E+00
  0.00000000E+00  0.00000000E+00  0.00000000E+00
  0.00000000E+00  0.00000000E+00  0.00000000E+00
  0.00000000E+00  0.00000000E+00  0.00000000E+00
  0.00000000E+00  0.00000000E+00  0.00000000E+00
  0.00000000E+00  0.00000000E+00  0.00000000E+00
