  36  36   0   0
  0.3524951E+02  0.8559482E-09  0.8559482E-09  0.2000000E-08  0.5000000E-15
  1.000000000000000E-004
  CAR 
 BN_GaN_AB phonon                        
      4.72330030    -20.57226240  301     -1.51100193      1.00000000
    -20.572  0.0000E+00  0.0000E+00
    -20.488  0.0000E+00  0.0000E+00
    -20.404  0.0000E+00  0.0000E+00
    -20.319  0.0000E+00  0.0000E+00
    -20.235  0.0000E+00  0.0000E+00
    -20.151  0.0000E+00  0.0000E+00
    -20.066  0.0000E+00  0.0000E+00
    -19.982  0.0000E+00  0.0000E+00
    -19.898  0.0000E+00  0.0000E+00
    -19.813  0.0000E+00  0.0000E+00
    -19.729  0.0000E+00  0.0000E+00
    -19.645  0.1531E-09  0.1291E-10
    -19.560  0.4520E-04  0.3811E-05
    -19.476  0.6432E-01  0.5427E-02
    -19.392  0.1781E+01  0.1556E+00
    -19.307  0.4569E+01  0.5408E+00
    -19.223  0.4642E+01  0.9322E+00
    -19.139  0.6221E+01  0.1457E+01
    -19.055  0.1522E+01  0.1585E+01
    -18.970  0.8550E+01  0.2306E+01
    -18.886  0.4988E+01  0.2727E+01
    -18.802  0.2782E+01  0.2961E+01
    -18.717  0.3769E+01  0.3279E+01
    -18.633  0.1122E+02  0.4225E+01
    -18.549  0.2795E+01  0.4460E+01
    -18.464  0.4757E+01  0.4861E+01
    -18.380  0.6395E+01  0.5401E+01
    -18.296  0.1318E+02  0.6512E+01
    -18.211  0.1329E+02  0.7633E+01
    -18.127  0.7487E+01  0.8264E+01
    -18.043  0.5953E+01  0.8766E+01
    -17.958  0.1177E+02  0.9759E+01
    -17.874  0.1852E+02  0.1132E+02
    -17.790  0.1205E+02  0.1234E+02
    -17.705  0.5296E+01  0.1278E+02
    -17.621  0.9536E+01  0.1359E+02
    -17.537  0.2447E+02  0.1565E+02
    -17.452  0.2155E+02  0.1747E+02
    -17.368  0.1165E+02  0.1845E+02
    -17.284  0.2777E+02  0.2079E+02
    -17.200  0.9200E+01  0.2157E+02
    -17.115  0.1346E+02  0.2270E+02
    -17.031  0.1324E+02  0.2382E+02
    -16.947  0.8767E+01  0.2456E+02
    -16.862  0.2856E+01  0.2480E+02
    -16.778  0.4763E+00  0.2484E+02
    -16.694  0.4308E+01  0.2520E+02
    -16.609  0.2485E+01  0.2541E+02
    -16.525  0.1070E+02  0.2631E+02
    -16.441  0.5512E+01  0.2678E+02
    -16.356  0.8510E+01  0.2750E+02
    -16.272  0.2178E+01  0.2768E+02
    -16.188  0.1271E+01  0.2779E+02
    -16.103  0.4494E+01  0.2817E+02
    -16.019  0.9638E+01  0.2898E+02
    -15.935  0.1299E+02  0.3007E+02
    -15.850  0.9748E+01  0.3090E+02
    -15.766  0.5075E+01  0.3132E+02
    -15.682  0.5023E+01  0.3175E+02
    -15.597  0.1476E+02  0.3299E+02
    -15.513  0.1597E+02  0.3434E+02
    -15.429  0.1478E+01  0.3446E+02
    -15.345  0.4534E+01  0.3485E+02
    -15.260  0.7114E+01  0.3545E+02
    -15.176  0.5071E+01  0.3587E+02
    -15.092  0.1414E+01  0.3599E+02
    -15.007  0.9258E-01  0.3600E+02
    -14.923  0.5042E-04  0.3600E+02
    -14.839  0.1241E-09  0.3600E+02
    -14.754  0.0000E+00  0.3600E+02
    -14.670  0.0000E+00  0.3600E+02
    -14.586  0.0000E+00  0.3600E+02
    -14.501  0.0000E+00  0.3600E+02
    -14.417  0.0000E+00  0.3600E+02
    -14.333  0.0000E+00  0.3600E+02
    -14.248  0.0000E+00  0.3600E+02
    -14.164  0.0000E+00  0.3600E+02
    -14.080  0.0000E+00  0.3600E+02
    -13.995  0.0000E+00  0.3600E+02
    -13.911  0.0000E+00  0.3600E+02
    -13.827  0.0000E+00  0.3600E+02
    -13.742  0.0000E+00  0.3600E+02
    -13.658  0.0000E+00  0.3600E+02
    -13.574  0.0000E+00  0.3600E+02
    -13.490  0.0000E+00  0.3600E+02
    -13.405  0.0000E+00  0.3600E+02
    -13.321  0.0000E+00  0.3600E+02
    -13.237  0.0000E+00  0.3600E+02
    -13.152  0.0000E+00  0.3600E+02
    -13.068  0.0000E+00  0.3600E+02
    -12.984  0.0000E+00  0.3600E+02
    -12.899  0.0000E+00  0.3600E+02
    -12.815  0.0000E+00  0.3600E+02
    -12.731  0.0000E+00  0.3600E+02
    -12.646  0.0000E+00  0.3600E+02
    -12.562  0.0000E+00  0.3600E+02
    -12.478  0.0000E+00  0.3600E+02
    -12.393  0.0000E+00  0.3600E+02
    -12.309  0.0000E+00  0.3600E+02
    -12.225  0.0000E+00  0.3600E+02
    -12.140  0.0000E+00  0.3600E+02
    -12.056  0.0000E+00  0.3600E+02
    -11.972  0.0000E+00  0.3600E+02
    -11.887  0.0000E+00  0.3600E+02
    -11.803  0.0000E+00  0.3600E+02
    -11.719  0.0000E+00  0.3600E+02
    -11.634  0.0000E+00  0.3600E+02
    -11.550  0.1005E-12  0.3600E+02
    -11.466  0.6147E-06  0.3600E+02
    -11.382  0.1648E-01  0.3600E+02
    -11.297  0.2853E+01  0.3624E+02
    -11.213  0.7938E+01  0.3691E+02
    -11.129  0.2382E+01  0.3711E+02
    -11.044  0.1353E+02  0.3825E+02
    -10.960  0.8706E+01  0.3899E+02
    -10.876  0.4208E+01  0.3934E+02
    -10.791  0.4861E+01  0.3975E+02
    -10.707  0.1387E+02  0.4092E+02
    -10.623  0.1818E+02  0.4245E+02
    -10.538  0.6792E+01  0.4303E+02
    -10.454  0.3899E+01  0.4336E+02
    -10.370  0.7057E+01  0.4395E+02
    -10.285  0.1234E+02  0.4499E+02
    -10.201  0.3399E+01  0.4528E+02
    -10.117  0.1979E-01  0.4528E+02
    -10.032  0.5526E-01  0.4528E+02
     -9.948  0.5865E+01  0.4578E+02
     -9.864  0.1094E+02  0.4670E+02
     -9.779  0.1947E+01  0.4687E+02
     -9.695  0.3005E+01  0.4712E+02
     -9.611  0.2809E+01  0.4736E+02
     -9.527  0.1701E+01  0.4750E+02
     -9.442  0.1986E+02  0.4917E+02
     -9.358  0.1252E+02  0.5023E+02
     -9.274  0.4494E+01  0.5061E+02
     -9.189  0.7455E+01  0.5124E+02
     -9.105  0.1237E+02  0.5228E+02
     -9.021  0.1698E+02  0.5371E+02
     -8.936  0.4987E+01  0.5413E+02
     -8.852  0.9522E+01  0.5494E+02
     -8.768  0.1831E+02  0.5648E+02
     -8.683  0.2138E+02  0.5828E+02
     -8.599  0.9045E+01  0.5904E+02
     -8.515  0.5919E+01  0.5954E+02
     -8.430  0.1023E+02  0.6041E+02
     -8.346  0.1519E+02  0.6169E+02
     -8.262  0.2829E+01  0.6193E+02
     -8.177  0.7700E+01  0.6258E+02
     -8.093  0.2546E+02  0.6472E+02
     -8.009  0.1155E+02  0.6570E+02
     -7.924  0.9126E+01  0.6647E+02
     -7.840  0.4609E+01  0.6685E+02
     -7.756  0.3032E+01  0.6711E+02
     -7.672  0.1038E+02  0.6799E+02
     -7.587  0.1281E+02  0.6906E+02
     -7.503  0.2405E+02  0.7109E+02
     -7.419  0.1266E+02  0.7216E+02
     -7.334  0.1702E+02  0.7359E+02
     -7.250  0.2572E+02  0.7576E+02
     -7.166  0.1628E+02  0.7714E+02
     -7.081  0.7732E+01  0.7779E+02
     -6.997  0.1623E+02  0.7916E+02
     -6.913  0.1002E+02  0.8000E+02
     -6.828  0.1561E+02  0.8132E+02
     -6.744  0.7511E+01  0.8195E+02
     -6.660  0.1893E+02  0.8355E+02
     -6.575  0.1915E+02  0.8516E+02
     -6.491  0.8416E+01  0.8587E+02
     -6.407  0.1676E+02  0.8728E+02
     -6.322  0.2065E+02  0.8902E+02
     -6.238  0.1601E+02  0.9037E+02
     -6.154  0.1925E+02  0.9200E+02
     -6.069  0.1410E+02  0.9319E+02
     -5.985  0.9146E+01  0.9396E+02
     -5.901  0.1195E+02  0.9497E+02
     -5.817  0.2333E+02  0.9693E+02
     -5.732  0.1699E+02  0.9836E+02
     -5.648  0.1314E+02  0.9947E+02
     -5.564  0.8556E+01  0.1002E+03
     -5.479  0.1261E+02  0.1013E+03
     -5.395  0.2301E+02  0.1032E+03
     -5.311  0.2194E+02  0.1050E+03
     -5.226  0.1304E+02  0.1061E+03
     -5.142  0.1039E+02  0.1070E+03
     -5.058  0.9533E+01  0.1078E+03
     -4.973  0.1731E+02  0.1093E+03
     -4.889  0.1450E+02  0.1105E+03
     -4.805  0.1794E+02  0.1120E+03
     -4.720  0.2088E+02  0.1138E+03
     -4.636  0.2338E+02  0.1158E+03
     -4.552  0.2072E+02  0.1175E+03
     -4.467  0.1086E+02  0.1184E+03
     -4.383  0.1175E+02  0.1194E+03
     -4.299  0.3435E+02  0.1223E+03
     -4.214  0.9224E+01  0.1231E+03
     -4.130  0.1499E+02  0.1243E+03
     -4.046  0.2994E+02  0.1269E+03
     -3.962  0.1879E+02  0.1285E+03
     -3.877  0.8277E+01  0.1292E+03
     -3.793  0.1490E+01  0.1293E+03
     -3.709  0.2943E+01  0.1295E+03
     -3.624  0.5472E+01  0.1300E+03
     -3.540  0.2006E+02  0.1317E+03
     -3.456  0.1992E+02  0.1334E+03
     -3.371  0.1280E+02  0.1344E+03
     -3.287  0.5864E+01  0.1349E+03
     -3.203  0.8916E+01  0.1357E+03
     -3.118  0.1843E+02  0.1372E+03
     -3.034  0.1356E+02  0.1384E+03
     -2.950  0.4178E+01  0.1387E+03
     -2.865  0.1395E+02  0.1399E+03
     -2.781  0.1811E+02  0.1414E+03
     -2.697  0.5068E+01  0.1419E+03
     -2.612  0.6724E+00  0.1419E+03
     -2.528  0.5398E-02  0.1419E+03
     -2.444  0.1356E-01  0.1419E+03
     -2.359  0.1869E+01  0.1421E+03
     -2.275  0.4574E+01  0.1425E+03
     -2.191  0.7380E+01  0.1431E+03
     -2.107  0.3198E+01  0.1434E+03
     -2.022  0.4834E-01  0.1434E+03
     -1.938  0.1302E+01  0.1435E+03
     -1.854  0.4103E+01  0.1438E+03
     -1.769  0.8558E+00  0.1439E+03
     -1.685  0.1265E+01  0.1440E+03
     -1.601  0.5906E-01  0.1440E+03
     -1.516  0.2065E-04  0.1440E+03
     -1.432  0.3235E-10  0.1440E+03
     -1.348  0.0000E+00  0.1440E+03
     -1.263  0.0000E+00  0.1440E+03
     -1.179  0.0000E+00  0.1440E+03
     -1.095  0.0000E+00  0.1440E+03
     -1.010  0.0000E+00  0.1440E+03
     -0.926  0.0000E+00  0.1440E+03
     -0.842  0.0000E+00  0.1440E+03
     -0.757  0.0000E+00  0.1440E+03
     -0.673  0.0000E+00  0.1440E+03
     -0.589  0.0000E+00  0.1440E+03
     -0.504  0.0000E+00  0.1440E+03
     -0.420  0.2840E-09  0.1440E+03
     -0.336  0.8605E-04  0.1440E+03
     -0.251  0.1197E+00  0.1440E+03
     -0.167  0.1565E+01  0.1441E+03
     -0.083  0.7399E+01  0.1448E+03
      0.001  0.9607E+01  0.1456E+03
      0.086  0.9591E+01  0.1464E+03
      0.170  0.1465E+02  0.1476E+03
      0.254  0.1284E+02  0.1487E+03
      0.339  0.8346E+01  0.1494E+03
      0.423  0.7128E+01  0.1500E+03
      0.507  0.4318E+01  0.1504E+03
      0.592  0.6113E+01  0.1509E+03
      0.676  0.8480E+01  0.1516E+03
      0.760  0.9587E+01  0.1524E+03
      0.845  0.1151E+02  0.1534E+03
      0.929  0.5135E+01  0.1538E+03
      1.013  0.3833E+01  0.1541E+03
      1.098  0.1293E+02  0.1552E+03
      1.182  0.1693E+01  0.1554E+03
      1.266  0.6101E+01  0.1559E+03
      1.351  0.1500E+02  0.1571E+03
      1.435  0.1244E+02  0.1582E+03
      1.519  0.1503E+02  0.1595E+03
      1.604  0.2539E+01  0.1597E+03
      1.688  0.1483E-01  0.1597E+03
      1.772  0.1473E+01  0.1598E+03
      1.856  0.2382E+02  0.1618E+03
      1.941  0.1888E+02  0.1634E+03
      2.025  0.1336E+02  0.1645E+03
      2.109  0.1199E+02  0.1655E+03
      2.194  0.8442E+01  0.1663E+03
      2.278  0.2114E+02  0.1680E+03
      2.362  0.2276E+02  0.1700E+03
      2.447  0.1745E+02  0.1714E+03
      2.531  0.2166E+02  0.1733E+03
      2.615  0.3797E+02  0.1765E+03
      2.700  0.1616E+02  0.1778E+03
      2.784  0.3108E+01  0.1781E+03
      2.868  0.2764E+01  0.1783E+03
      2.953  0.6511E+01  0.1789E+03
      3.037  0.1278E+02  0.1799E+03
      3.121  0.2974E+02  0.1824E+03
      3.206  0.4467E+02  0.1862E+03
      3.290  0.4063E+02  0.1896E+03
      3.374  0.2654E+02  0.1919E+03
      3.459  0.3563E+02  0.1949E+03
      3.543  0.2455E+02  0.1970E+03
      3.627  0.1187E+02  0.1980E+03
      3.711  0.5651E+00  0.1980E+03
      3.796  0.2950E-03  0.1980E+03
      3.880  0.8506E-09  0.1980E+03
      3.964  0.0000E+00  0.1980E+03
      4.049  0.0000E+00  0.1980E+03
      4.133  0.0000E+00  0.1980E+03
      4.217  0.0000E+00  0.1980E+03
      4.302  0.0000E+00  0.1980E+03
      4.386  0.0000E+00  0.1980E+03
      4.470  0.0000E+00  0.1980E+03
      4.555  0.0000E+00  0.1980E+03
      4.639  0.0000E+00  0.1980E+03
      4.723  0.0000E+00  0.1980E+03
