cpu-bind=MASK - c209, task  0  0 [1993528]: mask 0x7ffefffefffe set
 running  264 mpi-ranks, with    1 threads/rank, on    6 nodes
 distrk:  each k-point on   44 cores,    6 groups
 distr:  one band on    4 cores,   11 groups
 vasp.6.5.1 10Mar25 (build Aug 29 2025 00:30:47) complex                        
  
 POSCAR found type information on POSCAR B N Ga
 POSCAR found :  3 types and      36 ions
 scaLAPACK will be used
 LDA part: xc-table for (Slater+PW92), standard interpolation
 POSCAR, INCAR and KPOINTS ok, starting setup
 FFT: planning ... GRIDC
 FFT: planning ... GRID_SOFT
 FFT: planning ... GRID
 WAVECAR not read
 entering main loop
       N       E                     dE             d eps       ncg     rms          rms(c)
DAV:   1     0.125510380591E+04    0.12551E+04   -0.54286E+04  2596   0.113E+03
DAV:   2    -0.144756846040E+02   -0.12696E+04   -0.12200E+04  3828   0.257E+02
DAV:   3    -0.261347312400E+03   -0.24687E+03   -0.24480E+03  3047   0.121E+02
DAV:   4    -0.272379962024E+03   -0.11033E+02   -0.11006E+02  3322   0.313E+01
DAV:   5    -0.272668223205E+03   -0.28826E+00   -0.28798E+00  3443   0.432E+00    0.463E+01
DAV:   6    -0.225379864665E+03    0.47288E+02   -0.16599E+02  3025   0.320E+01    0.192E+01
DAV:   7    -0.223093924883E+03    0.22859E+01   -0.11225E+01  3223   0.743E+00    0.975E+00
DAV:   8    -0.221849782904E+03    0.12441E+01   -0.10612E+00  3289   0.297E+00    0.376E+00
DAV:   9    -0.221526620530E+03    0.32316E+00   -0.30267E-01  3289   0.144E+00    0.715E-01
DAV:  10    -0.221501896344E+03    0.24724E-01   -0.39069E-02  3245   0.416E-01    0.462E-01
DAV:  11    -0.221449565385E+03    0.52331E-01   -0.45119E-02  3179   0.528E-01    0.276E-01
DAV:  12    -0.221435180826E+03    0.14385E-01   -0.17193E-02  3146   0.282E-01    0.206E-01
DAV:  13    -0.221373373999E+03    0.61807E-01   -0.26075E-02  3091   0.296E-01    0.159E-01
DAV:  14    -0.221355001970E+03    0.18372E-01   -0.75867E-03  3245   0.194E-01    0.147E-01
DAV:  15    -0.221391136994E+03   -0.36135E-01   -0.24126E-02  2981   0.264E-01    0.889E-02
DAV:  16    -0.221395698301E+03   -0.45613E-02   -0.29046E-03  3267   0.113E-01    0.564E-02
DAV:  17    -0.221396578714E+03   -0.88041E-03   -0.53394E-04  3212   0.607E-02    0.328E-02
DAV:  18    -0.221398500765E+03   -0.19221E-02   -0.43799E-04  2992   0.412E-02    0.233E-02
DAV:  19    -0.221399406779E+03   -0.90601E-03   -0.10487E-04  3025   0.266E-02    0.111E-02
DAV:  20    -0.221399776804E+03   -0.37003E-03   -0.36259E-05  2981   0.136E-02    0.746E-03
DAV:  21    -0.221399898584E+03   -0.12178E-03   -0.18971E-05  2959   0.859E-03    0.405E-03
DAV:  22    -0.221399865353E+03    0.33231E-04   -0.15669E-05  2596   0.696E-03    0.284E-03
DAV:  23    -0.221399839147E+03    0.26206E-04   -0.40788E-06  2794   0.424E-03    0.276E-03
DAV:  24    -0.221399829328E+03    0.98194E-05   -0.29103E-06  2464   0.402E-03    0.293E-03
DAV:  25    -0.221399854394E+03   -0.25066E-04   -0.64770E-06  2783   0.468E-03    0.198E-03
DAV:  26    -0.221399895582E+03   -0.41188E-04   -0.49314E-06  2497   0.336E-03    0.740E-04
DAV:  27    -0.221399901187E+03   -0.56049E-05   -0.52609E-07  2222   0.139E-03    0.503E-04
DAV:  28    -0.221399902682E+03   -0.14949E-05   -0.23638E-07  2101   0.795E-04    0.319E-04
DAV:  29    -0.221399903053E+03   -0.37182E-06   -0.73368E-08  2090   0.482E-04
   1 F= -.22467751E+03 E0= -.22467751E+03  d E =-.240547E-12
