Bilayer MoS2/WS2 2H (relaxed monolayers)
   1.00000000000000     
     3.1882304034267581    0.0000000000000000    0.0000000000000000
     1.5941152017133791    2.7610885224854820    0.0000000000000000
     0.0000000000000000    0.0000000000000000   20.0000000000000000
   Mo   S    W 
     1     4     1
Direct
     0.0000000000000000   -0.0000000000000000    0.5110309891982444
     0.3333333333333357    0.3333333333333357    0.4332892158418569
     0.3333333333333357    0.3333333333333357    0.5886881291246632
    -0.0000000000000000   -0.0000000000000000    0.7357755560097760
     0.0000000000000000    0.0000000000000000    0.8922504444333500
     0.3333333333333357    0.3333333333333357    0.8139656653922551
 
  0.00000000E+00  0.00000000E+00  0.00000000E+00
  0.00000000E+00  0.00000000E+00  0.00000000E+00
  0.00000000E+00  0.00000000E+00  0.00000000E+00
  0.00000000E+00  0.00000000E+00  0.00000000E+00
  0.00000000E+00  0.00000000E+00  0.00000000E+00
  0.00000000E+00  0.00000000E+00  0.00000000E+00
