 vasp.6.5.1 10Mar25 (build Aug 29 2025 00:30:47) complex                        
  
 executed on             LinuxIFC date 2026.06.04  23:07:55
 running  264 mpi-ranks, with    1 threads/rank, on    6 nodes
 distrk:  each k-point on   44 cores,    6 groups
 distr:  one band on NCORE=   4 cores,   11 groups


--------------------------------------------------------------------------------------------------------


 INCAR:
   SYSTEM = MoSe2_WS2_2H phonon
   PREC = Accurate
   ENCUT = 520
   EDIFF = 1E-6
   ISMEAR = 0
   SIGMA = 0.05
   LREAL = Auto
   ALGO = Normal
   AMIN = 0.01
   NELM = 200
   NSW = 0
   IBRION = -1
   IVDW = 12
   KPAR = 6
   NCORE = 4
   LWAVE = .FALSE.
   LCHARG = .FALSE.

 POTCAR:    PAW_PBE Mo_sv 02Feb2006               
 POTCAR:    PAW_PBE Se 06Sep2000                  
 POTCAR:    PAW_PBE W_sv 04Sep2015                
 POTCAR:    PAW_PBE S 06Sep2000                   
 POTCAR:    PAW_PBE Mo_sv 02Feb2006               
   SHA256 =  2731df97e41766cc617548c5a8267718fdef1f509ac6bafa01e745abea2bdfaa Mo_sv/POTCAR          
   COPYR  = (c) Copyright 02Feb2006 Georg Kresse                                                    
   COPYR  = This file is part of the software VASP. Any use, copying, and all other rights are regul
   COPYR  = If you do not have a valid VASP license, you may not use, copy or distribute this file. 
   VRHFIN =Mo: 4p5s4d                                                                               
   LEXCH  = PE                                                                                      
   EATOM  =  1862.2866 eV,  136.8742 Ry                                                             
                                                                                                    
   TITEL  = PAW_PBE Mo_sv 02Feb2006                                                                 
   LULTRA =        F    use ultrasoft PP ?                                                          
   IUNSCR =        1    unscreen: 0-lin 1-nonlin 2-no                                               
   RPACOR =    2.200    partial core radius                                                         
   POMASS =   95.940; ZVAL   =   14.000    mass and valenz                                          
   RCORE  =    2.500    outmost cutoff radius                                                       
   RWIGS  =    2.750; RWIGS  =    1.455    wigner-seitz radius (au A)                               
   ENMAX  =  242.676; ENMIN  =  182.007 eV                                                          
   ICORE  =        3    local potential                                                             
   LCOR   =        T    correct aug charges                                                         
   LPAW   =        T    paw PP                                                                      
   EAUG   =  446.014                                                                                
   DEXC   =    0.000                                                                                
   RMAX   =    2.563    core radius for proj-oper                                                   
   RAUG   =    1.300    factor for augmentation sphere                                              
   RDEP   =    2.641    radius for radial grids                                                     
   RDEPT  =    2.031    core radius for aug-charge                                                  
                                                                                                    
   Atomic configuration                                                                             
   11 entries                                                                                       
     n  l   j            E        occ.                                                              
     1  0  0.50    -19819.0341   2.0000                                                             
     2  0  0.50     -2799.0127   2.0000                                                             
     2  1  1.50     -2502.0276   6.0000                                                             
     3  0  0.50      -476.4449   2.0000                                                             
     3  1  1.50      -379.1496   6.0000                                                             
     3  2  2.50      -220.9367  10.0000                                                             
     4  0  0.50       -64.3378   2.0000                                                             
     5  0  0.50        -4.0862   1.0000                                                             
     4  1  1.50       -38.4773   6.0000                                                             
     4  2  2.50        -3.7535   5.0000                                                             
     4  3  2.50        -1.3606   0.0000                                                             
   Description                                                                                      
     l       E           TYP  RCUT    TYP  RCUT                                                     
     0    -64.3377829     23  2.100                                                                 
     0     -4.0861640     23  2.400                                                                 
     1    -38.4772993     23  2.100                                                                 
     1     13.6058260     23  2.100                                                                 
     2     -3.7534941     23  2.400                                                                 
     2     -5.1140767     23  2.400                                                                 
     3     -4.0817478     23  2.500                                                                 
  local pseudopotential read in
  partial core-charges read in
  partial kinetic energy density read in
  atomic valenz-charges read in
  non local Contribution for L=           0  read in
    real space projection operators read in
  non local Contribution for L=           0  read in
    real space projection operators read in
  non local Contribution for L=           1  read in
    real space projection operators read in
  non local Contribution for L=           1  read in
    real space projection operators read in
  non local Contribution for L=           2  read in
    real space projection operators read in
  non local Contribution for L=           2  read in
    real space projection operators read in
    PAW grid and wavefunctions read in
 
   number of l-projection  operators is LMAX  =           6
   number of lm-projection operators is LMMAX =          18
 
 POTCAR:    PAW_PBE Se 06Sep2000                  
   SHA256 =  eabb916e6b4c819dc065ce039373bc328651da483898f08fb9e49c498452bf12 Se/POTCAR             
   COPYR  = (c) Copyright 06Sep2000 Georg Kresse                                                    
   COPYR  = This file is part of the software VASP. Any use, copying, and all other rights are regul
   COPYR  = If you do not have a valid VASP license, you may not use, copy or distribute this file. 
   VRHFIN =Se: s2p4                                                                                 
   LEXCH  = PE                                                                                      
   EATOM  =   257.1286 eV,   18.8984 Ry                                                             
                                                                                                    
   TITEL  = PAW_PBE Se 06Sep2000                                                                    
   LULTRA =        F    use ultrasoft PP ?                                                          
   IUNSCR =        1    unscreen: 0-lin 1-nonlin 2-no                                               
   RPACOR =    1.900    partial core radius                                                         
   POMASS =   78.960; ZVAL   =    6.000    mass and valenz                                          
   RCORE  =    2.100    outmost cutoff radius                                                       
   RWIGS  =    2.200; RWIGS  =    1.164    wigner-seitz radius (au A)                               
   ENMAX  =  211.555; ENMIN  =  158.666 eV                                                          
   ICORE  =        3    local potential                                                             
   LCOR   =        T    correct aug charges                                                         
   LPAW   =        T    paw PP                                                                      
   EAUG   =  446.842                                                                                
   DEXC   =    0.000                                                                                
   RMAX   =    2.147    core radius for proj-oper                                                   
   RAUG   =    1.300    factor for augmentation sphere                                              
   RDEP   =    2.177    radius for radial grids                                                     
   RDEPT  =    1.928    core radius for aug-charge                                                  
                                                                                                    
   Atomic configuration                                                                             
   10 entries                                                                                       
     n  l   j            E        occ.                                                              
     1  0  0.50    -12503.4787   2.0000                                                             
     2  0  0.50     -1606.9547   2.0000                                                             
     2  1  1.50     -1413.3140   6.0000                                                             
     3  0  0.50      -213.4885   2.0000                                                             
     3  1  1.50      -152.9538   6.0000                                                             
     3  2  2.50       -53.1221  10.0000                                                             
     4  0  0.50       -17.2865   2.0000                                                             
     4  1  0.50        -6.5110   4.0000                                                             
     4  2  2.50        -6.8029   0.0000                                                             
     4  3  2.50        -6.8029   0.0000                                                             
   Description                                                                                      
     l       E           TYP  RCUT    TYP  RCUT                                                     
     0    -17.2865377     23  2.100                                                                 
     0    -15.3094411     23  2.100                                                                 
     1     -6.5110275     23  2.100                                                                 
     1     -0.0695192     23  2.100                                                                 
     2     -6.8029130     23  2.100                                                                 
     3     -1.3605826      7  2.100                                                                 
  local pseudopotential read in
  partial core-charges read in
  partial kinetic energy density read in
  atomic valenz-charges read in
  non local Contribution for L=           0  read in
    real space projection operators read in
  non local Contribution for L=           0  read in
    real space projection operators read in
  non local Contribution for L=           1  read in
    real space projection operators read in
  non local Contribution for L=           1  read in
    real space projection operators read in
  non local Contribution for L=           2  read in
    real space projection operators read in
    PAW grid and wavefunctions read in
 
   number of l-projection  operators is LMAX  =           5
   number of lm-projection operators is LMMAX =          13
 
 POTCAR:    PAW_PBE W_sv 04Sep2015                
   SHA256 =  931c2d770f65867ef30f3db3421922900fc0890ebac5c3e12f63b6a2064023d7 W_sv/POTCAR           
   COPYR  = (c) Copyright 04Sep2015 Georg Kresse                                                    
   COPYR  = This file is part of the software VASP. Any use, copying, and all other rights are regul
   COPYR  = If you do not have a valid VASP license, you may not use, copy or distribute this file. 
   VRHFIN =W : 5p6s5d                                                                               
   LEXCH  = PE                                                                                      
   EATOM  =  1865.5791 eV,  137.1162 Ry                                                             
                                                                                                    
   TITEL  = PAW_PBE W_sv 04Sep2015                                                                  
   LULTRA =        F    use ultrasoft PP ?                                                          
   IUNSCR =        1    unscreen: 0-lin 1-nonlin 2-no                                               
   RPACOR =    2.330    partial core radius                                                         
   POMASS =  183.850; ZVAL   =   14.000    mass and valenz                                          
   RCORE  =    2.500    outmost cutoff radius                                                       
   RWIGS  =    2.750; RWIGS  =    1.455    wigner-seitz radius (au A)                               
   ENMAX  =  223.057; ENMIN  =  167.293 eV                                                          
   ICORE  =        3    local potential                                                             
   LCOR   =        T    correct aug charges                                                         
   LPAW   =        T    paw PP                                                                      
   EAUG   =  373.438                                                                                
   DEXC   =    0.000                                                                                
   RMAX   =    2.565    core radius for proj-oper                                                   
   RAUG   =    1.300    factor for augmentation sphere                                              
   RDEP   =    2.539    radius for radial grids                                                     
   RDEPT  =    2.126    core radius for aug-charge                                                  
                                                                                                    
   Atomic configuration                                                                             
   15 entries                                                                                       
     n  l   j            E        occ.                                                              
     1  0  0.50    -69465.5834   2.0000                                                             
     2  0  0.50    -11986.2640   2.0000                                                             
     2  1  1.50    -10479.8613   6.0000                                                             
     3  0  0.50     -2759.0756   2.0000                                                             
     3  1  1.50     -2313.1855   6.0000                                                             
     3  2  2.50     -1801.1183  10.0000                                                             
     4  0  0.50      -567.6789   2.0000                                                             
     4  1  1.50      -421.4692   6.0000                                                             
     4  2  2.50      -236.3471  10.0000                                                             
     4  3  3.50       -31.2665  14.0000                                                             
     5  0  0.50       -77.1084   2.0000                                                             
     6  0  0.50        -5.1438   1.0000                                                             
     5  1  1.50       -41.3856   6.0000                                                             
     5  2  2.50        -3.3185   5.0000                                                             
     5  3  2.50        -1.3606   0.0000                                                             
   Description                                                                                      
     l       E           TYP  RCUT    TYP  RCUT                                                     
     0    -77.1084470     23  2.100                                                                 
     0     -5.1437956     23  2.300                                                                 
     1    -41.3855615     23  2.500                                                                 
     1     -2.7211652     23  2.500                                                                 
     2     -3.3185025     23  2.500                                                                 
     2     -1.5965151     23  2.500                                                                 
     3     -1.3605826     23  2.500                                                                 
  local pseudopotential read in
  partial core-charges read in
  partial kinetic energy density read in
  kinetic energy density of atom read in
  atomic valenz-charges read in
  non local Contribution for L=           0  read in
    real space projection operators read in
  non local Contribution for L=           0  read in
    real space projection operators read in
  non local Contribution for L=           1  read in
    real space projection operators read in
  non local Contribution for L=           1  read in
    real space projection operators read in
  non local Contribution for L=           2  read in
    real space projection operators read in
  non local Contribution for L=           2  read in
    real space projection operators read in
    PAW grid and wavefunctions read in
 
   number of l-projection  operators is LMAX  =           6
   number of lm-projection operators is LMMAX =          18
 
 POTCAR:    PAW_PBE S 06Sep2000                   
   SHA256 =  0fc7481fb0695f01bdc6462160264c5c84044ae9ec85a907d398b887a2bc3132 S/POTCAR              
   COPYR  = (c) Copyright 06Sep2000 Georg Kresse                                                    
   COPYR  = This file is part of the software VASP. Any use, copying, and all other rights are regul
   COPYR  = If you do not have a valid VASP license, you may not use, copy or distribute this file. 
   VRHFIN =S : s2p4                                                                                 
   LEXCH  = PE                                                                                      
   EATOM  =   276.8230 eV,   20.3459 Ry                                                             
                                                                                                    
   TITEL  = PAW_PBE S 06Sep2000                                                                     
   LULTRA =        F    use ultrasoft PP ?                                                          
   IUNSCR =        1    unscreen: 0-lin 1-nonlin 2-no                                               
   RPACOR =    1.500    partial core radius                                                         
   POMASS =   32.066; ZVAL   =    6.000    mass and valenz                                          
   RCORE  =    1.900    outmost cutoff radius                                                       
   RWIGS  =    2.200; RWIGS  =    1.164    wigner-seitz radius (au A)                               
   ENMAX  =  258.689; ENMIN  =  194.016 eV                                                          
   ICORE  =        2    local potential                                                             
   LCOR   =        T    correct aug charges                                                         
   LPAW   =        T    paw PP                                                                      
   EAUG   =  335.092                                                                                
   DEXC   =    0.000                                                                                
   RMAX   =    1.942    core radius for proj-oper                                                   
   RAUG   =    1.300    factor for augmentation sphere                                              
   RDEP   =    1.954    radius for radial grids                                                     
   RDEPT  =    1.744    core radius for aug-charge                                                  
                                                                                                    
   Atomic configuration                                                                             
    6 entries                                                                                       
     n  l   j            E        occ.                                                              
     1  0  0.50     -2405.8406   2.0000                                                             
     2  0  0.50      -211.7007   2.0000                                                             
     2  1  1.50      -156.4958   6.0000                                                             
     3  0  0.50       -17.2562   2.0000                                                             
     3  1  0.50        -7.0085   4.0000                                                             
     3  2  1.50        -6.8029   0.0000                                                             
   Description                                                                                      
     l       E           TYP  RCUT    TYP  RCUT                                                     
     0    -17.2561641     23  1.900                                                                 
     0    -15.8743224     23  1.900                                                                 
     1     -7.0085400     23  1.900                                                                 
     1     -2.7779785     23  1.900                                                                 
     2     -6.8029130     23  1.900                                                                 
  local pseudopotential read in
  partial core-charges read in
  partial kinetic energy density read in
  atomic valenz-charges read in
  non local Contribution for L=           0  read in
    real space projection operators read in
  non local Contribution for L=           0  read in
    real space projection operators read in
  non local Contribution for L=           1  read in
    real space projection operators read in
  non local Contribution for L=           1  read in
    real space projection operators read in
    PAW grid and wavefunctions read in
 
   number of l-projection  operators is LMAX  =           4
   number of lm-projection operators is LMMAX =           8
 
 Optimization of the real space projectors (new method)

 maximal supplied QI-value         = 15.12
 optimisation between [QCUT,QGAM] = [ 11.64, 23.28] = [ 37.95,151.78] Ry 
 Optimized for a Real-space Cutoff    1.53 Angstroem

   l    n(q)    QCUT    max X(q) W(low)/X(q) W(high)/X(q)  e(spline) 
   0     11    11.641     3.559    0.80E-05    0.27E-04    0.27E-06
   0     11    11.641    20.730    0.39E-04    0.26E-04    0.29E-06
   1     10    11.641     3.279    0.18E-05    0.27E-05    0.28E-07
   1     10    11.641     4.693    0.11E-03    0.12E-04    0.28E-06
   2     10    11.641    67.616    0.19E-03    0.29E-03    0.91E-06
   2     10    11.641    62.420    0.19E-03    0.29E-03    0.92E-06
 Optimization of the real space projectors (new method)

 maximal supplied QI-value         = 17.95
 optimisation between [QCUT,QGAM] = [ 11.67, 23.34] = [ 38.13,152.52] Ry 
 Optimized for a Real-space Cutoff    1.25 Angstroem

   l    n(q)    QCUT    max X(q) W(low)/X(q) W(high)/X(q)  e(spline) 
   0      9    11.669   133.320    0.17E-03    0.44E-04    0.69E-07
   0      9    11.669   111.601    0.18E-03    0.46E-04    0.72E-07
   1      8    11.669    47.222    0.22E-03    0.37E-03    0.10E-06
   1      8    11.669    33.775    0.22E-03    0.36E-03    0.10E-06
   2      8    11.669     3.720    0.19E-03    0.46E-04    0.50E-07
 Optimization of the real space projectors (new method)

 maximal supplied QI-value         = 15.12
 optimisation between [QCUT,QGAM] = [ 11.64, 23.28] = [ 37.95,151.78] Ry 
 Optimized for a Real-space Cutoff    1.53 Angstroem

   l    n(q)    QCUT    max X(q) W(low)/X(q) W(high)/X(q)  e(spline) 
   0     11    11.641     3.377    0.18E-04    0.34E-04    0.29E-06
   0     11    11.641    17.603    0.39E-04    0.41E-04    0.35E-06
   1     10    11.641     4.278    0.12E-04    0.15E-04    0.63E-07
   1     10    11.641     5.278    0.15E-04    0.52E-04    0.18E-06
   2     10    11.641    67.938    0.89E-04    0.14E-03    0.15E-06
   2     10    11.641    59.529    0.87E-04    0.14E-03    0.15E-06
 Optimization of the real space projectors (new method)

 maximal supplied QI-value         = 19.84
 optimisation between [QCUT,QGAM] = [ 11.51, 23.22] = [ 37.09,150.92] Ry 
 Optimized for a Real-space Cutoff    1.21 Angstroem

   l    n(q)    QCUT    max X(q) W(low)/X(q) W(high)/X(q)  e(spline) 
   0      8    11.508   187.594    0.96E-04    0.18E-03    0.54E-07
   0      8    11.508   164.243    0.96E-04    0.18E-03    0.54E-07
   1      8    11.508    67.533    0.18E-03    0.65E-04    0.94E-07
   1      8    11.508    50.729    0.18E-03    0.63E-04    0.92E-07
  PAW_PBE Mo_sv 02Feb2006               :
 energy of atom  1       EATOM=-1862.2866
 kinetic energy error for atom=    0.0070 (will be added to EATOM!!)
  PAW_PBE Se 06Sep2000                  :
 energy of atom  2       EATOM= -257.1286
 kinetic energy error for atom=    0.0007 (will be added to EATOM!!)
  PAW_PBE W_sv 04Sep2015                :
 energy of atom  3       EATOM=-1865.5791
 kinetic energy error for atom=    0.0026 (will be added to EATOM!!)
  PAW_PBE S 06Sep2000                   :
 energy of atom  4       EATOM= -276.8230
 kinetic energy error for atom=    0.0016 (will be added to EATOM!!)
 
 
 POSCAR: generated by phonopy
  positions in direct lattice
  No initial velocities read in
 IVDW         = 12
 VDW_S6       =    1.0000
 VDW_S8       =    0.7875
 VDW_A1       =    0.4289
 VDW_A2       =    4.4407
 VDW_RADIUS   =   50.2022 A
 VDW_CNRADIUS =   21.1671 A


 exchange-correlation table for PE
   RHO(1)=    0.500       N(1)  =     2000
   RHO(2)=  100.500       N(2)  =     4000
 


--------------------------------------------------------------------------------------------------------


 ion  position               nearest neighbor table
   1  0.000  0.000  0.507-  21 2.52  25 2.52  19 2.52  16 2.52  12 2.52  10 2.52   2 3.25   3 3.25
                             4 3.25   6 3.25   7 3.25   8 3.25
   2  0.333  0.000  0.507-  19 2.52  20 2.52  26 2.52  10 2.52  11 2.52  17 2.52   3 3.25   9 3.25
                             8 3.25   1 3.25   4 3.25   5 3.25
   3  0.667  0.000  0.507-  20 2.52  27 2.52  21 2.52  18 2.52  11 2.52  12 2.52   2 3.25   5 3.25
                             7 3.25   9 3.25   1 3.25   6 3.25
   4  0.000  0.333  0.507-  19 2.52  22 2.52  24 2.52  10 2.52  13 2.52  15 2.52   7 3.25   9 3.25
                             1 3.25   2 3.25   5 3.25   6 3.25
   5  0.333  0.333  0.507-  23 2.52  22 2.52  20 2.52  14 2.52  11 2.52  13 2.52   8 3.25   6 3.25
                             7 3.25   3 3.25   4 3.25   2 3.25
   6  0.667  0.333  0.507-  21 2.52  23 2.52  24 2.52  12 2.52  14 2.52  15 2.52   8 3.25   9 3.25
                             5 3.25   1 3.25   3 3.25   4 3.25
   7  0.000  0.667  0.507-  22 2.52  27 2.52  25 2.52  18 2.52  13 2.52  16 2.52   4 3.25   5 3.25
                             8 3.25   9 3.25   1 3.25   3 3.25
   8  0.333  0.667  0.507-  23 2.52  25 2.52  26 2.52  14 2.52  16 2.52  17 2.52   5 3.25   6 3.25
                             9 3.25   2 3.25   7 3.25   1 3.25
   9  0.667  0.667  0.507-  24 2.52  26 2.52  27 2.52  17 2.52  15 2.52  18 2.52   6 3.25   8 3.25
                             2 3.25   4 3.25   7 3.25   3 3.25
  10  0.111  0.111  0.422-   2 2.52   4 2.52   1 2.52
  11  0.444  0.111  0.422-   2 2.52   3 2.52   5 2.52
  12  0.778  0.111  0.422-   1 2.52   6 2.52   3 2.52
  13  0.111  0.444  0.422-   4 2.52   5 2.52   7 2.52
  14  0.444  0.444  0.422-   5 2.52   6 2.52   8 2.52
  15  0.778  0.444  0.422-   4 2.52   6 2.52   9 2.52
  16  0.111  0.778  0.422-   1 2.52   8 2.52   7 2.52
  17  0.444  0.778  0.422-   2 2.52   8 2.52   9 2.52
  18  0.778  0.778  0.422-   3 2.52   7 2.52   9 2.52
  19  0.111  0.111  0.591-   2 2.52   4 2.52   1 2.52
  20  0.444  0.111  0.591-   2 2.52   3 2.52   5 2.52
  21  0.778  0.111  0.591-   1 2.52   6 2.52   3 2.52
  22  0.111  0.444  0.591-   4 2.52   5 2.52   7 2.52
  23  0.444  0.444  0.591-   5 2.52   6 2.52   8 2.52
  24  0.778  0.444  0.591-   4 2.52   6 2.52   9 2.52
  25  0.111  0.778  0.591-   1 2.52   8 2.52   7 2.52
  26  0.444  0.778  0.591-   2 2.52   8 2.52   9 2.52
  27  0.778  0.778  0.591-   3 2.52   7 2.52   9 2.52
  28  0.111  0.111  0.818-  38 2.43  40 2.43  37 2.43  47 2.43  49 2.43  46 2.43  31 3.25  29 3.25
                            33 3.25  35 3.25  34 3.25  30 3.25
  29  0.444  0.111  0.818-  38 2.43  39 2.43  41 2.43  47 2.43  48 2.43  50 2.43  31 3.25  32 3.25
                            28 3.25  30 3.25  35 3.25  36 3.25
  30  0.778  0.111  0.818-  37 2.43  42 2.43  39 2.43  51 2.43  48 2.43  46 2.44  33 3.25  32 3.25
                            34 3.25  36 3.25  28 3.25  29 3.25
  31  0.111  0.444  0.818-  40 2.43  41 2.43  43 2.43  49 2.43  50 2.43  52 2.43  28 3.25  29 3.25
                            32 3.25  33 3.25  34 3.25  36 3.25
  32  0.444  0.444  0.818-  41 2.43  42 2.43  44 2.43  50 2.43  51 2.43  53 2.43  29 3.25  31 3.25
                            30 3.25  34 3.25  33 3.25  35 3.25
  33  0.778  0.444  0.818-  40 2.43  42 2.43  45 2.43  49 2.43  51 2.43  54 2.43  30 3.25  28 3.25
                            35 3.25  36 3.25  31 3.25  32 3.25
  34  0.111  0.778  0.818-  37 2.43  44 2.43  43 2.43  53 2.43  52 2.43  46 2.44  35 3.25  32 3.25
                            30 3.25  36 3.25  31 3.25  28 3.25
  35  0.444  0.778  0.818-  38 2.43  44 2.43  45 2.43  47 2.43  53 2.43  54 2.43  34 3.25  28 3.25
                            29 3.25  36 3.25  32 3.25  33 3.25
  36  0.778  0.778  0.818-  39 2.43  43 2.43  45 2.43  48 2.43  52 2.43  54 2.43  29 3.25  30 3.25
                            31 3.25  33 3.25  34 3.25  35 3.25
  37  0.000  0.000  0.741-  30 2.43  34 2.43  28 2.43
  38  0.333  0.000  0.741-  28 2.43  29 2.43  35 2.43
  39  0.667  0.000  0.741-  29 2.43  36 2.43  30 2.43
  40  0.000  0.333  0.741-  28 2.43  31 2.43  33 2.43
  41  0.333  0.333  0.741-  32 2.43  31 2.43  29 2.43
  42  0.667  0.333  0.741-  30 2.43  32 2.43  33 2.43
  43  0.000  0.667  0.741-  31 2.43  36 2.43  34 2.43
  44  0.333  0.667  0.741-  32 2.43  34 2.43  35 2.43
  45  0.667  0.667  0.741-  33 2.43  35 2.43  36 2.43
  46  0.000  0.000  0.896-  28 2.43  34 2.44  30 2.44
  47  0.333  0.000  0.895-  28 2.43  29 2.43  35 2.43
  48  0.667  0.000  0.895-  29 2.43  36 2.43  30 2.43
  49  0.000  0.333  0.895-  28 2.43  31 2.43  33 2.43
  50  0.333  0.333  0.895-  32 2.43  31 2.43  29 2.43
  51  0.667  0.333  0.895-  30 2.43  32 2.43  33 2.43
  52  0.000  0.667  0.895-  31 2.43  36 2.43  34 2.43
  53  0.333  0.667  0.895-  32 2.43  34 2.43  35 2.43
  54  0.667  0.667  0.895-  33 2.43  35 2.43  36 2.43
 
  LATTYP: Found a hexagonal cell.
 ALAT       =     9.7597246245
 C/A-ratio  =     2.0492381465
  
  Lattice vectors:
  
 A1 = (  -4.8798623122,  -8.4521694587,   0.0000000000)
 A2 = (   9.7597246245,   0.0000000000,   0.0000000000)
 A3 = (   0.0000000000,   0.0000000000,  20.0000000000)


Analysis of symmetry for initial positions (statically):
=====================================================================
 Subroutine PRICEL returns:
 Original cell was already a primitive cell.
 

 Routine SETGRP: Setting up the symmetry group for a 
 hexagonal supercell.


 Subroutine GETGRP returns: Found  1 space group operations
 (whereof  1 operations were pure point group operations)
 out of a pool of 24 trial point group operations.


The static configuration has the point symmetry C_1 .


Analysis of symmetry for dynamics (positions and initial velocities):
=====================================================================
 Subroutine PRICEL returns:
 Original cell was already a primitive cell.
 

 Routine SETGRP: Setting up the symmetry group for a 
 hexagonal supercell.


 Subroutine GETGRP returns: Found  1 space group operations
 (whereof  1 operations were pure point group operations)
 out of a pool of 24 trial point group operations.


The dynamic configuration has the point symmetry C_1 .


 Subroutine INISYM returns: Found  1 space group operations
 (whereof  1 operations are pure point group operations),
 and found     1 'primitive' translations


----------------------------------------------------------------------------------------

                                     Primitive cell                                     

  volume of cell :    1649.8169

  direct lattice vectors                    reciprocal lattice vectors
     9.759724624  0.000000000  0.000000000     0.102461907 -0.059156410  0.000000000
     4.879862312  8.452169459  0.000000000     0.000000000  0.118312820  0.000000000
     0.000000000  0.000000000 20.000000000     0.000000000  0.000000000  0.050000000

  length of vectors
     9.759724624  9.759724624 20.000000000     0.118312820  0.118312820  0.050000000

  position of ions in fractional coordinates (direct lattice)
     0.000000000  0.000000000  0.506830194
     0.333333333  0.000000000  0.506830194
     0.666666667  0.000000000  0.506830194
     0.000000000  0.333333333  0.506830194
     0.333333333  0.333333333  0.506830194
     0.666666667  0.333333333  0.506830194
     0.000000000  0.666666667  0.506830194
     0.333333333  0.666666667  0.506830194
     0.666666667  0.666666667  0.506830194
     0.111111111  0.111111111  0.422478775
     0.444444444  0.111111111  0.422478775
     0.777777778  0.111111111  0.422478775
     0.111111111  0.444444444  0.422478775
     0.444444444  0.444444444  0.422478775
     0.777777778  0.444444444  0.422478775
     0.111111111  0.777777778  0.422478775
     0.444444444  0.777777778  0.422478775
     0.777777778  0.777777778  0.422478775
     0.111111111  0.111111111  0.591115511
     0.444444444  0.111111111  0.591115511
     0.777777778  0.111111111  0.591115511
     0.111111111  0.444444444  0.591115511
     0.444444444  0.444444444  0.591115511
     0.777777778  0.444444444  0.591115511
     0.111111111  0.777777778  0.591115511
     0.444444444  0.777777778  0.591115511
     0.777777778  0.777777778  0.591115511
     0.111111111  0.111111111  0.818182132
     0.444444444  0.111111111  0.818182132
     0.777777778  0.111111111  0.818182132
     0.111111111  0.444444444  0.818182132
     0.444444444  0.444444444  0.818182132
     0.777777778  0.444444444  0.818182132
     0.111111111  0.777777778  0.818182132
     0.444444444  0.777777778  0.818182132
     0.777777778  0.777777778  0.818182132
     0.000000000  0.000000000  0.741049210
     0.333333333  0.000000000  0.741049210
     0.666666667  0.000000000  0.741049210
     0.000000000  0.333333333  0.741049210
     0.333333333  0.333333333  0.741049210
     0.666666667  0.333333333  0.741049210
     0.000000000  0.666666667  0.741049210
     0.333333333  0.666666667  0.741049210
     0.666666667  0.666666667  0.741049210
     0.000449352  0.000000000  0.895793530
     0.333333333  0.000000000  0.895344178
     0.666666667  0.000000000  0.895344178
     0.000000000  0.333333333  0.895344178
     0.333333333  0.333333333  0.895344178
     0.666666667  0.333333333  0.895344178
     0.000000000  0.666666667  0.895344178
     0.333333333  0.666666667  0.895344178
     0.666666667  0.666666667  0.895344178

  ion indices of the primitive-cell ions
   primitive index   ion index
                 1           1
                 2           2
                 3           3
                 4           4
                 5           5
                 6           6
                 7           7
                 8           8
                 9           9
                10          10
                11          11
                12          12
                13          13
                14          14
                15          15
                16          16
                17          17
                18          18
                19          19
                20          20
                21          21
                22          22
                23          23
                24          24
                25          25
                26          26
                27          27
                28          28
                29          29
                30          30
                31          31
                32          32
                33          33
                34          34
                35          35
                36          36
                37          37
                38          38
                39          39
                40          40
                41          41
                42          42
                43          43
                44          44
                45          45
                46          46
                47          47
                48          48
                49          49
                50          50
                51          51
                52          52
                53          53
                54          54

----------------------------------------------------------------------------------------

 
 
 KPOINTS: Automatic mesh                          

Automatic generation of k-mesh.
 Grid dimensions read from file:
 generate k-points for:    5    5    1

 Generating k-lattice:

  Cartesian coordinates                     Fractional coordinates (reciprocal lattice)
     0.020492381 -0.011831282  0.000000000     0.200000000  0.000000000  0.000000000
     0.000000000  0.023662564  0.000000000     0.000000000  0.200000000  0.000000000
     0.000000000  0.000000000  0.050000000     0.000000000  0.000000000  1.000000000

  Length of vectors
     0.023662564  0.023662564  0.050000000

  Shift w.r.t. Gamma in fractional coordinates (k-lattice)
     0.000000000  0.000000000  0.000000000

 
 Subroutine IBZKPT returns following result:
 ===========================================
 
 Found     13 irreducible k-points:
 
 Following reciprocal coordinates:
            Coordinates               Weight
  0.000000  0.000000  0.000000      1.000000
  0.200000  0.000000  0.000000      2.000000
  0.200000  0.200000  0.000000      2.000000
  0.000000  0.200000  0.000000      2.000000
  0.400000  0.000000  0.000000      2.000000
  0.400000  0.400000  0.000000      2.000000
  0.000000  0.400000  0.000000      2.000000
  0.400000  0.200000  0.000000      2.000000
  0.200000  0.400000  0.000000      2.000000
 -0.200000  0.200000  0.000000      2.000000
 -0.400000  0.200000  0.000000      2.000000
  0.400000 -0.400000  0.000000      2.000000
 -0.200000  0.400000  0.000000      2.000000
 
 Following cartesian coordinates:
            Coordinates               Weight
  0.000000  0.000000  0.000000      1.000000
  0.020492 -0.011831  0.000000      2.000000
  0.020492  0.011831  0.000000      2.000000
  0.000000  0.023663  0.000000      2.000000
  0.040985 -0.023663  0.000000      2.000000
  0.040985  0.023663  0.000000      2.000000
  0.000000  0.047325  0.000000      2.000000
  0.040985  0.000000  0.000000      2.000000
  0.020492  0.035494  0.000000      2.000000
 -0.020492  0.035494  0.000000      2.000000
 -0.040985  0.047325  0.000000      2.000000
  0.040985 -0.070988  0.000000      2.000000
 -0.020492  0.059156  0.000000      2.000000
 


--------------------------------------------------------------------------------------------------------




 Dimension of arrays:
   k-points           NKPTS =     13   k-points in BZ     NKDIM =     13   number of bands    NBANDS=    286
   number of dos      NEDOS =    301   number of ions     NIONS =     54
   non local maximal  LDIM  =      6   non local SUM 2l+1 LMDIM =     18
   total plane-waves  NPLWV = 960000
   max r-space proj   IRMAX =   8845   max aug-charges    IRDMAX=  33410
   dimension x,y,z NGX =    80 NGY =   80 NGZ =  150
   dimension x,y,z NGXF=   160 NGYF=  160 NGZF=  300
   support grid    NGXF=   160 NGYF=  160 NGZF=  300
   ions per type =               9  18   9  18
   NGX,Y,Z   is equivalent  to a cutoff of  13.63, 13.63, 12.47 a.u.
   NGXF,Y,Z  is equivalent  to a cutoff of  27.25, 27.25, 24.94 a.u.

 SYSTEM =  MoSe2_WS2_2H phonon                     
 POSCAR =  generated by phonopy                    

 Startparameter for this run:
   NWRITE =      2    write-flag & timer
   PREC   = accura    normal or accurate (medium, high low for compatibility)
   ISTART =      0    job   : 0-new  1-cont  2-samecut
   ICHARG =      2    charge: 1-file 2-atom 10-const
   ISPIN  =      1    spin polarized calculation?
   LNONCOLLINEAR =      F non collinear calculations
   LSORBIT =      F    spin-orbit coupling
   INIWAV =      1    electr: 0-lowe 1-rand  2-diag
   LASPH  =      F    aspherical Exc in radial PAW
 Electronic Relaxation 1
   ENCUT  =  520.0 eV  38.22 Ry    6.18 a.u.  18.15 18.15 37.19*2*pi/ulx,y,z
   ENINI  =  520.0     initial cutoff
   ENAUG  =  446.8 eV  augmentation charge cutoff
   NELM   =    200;   NELMIN=  2; NELMDL= -5     # of ELM steps 
   EDIFF  = 0.1E-05   stopping-criterion for ELM
   LREAL  =      T    real-space projection
   NLSPLINE    = F    spline interpolate recip. space projectors
   LCOMPAT=      F    compatible to vasp.4.4
   GGA_COMPAT  = T    GGA compatible to vasp.4.4-vasp.4.6
   LMAXPAW     = -100 max onsite density
   LMAXMIX     =    2 max onsite mixed and CHGCAR
   VOSKOWN=      0    Vosko Wilk Nusair interpolation
   ROPT   =   -0.00025  -0.00025  -0.00025  -0.00025
 Ionic relaxation
   EDIFFG = 0.1E-04   stopping-criterion for IOM
   NSW    =      0    number of steps for IOM
   NBLOCK =      1;   KBLOCK =      1    inner block; outer block 
   IBRION =     -1    ionic relax: 0-MD 1-quasi-New 2-CG
   NFREE  =      0    steps in history (QN), initial steepest desc. (CG)
   ISIF   =      2    stress and relaxation
   IWAVPR =     10    prediction:  0-non 1-charg 2-wave 3-comb
   ISYM   =      2    0-nonsym 1-usesym 2-fastsym
   LCORR  =      T    Harris-Foulkes like correction to forces

   POTIM  = 0.5000    time-step for ionic-motion
   TEIN   =    0.0    initial temperature
   TEBEG  =    0.0;   TEEND  =   0.0 temperature during run
   SMASS  =  -3.00    Nose mass-parameter (am)
   estimated Nose-frequenzy (Omega)   =  0.10E-29 period in steps = 0.13E+47 mass=  -0.218E-26a.u.
   SCALEE = 1.0000    scale energy and forces
   NPACO  =    256;   APACO  = 10.0  distance and # of slots for P.C.
   PSTRESS=    0.0 pullay stress

  Mass of Ions in am
   POMASS =  95.94 78.96183.85 32.07
  Ionic Valenz
   ZVAL   =  14.00  6.00 14.00  6.00
  Atomic Wigner-Seitz radii
   RWIGS  =  -1.00 -1.00 -1.00 -1.00
  virtual crystal weights 
   VCA    =   1.00  1.00  1.00  1.00
   NELECT =     468.0000    total number of electrons
   NUPDOWN=      -1.0000    fix difference up-down

 DOS related values:
   EMIN   =  10.00;   EMAX   =-10.00  energy-range for DOS
   EFERMI =   0.00;   METHOD = LEGACY      
   ISMEAR =     0;   SIGMA  =   0.05  broadening in eV -4-tet -1-fermi 0-gaus
   EFERMI_NEDOS =   21; number of points for ismear=-14 and -15

 Electronic relaxation 2 (details)
   IALGO  =     38    algorithm
   LDIAG  =      T    sub-space diagonalisation (order eigenvalues)
   LSUBROT=      F    optimize rotation matrix (better conditioning)
   LROBUST=      F    robust break criterion during scf (extrapolated energy error)
   ISEARCH=      0    line search for conjugate gradient (0, 1=use gradient)
   TURBO    =      0    0=normal 1=particle mesh
   IRESTART =      0    0=no restart 2=restart with 2 vectors
   NREBOOT  =      0    no. of reboots
   NMIN     =      0    reboot dimension
   EREF     =   0.00    reference energy to select bands
   IMIX   =      4    mixing-type and parameters
     AMIX     =   0.40;   BMIX     =  1.00
     AMIX_MAG =   1.60;   BMIX_MAG =  1.00
     AMIN     =   0.01
     WC   =   100.;   INIMIX=   1;  MIXPRE=   1;  MAXMIX= -45

 Intra band minimization:
   WEIMIN = 0.0000     energy-eigenvalue tresh-hold
   EBREAK =  0.87E-09  absolut break condition
   DEPER  =   0.30     relativ break condition  

   TIME   =   0.40     timestep for ELM

  volume/ion in A,a.u.               =      30.55       206.18
  Fermi-wavevector in a.u.,A,eV,Ry     =   1.075668  2.032718 15.742776  1.157061
  Thomas-Fermi vector in A             =   2.211531
 
 Write flags
   LWAVE        =      F    write WAVECAR
   LDOWNSAMPLE  =      F    k-point downsampling of WAVECAR
   LCHARG       =      F    write CHGCAR
   LVTOT        =      F    write LOCPOT, total local potential
   LVHAR        =      F    write LOCPOT, Hartree potential only
   WRT_POTENTIAL= false  ! write potential to hdf5 file
   LELF         =      F    write electronic localiz. function (ELF)
   LORBIT       =      0    0 simple, 1 ext, 2 COOP (PROOUT), +10 PAW based schemes


 Python interface
   PLUGINS active      =      F    recompile with -DPLUGINS to activate
 
 Dipole corrections
   LMONO      =      F    monopole corrections only (constant potential shift)
   LDIPOL     =      F    correct potential (dipole corrections)
   IDIPOL     =      0    1-x, 2-y, 3-z, 4-all directions 
   EPSILON    =  1.0000000 bulk dielectric constant
   LVACPOTAV  =      F  vacuum potentials using an averaging scheme for the charge density
   VACPOTFLAT =  0.1000000 required flatness to determine vacuum potential
 
Coulomb truncation method
  LTRUNCATE          =      F  Coulomb kernel truncation to be used

 
 Exchange correlation treatment:
   GGA     = PE    functional components
   XC_C    = 1    coefficients multiplying the functional components
   LIBXC   =     F    Libxc                    
   VOSKOWN =     0    Vosko Wilk Nusair interpolation
   LHFCALC =     F    Hartree Fock is set to
   LHFONE  =     F    Hartree Fock one center treatment
   AEXX    =    0.0000 exact exchange contribution

 Parameters of functionals:
   PE:
     No parameter
 
 Van der Waals corrections
   IVDW    =    12    specifies the selected vdW correction

 Linear response parameters
   LEPSILON=     F    determine dielectric tensor
   LRPA    =     F    only Hartree local field effects (RPA)
   LNABLA  =     F    use nabla operator in PAW spheres
   LVEL    =     F    velocity operator in full k-point grid
   CSHIFT  =0.1000    complex shift for real part using Kramers Kronig
   OMEGAMAX=  -1.0    maximum frequency
   DEG_THRESHOLD= 0.2000000E-02 threshold for treating states as degnerate
   RTIME   =   -0.100 relaxation time in fs
  (WPLASMAI=    0.000 imaginary part of plasma frequency in eV, 0.658/RTIME)
   DFIELD  = 0.0000000 0.0000000 0.0000000 field for delta impulse in time
 
  Optional k-point grid parameters
   LKPOINTS_OPT  =     F    use optional k-point grid
   KPOINTS_OPT_MODE=     1    mode for optional k-point grid
 
 Orbital magnetization related:
   ORBITALMAG=     F  switch on orbital magnetization
   LCHIMAG   =     F  perturbation theory with respect to B field
   DQ        =  0.001000  dq finite difference perturbation B field
   LLRAUG    =     F  two centre corrections for induced B field
   LBONE     =     F  B-component reconstruction in AE one-centre
   LVGVCALC  =     T  calculate vGv susceptibility
   LVGVAPPL  =     F  apply vGv susceptibility instead of pGv for G=0

 Random number generation:
   RANDOM_GENERATOR = DEFAULT
   PCG_SEED         = not used


--------------------------------------------------------------------------------------------------------


 Static calculation
 charge density and potential will be updated during run
 non-spin polarized calculation
 Variant of blocked Davidson
 Davidson routine will perform the subspace rotation
 perform sub-space diagonalisation
    after iterative eigenvector-optimisation
 modified Broyden-mixing scheme, WC =      100.0
 initial mixing is a Kerker type mixing with AMIX =  0.4000 and BMIX =      1.0000
 Hartree-type preconditioning will be used
 using additional bands           52
 real space projection scheme for non local part
 use partial core corrections
 calculate Harris-corrections to forces 
   (improved forces if not selfconsistent)
 use gradient corrections 
 use of overlap-Matrix (Vanderbilt PP)
 Gauss-broadening in eV      SIGMA  =   0.05


--------------------------------------------------------------------------------------------------------


  energy-cutoff  :      520.00
  volume of cell :     1649.82
      direct lattice vectors                 reciprocal lattice vectors
     9.759724624  0.000000000  0.000000000     0.102461907 -0.059156410  0.000000000
     4.879862312  8.452169459  0.000000000     0.000000000  0.118312820  0.000000000
     0.000000000  0.000000000 20.000000000     0.000000000  0.000000000  0.050000000

  length of vectors
     9.759724624  9.759724624 20.000000000     0.118312820  0.118312820  0.050000000


 
 k-points in units of 2pi/SCALE and weight: Automatic mesh                          
   0.00000000  0.00000000  0.00000000       0.040
   0.02049238 -0.01183128  0.00000000       0.080
   0.02049238  0.01183128  0.00000000       0.080
   0.00000000  0.02366256  0.00000000       0.080
   0.04098476 -0.02366256  0.00000000       0.080
   0.04098476  0.02366256  0.00000000       0.080
   0.00000000  0.04732513  0.00000000       0.080
   0.04098476  0.00000000  0.00000000       0.080
   0.02049238  0.03549385  0.00000000       0.080
  -0.02049238  0.03549385  0.00000000       0.080
  -0.04098476  0.04732513  0.00000000       0.080
   0.04098476 -0.07098769  0.00000000       0.080
  -0.02049238  0.05915641  0.00000000       0.080
 
 k-points in reciprocal lattice and weights: Automatic mesh                          
   0.00000000  0.00000000  0.00000000       0.040
   0.20000000  0.00000000  0.00000000       0.080
   0.20000000  0.20000000  0.00000000       0.080
   0.00000000  0.20000000  0.00000000       0.080
   0.40000000  0.00000000  0.00000000       0.080
   0.40000000  0.40000000  0.00000000       0.080
   0.00000000  0.40000000  0.00000000       0.080
   0.40000000  0.20000000  0.00000000       0.080
   0.20000000  0.40000000  0.00000000       0.080
  -0.20000000  0.20000000  0.00000000       0.080
  -0.40000000  0.20000000  0.00000000       0.080
   0.40000000 -0.40000000  0.00000000       0.080
  -0.20000000  0.40000000  0.00000000       0.080
 
 position of ions in fractional coordinates (direct lattice) 
   0.00000000  0.00000000  0.50683019
   0.33333333  0.00000000  0.50683019
   0.66666667  0.00000000  0.50683019
   0.00000000  0.33333333  0.50683019
   0.33333333  0.33333333  0.50683019
   0.66666667  0.33333333  0.50683019
   0.00000000  0.66666667  0.50683019
   0.33333333  0.66666667  0.50683019
   0.66666667  0.66666667  0.50683019
   0.11111111  0.11111111  0.42247878
   0.44444444  0.11111111  0.42247878
   0.77777778  0.11111111  0.42247878
   0.11111111  0.44444444  0.42247878
   0.44444444  0.44444444  0.42247878
   0.77777778  0.44444444  0.42247878
   0.11111111  0.77777778  0.42247878
   0.44444444  0.77777778  0.42247878
   0.77777778  0.77777778  0.42247878
   0.11111111  0.11111111  0.59111551
   0.44444444  0.11111111  0.59111551
   0.77777778  0.11111111  0.59111551
   0.11111111  0.44444444  0.59111551
   0.44444444  0.44444444  0.59111551
   0.77777778  0.44444444  0.59111551
   0.11111111  0.77777778  0.59111551
   0.44444444  0.77777778  0.59111551
   0.77777778  0.77777778  0.59111551
   0.11111111  0.11111111  0.81818213
   0.44444444  0.11111111  0.81818213
   0.77777778  0.11111111  0.81818213
   0.11111111  0.44444444  0.81818213
   0.44444444  0.44444444  0.81818213
   0.77777778  0.44444444  0.81818213
   0.11111111  0.77777778  0.81818213
   0.44444444  0.77777778  0.81818213
   0.77777778  0.77777778  0.81818213
   0.00000000  0.00000000  0.74104921
   0.33333333  0.00000000  0.74104921
   0.66666667  0.00000000  0.74104921
   0.00000000  0.33333333  0.74104921
   0.33333333  0.33333333  0.74104921
   0.66666667  0.33333333  0.74104921
   0.00000000  0.66666667  0.74104921
   0.33333333  0.66666667  0.74104921
   0.66666667  0.66666667  0.74104921
   0.00044935  0.00000000  0.89579353
   0.33333333  0.00000000  0.89534418
   0.66666667  0.00000000  0.89534418
   0.00000000  0.33333333  0.89534418
   0.33333333  0.33333333  0.89534418
   0.66666667  0.33333333  0.89534418
   0.00000000  0.66666667  0.89534418
   0.33333333  0.66666667  0.89534418
   0.66666667  0.66666667  0.89534418
 
 position of ions in cartesian coordinates  (Angst):
   0.00000000  0.00000000 10.13660389
   3.25324154  0.00000000 10.13660389
   6.50648308  0.00000000 10.13660389
   1.62662077  2.81738982 10.13660389
   4.87986231  2.81738982 10.13660389
   8.13310385  2.81738982 10.13660389
   3.25324154  5.63477964 10.13660389
   6.50648308  5.63477964 10.13660389
   9.75972462  5.63477964 10.13660389
   1.62662077  0.93912994  8.44957550
   4.87986231  0.93912994  8.44957550
   8.13310385  0.93912994  8.44957550
   3.25324154  3.75651976  8.44957550
   6.50648308  3.75651976  8.44957550
   9.75972462  3.75651976  8.44957550
   4.87986231  6.57390958  8.44957550
   8.13310385  6.57390958  8.44957550
  11.38634540  6.57390958  8.44957550
   1.62662077  0.93912994 11.82231022
   4.87986231  0.93912994 11.82231022
   8.13310385  0.93912994 11.82231022
   3.25324154  3.75651976 11.82231022
   6.50648308  3.75651976 11.82231022
   9.75972462  3.75651976 11.82231022
   4.87986231  6.57390958 11.82231022
   8.13310385  6.57390958 11.82231022
  11.38634540  6.57390958 11.82231022
   1.62662077  0.93912994 16.36364264
   4.87986231  0.93912994 16.36364264
   8.13310385  0.93912994 16.36364264
   3.25324154  3.75651976 16.36364264
   6.50648308  3.75651976 16.36364264
   9.75972462  3.75651976 16.36364264
   4.87986231  6.57390958 16.36364264
   8.13310385  6.57390958 16.36364264
  11.38634540  6.57390958 16.36364264
   0.00000000  0.00000000 14.82098420
   3.25324154  0.00000000 14.82098420
   6.50648308  0.00000000 14.82098420
   1.62662077  2.81738982 14.82098420
   4.87986231  2.81738982 14.82098420
   8.13310385  2.81738982 14.82098420
   3.25324154  5.63477964 14.82098420
   6.50648308  5.63477964 14.82098420
   9.75972462  5.63477964 14.82098420
   0.00438555  0.00000000 17.91587060
   3.25324154  0.00000000 17.90688355
   6.50648308  0.00000000 17.90688355
   1.62662077  2.81738982 17.90688355
   4.87986231  2.81738982 17.90688355
   8.13310385  2.81738982 17.90688355
   3.25324154  5.63477964 17.90688355
   6.50648308  5.63477964 17.90688355
   9.75972462  5.63477964 17.90688355
 


--------------------------------------------------------------------------------------------------------


 k-point     1 :   0.0000 0.0000 0.0000  plane waves:   44367
 k-point     2 :   0.2000 0.0000 0.0000  plane waves:   44431
 k-point     3 :   0.2000 0.2000 0.0000  plane waves:   44431
 k-point     4 :   0.0000 0.2000 0.0000  plane waves:   44431
 k-point     5 :   0.4000 0.0000 0.0000  plane waves:   44438
 k-point     6 :   0.4000 0.4000 0.0000  plane waves:   44438
 k-point     7 :   0.0000 0.4000 0.0000  plane waves:   44438
 k-point     8 :   0.4000 0.2000 0.0000  plane waves:   44408
 k-point     9 :   0.2000 0.4000 0.0000  plane waves:   44408
 k-point    10 :  -0.2000 0.2000 0.0000  plane waves:   44408
 k-point    11 :  -0.4000 0.2000 0.0000  plane waves:   44432
 k-point    12 :   0.4000-0.4000 0.0000  plane waves:   44432
 k-point    13 :  -0.2000 0.4000 0.0000  plane waves:   44432

 maximum and minimum number of plane-waves per node :     11147    11056

 maximum number of plane-waves:     44438
 maximum index in each direction: 
   IXMAX=   18   IYMAX=   18   IZMAX=   37
   IXMIN=  -18   IYMIN=  -18   IZMIN=  -37


 real space projection operators:
  total allocation   :      34706.30 KBytes
  max/ min on nodes  :       8682.13       8672.33


 parallel 3D FFT for wavefunctions:
    minimum data exchange during FFTs selected (reduces bandwidth)
 parallel 3D FFT for charge:
    minimum data exchange during FFTs selected (reduces bandwidth)


 total amount of memory used by VASP MPI-rank0   147273. kBytes
=======================================================================

   base                                    :      30000. kBytes
   nonlr-proj                              :      18791. kBytes
   fftplans                                :      13412. kBytes
   grid                                    :      23521. kBytes
   one-center                              :        217. kBytes
   wavefun                                 :      61332. kBytes
 
     INWAV:  cpu time      0.0000: real time      0.0000
 Broyden mixing: mesh for mixing (old mesh)
   NGX = 37   NGY = 37   NGZ = 75
  (NGX  =160   NGY  =160   NGZ  =300)
  gives a total of 102675 points

 initial charge density was supplied:
 charge density of overlapping atoms calculated
 number of electron     468.0000000 magnetization 
 keeping initial charge density in first step


--------------------------------------------------------------------------------------------------------


 Maximum index for non-local projection operator         2151
 Maximum index for augmentation-charges          964 (set IRDMAX)


--------------------------------------------------------------------------------------------------------


 First call to EWALD:  gamma=   0.150
 Maximum number of real-space cells   4x   4x   2
 Maximum number of reciprocal cells   2x   2x   4

    FEWALD:  cpu time      0.1718: real time      0.1721


--------------------------------------- Ionic step        1  -------------------------------------------




--------------------------------------- Iteration      1(   1)  ---------------------------------------


    POTLOK:  cpu time      0.1306: real time      0.1313
    SETDIJ:  cpu time      0.0206: real time      0.0207
     EDDAV:  cpu time      6.9455: real time      6.9974
       DOS:  cpu time      0.0069: real time      0.0070
    --------------------------------------------
      LOOP:  cpu time      7.1036: real time      7.1564

 eigenvalue-minimisations  :  8855
 total energy-change (2. order) : 0.4573641E+04  (-0.2473759E+05)
 number of electron     468.0000000 magnetization 
 augmentation part      468.0000000 magnetization 

 Free energy of the ion-electron system (eV)
  ---------------------------------------------------
  alpha Z        PSCENC =      1198.06820637
  Ewald energy   TEWEN  =     42438.75647622
  -Hartree energ DENC   =    -82127.21463529
  -exchange      EXHF   =         0.00000000
  -V(xc)+E(xc)   XCENC  =      1333.17123942
  PAW double counting   =     34351.68047665   -33677.40238700
  entropy T*S    EENTRO =        -0.02509767
  eigenvalues    EBANDS =     -2105.18506290
  atomic energy  EATOM  =     43161.79194098
  Solvation  Ediel_sol  =         0.00000000
  ---------------------------------------------------
  free energy    TOTEN  =      4573.64115678 eV

  energy without entropy =     4573.66625445  energy(sigma->0) =     4573.65370562


--------------------------------------------------------------------------------------------------------




--------------------------------------- Iteration      1(   2)  ---------------------------------------


     EDDAV:  cpu time      6.8479: real time      6.8990
       DOS:  cpu time      0.0021: real time      0.0021
    --------------------------------------------
      LOOP:  cpu time      6.8500: real time      6.9011

 eigenvalue-minimisations  :  8822
 total energy-change (2. order) :-0.4610131E+04  (-0.4480983E+04)
 number of electron     468.0000000 magnetization 
 augmentation part      468.0000000 magnetization 

 Free energy of the ion-electron system (eV)
  ---------------------------------------------------
  alpha Z        PSCENC =      1198.06820637
  Ewald energy   TEWEN  =     42438.75647622
  -Hartree energ DENC   =    -82127.21463529
  -exchange      EXHF   =         0.00000000
  -V(xc)+E(xc)   XCENC  =      1333.17123942
  PAW double counting   =     34351.68047665   -33677.40238700
  entropy T*S    EENTRO =        -0.00000000
  eigenvalues    EBANDS =     -6715.34163244
  atomic energy  EATOM  =     43161.79194098
  Solvation  Ediel_sol  =         0.00000000
  ---------------------------------------------------
  free energy    TOTEN  =       -36.49031509 eV

  energy without entropy =      -36.49031509  energy(sigma->0) =      -36.49031509


--------------------------------------------------------------------------------------------------------




--------------------------------------- Iteration      1(   3)  ---------------------------------------


     EDDAV:  cpu time      6.8518: real time      6.9028
       DOS:  cpu time      0.0020: real time      0.0020
    --------------------------------------------
      LOOP:  cpu time      6.8538: real time      6.9048

 eigenvalue-minimisations  :  8833
 total energy-change (2. order) :-0.3606277E+03  (-0.3538695E+03)
 number of electron     468.0000000 magnetization 
 augmentation part      468.0000000 magnetization 

 Free energy of the ion-electron system (eV)
  ---------------------------------------------------
  alpha Z        PSCENC =      1198.06820637
  Ewald energy   TEWEN  =     42438.75647622
  -Hartree energ DENC   =    -82127.21463529
  -exchange      EXHF   =         0.00000000
  -V(xc)+E(xc)   XCENC  =      1333.17123942
  PAW double counting   =     34351.68047665   -33677.40238700
  entropy T*S    EENTRO =        -0.00000000
  eigenvalues    EBANDS =     -7075.96933482
  atomic energy  EATOM  =     43161.79194098
  Solvation  Ediel_sol  =         0.00000000
  ---------------------------------------------------
  free energy    TOTEN  =      -397.11801748 eV

  energy without entropy =     -397.11801748  energy(sigma->0) =     -397.11801748


--------------------------------------------------------------------------------------------------------




--------------------------------------- Iteration      1(   4)  ---------------------------------------


     EDDAV:  cpu time      7.4954: real time      7.5514
       DOS:  cpu time      0.0015: real time      0.0015
    --------------------------------------------
      LOOP:  cpu time      7.4969: real time      7.5529

 eigenvalue-minimisations  :  9900
 total energy-change (2. order) :-0.1625784E+02  (-0.1613250E+02)
 number of electron     468.0000000 magnetization 
 augmentation part      468.0000000 magnetization 

 Free energy of the ion-electron system (eV)
  ---------------------------------------------------
  alpha Z        PSCENC =      1198.06820637
  Ewald energy   TEWEN  =     42438.75647622
  -Hartree energ DENC   =    -82127.21463529
  -exchange      EXHF   =         0.00000000
  -V(xc)+E(xc)   XCENC  =      1333.17123942
  PAW double counting   =     34351.68047665   -33677.40238700
  entropy T*S    EENTRO =        -0.00000000
  eigenvalues    EBANDS =     -7092.22717943
  atomic energy  EATOM  =     43161.79194098
  Solvation  Ediel_sol  =         0.00000000
  ---------------------------------------------------
  free energy    TOTEN  =      -413.37586208 eV

  energy without entropy =     -413.37586208  energy(sigma->0) =     -413.37586208


--------------------------------------------------------------------------------------------------------




--------------------------------------- Iteration      1(   5)  ---------------------------------------


     EDDAV:  cpu time      7.6551: real time      7.7127
       DOS:  cpu time      0.0017: real time      0.0017
    CHARGE:  cpu time      0.4627: real time      0.4755
    MIXING:  cpu time      0.0305: real time      0.0306
    --------------------------------------------
      LOOP:  cpu time      8.1500: real time      8.2205

 eigenvalue-minimisations  : 10208
 total energy-change (2. order) :-0.4814736E+00  (-0.4796642E+00)
 number of electron     468.0000032 magnetization 
 augmentation part       18.7480600 magnetization 

 Broyden mixing:
  rms(total) = 0.91891E+01    rms(broyden)= 0.91891E+01
  rms(prec ) = 0.92969E+01
  weight for this iteration     100.00

 Free energy of the ion-electron system (eV)
  ---------------------------------------------------
  alpha Z        PSCENC =      1198.06820637
  Ewald energy   TEWEN  =     42438.75647622
  -Hartree energ DENC   =    -82127.21463529
  -exchange      EXHF   =         0.00000000
  -V(xc)+E(xc)   XCENC  =      1333.17123942
  PAW double counting   =     34351.68047665   -33677.40238700
  entropy T*S    EENTRO =        -0.00000000
  eigenvalues    EBANDS =     -7092.70865305
  atomic energy  EATOM  =     43161.79194098
  Solvation  Ediel_sol  =         0.00000000
  ---------------------------------------------------
  free energy    TOTEN  =      -413.85733570 eV

  energy without entropy =     -413.85733570  energy(sigma->0) =     -413.85733570


--------------------------------------------------------------------------------------------------------




--------------------------------------- Iteration      1(   6)  ---------------------------------------


    POTLOK:  cpu time      0.1273: real time      0.1287
    SETDIJ:  cpu time      0.0175: real time      0.0175
     EDDAV:  cpu time      6.7678: real time      6.8165
       DOS:  cpu time      0.0217: real time      0.0218
    CHARGE:  cpu time      0.4663: real time      0.4700
    MIXING:  cpu time      0.0338: real time      0.0339
    --------------------------------------------
      LOOP:  cpu time      7.4344: real time      7.4883

 eigenvalue-minimisations  :  8822
 total energy-change (2. order) : 0.1741698E+02  (-0.1178650E+02)
 number of electron     468.0000033 magnetization 
 augmentation part       27.4386859 magnetization 

 Broyden mixing:
  rms(total) = 0.37359E+01    rms(broyden)= 0.37359E+01
  rms(prec ) = 0.38323E+01
  weight for this iteration     100.00

 eigenvalues of (default mixing * dielectric matrix)
  average eigenvalue GAMMA=   1.2554
  1.2554

 Free energy of the ion-electron system (eV)
  ---------------------------------------------------
  alpha Z        PSCENC =      1198.06820637
  Ewald energy   TEWEN  =     42438.75647622
  -Hartree energ DENC   =    -81679.26715752
  -exchange      EXHF   =         0.00000000
  -V(xc)+E(xc)   XCENC  =      1320.98273462
  PAW double counting   =     42000.13523050   -41382.69542812
  entropy T*S    EENTRO =        -0.00000000
  eigenvalues    EBANDS =     -7454.21236056
  atomic energy  EATOM  =     43161.79194098
  Solvation  Ediel_sol  =         0.00000000
  ---------------------------------------------------
  free energy    TOTEN  =      -396.44035750 eV

  energy without entropy =     -396.44035750  energy(sigma->0) =     -396.44035750


--------------------------------------------------------------------------------------------------------




--------------------------------------- Iteration      1(   7)  ---------------------------------------


    POTLOK:  cpu time      0.1255: real time      0.1272
    SETDIJ:  cpu time      0.0150: real time      0.0151
     EDDAV:  cpu time      6.7606: real time      6.8102
       DOS:  cpu time      0.0053: real time      0.0053
    CHARGE:  cpu time      0.4630: real time      0.4666
    MIXING:  cpu time      0.0266: real time      0.0267
    --------------------------------------------
      LOOP:  cpu time      7.3961: real time      7.4511

 eigenvalue-minimisations  :  8701
 total energy-change (2. order) : 0.1450603E+01  (-0.5043789E+01)
 number of electron     468.0000033 magnetization 
 augmentation part       23.0173954 magnetization 

 Broyden mixing:
  rms(total) = 0.20572E+01    rms(broyden)= 0.20572E+01
  rms(prec ) = 0.21634E+01
  weight for this iteration     100.00

 eigenvalues of (default mixing * dielectric matrix)
  average eigenvalue GAMMA=   1.2629
  1.8484  0.6773

 Free energy of the ion-electron system (eV)
  ---------------------------------------------------
  alpha Z        PSCENC =      1198.06820637
  Ewald energy   TEWEN  =     42438.75647622
  -Hartree energ DENC   =    -81964.59684712
  -exchange      EXHF   =         0.00000000
  -V(xc)+E(xc)   XCENC  =      1325.06173993
  PAW double counting   =     48681.94841880   -48064.78676771
  entropy T*S    EENTRO =        -0.00000000
  eigenvalues    EBANDS =     -7171.23292165
  atomic energy  EATOM  =     43161.79194098
  Solvation  Ediel_sol  =         0.00000000
  ---------------------------------------------------
  free energy    TOTEN  =      -394.98975417 eV

  energy without entropy =     -394.98975417  energy(sigma->0) =     -394.98975417


--------------------------------------------------------------------------------------------------------




--------------------------------------- Iteration      1(   8)  ---------------------------------------


    POTLOK:  cpu time      0.1228: real time      0.1240
    SETDIJ:  cpu time      0.0147: real time      0.0147
     EDDAV:  cpu time      6.6801: real time      6.7293
       DOS:  cpu time      0.0019: real time      0.0020
    CHARGE:  cpu time      0.4584: real time      0.4620
    MIXING:  cpu time      0.0305: real time      0.0306
    --------------------------------------------
      LOOP:  cpu time      7.3083: real time      7.3626

 eigenvalue-minimisations  :  8514
 total energy-change (2. order) : 0.3172009E+01  (-0.1211765E+01)
 number of electron     468.0000033 magnetization 
 augmentation part       25.1929831 magnetization 

 Broyden mixing:
  rms(total) = 0.53696E+00    rms(broyden)= 0.53696E+00
  rms(prec ) = 0.56294E+00
  weight for this iteration     100.00

 eigenvalues of (default mixing * dielectric matrix)
  average eigenvalue GAMMA=   1.2084
  2.1373  0.8686  0.6193

 Free energy of the ion-electron system (eV)
  ---------------------------------------------------
  alpha Z        PSCENC =      1198.06820637
  Ewald energy   TEWEN  =     42438.75647622
  -Hartree energ DENC   =    -81821.21775900
  -exchange      EXHF   =         0.00000000
  -V(xc)+E(xc)   XCENC  =      1321.58094207
  PAW double counting   =     52810.10010949   -52212.98891272
  entropy T*S    EENTRO =        -0.00000000
  eigenvalues    EBANDS =     -7287.90874835
  atomic energy  EATOM  =     43161.79194098
  Solvation  Ediel_sol  =         0.00000000
  ---------------------------------------------------
  free energy    TOTEN  =      -391.81774494 eV

  energy without entropy =     -391.81774494  energy(sigma->0) =     -391.81774494


--------------------------------------------------------------------------------------------------------




--------------------------------------- Iteration      1(   9)  ---------------------------------------


    POTLOK:  cpu time      0.1225: real time      0.1238
    SETDIJ:  cpu time      0.0140: real time      0.0140
     EDDAV:  cpu time      7.1260: real time      7.1792
       DOS:  cpu time      0.0020: real time      0.0021
    CHARGE:  cpu time      0.4627: real time      0.4663
    MIXING:  cpu time      0.0257: real time      0.0258
    --------------------------------------------
      LOOP:  cpu time      7.7529: real time      7.8112

 eigenvalue-minimisations  :  9306
 total energy-change (2. order) : 0.9152230E-01  (-0.1269596E+00)
 number of electron     468.0000033 magnetization 
 augmentation part       25.4320595 magnetization 

 Broyden mixing:
  rms(total) = 0.22751E+00    rms(broyden)= 0.22751E+00
  rms(prec ) = 0.24298E+00
  weight for this iteration     100.00

 eigenvalues of (default mixing * dielectric matrix)
  average eigenvalue GAMMA=   1.1621
  2.2150  1.1552  0.6391  0.6391

 Free energy of the ion-electron system (eV)
  ---------------------------------------------------
  alpha Z        PSCENC =      1198.06820637
  Ewald energy   TEWEN  =     42438.75647622
  -Hartree energ DENC   =    -81827.77379872
  -exchange      EXHF   =         0.00000000
  -V(xc)+E(xc)   XCENC  =      1321.86477608
  PAW double counting   =     54220.89960530   -53627.17677638
  entropy T*S    EENTRO =        -0.00000000
  eigenvalues    EBANDS =     -7278.15665250
  atomic energy  EATOM  =     43161.79194098
  Solvation  Ediel_sol  =         0.00000000
  ---------------------------------------------------
  free energy    TOTEN  =      -391.72622264 eV

  energy without entropy =     -391.72622264  energy(sigma->0) =     -391.72622264


--------------------------------------------------------------------------------------------------------




--------------------------------------- Iteration      1(  10)  ---------------------------------------


    POTLOK:  cpu time      0.1225: real time      0.1238
    SETDIJ:  cpu time      0.0144: real time      0.0144
     EDDAV:  cpu time      7.1551: real time      7.2071
       DOS:  cpu time      0.0017: real time      0.0017
    CHARGE:  cpu time      0.4579: real time      0.4614
    MIXING:  cpu time      0.0255: real time      0.0255
    --------------------------------------------
      LOOP:  cpu time      7.7770: real time      7.8340

 eigenvalue-minimisations  :  9405
 total energy-change (2. order) : 0.2623977E-01  (-0.1149849E-01)
 number of electron     468.0000033 magnetization 
 augmentation part       25.3344894 magnetization 

 Broyden mixing:
  rms(total) = 0.11092E+00    rms(broyden)= 0.11092E+00
  rms(prec ) = 0.12789E+00
  weight for this iteration     100.00

 eigenvalues of (default mixing * dielectric matrix)
  average eigenvalue GAMMA=   1.2092
  2.2350  1.6006  0.7637  0.7637  0.6828

 Free energy of the ion-electron system (eV)
  ---------------------------------------------------
  alpha Z        PSCENC =      1198.06820637
  Ewald energy   TEWEN  =     42438.75647622
  -Hartree energ DENC   =    -81844.91356060
  -exchange      EXHF   =         0.00000000
  -V(xc)+E(xc)   XCENC  =      1322.35460059
  PAW double counting   =     54480.39218017   -53886.68327565
  entropy T*S    EENTRO =        -0.00000000
  eigenvalues    EBANDS =     -7261.46655095
  atomic energy  EATOM  =     43161.79194098
  Solvation  Ediel_sol  =         0.00000000
  ---------------------------------------------------
  free energy    TOTEN  =      -391.69998287 eV

  energy without entropy =     -391.69998287  energy(sigma->0) =     -391.69998287


--------------------------------------------------------------------------------------------------------




--------------------------------------- Iteration      1(  11)  ---------------------------------------


    POTLOK:  cpu time      0.1228: real time      0.1239
    SETDIJ:  cpu time      0.0142: real time      0.0142
     EDDAV:  cpu time      7.4161: real time      7.4717
       DOS:  cpu time      0.0016: real time      0.0016
    CHARGE:  cpu time      0.4631: real time      0.4669
    MIXING:  cpu time      0.0264: real time      0.0265
    --------------------------------------------
      LOOP:  cpu time      8.0442: real time      8.1048

 eigenvalue-minimisations  :  9790
 total energy-change (2. order) : 0.1811754E-01  (-0.3542415E-02)
 number of electron     468.0000033 magnetization 
 augmentation part       25.2343265 magnetization 

 Broyden mixing:
  rms(total) = 0.44415E-01    rms(broyden)= 0.44414E-01
  rms(prec ) = 0.67958E-01
  weight for this iteration     100.00

 eigenvalues of (default mixing * dielectric matrix)
  average eigenvalue GAMMA=   1.1890
  2.2444  1.8630  0.9699  0.7078  0.7078  0.6413

 Free energy of the ion-electron system (eV)
  ---------------------------------------------------
  alpha Z        PSCENC =      1198.06820637
  Ewald energy   TEWEN  =     42438.75647622
  -Hartree energ DENC   =    -81861.91128334
  -exchange      EXHF   =         0.00000000
  -V(xc)+E(xc)   XCENC  =      1322.73840620
  PAW double counting   =     54505.83190004   -53911.62924207
  entropy T*S    EENTRO =        -0.00000000
  eigenvalues    EBANDS =     -7245.32826974
  atomic energy  EATOM  =     43161.79194098
  Solvation  Ediel_sol  =         0.00000000
  ---------------------------------------------------
  free energy    TOTEN  =      -391.68186533 eV

  energy without entropy =     -391.68186533  energy(sigma->0) =     -391.68186533


--------------------------------------------------------------------------------------------------------




--------------------------------------- Iteration      1(  12)  ---------------------------------------


    POTLOK:  cpu time      0.1224: real time      0.1237
    SETDIJ:  cpu time      0.0145: real time      0.0145
     EDDAV:  cpu time      6.9102: real time      6.9609
       DOS:  cpu time      0.0020: real time      0.0020
    CHARGE:  cpu time      0.4571: real time      0.4605
    MIXING:  cpu time      0.0259: real time      0.0260
    --------------------------------------------
      LOOP:  cpu time      7.5319: real time      7.5875

 eigenvalue-minimisations  :  8976
 total energy-change (2. order) : 0.7550275E-02  (-0.1791890E-02)
 number of electron     468.0000033 magnetization 
 augmentation part       25.2245062 magnetization 

 Broyden mixing:
  rms(total) = 0.32928E-01    rms(broyden)= 0.32927E-01
  rms(prec ) = 0.56764E-01
  weight for this iteration     100.00

 eigenvalues of (default mixing * dielectric matrix)
  average eigenvalue GAMMA=   1.2012
  2.2755  2.2755  1.2652  0.7575  0.7575  0.6695  0.4076

 Free energy of the ion-electron system (eV)
  ---------------------------------------------------
  alpha Z        PSCENC =      1198.06820637
  Ewald energy   TEWEN  =     42438.75647622
  -Hartree energ DENC   =    -81869.44293727
  -exchange      EXHF   =         0.00000000
  -V(xc)+E(xc)   XCENC  =      1322.84890856
  PAW double counting   =     54507.29640699   -53913.01228140
  entropy T*S    EENTRO =        -0.00000000
  eigenvalues    EBANDS =     -7237.98103551
  atomic energy  EATOM  =     43161.79194098
  Solvation  Ediel_sol  =         0.00000000
  ---------------------------------------------------
  free energy    TOTEN  =      -391.67431506 eV

  energy without entropy =     -391.67431506  energy(sigma->0) =     -391.67431506


--------------------------------------------------------------------------------------------------------




--------------------------------------- Iteration      1(  13)  ---------------------------------------


    POTLOK:  cpu time      0.1227: real time      0.1239
    SETDIJ:  cpu time      0.0141: real time      0.0141
     EDDAV:  cpu time      7.2401: real time      7.2953
       DOS:  cpu time      0.0021: real time      0.0021
    CHARGE:  cpu time      0.4630: real time      0.4666
    MIXING:  cpu time      0.0264: real time      0.0265
    --------------------------------------------
      LOOP:  cpu time      7.8683: real time      7.9284

 eigenvalue-minimisations  :  9658
 total energy-change (2. order) : 0.1014239E-01  (-0.6769817E-03)
 number of electron     468.0000033 magnetization 
 augmentation part       25.2303383 magnetization 

 Broyden mixing:
  rms(total) = 0.15577E-01    rms(broyden)= 0.15577E-01
  rms(prec ) = 0.39529E-01
  weight for this iteration     100.00

 eigenvalues of (default mixing * dielectric matrix)
  average eigenvalue GAMMA=   1.2373
  2.4125  2.4125  1.5069  0.9758  0.7834  0.7082  0.7082  0.3904

 Free energy of the ion-electron system (eV)
  ---------------------------------------------------
  alpha Z        PSCENC =      1198.06820637
  Ewald energy   TEWEN  =     42438.75647622
  -Hartree energ DENC   =    -81878.92202608
  -exchange      EXHF   =         0.00000000
  -V(xc)+E(xc)   XCENC  =      1322.94770096
  PAW double counting   =     54489.24668091   -53894.92358563
  entropy T*S    EENTRO =        -0.00000000
  eigenvalues    EBANDS =     -7228.62956641
  atomic energy  EATOM  =     43161.79194098
  Solvation  Ediel_sol  =         0.00000000
  ---------------------------------------------------
  free energy    TOTEN  =      -391.66417267 eV

  energy without entropy =     -391.66417267  energy(sigma->0) =     -391.66417267


--------------------------------------------------------------------------------------------------------




--------------------------------------- Iteration      1(  14)  ---------------------------------------


    POTLOK:  cpu time      0.1225: real time      0.1237
    SETDIJ:  cpu time      0.0139: real time      0.0139
     EDDAV:  cpu time      7.0701: real time      7.1215
       DOS:  cpu time      0.0019: real time      0.0019
    CHARGE:  cpu time      0.4584: real time      0.4620
    MIXING:  cpu time      0.0260: real time      0.0261
    --------------------------------------------
      LOOP:  cpu time      7.6929: real time      7.7492

 eigenvalue-minimisations  :  9394
 total energy-change (2. order) : 0.7347063E-02  (-0.5824031E-03)
 number of electron     468.0000033 magnetization 
 augmentation part       25.2400768 magnetization 

 Broyden mixing:
  rms(total) = 0.16111E-01    rms(broyden)= 0.16111E-01
  rms(prec ) = 0.33388E-01
  weight for this iteration     100.00

 eigenvalues of (default mixing * dielectric matrix)
  average eigenvalue GAMMA=   1.2174
  2.5619  2.5619  1.6830  1.1253  0.7253  0.7253  0.7133  0.4746  0.3856

 Free energy of the ion-electron system (eV)
  ---------------------------------------------------
  alpha Z        PSCENC =      1198.06820637
  Ewald energy   TEWEN  =     42438.75647622
  -Hartree energ DENC   =    -81891.26615329
  -exchange      EXHF   =         0.00000000
  -V(xc)+E(xc)   XCENC  =      1323.02110822
  PAW double counting   =     54459.92943199   -53865.60710617
  entropy T*S    EENTRO =        -0.00000000
  eigenvalues    EBANDS =     -7216.35072992
  atomic energy  EATOM  =     43161.79194098
  Solvation  Ediel_sol  =         0.00000000
  ---------------------------------------------------
  free energy    TOTEN  =      -391.65682561 eV

  energy without entropy =     -391.65682561  energy(sigma->0) =     -391.65682561


--------------------------------------------------------------------------------------------------------




--------------------------------------- Iteration      1(  15)  ---------------------------------------


    POTLOK:  cpu time      0.1223: real time      0.1235
    SETDIJ:  cpu time      0.0143: real time      0.0143
     EDDAV:  cpu time      6.9548: real time      7.0071
       DOS:  cpu time      0.0017: real time      0.0017
    CHARGE:  cpu time      0.4621: real time      0.4659
    MIXING:  cpu time      0.0250: real time      0.0251
    --------------------------------------------
      LOOP:  cpu time      7.5803: real time      7.6377

 eigenvalue-minimisations  :  9262
 total energy-change (2. order) : 0.4058400E-02  (-0.5472002E-03)
 number of electron     468.0000033 magnetization 
 augmentation part       25.2469927 magnetization 

 Broyden mixing:
  rms(total) = 0.12861E-01    rms(broyden)= 0.12860E-01
  rms(prec ) = 0.25333E-01
  weight for this iteration     100.00

 eigenvalues of (default mixing * dielectric matrix)
  average eigenvalue GAMMA=   1.2269
  3.0851  2.4378  1.8355  1.2197  0.7636  0.7636  0.6706  0.6706  0.3812  0.4419

 Free energy of the ion-electron system (eV)
  ---------------------------------------------------
  alpha Z        PSCENC =      1198.06820637
  Ewald energy   TEWEN  =     42438.75647622
  -Hartree energ DENC   =    -81901.97043453
  -exchange      EXHF   =         0.00000000
  -V(xc)+E(xc)   XCENC  =      1323.08345570
  PAW double counting   =     54447.54912268   -53853.24218597
  entropy T*S    EENTRO =        -0.00000000
  eigenvalues    EBANDS =     -7205.68934865
  atomic energy  EATOM  =     43161.79194098
  Solvation  Ediel_sol  =         0.00000000
  ---------------------------------------------------
  free energy    TOTEN  =      -391.65276721 eV

  energy without entropy =     -391.65276721  energy(sigma->0) =     -391.65276721


--------------------------------------------------------------------------------------------------------




--------------------------------------- Iteration      1(  16)  ---------------------------------------


    POTLOK:  cpu time      0.1228: real time      0.1239
    SETDIJ:  cpu time      0.0137: real time      0.0137
     EDDAV:  cpu time      6.9574: real time      7.0080
       DOS:  cpu time      0.0018: real time      0.0018
    CHARGE:  cpu time      0.4574: real time      0.4611
    MIXING:  cpu time      0.0265: real time      0.0266
    --------------------------------------------
      LOOP:  cpu time      7.5795: real time      7.6352

 eigenvalue-minimisations  :  9207
 total energy-change (2. order) : 0.1490517E-02  (-0.3194014E-03)
 number of electron     468.0000033 magnetization 
 augmentation part       25.2508197 magnetization 

 Broyden mixing:
  rms(total) = 0.10660E-01    rms(broyden)= 0.10660E-01
  rms(prec ) = 0.17781E-01
  weight for this iteration     100.00

 eigenvalues of (default mixing * dielectric matrix)
  average eigenvalue GAMMA=   1.3347
  3.6754  2.2700  2.2700  1.2644  1.2644  0.9868  0.7340  0.7340  0.6842  0.3851
  0.4134

 Free energy of the ion-electron system (eV)
  ---------------------------------------------------
  alpha Z        PSCENC =      1198.06820637
  Ewald energy   TEWEN  =     42438.75647622
  -Hartree energ DENC   =    -81914.83539961
  -exchange      EXHF   =         0.00000000
  -V(xc)+E(xc)   XCENC  =      1323.15617315
  PAW double counting   =     54454.10547722   -53859.84341007
  entropy T*S    EENTRO =        -0.00000000
  eigenvalues    EBANDS =     -7192.85074095
  atomic energy  EATOM  =     43161.79194098
  Solvation  Ediel_sol  =         0.00000000
  ---------------------------------------------------
  free energy    TOTEN  =      -391.65127669 eV

  energy without entropy =     -391.65127669  energy(sigma->0) =     -391.65127669


--------------------------------------------------------------------------------------------------------




--------------------------------------- Iteration      1(  17)  ---------------------------------------


    POTLOK:  cpu time      0.1230: real time      0.1243
    SETDIJ:  cpu time      0.0142: real time      0.0142
     EDDAV:  cpu time      6.8620: real time      6.9143
       DOS:  cpu time      0.0019: real time      0.0019
    CHARGE:  cpu time      0.4629: real time      0.4665
    MIXING:  cpu time      0.0267: real time      0.0268
    --------------------------------------------
      LOOP:  cpu time      7.4906: real time      7.5479

 eigenvalue-minimisations  :  8943
 total energy-change (2. order) :-0.2242350E-02  (-0.2808903E-03)
 number of electron     468.0000033 magnetization 
 augmentation part       25.2527236 magnetization 

 Broyden mixing:
  rms(total) = 0.92253E-02    rms(broyden)= 0.92253E-02
  rms(prec ) = 0.12833E-01
  weight for this iteration     100.00

 eigenvalues of (default mixing * dielectric matrix)
  average eigenvalue GAMMA=   1.3857
  4.2215  2.4731  2.4731  1.4911  1.4911  0.8597  0.7545  0.7545  0.6581  0.6581
  0.4099  0.3837

 Free energy of the ion-electron system (eV)
  ---------------------------------------------------
  alpha Z        PSCENC =      1198.06820637
  Ewald energy   TEWEN  =     42438.75647622
  -Hartree energ DENC   =    -81925.34121955
  -exchange      EXHF   =         0.00000000
  -V(xc)+E(xc)   XCENC  =      1323.18960464
  PAW double counting   =     54470.34540627   -53876.13344144
  entropy T*S    EENTRO =        -0.00000000
  eigenvalues    EBANDS =     -7182.33049253
  atomic energy  EATOM  =     43161.79194098
  Solvation  Ediel_sol  =         0.00000000
  ---------------------------------------------------
  free energy    TOTEN  =      -391.65351904 eV

  energy without entropy =     -391.65351904  energy(sigma->0) =     -391.65351904


--------------------------------------------------------------------------------------------------------




--------------------------------------- Iteration      1(  18)  ---------------------------------------


    POTLOK:  cpu time      0.1223: real time      0.1236
    SETDIJ:  cpu time      0.0143: real time      0.0144
     EDDAV:  cpu time      7.1009: real time      7.1528
       DOS:  cpu time      0.0019: real time      0.0019
    CHARGE:  cpu time      0.4568: real time      0.4606
    MIXING:  cpu time      0.0263: real time      0.0264
    --------------------------------------------
      LOOP:  cpu time      7.7227: real time      7.7796

 eigenvalue-minimisations  :  9394
 total energy-change (2. order) :-0.2152772E-02  (-0.7682578E-04)
 number of electron     468.0000033 magnetization 
 augmentation part       25.2486310 magnetization 

 Broyden mixing:
  rms(total) = 0.72279E-02    rms(broyden)= 0.72279E-02
  rms(prec ) = 0.96311E-02
  weight for this iteration     100.00

 eigenvalues of (default mixing * dielectric matrix)
  average eigenvalue GAMMA=   1.4138
  5.1020  2.7203  2.1142  1.5588  1.5588  0.8929  0.8929  0.7424  0.7424  0.7136
  0.5438  0.3837  0.4132

 Free energy of the ion-electron system (eV)
  ---------------------------------------------------
  alpha Z        PSCENC =      1198.06820637
  Ewald energy   TEWEN  =     42438.75647622
  -Hartree energ DENC   =    -81930.16021894
  -exchange      EXHF   =         0.00000000
  -V(xc)+E(xc)   XCENC  =      1323.20075639
  PAW double counting   =     54464.60116387   -53870.37299969
  entropy T*S    EENTRO =        -0.00000000
  eigenvalues    EBANDS =     -7177.54099701
  atomic energy  EATOM  =     43161.79194098
  Solvation  Ediel_sol  =         0.00000000
  ---------------------------------------------------
  free energy    TOTEN  =      -391.65567181 eV

  energy without entropy =     -391.65567181  energy(sigma->0) =     -391.65567181


--------------------------------------------------------------------------------------------------------




--------------------------------------- Iteration      1(  19)  ---------------------------------------


    POTLOK:  cpu time      0.1223: real time      0.1235
    SETDIJ:  cpu time      0.0145: real time      0.0146
     EDDAV:  cpu time      6.8322: real time      6.8840
       DOS:  cpu time      0.0019: real time      0.0019
    CHARGE:  cpu time      0.4623: real time      0.4660
    MIXING:  cpu time      0.0257: real time      0.0258
    --------------------------------------------
      LOOP:  cpu time      7.4590: real time      7.5159

 eigenvalue-minimisations  :  8778
 total energy-change (2. order) :-0.1647071E-02  (-0.1838098E-04)
 number of electron     468.0000033 magnetization 
 augmentation part       25.2461021 magnetization 

 Broyden mixing:
  rms(total) = 0.45025E-02    rms(broyden)= 0.45025E-02
  rms(prec ) = 0.65704E-02
  weight for this iteration     100.00

 eigenvalues of (default mixing * dielectric matrix)
  average eigenvalue GAMMA=   1.6374
  7.5284  2.6900  2.2409  2.2409  1.7645  1.0656  1.0656  0.8101  0.7423  0.7423
  0.7063  0.5312  0.3837  0.4116

 Free energy of the ion-electron system (eV)
  ---------------------------------------------------
  alpha Z        PSCENC =      1198.06820637
  Ewald energy   TEWEN  =     42438.75647622
  -Hartree energ DENC   =    -81933.26108444
  -exchange      EXHF   =         0.00000000
  -V(xc)+E(xc)   XCENC  =      1323.21094932
  PAW double counting   =     54447.14664438   -53852.88545745
  entropy T*S    EENTRO =        -0.00000000
  eigenvalues    EBANDS =     -7174.48499426
  atomic energy  EATOM  =     43161.79194098
  Solvation  Ediel_sol  =         0.00000000
  ---------------------------------------------------
  free energy    TOTEN  =      -391.65731888 eV

  energy without entropy =     -391.65731888  energy(sigma->0) =     -391.65731888


--------------------------------------------------------------------------------------------------------




--------------------------------------- Iteration      1(  20)  ---------------------------------------


    POTLOK:  cpu time      0.1227: real time      0.1242
    SETDIJ:  cpu time      0.0140: real time      0.0141
     EDDAV:  cpu time      6.5906: real time      6.6386
       DOS:  cpu time      0.0017: real time      0.0017
    CHARGE:  cpu time      0.4567: real time      0.4603
    MIXING:  cpu time      0.0267: real time      0.0268
    --------------------------------------------
      LOOP:  cpu time      7.2125: real time      7.2658

 eigenvalue-minimisations  :  8580
 total energy-change (2. order) :-0.2744377E-02  (-0.2957950E-04)
 number of electron     468.0000033 magnetization 
 augmentation part       25.2478377 magnetization 

 Broyden mixing:
  rms(total) = 0.27886E-02    rms(broyden)= 0.27886E-02
  rms(prec ) = 0.39200E-02
  weight for this iteration     100.00

 eigenvalues of (default mixing * dielectric matrix)
  average eigenvalue GAMMA=   1.7351
  9.6372  2.8134  2.3208  2.3208  1.6234  1.2518  0.9173  0.8091  0.8091  0.7389
  0.7389  0.7105  0.5399  0.3837  0.4117

 Free energy of the ion-electron system (eV)
  ---------------------------------------------------
  alpha Z        PSCENC =      1198.06820637
  Ewald energy   TEWEN  =     42438.75647622
  -Hartree energ DENC   =    -81937.40781049
  -exchange      EXHF   =         0.00000000
  -V(xc)+E(xc)   XCENC  =      1323.22053512
  PAW double counting   =     54441.13362284   -53846.87968977
  entropy T*S    EENTRO =        -0.00000000
  eigenvalues    EBANDS =     -7170.34334454
  atomic energy  EATOM  =     43161.79194098
  Solvation  Ediel_sol  =         0.00000000
  ---------------------------------------------------
  free energy    TOTEN  =      -391.66006326 eV

  energy without entropy =     -391.66006326  energy(sigma->0) =     -391.66006326


--------------------------------------------------------------------------------------------------------




--------------------------------------- Iteration      1(  21)  ---------------------------------------


    POTLOK:  cpu time      0.1225: real time      0.1237
    SETDIJ:  cpu time      0.0141: real time      0.0141
     EDDAV:  cpu time      6.9053: real time      6.9574
       DOS:  cpu time      0.0019: real time      0.0019
    CHARGE:  cpu time      0.4625: real time      0.4663
    MIXING:  cpu time      0.0264: real time      0.0265
    --------------------------------------------
      LOOP:  cpu time      7.5327: real time      7.5899

 eigenvalue-minimisations  :  8954
 total energy-change (2. order) :-0.7147890E-03  (-0.7325056E-05)
 number of electron     468.0000033 magnetization 
 augmentation part       25.2469517 magnetization 

 Broyden mixing:
  rms(total) = 0.24937E-02    rms(broyden)= 0.24937E-02
  rms(prec ) = 0.32818E-02
  weight for this iteration     100.00

 eigenvalues of (default mixing * dielectric matrix)
  average eigenvalue GAMMA=   1.6853
  9.9542  2.8903  2.4603  2.1324  1.4241  1.4241  0.9849  0.8784  0.8784  0.7330
  0.7330  0.6938  0.5456  0.3838  0.4117  0.4371

 Free energy of the ion-electron system (eV)
  ---------------------------------------------------
  alpha Z        PSCENC =      1198.06820637
  Ewald energy   TEWEN  =     42438.75647622
  -Hartree energ DENC   =    -81938.47495359
  -exchange      EXHF   =         0.00000000
  -V(xc)+E(xc)   XCENC  =      1323.22237031
  PAW double counting   =     54445.17228821   -53850.92411300
  entropy T*S    EENTRO =        -0.00000000
  eigenvalues    EBANDS =     -7169.27299355
  atomic energy  EATOM  =     43161.79194098
  Solvation  Ediel_sol  =         0.00000000
  ---------------------------------------------------
  free energy    TOTEN  =      -391.66077805 eV

  energy without entropy =     -391.66077805  energy(sigma->0) =     -391.66077805


--------------------------------------------------------------------------------------------------------




--------------------------------------- Iteration      1(  22)  ---------------------------------------


    POTLOK:  cpu time      0.1225: real time      0.1239
    SETDIJ:  cpu time      0.0138: real time      0.0139
     EDDAV:  cpu time      6.8593: real time      6.9098
       DOS:  cpu time      0.0019: real time      0.0019
    CHARGE:  cpu time      0.4585: real time      0.4621
    MIXING:  cpu time      0.0267: real time      0.0267
    --------------------------------------------
      LOOP:  cpu time      7.4828: real time      7.5383

 eigenvalue-minimisations  :  8943
 total energy-change (2. order) :-0.2129596E-03  (-0.2217732E-05)
 number of electron     468.0000033 magnetization 
 augmentation part       25.2463392 magnetization 

 Broyden mixing:
  rms(total) = 0.14736E-02    rms(broyden)= 0.14736E-02
  rms(prec ) = 0.22649E-02
  weight for this iteration     100.00

 eigenvalues of (default mixing * dielectric matrix)
  average eigenvalue GAMMA=   1.7195
 10.3024  3.0731  2.5433  1.9777  1.7626  1.7626  1.2494  0.9433  0.9433  0.7592
  0.7592  0.6971  0.6971  0.5362  0.3837  0.4116  0.4301

 Free energy of the ion-electron system (eV)
  ---------------------------------------------------
  alpha Z        PSCENC =      1198.06820637
  Ewald energy   TEWEN  =     42438.75647622
  -Hartree energ DENC   =    -81938.69285038
  -exchange      EXHF   =         0.00000000
  -V(xc)+E(xc)   XCENC  =      1323.22208471
  PAW double counting   =     54448.72546876   -53854.48010600
  entropy T*S    EENTRO =        -0.00000000
  eigenvalues    EBANDS =     -7169.05221167
  atomic energy  EATOM  =     43161.79194098
  Solvation  Ediel_sol  =         0.00000000
  ---------------------------------------------------
  free energy    TOTEN  =      -391.66099101 eV

  energy without entropy =     -391.66099101  energy(sigma->0) =     -391.66099101


--------------------------------------------------------------------------------------------------------




--------------------------------------- Iteration      1(  23)  ---------------------------------------


    POTLOK:  cpu time      0.1225: real time      0.1239
    SETDIJ:  cpu time      0.0142: real time      0.0142
     EDDAV:  cpu time      6.8777: real time      6.9297
       DOS:  cpu time      0.0014: real time      0.0014
    CHARGE:  cpu time      0.4627: real time      0.4663
    MIXING:  cpu time      0.0263: real time      0.0264
    --------------------------------------------
      LOOP:  cpu time      7.5048: real time      7.5618

 eigenvalue-minimisations  :  8910
 total energy-change (2. order) :-0.3957429E-03  (-0.3476965E-05)
 number of electron     468.0000033 magnetization 
 augmentation part       25.2464272 magnetization 

 Broyden mixing:
  rms(total) = 0.14682E-02    rms(broyden)= 0.14682E-02
  rms(prec ) = 0.18533E-02
  weight for this iteration     100.00

 eigenvalues of (default mixing * dielectric matrix)
  average eigenvalue GAMMA=   1.8915
 12.7577  4.0604  2.4617  2.4617  1.8904  1.7356  1.3406  0.9020  0.9020  0.8773
  0.7319  0.7319  0.7434  0.7034  0.5397  0.3837  0.4112  0.4112

 Free energy of the ion-electron system (eV)
  ---------------------------------------------------
  alpha Z        PSCENC =      1198.06820637
  Ewald energy   TEWEN  =     42438.75647622
  -Hartree energ DENC   =    -81939.18855916
  -exchange      EXHF   =         0.00000000
  -V(xc)+E(xc)   XCENC  =      1323.22020845
  PAW double counting   =     54452.04325090   -53857.79973241
  entropy T*S    EENTRO =        -0.00000000
  eigenvalues    EBANDS =     -7168.55317811
  atomic energy  EATOM  =     43161.79194098
  Solvation  Ediel_sol  =         0.00000000
  ---------------------------------------------------
  free energy    TOTEN  =      -391.66138675 eV

  energy without entropy =     -391.66138675  energy(sigma->0) =     -391.66138675


--------------------------------------------------------------------------------------------------------




--------------------------------------- Iteration      1(  24)  ---------------------------------------


    POTLOK:  cpu time      0.1225: real time      0.1237
    SETDIJ:  cpu time      0.0143: real time      0.0144
     EDDAV:  cpu time      5.9943: real time      6.0386
       DOS:  cpu time      0.0018: real time      0.0018
    CHARGE:  cpu time      0.4571: real time      0.4608
    MIXING:  cpu time      0.0255: real time      0.0256
    --------------------------------------------
      LOOP:  cpu time      6.6156: real time      6.6649

 eigenvalue-minimisations  :  7414
 total energy-change (2. order) :-0.6328509E-04  (-0.6826920E-05)
 number of electron     468.0000033 magnetization 
 augmentation part       25.2468508 magnetization 

 Broyden mixing:
  rms(total) = 0.14317E-02    rms(broyden)= 0.14317E-02
  rms(prec ) = 0.15992E-02
  weight for this iteration     100.00

 eigenvalues of (default mixing * dielectric matrix)
  average eigenvalue GAMMA=   1.8669
 13.3534  4.3003  2.5547  2.5547  1.8911  1.5457  1.2202  1.0462  0.9655  0.9655
  0.7354  0.7354  0.7039  0.7039  0.5413  0.4583  0.3838  0.4117  0.3996

 Free energy of the ion-electron system (eV)
  ---------------------------------------------------
  alpha Z        PSCENC =      1198.06820637
  Ewald energy   TEWEN  =     42438.75647622
  -Hartree energ DENC   =    -81939.79205456
  -exchange      EXHF   =         0.00000000
  -V(xc)+E(xc)   XCENC  =      1323.22129190
  PAW double counting   =     54449.46160015   -53855.21552617
  entropy T*S    EENTRO =        -0.00000000
  eigenvalues    EBANDS =     -7167.95338493
  atomic energy  EATOM  =     43161.79194098
  Solvation  Ediel_sol  =         0.00000000
  ---------------------------------------------------
  free energy    TOTEN  =      -391.66145004 eV

  energy without entropy =     -391.66145004  energy(sigma->0) =     -391.66145004


--------------------------------------------------------------------------------------------------------




--------------------------------------- Iteration      1(  25)  ---------------------------------------


    POTLOK:  cpu time      0.1226: real time      0.1240
    SETDIJ:  cpu time      0.0143: real time      0.0143
     EDDAV:  cpu time      6.5967: real time      6.6464
       DOS:  cpu time      0.0015: real time      0.0015
    CHARGE:  cpu time      0.4630: real time      0.4667
    MIXING:  cpu time      0.0270: real time      0.0271
    --------------------------------------------
      LOOP:  cpu time      7.2252: real time      7.2801

 eigenvalue-minimisations  :  8338
 total energy-change (2. order) : 0.1798420E-04  (-0.1312890E-05)
 number of electron     468.0000033 magnetization 
 augmentation part       25.2470020 magnetization 

 Broyden mixing:
  rms(total) = 0.89186E-03    rms(broyden)= 0.89186E-03
  rms(prec ) = 0.10574E-02
  weight for this iteration     100.00

 eigenvalues of (default mixing * dielectric matrix)
  average eigenvalue GAMMA=   1.8229
 13.3518  4.4273  2.6114  2.6114  2.0053  1.5800  1.1022  1.1022  1.0233  1.0233
  0.7275  0.7275  0.6878  0.6878  0.5487  0.5487  0.3837  0.4773  0.4119  0.4193

 Free energy of the ion-electron system (eV)
  ---------------------------------------------------
  alpha Z        PSCENC =      1198.06820637
  Ewald energy   TEWEN  =     42438.75647622
  -Hartree energ DENC   =    -81939.97745368
  -exchange      EXHF   =         0.00000000
  -V(xc)+E(xc)   XCENC  =      1323.22240002
  PAW double counting   =     54447.61976430   -53853.37245193
  entropy T*S    EENTRO =        -0.00000000
  eigenvalues    EBANDS =     -7167.77031434
  atomic energy  EATOM  =     43161.79194098
  Solvation  Ediel_sol  =         0.00000000
  ---------------------------------------------------
  free energy    TOTEN  =      -391.66143205 eV

  energy without entropy =     -391.66143205  energy(sigma->0) =     -391.66143205


--------------------------------------------------------------------------------------------------------




--------------------------------------- Iteration      1(  26)  ---------------------------------------


    POTLOK:  cpu time      0.1225: real time      0.1237
    SETDIJ:  cpu time      0.0143: real time      0.0143
     EDDAV:  cpu time      5.2242: real time      5.2620
       DOS:  cpu time      0.0018: real time      0.0018
    CHARGE:  cpu time      0.4571: real time      0.4606
    MIXING:  cpu time      0.0269: real time      0.0270
    --------------------------------------------
      LOOP:  cpu time      5.8468: real time      5.8895

 eigenvalue-minimisations  :  6193
 total energy-change (2. order) : 0.5868911E-05  (-0.1331709E-06)
 number of electron     468.0000033 magnetization 
 augmentation part       25.2470605 magnetization 

 Broyden mixing:
  rms(total) = 0.46355E-03    rms(broyden)= 0.46355E-03
  rms(prec ) = 0.63609E-03
  weight for this iteration     100.00

 eigenvalues of (default mixing * dielectric matrix)
  average eigenvalue GAMMA=   1.8769
 13.4951  5.0744  2.6706  2.6706  2.2878  1.6990  1.3928  1.3928  1.0564  1.0564
  0.8084  0.8084  0.7263  0.7263  0.6925  0.6925  0.5382  0.3837  0.4117  0.4314
  0.4000

 Free energy of the ion-electron system (eV)
  ---------------------------------------------------
  alpha Z        PSCENC =      1198.06820637
  Ewald energy   TEWEN  =     42438.75647622
  -Hartree energ DENC   =    -81940.08894481
  -exchange      EXHF   =         0.00000000
  -V(xc)+E(xc)   XCENC  =      1323.22354219
  PAW double counting   =     54447.04536152   -53852.79872929
  entropy T*S    EENTRO =        -0.00000000
  eigenvalues    EBANDS =     -7167.65927937
  atomic energy  EATOM  =     43161.79194098
  Solvation  Ediel_sol  =         0.00000000
  ---------------------------------------------------
  free energy    TOTEN  =      -391.66142618 eV

  energy without entropy =     -391.66142618  energy(sigma->0) =     -391.66142618


--------------------------------------------------------------------------------------------------------




--------------------------------------- Iteration      1(  27)  ---------------------------------------


    POTLOK:  cpu time      0.1226: real time      0.1247
    SETDIJ:  cpu time      0.0139: real time      0.0140
     EDDAV:  cpu time      5.6459: real time      5.6888
       DOS:  cpu time      0.0016: real time      0.0016
    --------------------------------------------
      LOOP:  cpu time      5.7840: real time      5.8290

 eigenvalue-minimisations  :  6787
 total energy-change (2. order) :-0.6843256E-06  (-0.1919184E-06)
 number of electron     468.0000033 magnetization 
 augmentation part       25.2470605 magnetization 

 Free energy of the ion-electron system (eV)
  ---------------------------------------------------
  alpha Z        PSCENC =      1198.06820637
  Ewald energy   TEWEN  =     42438.75647622
  -Hartree energ DENC   =    -81940.16979217
  -exchange      EXHF   =         0.00000000
  -V(xc)+E(xc)   XCENC  =      1323.22484339
  PAW double counting   =     54446.85992711   -53852.61478238
  entropy T*S    EENTRO =        -0.00000000
  eigenvalues    EBANDS =     -7167.57824639
  atomic energy  EATOM  =     43161.79194098
  Solvation  Ediel_sol  =         0.00000000
  ---------------------------------------------------
  free energy    TOTEN  =      -391.66142687 eV

  energy without entropy =     -391.66142687  energy(sigma->0) =     -391.66142687


--------------------------------------------------------------------------------------------------------




 average (electrostatic) potential at core
  the test charge radii are     1.0818  1.0808  1.1823  0.9698
  (the norm of the test charge is              1.0000)
       1 -79.3917       2 -79.3917       3 -79.3918       4 -79.3918       5 -79.3916
       6 -79.3917       7 -79.3918       8 -79.3919       9 -79.3917      10 -55.9787
      11 -55.9787      12 -55.9787      13 -55.9787      14 -55.9787      15 -55.9787
      16 -55.9787      17 -55.9787      18 -55.9787      19 -55.9924      20 -55.9923
      21 -55.9923      22 -55.9923      23 -55.9923      24 -55.9923      25 -55.9924
      26 -55.9923      27 -55.9923      28 -70.5076      29 -70.5064      30 -70.5089
      31 -70.5063      32 -70.5062      33 -70.5062      34 -70.5084      35 -70.5060
      36 -70.5060      37 -89.8208      38 -89.8199      39 -89.8204      40 -89.8198
      41 -89.8201      42 -89.8206      43 -89.8200      44 -89.8203      45 -89.8198
      46 -89.7854      47 -89.7910      48 -89.7903      49 -89.7909      50 -89.7902
      51 -89.7905      52 -89.7905      53 -89.7908      54 -89.7902
 
 
 
 E-fermi :   2.6489     XC(G=0):  -7.2336     alpha+bet : -7.8559

 val. band max:        2.3055481092   @ k =   0.0000   0.0000   0.0000
 cond. band min:       3.1657773832   @ k =   0.0000   0.0000   0.0000
 fundamental gap:      0.8602292740
 Fermi energy:         2.6489491830

 k-point     1 :       0.0000    0.0000    0.0000
  band No.  band energies     occupation 
      1     -72.4556      2.00000
      2     -72.4476      2.00000
      3     -72.4473      2.00000
      4     -72.4467      2.00000
      5     -72.4460      2.00000
      6     -72.4458      2.00000
      7     -72.4458      2.00000
      8     -72.4419      2.00000
      9     -72.4417      2.00000
     10     -58.6504      2.00000
     11     -58.6294      2.00000
     12     -58.6294      2.00000
     13     -58.6293      2.00000
     14     -58.6293      2.00000
     15     -58.6293      2.00000
     16     -58.6292      2.00000
     17     -58.6188      2.00000
     18     -58.6187      2.00000
     19     -36.7621      2.00000
     20     -36.7619      2.00000
     21     -36.7614      2.00000
     22     -36.7613      2.00000
     23     -36.7613      2.00000
     24     -36.7612      2.00000
     25     -36.7610      2.00000
     26     -36.7606      2.00000
     27     -36.7327      2.00000
     28     -36.7327      2.00000
     29     -36.6405      2.00000
     30     -36.6110      2.00000
     31     -36.6102      2.00000
     32     -36.6102      2.00000
     33     -36.6101      2.00000
     34     -36.6100      2.00000
     35     -36.6099      2.00000
     36     -36.6052      2.00000
     37     -36.6051      2.00000
     38     -36.6050      2.00000
     39     -36.6043      2.00000
     40     -36.6041      2.00000
     41     -36.6041      2.00000
     42     -36.5867      2.00000
     43     -36.5866      2.00000
     44     -36.5633      2.00000
     45     -36.5633      2.00000
     46     -32.8374      2.00000
     47     -32.8303      2.00000
     48     -32.8303      2.00000
     49     -32.8303      2.00000
     50     -32.8303      2.00000
     51     -32.8303      2.00000
     52     -32.8302      2.00000
     53     -32.8295      2.00000
     54     -32.8295      2.00000
     55     -32.7965      2.00000
     56     -32.7965      2.00000
     57     -32.7905      2.00000
     58     -32.7904      2.00000
     59     -32.7904      2.00000
     60     -32.7903      2.00000
     61     -32.7903      2.00000
     62     -32.7903      2.00000
     63     -32.7668      2.00000
     64     -32.7668      2.00000
     65     -32.6597      2.00000
     66     -32.6597      2.00000
     67     -32.6597      2.00000
     68     -32.6597      2.00000
     69     -32.6596      2.00000
     70     -32.6596      2.00000
     71     -32.6083      2.00000
     72     -32.6083      2.00000
     73     -12.9420      2.00000
     74     -12.2480      2.00000
     75     -11.6085      2.00000
     76     -11.6084      2.00000
     77     -11.6083      2.00000
     78     -11.6082      2.00000
     79     -11.6082      2.00000
     80     -11.5982      2.00000
     81     -11.3834      2.00000
     82     -11.1379      2.00000
     83     -10.9545      2.00000
     84     -10.9545      2.00000
     85     -10.9544      2.00000
     86     -10.9543      2.00000
     87     -10.9543      2.00000
     88     -10.9526      2.00000
     89     -10.8030      2.00000
     90     -10.8028      2.00000
     91     -10.8027      2.00000
     92     -10.8027      2.00000
     93     -10.8026      2.00000
     94     -10.8003      2.00000
     95     -10.7560      2.00000
     96     -10.7526      2.00000
     97     -10.5148      2.00000
     98     -10.5123      2.00000
     99     -10.4978      2.00000
    100     -10.4978      2.00000
    101     -10.4978      2.00000
    102     -10.4978      2.00000
    103     -10.4978      2.00000
    104     -10.4978      2.00000
    105     -10.0382      2.00000
    106     -10.0382      2.00000
    107      -9.9981      2.00000
    108      -9.9981      2.00000
    109      -4.5911      2.00000
    110      -4.0383      2.00000
    111      -4.0374      2.00000
    112      -4.0374      2.00000
    113      -4.0343      2.00000
    114      -4.0334      2.00000
    115      -4.0326      2.00000
    116      -3.9267      2.00000
    117      -3.9257      2.00000
    118      -3.5958      2.00000
    119      -3.5936      2.00000
    120      -3.3770      2.00000
    121      -3.0549      2.00000
    122      -3.0547      2.00000
    123      -3.0314      2.00000
    124      -3.0313      2.00000
    125      -3.0312      2.00000
    126      -3.0303      2.00000
    127      -3.0298      2.00000
    128      -3.0297      2.00000
    129      -2.8033      2.00000
    130      -2.8030      2.00000
    131      -2.8029      2.00000
    132      -2.8027      2.00000
    133      -2.8027      2.00000
    134      -2.7999      2.00000
    135      -2.7148      2.00000
    136      -2.7127      2.00000
    137      -2.6769      2.00000
    138      -2.6761      2.00000
    139      -2.6753      2.00000
    140      -2.6744      2.00000
    141      -2.6728      2.00000
    142      -2.6727      2.00000
    143      -2.6449      2.00000
    144      -2.6444      2.00000
    145      -2.2058      2.00000
    146      -2.2043      2.00000
    147      -2.0148      2.00000
    148      -2.0148      2.00000
    149      -2.0148      2.00000
    150      -2.0147      2.00000
    151      -2.0146      2.00000
    152      -2.0146      2.00000
    153      -1.9499      2.00000
    154      -1.9499      2.00000
    155      -1.7001      2.00000
    156      -1.7001      2.00000
    157      -1.7001      2.00000
    158      -1.7000      2.00000
    159      -1.6999      2.00000
    160      -1.6998      2.00000
    161      -1.6407      2.00000
    162      -1.6390      2.00000
    163      -1.4894      2.00000
    164      -1.4892      2.00000
    165      -1.4891      2.00000
    166      -1.4888      2.00000
    167      -1.4848      2.00000
    168      -1.4817      2.00000
    169      -1.3460      2.00000
    170      -1.3455      2.00000
    171      -1.1524      2.00000
    172      -1.1520      2.00000
    173      -1.0409      2.00000
    174      -1.0406      2.00000
    175      -0.6411      2.00000
    176      -0.4330      2.00000
    177      -0.4313      2.00000
    178      -0.2765      2.00000
    179      -0.2764      2.00000
    180      -0.2764      2.00000
    181      -0.2764      2.00000
    182      -0.2757      2.00000
    183      -0.2757      2.00000
    184      -0.1758      2.00000
    185      -0.1757      2.00000
    186      -0.1757      2.00000
    187      -0.1756      2.00000
    188      -0.1705      2.00000
    189      -0.1702      2.00000
    190      -0.1469      2.00000
    191      -0.1456      2.00000
    192      -0.1436      2.00000
    193      -0.1410      2.00000
    194      -0.1407      2.00000
    195      -0.1403      2.00000
    196      -0.1401      2.00000
    197      -0.1398      2.00000
    198      -0.0914      2.00000
    199      -0.0914      2.00000
    200       0.0942      2.00000
    201       0.0942      2.00000
    202       0.3416      2.00000
    203       0.3433      2.00000
    204       0.3437      2.00000
    205       0.3439      2.00000
    206       0.3439      2.00000
    207       0.3442      2.00000
    208       0.5649      2.00000
    209       0.6055      2.00000
    210       0.6070      2.00000
    211       0.6073      2.00000
    212       0.6074      2.00000
    213       0.6078      2.00000
    214       0.6089      2.00000
    215       1.0761      2.00000
    216       1.0761      2.00000
    217       1.0761      2.00000
    218       1.0761      2.00000
    219       1.0762      2.00000
    220       1.0762      2.00000
    221       1.1038      2.00000
    222       1.1038      2.00000
    223       1.2639      2.00000
    224       1.2639      2.00000
    225       1.2639      2.00000
    226       1.2639      2.00000
    227       1.2639      2.00000
    228       1.2639      2.00000
    229       1.5969      2.00000
    230       1.6009      2.00000
    231       1.6016      2.00000
    232       2.1412      2.00000
    233       2.1412      2.00000
    234       2.3055      2.00000
    235       3.1658      0.00000
    236       3.1660      0.00000
    237       3.7984      0.00000
    238       3.7985      0.00000
    239       3.9858      0.00000
    240       3.9861      0.00000
    241       3.9862      0.00000
    242       3.9866      0.00000
    243       3.9868      0.00000
    244       3.9869      0.00000
    245       4.0295      0.00000
    246       4.0300      0.00000
    247       4.0319      0.00000
    248       4.0323      0.00000
    249       4.0329      0.00000
    250       4.0331      0.00000
    251       4.2499      0.00000
    252       4.2499      0.00000
    253       4.2501      0.00000
    254       4.2501      0.00000
    255       4.2502      0.00000
    256       4.2502      0.00000
    257       4.3625      0.00000
    258       4.3654      0.00000
    259       4.3722      0.00000
    260       4.3738      0.00000
    261       4.3744      0.00000
    262       4.3761      0.00000
    263       4.3765      0.00000
    264       4.3766      0.00000
    265       4.4503      0.00000
    266       4.4504      0.00000
    267       4.5860      0.00000
    268       4.5870      0.00000
    269       5.0331      0.00000
    270       5.0351      0.00000
    271       5.0356      0.00000
    272       5.0367      0.00000
    273       5.0372      0.00000
    274       5.0373      0.00000
    275       5.1332      0.00000
    276       5.1332      0.00000
    277       5.2499      0.00000
    278       5.2510      0.00000
    279       5.2787      0.00000
    280       5.2787      0.00000
    281       5.3479      0.00000
    282       5.3479      0.00000
    283       5.5384      0.00000
    284       5.5401      0.00000
    285       5.5411      0.00000
    286       5.5413      0.00000

 k-point     2 :       0.2000    0.0000    0.0000
  band No.  band energies     occupation 
      1     -72.4551      2.00000
      2     -72.4492      2.00000
      3     -72.4476      2.00000
      4     -72.4473      2.00000
      5     -72.4456      2.00000
      6     -72.4451      2.00000
      7     -72.4443      2.00000
      8     -72.4421      2.00000
      9     -72.4420      2.00000
     10     -58.6492      2.00000
     11     -58.6349      2.00000
     12     -58.6315      2.00000
     13     -58.6315      2.00000
     14     -58.6266      2.00000
     15     -58.6265      2.00000
     16     -58.6250      2.00000
     17     -58.6194      2.00000
     18     -58.6193      2.00000
     19     -36.8014      2.00000
     20     -36.7820      2.00000
     21     -36.7817      2.00000
     22     -36.7768      2.00000
     23     -36.7764      2.00000
     24     -36.7375      2.00000
     25     -36.7372      2.00000
     26     -36.7101      2.00000
     27     -36.7100      2.00000
     28     -36.7098      2.00000
     29     -36.6384      2.00000
     30     -36.6219      2.00000
     31     -36.6217      2.00000
     32     -36.6198      2.00000
     33     -36.6141      2.00000
     34     -36.6097      2.00000
     35     -36.6094      2.00000
     36     -36.6084      2.00000
     37     -36.6083      2.00000
     38     -36.6000      2.00000
     39     -36.5999      2.00000
     40     -36.5979      2.00000
     41     -36.5972      2.00000
     42     -36.5877      2.00000
     43     -36.5876      2.00000
     44     -36.5749      2.00000
     45     -36.5660      2.00000
     46     -32.8750      2.00000
     47     -32.8531      2.00000
     48     -32.8531      2.00000
     49     -32.8468      2.00000
     50     -32.8468      2.00000
     51     -32.8347      2.00000
     52     -32.8033      2.00000
     53     -32.8032      2.00000
     54     -32.8028      2.00000
     55     -32.7953      2.00000
     56     -32.7952      2.00000
     57     -32.7842      2.00000
     58     -32.7841      2.00000
     59     -32.7806      2.00000
     60     -32.7726      2.00000
     61     -32.7713      2.00000
     62     -32.7713      2.00000
     63     -32.7682      2.00000
     64     -32.7681      2.00000
     65     -32.6725      2.00000
     66     -32.6724      2.00000
     67     -32.6702      2.00000
     68     -32.6591      2.00000
     69     -32.6591      2.00000
     70     -32.6462      2.00000
     71     -32.6214      2.00000
     72     -32.6113      2.00000
     73     -12.8747      2.00000
     74     -12.1835      2.00000
     75     -12.0020      2.00000
     76     -11.7688      2.00000
     77     -11.7652      2.00000
     78     -11.3953      2.00000
     79     -11.3918      2.00000
     80     -11.3515      2.00000
     81     -11.3331      2.00000
     82     -11.2638      2.00000
     83     -11.1096      2.00000
     84     -11.1043      2.00000
     85     -11.1039      2.00000
     86     -10.9704      2.00000
     87     -10.8738      2.00000
     88     -10.8730      2.00000
     89     -10.8081      2.00000
     90     -10.8054      2.00000
     91     -10.7997      2.00000
     92     -10.7978      2.00000
     93     -10.7396      2.00000
     94     -10.7023      2.00000
     95     -10.6621      2.00000
     96     -10.6619      2.00000
     97     -10.5808      2.00000
     98     -10.5808      2.00000
     99     -10.5436      2.00000
    100     -10.5379      2.00000
    101     -10.5356      2.00000
    102     -10.3832      2.00000
    103     -10.3832      2.00000
    104     -10.3160      2.00000
    105     -10.0891      2.00000
    106     -10.0891      2.00000
    107     -10.0344      2.00000
    108     -10.0344      2.00000
    109      -4.5117      2.00000
    110      -4.4072      2.00000
    111      -4.1870      2.00000
    112      -4.1863      2.00000
    113      -3.8449      2.00000
    114      -3.8445      2.00000
    115      -3.8259      2.00000
    116      -3.8256      2.00000
    117      -3.8007      2.00000
    118      -3.7996      2.00000
    119      -3.7789      2.00000
    120      -3.3695      2.00000
    121      -3.2992      2.00000
    122      -3.1369      2.00000
    123      -3.1367      2.00000
    124      -3.0988      2.00000
    125      -3.0147      2.00000
    126      -3.0136      2.00000
    127      -2.9945      2.00000
    128      -2.9944      2.00000
    129      -2.9812      2.00000
    130      -2.9582      2.00000
    131      -2.9575      2.00000
    132      -2.8724      2.00000
    133      -2.8723      2.00000
    134      -2.8139      2.00000
    135      -2.7757      2.00000
    136      -2.7739      2.00000
    137      -2.6528      2.00000
    138      -2.6522      2.00000
    139      -2.6058      2.00000
    140      -2.5162      2.00000
    141      -2.5156      2.00000
    142      -2.4505      2.00000
    143      -2.4499      2.00000
    144      -2.4318      2.00000
    145      -2.2555      2.00000
    146      -2.2554      2.00000
    147      -2.1943      2.00000
    148      -2.1274      2.00000
    149      -2.1265      2.00000
    150      -1.7613      2.00000
    151      -1.7603      2.00000
    152      -1.7554      2.00000
    153      -1.7551      2.00000
    154      -1.7459      2.00000
    155      -1.7447      2.00000
    156      -1.7107      2.00000
    157      -1.7102      2.00000
    158      -1.6944      2.00000
    159      -1.6870      2.00000
    160      -1.6029      2.00000
    161      -1.5688      2.00000
    162      -1.5675      2.00000
    163      -1.5422      2.00000
    164      -1.5416      2.00000
    165      -1.5273      2.00000
    166      -1.4455      2.00000
    167      -1.4341      2.00000
    168      -1.4320      2.00000
    169      -1.2799      2.00000
    170      -1.2062      2.00000
    171      -1.1118      2.00000
    172      -1.1117      2.00000
    173      -0.9983      2.00000
    174      -0.9982      2.00000
    175      -0.8451      2.00000
    176      -0.6098      2.00000
    177      -0.6097      2.00000
    178      -0.4930      2.00000
    179      -0.4910      2.00000
    180      -0.4880      2.00000
    181      -0.4750      2.00000
    182      -0.4037      2.00000
    183      -0.4033      2.00000
    184      -0.4023      2.00000
    185      -0.4017      2.00000
    186      -0.3140      2.00000
    187      -0.3120      2.00000
    188      -0.2588      2.00000
    189      -0.2535      2.00000
    190      -0.1714      2.00000
    191      -0.1159      2.00000
    192      -0.1139      2.00000
    193      -0.0732      2.00000
    194       0.0251      2.00000
    195       0.0252      2.00000
    196       0.0259      2.00000
    197       0.0422      2.00000
    198       0.0556      2.00000
    199       0.0925      2.00000
    200       0.0942      2.00000
    201       0.1594      2.00000
    202       0.1685      2.00000
    203       0.3642      2.00000
    204       0.3645      2.00000
    205       0.4883      2.00000
    206       0.6171      2.00000
    207       0.6176      2.00000
    208       0.6208      2.00000
    209       0.6546      2.00000
    210       0.6695      2.00000
    211       0.6704      2.00000
    212       0.7379      2.00000
    213       0.7380      2.00000
    214       0.8156      2.00000
    215       0.8158      2.00000
    216       0.8244      2.00000
    217       0.8247      2.00000
    218       0.8437      2.00000
    219       0.9566      2.00000
    220       0.9957      2.00000
    221       1.1864      2.00000
    222       1.1910      2.00000
    223       1.1948      2.00000
    224       1.3367      2.00000
    225       1.3367      2.00000
    226       1.4280      2.00000
    227       1.4285      2.00000
    228       1.4858      2.00000
    229       1.5143      2.00000
    230       1.5143      2.00000
    231       1.5892      2.00000
    232       2.0350      2.00000
    233       2.0350      2.00000
    234       2.2019      2.00000
    235       3.4187      0.00000
    236       3.4191      0.00000
    237       3.7298      0.00000
    238       3.7301      0.00000
    239       3.8315      0.00000
    240       3.8984      0.00000
    241       3.8992      0.00000
    242       3.9098      0.00000
    243       3.9098      0.00000
    244       4.0297      0.00000
    245       4.0303      0.00000
    246       4.0529      0.00000
    247       4.1019      0.00000
    248       4.1239      0.00000
    249       4.1246      0.00000
    250       4.1982      0.00000
    251       4.2523      0.00000
    252       4.2598      0.00000
    253       4.2704      0.00000
    254       4.2709      0.00000
    255       4.3101      0.00000
    256       4.3398      0.00000
    257       4.3401      0.00000
    258       4.4165      0.00000
    259       4.4173      0.00000
    260       4.4180      0.00000
    261       4.4698      0.00000
    262       4.4701      0.00000
    263       4.4813      0.00000
    264       4.4910      0.00000
    265       4.5283      0.00000
    266       4.5333      0.00000
    267       4.5341      0.00000
    268       4.5344      0.00000
    269       4.6974      0.00000
    270       4.7649      0.00000
    271       4.7653      0.00000
    272       4.9353      0.00000
    273       5.0556      0.00000
    274       5.0985      0.00000
    275       5.0987      0.00000
    276       5.1112      0.00000
    277       5.1123      0.00000
    278       5.1551      0.00000
    279       5.2222      0.00000
    280       5.2224      0.00000
    281       5.2277      0.00000
    282       5.2505      0.00000
    283       5.2843      0.00000
    284       5.2861      0.00000
    285       5.3026      0.00000
    286       5.3659      0.00000

 k-point     3 :       0.2000    0.2000    0.0000
  band No.  band energies     occupation 
      1     -72.4551      2.00000
      2     -72.4491      2.00000
      3     -72.4479      2.00000
      4     -72.4472      2.00000
      5     -72.4454      2.00000
      6     -72.4453      2.00000
      7     -72.4443      2.00000
      8     -72.4421      2.00000
      9     -72.4420      2.00000
     10     -58.6492      2.00000
     11     -58.6349      2.00000
     12     -58.6315      2.00000
     13     -58.6315      2.00000
     14     -58.6266      2.00000
     15     -58.6265      2.00000
     16     -58.6250      2.00000
     17     -58.6194      2.00000
     18     -58.6193      2.00000
     19     -36.8014      2.00000
     20     -36.7820      2.00000
     21     -36.7817      2.00000
     22     -36.7768      2.00000
     23     -36.7764      2.00000
     24     -36.7375      2.00000
     25     -36.7372      2.00000
     26     -36.7101      2.00000
     27     -36.7101      2.00000
     28     -36.7097      2.00000
     29     -36.6384      2.00000
     30     -36.6220      2.00000
     31     -36.6216      2.00000
     32     -36.6198      2.00000
     33     -36.6141      2.00000
     34     -36.6098      2.00000
     35     -36.6094      2.00000
     36     -36.6084      2.00000
     37     -36.6082      2.00000
     38     -36.5999      2.00000
     39     -36.5999      2.00000
     40     -36.5979      2.00000
     41     -36.5972      2.00000
     42     -36.5877      2.00000
     43     -36.5876      2.00000
     44     -36.5749      2.00000
     45     -36.5660      2.00000
     46     -32.8750      2.00000
     47     -32.8531      2.00000
     48     -32.8531      2.00000
     49     -32.8468      2.00000
     50     -32.8468      2.00000
     51     -32.8347      2.00000
     52     -32.8033      2.00000
     53     -32.8032      2.00000
     54     -32.8028      2.00000
     55     -32.7953      2.00000
     56     -32.7952      2.00000
     57     -32.7842      2.00000
     58     -32.7841      2.00000
     59     -32.7806      2.00000
     60     -32.7726      2.00000
     61     -32.7713      2.00000
     62     -32.7713      2.00000
     63     -32.7682      2.00000
     64     -32.7681      2.00000
     65     -32.6725      2.00000
     66     -32.6724      2.00000
     67     -32.6702      2.00000
     68     -32.6591      2.00000
     69     -32.6591      2.00000
     70     -32.6462      2.00000
     71     -32.6214      2.00000
     72     -32.6113      2.00000
     73     -12.8747      2.00000
     74     -12.1835      2.00000
     75     -12.0018      2.00000
     76     -11.7687      2.00000
     77     -11.7655      2.00000
     78     -11.3952      2.00000
     79     -11.3921      2.00000
     80     -11.3515      2.00000
     81     -11.3331      2.00000
     82     -11.2635      2.00000
     83     -11.1096      2.00000
     84     -11.1043      2.00000
     85     -11.1039      2.00000
     86     -10.9706      2.00000
     87     -10.8739      2.00000
     88     -10.8727      2.00000
     89     -10.8081      2.00000
     90     -10.8055      2.00000
     91     -10.7998      2.00000
     92     -10.7975      2.00000
     93     -10.7400      2.00000
     94     -10.7023      2.00000
     95     -10.6621      2.00000
     96     -10.6618      2.00000
     97     -10.5808      2.00000
     98     -10.5807      2.00000
     99     -10.5436      2.00000
    100     -10.5379      2.00000
    101     -10.5355      2.00000
    102     -10.3832      2.00000
    103     -10.3832      2.00000
    104     -10.3161      2.00000
    105     -10.0891      2.00000
    106     -10.0891      2.00000
    107     -10.0344      2.00000
    108     -10.0344      2.00000
    109      -4.5117      2.00000
    110      -4.4075      2.00000
    111      -4.1868      2.00000
    112      -4.1863      2.00000
    113      -3.8449      2.00000
    114      -3.8445      2.00000
    115      -3.8262      2.00000
    116      -3.8254      2.00000
    117      -3.8006      2.00000
    118      -3.7994      2.00000
    119      -3.7788      2.00000
    120      -3.3695      2.00000
    121      -3.2992      2.00000
    122      -3.1369      2.00000
    123      -3.1366      2.00000
    124      -3.0986      2.00000
    125      -3.0149      2.00000
    126      -3.0136      2.00000
    127      -2.9945      2.00000
    128      -2.9944      2.00000
    129      -2.9811      2.00000
    130      -2.9577      2.00000
    131      -2.9576      2.00000
    132      -2.8724      2.00000
    133      -2.8723      2.00000
    134      -2.8135      2.00000
    135      -2.7752      2.00000
    136      -2.7748      2.00000
    137      -2.6527      2.00000
    138      -2.6524      2.00000
    139      -2.6058      2.00000
    140      -2.5166      2.00000
    141      -2.5155      2.00000
    142      -2.4508      2.00000
    143      -2.4498      2.00000
    144      -2.4317      2.00000
    145      -2.2555      2.00000
    146      -2.2554      2.00000
    147      -2.1946      2.00000
    148      -2.1278      2.00000
    149      -2.1259      2.00000
    150      -1.7612      2.00000
    151      -1.7608      2.00000
    152      -1.7555      2.00000
    153      -1.7553      2.00000
    154      -1.7460      2.00000
    155      -1.7449      2.00000
    156      -1.7108      2.00000
    157      -1.7104      2.00000
    158      -1.6944      2.00000
    159      -1.6862      2.00000
    160      -1.6029      2.00000
    161      -1.5687      2.00000
    162      -1.5683      2.00000
    163      -1.5422      2.00000
    164      -1.5415      2.00000
    165      -1.5269      2.00000
    166      -1.4455      2.00000
    167      -1.4335      2.00000
    168      -1.4324      2.00000
    169      -1.2803      2.00000
    170      -1.2051      2.00000
    171      -1.1119      2.00000
    172      -1.1117      2.00000
    173      -0.9983      2.00000
    174      -0.9981      2.00000
    175      -0.8456      2.00000
    176      -0.6098      2.00000
    177      -0.6097      2.00000
    178      -0.4930      2.00000
    179      -0.4909      2.00000
    180      -0.4882      2.00000
    181      -0.4750      2.00000
    182      -0.4038      2.00000
    183      -0.4034      2.00000
    184      -0.4023      2.00000
    185      -0.4016      2.00000
    186      -0.3137      2.00000
    187      -0.3116      2.00000
    188      -0.2591      2.00000
    189      -0.2517      2.00000
    190      -0.1725      2.00000
    191      -0.1151      2.00000
    192      -0.1140      2.00000
    193      -0.0732      2.00000
    194       0.0251      2.00000
    195       0.0252      2.00000
    196       0.0259      2.00000
    197       0.0424      2.00000
    198       0.0557      2.00000
    199       0.0922      2.00000
    200       0.0941      2.00000
    201       0.1594      2.00000
    202       0.1682      2.00000
    203       0.3642      2.00000
    204       0.3646      2.00000
    205       0.4882      2.00000
    206       0.6174      2.00000
    207       0.6182      2.00000
    208       0.6199      2.00000
    209       0.6543      2.00000
    210       0.6691      2.00000
    211       0.6707      2.00000
    212       0.7380      2.00000
    213       0.7382      2.00000
    214       0.8158      2.00000
    215       0.8160      2.00000
    216       0.8243      2.00000
    217       0.8247      2.00000
    218       0.8431      2.00000
    219       0.9566      2.00000
    220       0.9957      2.00000
    221       1.1864      2.00000
    222       1.1910      2.00000
    223       1.1948      2.00000
    224       1.3367      2.00000
    225       1.3367      2.00000
    226       1.4279      2.00000
    227       1.4286      2.00000
    228       1.4858      2.00000
    229       1.5143      2.00000
    230       1.5143      2.00000
    231       1.5891      2.00000
    232       2.0350      2.00000
    233       2.0350      2.00000
    234       2.2019      2.00000
    235       3.4188      0.00000
    236       3.4190      0.00000
    237       3.7296      0.00000
    238       3.7298      0.00000
    239       3.8315      0.00000
    240       3.8986      0.00000
    241       3.8993      0.00000
    242       3.9098      0.00000
    243       3.9098      0.00000
    244       4.0297      0.00000
    245       4.0302      0.00000
    246       4.0532      0.00000
    247       4.1017      0.00000
    248       4.1239      0.00000
    249       4.1246      0.00000
    250       4.1982      0.00000
    251       4.2527      0.00000
    252       4.2598      0.00000
    253       4.2704      0.00000
    254       4.2710      0.00000
    255       4.3122      0.00000
    256       4.3397      0.00000
    257       4.3400      0.00000
    258       4.4164      0.00000
    259       4.4173      0.00000
    260       4.4180      0.00000
    261       4.4696      0.00000
    262       4.4698      0.00000
    263       4.4803      0.00000
    264       4.4902      0.00000
    265       4.5279      0.00000
    266       4.5336      0.00000
    267       4.5341      0.00000
    268       4.5344      0.00000
    269       4.6981      0.00000
    270       4.7646      0.00000
    271       4.7652      0.00000
    272       4.9353      0.00000
    273       5.0557      0.00000
    274       5.0986      0.00000
    275       5.0987      0.00000
    276       5.1100      0.00000
    277       5.1123      0.00000
    278       5.1552      0.00000
    279       5.2224      0.00000
    280       5.2230      0.00000
    281       5.2277      0.00000
    282       5.2505      0.00000
    283       5.2839      0.00000
    284       5.2869      0.00000
    285       5.3032      0.00000
    286       5.3664      0.00000

 k-point     4 :       0.0000    0.2000    0.0000
  band No.  band energies     occupation 
      1     -72.4551      2.00000
      2     -72.4492      2.00000
      3     -72.4477      2.00000
      4     -72.4473      2.00000
      5     -72.4456      2.00000
      6     -72.4451      2.00000
      7     -72.4443      2.00000
      8     -72.4421      2.00000
      9     -72.4420      2.00000
     10     -58.6492      2.00000
     11     -58.6349      2.00000
     12     -58.6315      2.00000
     13     -58.6315      2.00000
     14     -58.6266      2.00000
     15     -58.6265      2.00000
     16     -58.6250      2.00000
     17     -58.6194      2.00000
     18     -58.6193      2.00000
     19     -36.8014      2.00000
     20     -36.7821      2.00000
     21     -36.7816      2.00000
     22     -36.7768      2.00000
     23     -36.7764      2.00000
     24     -36.7375      2.00000
     25     -36.7371      2.00000
     26     -36.7101      2.00000
     27     -36.7100      2.00000
     28     -36.7097      2.00000
     29     -36.6384      2.00000
     30     -36.6219      2.00000
     31     -36.6216      2.00000
     32     -36.6198      2.00000
     33     -36.6141      2.00000
     34     -36.6097      2.00000
     35     -36.6095      2.00000
     36     -36.6084      2.00000
     37     -36.6083      2.00000
     38     -36.6000      2.00000
     39     -36.5998      2.00000
     40     -36.5979      2.00000
     41     -36.5972      2.00000
     42     -36.5877      2.00000
     43     -36.5876      2.00000
     44     -36.5749      2.00000
     45     -36.5660      2.00000
     46     -32.8750      2.00000
     47     -32.8531      2.00000
     48     -32.8531      2.00000
     49     -32.8468      2.00000
     50     -32.8468      2.00000
     51     -32.8347      2.00000
     52     -32.8033      2.00000
     53     -32.8032      2.00000
     54     -32.8028      2.00000
     55     -32.7953      2.00000
     56     -32.7952      2.00000
     57     -32.7842      2.00000
     58     -32.7841      2.00000
     59     -32.7806      2.00000
     60     -32.7726      2.00000
     61     -32.7713      2.00000
     62     -32.7713      2.00000
     63     -32.7682      2.00000
     64     -32.7681      2.00000
     65     -32.6725      2.00000
     66     -32.6724      2.00000
     67     -32.6702      2.00000
     68     -32.6591      2.00000
     69     -32.6591      2.00000
     70     -32.6462      2.00000
     71     -32.6214      2.00000
     72     -32.6113      2.00000
     73     -12.8747      2.00000
     74     -12.1835      2.00000
     75     -12.0019      2.00000
     76     -11.7688      2.00000
     77     -11.7653      2.00000
     78     -11.3953      2.00000
     79     -11.3919      2.00000
     80     -11.3515      2.00000
     81     -11.3331      2.00000
     82     -11.2637      2.00000
     83     -11.1096      2.00000
     84     -11.1043      2.00000
     85     -11.1039      2.00000
     86     -10.9705      2.00000
     87     -10.8739      2.00000
     88     -10.8728      2.00000
     89     -10.8081      2.00000
     90     -10.8054      2.00000
     91     -10.7998      2.00000
     92     -10.7976      2.00000
     93     -10.7398      2.00000
     94     -10.7023      2.00000
     95     -10.6621      2.00000
     96     -10.6618      2.00000
     97     -10.5808      2.00000
     98     -10.5807      2.00000
     99     -10.5436      2.00000
    100     -10.5379      2.00000
    101     -10.5355      2.00000
    102     -10.3832      2.00000
    103     -10.3832      2.00000
    104     -10.3160      2.00000
    105     -10.0891      2.00000
    106     -10.0891      2.00000
    107     -10.0344      2.00000
    108     -10.0344      2.00000
    109      -4.5117      2.00000
    110      -4.4073      2.00000
    111      -4.1869      2.00000
    112      -4.1863      2.00000
    113      -3.8451      2.00000
    114      -3.8443      2.00000
    115      -3.8261      2.00000
    116      -3.8255      2.00000
    117      -3.8012      2.00000
    118      -3.7990      2.00000
    119      -3.7788      2.00000
    120      -3.3695      2.00000
    121      -3.2992      2.00000
    122      -3.1369      2.00000
    123      -3.1367      2.00000
    124      -3.0987      2.00000
    125      -3.0148      2.00000
    126      -3.0136      2.00000
    127      -2.9945      2.00000
    128      -2.9944      2.00000
    129      -2.9811      2.00000
    130      -2.9580      2.00000
    131      -2.9575      2.00000
    132      -2.8724      2.00000
    133      -2.8723      2.00000
    134      -2.8137      2.00000
    135      -2.7755      2.00000
    136      -2.7743      2.00000
    137      -2.6529      2.00000
    138      -2.6522      2.00000
    139      -2.6058      2.00000
    140      -2.5165      2.00000
    141      -2.5154      2.00000
    142      -2.4507      2.00000
    143      -2.4498      2.00000
    144      -2.4317      2.00000
    145      -2.2556      2.00000
    146      -2.2554      2.00000
    147      -2.1945      2.00000
    148      -2.1278      2.00000
    149      -2.1260      2.00000
    150      -1.7614      2.00000
    151      -1.7605      2.00000
    152      -1.7554      2.00000
    153      -1.7552      2.00000
    154      -1.7459      2.00000
    155      -1.7448      2.00000
    156      -1.7107      2.00000
    157      -1.7103      2.00000
    158      -1.6944      2.00000
    159      -1.6866      2.00000
    160      -1.6029      2.00000
    161      -1.5688      2.00000
    162      -1.5679      2.00000
    163      -1.5423      2.00000
    164      -1.5415      2.00000
    165      -1.5271      2.00000
    166      -1.4455      2.00000
    167      -1.4339      2.00000
    168      -1.4321      2.00000
    169      -1.2801      2.00000
    170      -1.2057      2.00000
    171      -1.1118      2.00000
    172      -1.1117      2.00000
    173      -0.9983      2.00000
    174      -0.9981      2.00000
    175      -0.8454      2.00000
    176      -0.6098      2.00000
    177      -0.6097      2.00000
    178      -0.4930      2.00000
    179      -0.4909      2.00000
    180      -0.4881      2.00000
    181      -0.4750      2.00000
    182      -0.4038      2.00000
    183      -0.4032      2.00000
    184      -0.4023      2.00000
    185      -0.4016      2.00000
    186      -0.3141      2.00000
    187      -0.3116      2.00000
    188      -0.2590      2.00000
    189      -0.2526      2.00000
    190      -0.1719      2.00000
    191      -0.1155      2.00000
    192      -0.1139      2.00000
    193      -0.0732      2.00000
    194       0.0251      2.00000
    195       0.0252      2.00000
    196       0.0259      2.00000
    197       0.0423      2.00000
    198       0.0556      2.00000
    199       0.0923      2.00000
    200       0.0942      2.00000
    201       0.1594      2.00000
    202       0.1684      2.00000
    203       0.3642      2.00000
    204       0.3645      2.00000
    205       0.4883      2.00000
    206       0.6171      2.00000
    207       0.6180      2.00000
    208       0.6204      2.00000
    209       0.6545      2.00000
    210       0.6692      2.00000
    211       0.6707      2.00000
    212       0.7379      2.00000
    213       0.7381      2.00000
    214       0.8156      2.00000
    215       0.8159      2.00000
    216       0.8243      2.00000
    217       0.8247      2.00000
    218       0.8434      2.00000
    219       0.9566      2.00000
    220       0.9957      2.00000
    221       1.1864      2.00000
    222       1.1910      2.00000
    223       1.1948      2.00000
    224       1.3367      2.00000
    225       1.3367      2.00000
    226       1.4279      2.00000
    227       1.4285      2.00000
    228       1.4858      2.00000
    229       1.5143      2.00000
    230       1.5143      2.00000
    231       1.5892      2.00000
    232       2.0350      2.00000
    233       2.0350      2.00000
    234       2.2019      2.00000
    235       3.4187      0.00000
    236       3.4192      0.00000
    237       3.7296      0.00000
    238       3.7300      0.00000
    239       3.8315      0.00000
    240       3.8985      0.00000
    241       3.8992      0.00000
    242       3.9098      0.00000
    243       3.9098      0.00000
    244       4.0297      0.00000
    245       4.0302      0.00000
    246       4.0530      0.00000
    247       4.1018      0.00000
    248       4.1239      0.00000
    249       4.1246      0.00000
    250       4.1982      0.00000
    251       4.2525      0.00000
    252       4.2598      0.00000
    253       4.2703      0.00000
    254       4.2710      0.00000
    255       4.3111      0.00000
    256       4.3398      0.00000
    257       4.3400      0.00000
    258       4.4165      0.00000
    259       4.4172      0.00000
    260       4.4180      0.00000
    261       4.4697      0.00000
    262       4.4700      0.00000
    263       4.4808      0.00000
    264       4.4906      0.00000
    265       4.5281      0.00000
    266       4.5335      0.00000
    267       4.5341      0.00000
    268       4.5344      0.00000
    269       4.6977      0.00000
    270       4.7646      0.00000
    271       4.7654      0.00000
    272       4.9353      0.00000
    273       5.0557      0.00000
    274       5.0986      0.00000
    275       5.0987      0.00000
    276       5.1106      0.00000
    277       5.1124      0.00000
    278       5.1552      0.00000
    279       5.2223      0.00000
    280       5.2227      0.00000
    281       5.2277      0.00000
    282       5.2505      0.00000
    283       5.2842      0.00000
    284       5.2868      0.00000
    285       5.3029      0.00000
    286       5.3659      0.00000

 k-point     5 :       0.4000    0.0000    0.0000
  band No.  band energies     occupation 
      1     -72.4537      2.00000
      2     -72.4515      2.00000
      3     -72.4481      2.00000
      4     -72.4479      2.00000
      5     -72.4447      2.00000
      6     -72.4441      2.00000
      7     -72.4433      2.00000
      8     -72.4427      2.00000
      9     -72.4426      2.00000
     10     -58.6458      2.00000
     11     -58.6407      2.00000
     12     -58.6327      2.00000
     13     -58.6327      2.00000
     14     -58.6237      2.00000
     15     -58.6236      2.00000
     16     -58.6226      2.00000
     17     -58.6211      2.00000
     18     -58.6211      2.00000
     19     -36.8232      2.00000
     20     -36.7927      2.00000
     21     -36.7924      2.00000
     22     -36.7909      2.00000
     23     -36.7905      2.00000
     24     -36.7195      2.00000
     25     -36.7192      2.00000
     26     -36.6760      2.00000
     27     -36.6758      2.00000
     28     -36.6555      2.00000
     29     -36.6447      2.00000
     30     -36.6445      2.00000
     31     -36.6326      2.00000
     32     -36.6251      2.00000
     33     -36.6240      2.00000
     34     -36.6141      2.00000
     35     -36.6139      2.00000
     36     -36.6104      2.00000
     37     -36.6103      2.00000
     38     -36.6076      2.00000
     39     -36.5951      2.00000
     40     -36.5950      2.00000
     41     -36.5931      2.00000
     42     -36.5906      2.00000
     43     -36.5905      2.00000
     44     -36.5850      2.00000
     45     -36.5737      2.00000
     46     -32.8994      2.00000
     47     -32.8649      2.00000
     48     -32.8649      2.00000
     49     -32.8627      2.00000
     50     -32.8627      2.00000
     51     -32.8270      2.00000
     52     -32.8158      2.00000
     53     -32.7979      2.00000
     54     -32.7979      2.00000
     55     -32.7831      2.00000
     56     -32.7830      2.00000
     57     -32.7777      2.00000
     58     -32.7776      2.00000
     59     -32.7753      2.00000
     60     -32.7720      2.00000
     61     -32.7720      2.00000
     62     -32.7330      2.00000
     63     -32.7330      2.00000
     64     -32.7116      2.00000
     65     -32.6980      2.00000
     66     -32.6980      2.00000
     67     -32.6759      2.00000
     68     -32.6642      2.00000
     69     -32.6642      2.00000
     70     -32.6580      2.00000
     71     -32.6321      2.00000
     72     -32.6197      2.00000
     73     -12.6797      2.00000
     74     -12.3771      2.00000
     75     -11.9956      2.00000
     76     -11.8544      2.00000
     77     -11.8508      2.00000
     78     -11.7014      2.00000
     79     -11.2608      2.00000
     80     -11.1882      2.00000
     81     -11.1879      2.00000
     82     -11.1632      2.00000
     83     -11.1599      2.00000
     84     -11.1266      2.00000
     85     -11.0593      2.00000
     86     -11.0251      2.00000
     87     -10.9538      2.00000
     88     -10.9504      2.00000
     89     -10.9075      2.00000
     90     -10.9066      2.00000
     91     -10.8864      2.00000
     92     -10.6900      2.00000
     93     -10.6882      2.00000
     94     -10.6632      2.00000
     95     -10.6238      2.00000
     96     -10.6238      2.00000
     97     -10.6010      2.00000
     98     -10.5988      2.00000
     99     -10.4460      2.00000
    100     -10.4460      2.00000
    101     -10.3380      2.00000
    102     -10.2523      2.00000
    103     -10.2523      2.00000
    104     -10.2360      2.00000
    105     -10.2360      2.00000
    106     -10.2068      2.00000
    107     -10.1274      2.00000
    108     -10.1274      2.00000
    109      -4.6348      2.00000
    110      -4.2876      2.00000
    111      -4.2150      2.00000
    112      -4.2144      2.00000
    113      -4.0860      2.00000
    114      -4.0853      2.00000
    115      -3.9756      2.00000
    116      -3.6675      2.00000
    117      -3.6623      2.00000
    118      -3.6603      2.00000
    119      -3.5843      2.00000
    120      -3.5832      2.00000
    121      -3.2841      2.00000
    122      -3.2718      2.00000
    123      -3.2708      2.00000
    124      -3.1828      2.00000
    125      -3.1827      2.00000
    126      -3.1272      2.00000
    127      -3.1271      2.00000
    128      -3.0833      2.00000
    129      -3.0227      2.00000
    130      -3.0192      2.00000
    131      -2.9252      2.00000
    132      -2.8257      2.00000
    133      -2.8256      2.00000
    134      -2.8071      2.00000
    135      -2.7537      2.00000
    136      -2.7524      2.00000
    137      -2.5873      2.00000
    138      -2.5331      2.00000
    139      -2.5328      2.00000
    140      -2.5307      2.00000
    141      -2.5140      2.00000
    142      -2.5123      2.00000
    143      -2.4486      2.00000
    144      -2.4477      2.00000
    145      -2.2547      2.00000
    146      -2.2541      2.00000
    147      -1.9853      2.00000
    148      -1.8678      2.00000
    149      -1.8662      2.00000
    150      -1.8469      2.00000
    151      -1.8453      2.00000
    152      -1.7900      2.00000
    153      -1.7838      2.00000
    154      -1.7826      2.00000
    155      -1.7164      2.00000
    156      -1.7141      2.00000
    157      -1.5747      2.00000
    158      -1.5744      2.00000
    159      -1.5250      2.00000
    160      -1.5238      2.00000
    161      -1.5099      2.00000
    162      -1.5095      2.00000
    163      -1.4421      2.00000
    164      -1.4417      2.00000
    165      -1.3488      2.00000
    166      -1.3483      2.00000
    167      -1.2501      2.00000
    168      -1.1032      2.00000
    169      -1.0923      2.00000
    170      -0.9893      2.00000
    171      -0.9892      2.00000
    172      -0.9499      2.00000
    173      -0.9495      2.00000
    174      -0.9000      2.00000
    175      -0.8731      2.00000
    176      -0.8081      2.00000
    177      -0.7821      2.00000
    178      -0.7813      2.00000
    179      -0.7765      2.00000
    180      -0.7745      2.00000
    181      -0.6763      2.00000
    182      -0.6744      2.00000
    183      -0.5814      2.00000
    184      -0.5433      2.00000
    185      -0.5432      2.00000
    186      -0.5261      2.00000
    187      -0.5223      2.00000
    188      -0.4405      2.00000
    189      -0.3036      2.00000
    190      -0.2560      2.00000
    191      -0.2545      2.00000
    192      -0.1562      2.00000
    193      -0.1546      2.00000
    194       0.0877      2.00000
    195       0.1562      2.00000
    196       0.2230      2.00000
    197       0.2230      2.00000
    198       0.2264      2.00000
    199       0.2264      2.00000
    200       0.2755      2.00000
    201       0.3114      2.00000
    202       0.3126      2.00000
    203       0.3464      2.00000
    204       0.3623      2.00000
    205       0.3624      2.00000
    206       0.3699      2.00000
    207       0.4191      2.00000
    208       0.4911      2.00000
    209       0.4913      2.00000
    210       0.6286      2.00000
    211       0.7197      2.00000
    212       0.7615      2.00000
    213       0.8201      2.00000
    214       0.8206      2.00000
    215       0.9134      2.00000
    216       0.9143      2.00000
    217       1.0018      2.00000
    218       1.0402      2.00000
    219       1.0403      2.00000
    220       1.1429      2.00000
    221       1.1432      2.00000
    222       1.2103      2.00000
    223       1.2578      2.00000
    224       1.3450      2.00000
    225       1.4045      2.00000
    226       1.4045      2.00000
    227       1.4810      2.00000
    228       1.5233      2.00000
    229       1.5943      2.00000
    230       1.6853      2.00000
    231       1.6853      2.00000
    232       1.8421      2.00000
    233       1.8421      2.00000
    234       1.8821      2.00000
    235       3.5374      0.00000
    236       3.5378      0.00000
    237       3.8447      0.00000
    238       3.8458      0.00000
    239       3.9202      0.00000
    240       3.9210      0.00000
    241       3.9216      0.00000
    242       3.9291      0.00000
    243       3.9296      0.00000
    244       4.0803      0.00000
    245       4.0804      0.00000
    246       4.1771      0.00000
    247       4.1795      0.00000
    248       4.2069      0.00000
    249       4.2087      0.00000
    250       4.2116      0.00000
    251       4.2172      0.00000
    252       4.2304      0.00000
    253       4.2784      0.00000
    254       4.2962      0.00000
    255       4.2973      0.00000
    256       4.3582      0.00000
    257       4.4305      0.00000
    258       4.4459      0.00000
    259       4.4464      0.00000
    260       4.4818      0.00000
    261       4.4824      0.00000
    262       4.4932      0.00000
    263       4.4940      0.00000
    264       4.5011      0.00000
    265       4.5296      0.00000
    266       4.5766      0.00000
    267       4.5767      0.00000
    268       4.6659      0.00000
    269       4.6662      0.00000
    270       4.6729      0.00000
    271       4.6828      0.00000
    272       4.7130      0.00000
    273       4.8168      0.00000
    274       4.8289      0.00000
    275       4.8413      0.00000
    276       4.8414      0.00000
    277       4.9227      0.00000
    278       4.9232      0.00000
    279       4.9493      0.00000
    280       4.9509      0.00000
    281       5.0085      0.00000
    282       5.0542      0.00000
    283       5.0553      0.00000
    284       5.2661      0.00000
    285       5.4287      0.00000
    286       5.4600      0.00000

 k-point     6 :       0.4000    0.4000    0.0000
  band No.  band energies     occupation 
      1     -72.4537      2.00000
      2     -72.4514      2.00000
      3     -72.4483      2.00000
      4     -72.4477      2.00000
      5     -72.4444      2.00000
      6     -72.4443      2.00000
      7     -72.4433      2.00000
      8     -72.4427      2.00000
      9     -72.4426      2.00000
     10     -58.6458      2.00000
     11     -58.6407      2.00000
     12     -58.6327      2.00000
     13     -58.6327      2.00000
     14     -58.6237      2.00000
     15     -58.6236      2.00000
     16     -58.6226      2.00000
     17     -58.6211      2.00000
     18     -58.6211      2.00000
     19     -36.8232      2.00000
     20     -36.7928      2.00000
     21     -36.7924      2.00000
     22     -36.7909      2.00000
     23     -36.7905      2.00000
     24     -36.7194      2.00000
     25     -36.7192      2.00000
     26     -36.6760      2.00000
     27     -36.6757      2.00000
     28     -36.6555      2.00000
     29     -36.6448      2.00000
     30     -36.6445      2.00000
     31     -36.6326      2.00000
     32     -36.6251      2.00000
     33     -36.6240      2.00000
     34     -36.6143      2.00000
     35     -36.6138      2.00000
     36     -36.6105      2.00000
     37     -36.6103      2.00000
     38     -36.6076      2.00000
     39     -36.5950      2.00000
     40     -36.5950      2.00000
     41     -36.5931      2.00000
     42     -36.5906      2.00000
     43     -36.5905      2.00000
     44     -36.5850      2.00000
     45     -36.5737      2.00000
     46     -32.8994      2.00000
     47     -32.8649      2.00000
     48     -32.8649      2.00000
     49     -32.8627      2.00000
     50     -32.8627      2.00000
     51     -32.8270      2.00000
     52     -32.8158      2.00000
     53     -32.7979      2.00000
     54     -32.7979      2.00000
     55     -32.7831      2.00000
     56     -32.7830      2.00000
     57     -32.7777      2.00000
     58     -32.7776      2.00000
     59     -32.7753      2.00000
     60     -32.7720      2.00000
     61     -32.7720      2.00000
     62     -32.7330      2.00000
     63     -32.7330      2.00000
     64     -32.7116      2.00000
     65     -32.6980      2.00000
     66     -32.6980      2.00000
     67     -32.6759      2.00000
     68     -32.6642      2.00000
     69     -32.6642      2.00000
     70     -32.6580      2.00000
     71     -32.6321      2.00000
     72     -32.6197      2.00000
     73     -12.6796      2.00000
     74     -12.3770      2.00000
     75     -11.9956      2.00000
     76     -11.8544      2.00000
     77     -11.8511      2.00000
     78     -11.7014      2.00000
     79     -11.2609      2.00000
     80     -11.1882      2.00000
     81     -11.1879      2.00000
     82     -11.1632      2.00000
     83     -11.1601      2.00000
     84     -11.1267      2.00000
     85     -11.0589      2.00000
     86     -11.0251      2.00000
     87     -10.9538      2.00000
     88     -10.9505      2.00000
     89     -10.9076      2.00000
     90     -10.9062      2.00000
     91     -10.8864      2.00000
     92     -10.6900      2.00000
     93     -10.6880      2.00000
     94     -10.6637      2.00000
     95     -10.6238      2.00000
     96     -10.6237      2.00000
     97     -10.6010      2.00000
     98     -10.5987      2.00000
     99     -10.4460      2.00000
    100     -10.4460      2.00000
    101     -10.3380      2.00000
    102     -10.2523      2.00000
    103     -10.2522      2.00000
    104     -10.2360      2.00000
    105     -10.2360      2.00000
    106     -10.2068      2.00000
    107     -10.1274      2.00000
    108     -10.1274      2.00000
    109      -4.6352      2.00000
    110      -4.2875      2.00000
    111      -4.2148      2.00000
    112      -4.2143      2.00000
    113      -4.0859      2.00000
    114      -4.0851      2.00000
    115      -3.9755      2.00000
    116      -3.6675      2.00000
    117      -3.6624      2.00000
    118      -3.6604      2.00000
    119      -3.5840      2.00000
    120      -3.5833      2.00000
    121      -3.2838      2.00000
    122      -3.2713      2.00000
    123      -3.2710      2.00000
    124      -3.1829      2.00000
    125      -3.1826      2.00000
    126      -3.1272      2.00000
    127      -3.1271      2.00000
    128      -3.0833      2.00000
    129      -3.0229      2.00000
    130      -3.0195      2.00000
    131      -2.9249      2.00000
    132      -2.8257      2.00000
    133      -2.8256      2.00000
    134      -2.8070      2.00000
    135      -2.7535      2.00000
    136      -2.7529      2.00000
    137      -2.5870      2.00000
    138      -2.5330      2.00000
    139      -2.5327      2.00000
    140      -2.5309      2.00000
    141      -2.5139      2.00000
    142      -2.5129      2.00000
    143      -2.4484      2.00000
    144      -2.4481      2.00000
    145      -2.2553      2.00000
    146      -2.2543      2.00000
    147      -1.9849      2.00000
    148      -1.8678      2.00000
    149      -1.8671      2.00000
    150      -1.8469      2.00000
    151      -1.8459      2.00000
    152      -1.7892      2.00000
    153      -1.7837      2.00000
    154      -1.7829      2.00000
    155      -1.7164      2.00000
    156      -1.7149      2.00000
    157      -1.5746      2.00000
    158      -1.5744      2.00000
    159      -1.5251      2.00000
    160      -1.5236      2.00000
    161      -1.5099      2.00000
    162      -1.5098      2.00000
    163      -1.4420      2.00000
    164      -1.4418      2.00000
    165      -1.3485      2.00000
    166      -1.3482      2.00000
    167      -1.2510      2.00000
    168      -1.1032      2.00000
    169      -1.0927      2.00000
    170      -0.9893      2.00000
    171      -0.9892      2.00000
    172      -0.9500      2.00000
    173      -0.9495      2.00000
    174      -0.9000      2.00000
    175      -0.8721      2.00000
    176      -0.8081      2.00000
    177      -0.7819      2.00000
    178      -0.7810      2.00000
    179      -0.7764      2.00000
    180      -0.7743      2.00000
    181      -0.6764      2.00000
    182      -0.6743      2.00000
    183      -0.5814      2.00000
    184      -0.5432      2.00000
    185      -0.5431      2.00000
    186      -0.5245      2.00000
    187      -0.5223      2.00000
    188      -0.4408      2.00000
    189      -0.3042      2.00000
    190      -0.2557      2.00000
    191      -0.2543      2.00000
    192      -0.1556      2.00000
    193      -0.1544      2.00000
    194       0.0875      2.00000
    195       0.1565      2.00000
    196       0.2230      2.00000
    197       0.2231      2.00000
    198       0.2264      2.00000
    199       0.2265      2.00000
    200       0.2756      2.00000
    201       0.3106      2.00000
    202       0.3127      2.00000
    203       0.3464      2.00000
    204       0.3623      2.00000
    205       0.3624      2.00000
    206       0.3699      2.00000
    207       0.4190      2.00000
    208       0.4911      2.00000
    209       0.4915      2.00000
    210       0.6286      2.00000
    211       0.7197      2.00000
    212       0.7606      2.00000
    213       0.8209      2.00000
    214       0.8215      2.00000
    215       0.9130      2.00000
    216       0.9146      2.00000
    217       1.0017      2.00000
    218       1.0402      2.00000
    219       1.0403      2.00000
    220       1.1426      2.00000
    221       1.1436      2.00000
    222       1.2103      2.00000
    223       1.2572      2.00000
    224       1.3450      2.00000
    225       1.4045      2.00000
    226       1.4045      2.00000
    227       1.4810      2.00000
    228       1.5232      2.00000
    229       1.5943      2.00000
    230       1.6853      2.00000
    231       1.6853      2.00000
    232       1.8421      2.00000
    233       1.8421      2.00000
    234       1.8819      2.00000
    235       3.5372      0.00000
    236       3.5374      0.00000
    237       3.8448      0.00000
    238       3.8458      0.00000
    239       3.9205      0.00000
    240       3.9207      0.00000
    241       3.9216      0.00000
    242       3.9290      0.00000
    243       3.9293      0.00000
    244       4.0803      0.00000
    245       4.0804      0.00000
    246       4.1776      0.00000
    247       4.1793      0.00000
    248       4.2071      0.00000
    249       4.2087      0.00000
    250       4.2115      0.00000
    251       4.2177      0.00000
    252       4.2309      0.00000
    253       4.2791      0.00000
    254       4.2963      0.00000
    255       4.2978      0.00000
    256       4.3590      0.00000
    257       4.4311      0.00000
    258       4.4462      0.00000
    259       4.4464      0.00000
    260       4.4811      0.00000
    261       4.4821      0.00000
    262       4.4929      0.00000
    263       4.4938      0.00000
    264       4.5011      0.00000
    265       4.5296      0.00000
    266       4.5765      0.00000
    267       4.5766      0.00000
    268       4.6659      0.00000
    269       4.6661      0.00000
    270       4.6729      0.00000
    271       4.6828      0.00000
    272       4.7130      0.00000
    273       4.8168      0.00000
    274       4.8272      0.00000
    275       4.8413      0.00000
    276       4.8414      0.00000
    277       4.9230      0.00000
    278       4.9239      0.00000
    279       4.9490      0.00000
    280       4.9505      0.00000
    281       5.0084      0.00000
    282       5.0537      0.00000
    283       5.0550      0.00000
    284       5.2666      0.00000
    285       5.4244      0.00000
    286       5.4600      0.00000

 k-point     7 :       0.0000    0.4000    0.0000
  band No.  band energies     occupation 
      1     -72.4537      2.00000
      2     -72.4514      2.00000
      3     -72.4481      2.00000
      4     -72.4479      2.00000
      5     -72.4446      2.00000
      6     -72.4440      2.00000
      7     -72.4433      2.00000
      8     -72.4427      2.00000
      9     -72.4426      2.00000
     10     -58.6458      2.00000
     11     -58.6407      2.00000
     12     -58.6327      2.00000
     13     -58.6327      2.00000
     14     -58.6237      2.00000
     15     -58.6236      2.00000
     16     -58.6226      2.00000
     17     -58.6211      2.00000
     18     -58.6211      2.00000
     19     -36.8232      2.00000
     20     -36.7928      2.00000
     21     -36.7923      2.00000
     22     -36.7909      2.00000
     23     -36.7905      2.00000
     24     -36.7196      2.00000
     25     -36.7191      2.00000
     26     -36.6760      2.00000
     27     -36.6758      2.00000
     28     -36.6555      2.00000
     29     -36.6448      2.00000
     30     -36.6445      2.00000
     31     -36.6326      2.00000
     32     -36.6251      2.00000
     33     -36.6240      2.00000
     34     -36.6141      2.00000
     35     -36.6139      2.00000
     36     -36.6104      2.00000
     37     -36.6103      2.00000
     38     -36.6076      2.00000
     39     -36.5951      2.00000
     40     -36.5949      2.00000
     41     -36.5931      2.00000
     42     -36.5906      2.00000
     43     -36.5905      2.00000
     44     -36.5850      2.00000
     45     -36.5737      2.00000
     46     -32.8994      2.00000
     47     -32.8649      2.00000
     48     -32.8649      2.00000
     49     -32.8627      2.00000
     50     -32.8627      2.00000
     51     -32.8270      2.00000
     52     -32.8158      2.00000
     53     -32.7979      2.00000
     54     -32.7979      2.00000
     55     -32.7831      2.00000
     56     -32.7830      2.00000
     57     -32.7777      2.00000
     58     -32.7776      2.00000
     59     -32.7753      2.00000
     60     -32.7720      2.00000
     61     -32.7720      2.00000
     62     -32.7330      2.00000
     63     -32.7330      2.00000
     64     -32.7116      2.00000
     65     -32.6980      2.00000
     66     -32.6980      2.00000
     67     -32.6759      2.00000
     68     -32.6642      2.00000
     69     -32.6642      2.00000
     70     -32.6580      2.00000
     71     -32.6321      2.00000
     72     -32.6197      2.00000
     73     -12.6796      2.00000
     74     -12.3770      2.00000
     75     -11.9956      2.00000
     76     -11.8544      2.00000
     77     -11.8509      2.00000
     78     -11.7014      2.00000
     79     -11.2609      2.00000
     80     -11.1882      2.00000
     81     -11.1879      2.00000
     82     -11.1632      2.00000
     83     -11.1600      2.00000
     84     -11.1266      2.00000
     85     -11.0591      2.00000
     86     -11.0251      2.00000
     87     -10.9538      2.00000
     88     -10.9504      2.00000
     89     -10.9076      2.00000
     90     -10.9063      2.00000
     91     -10.8864      2.00000
     92     -10.6900      2.00000
     93     -10.6881      2.00000
     94     -10.6634      2.00000
     95     -10.6238      2.00000
     96     -10.6237      2.00000
     97     -10.6010      2.00000
     98     -10.5987      2.00000
     99     -10.4460      2.00000
    100     -10.4460      2.00000
    101     -10.3380      2.00000
    102     -10.2523      2.00000
    103     -10.2522      2.00000
    104     -10.2360      2.00000
    105     -10.2360      2.00000
    106     -10.2068      2.00000
    107     -10.1274      2.00000
    108     -10.1274      2.00000
    109      -4.6350      2.00000
    110      -4.2875      2.00000
    111      -4.2151      2.00000
    112      -4.2141      2.00000
    113      -4.0863      2.00000
    114      -4.0848      2.00000
    115      -3.9755      2.00000
    116      -3.6675      2.00000
    117      -3.6624      2.00000
    118      -3.6604      2.00000
    119      -3.5842      2.00000
    120      -3.5832      2.00000
    121      -3.2840      2.00000
    122      -3.2716      2.00000
    123      -3.2708      2.00000
    124      -3.1828      2.00000
    125      -3.1826      2.00000
    126      -3.1272      2.00000
    127      -3.1271      2.00000
    128      -3.0833      2.00000
    129      -3.0228      2.00000
    130      -3.0194      2.00000
    131      -2.9251      2.00000
    132      -2.8257      2.00000
    133      -2.8256      2.00000
    134      -2.8070      2.00000
    135      -2.7536      2.00000
    136      -2.7526      2.00000
    137      -2.5872      2.00000
    138      -2.5331      2.00000
    139      -2.5327      2.00000
    140      -2.5308      2.00000
    141      -2.5140      2.00000
    142      -2.5126      2.00000
    143      -2.4485      2.00000
    144      -2.4479      2.00000
    145      -2.2552      2.00000
    146      -2.2541      2.00000
    147      -1.9851      2.00000
    148      -1.8680      2.00000
    149      -1.8665      2.00000
    150      -1.8469      2.00000
    151      -1.8455      2.00000
    152      -1.7896      2.00000
    153      -1.7839      2.00000
    154      -1.7827      2.00000
    155      -1.7164      2.00000
    156      -1.7145      2.00000
    157      -1.5747      2.00000
    158      -1.5744      2.00000
    159      -1.5256      2.00000
    160      -1.5231      2.00000
    161      -1.5099      2.00000
    162      -1.5096      2.00000
    163      -1.4421      2.00000
    164      -1.4417      2.00000
    165      -1.3487      2.00000
    166      -1.3482      2.00000
    167      -1.2506      2.00000
    168      -1.1032      2.00000
    169      -1.0925      2.00000
    170      -0.9893      2.00000
    171      -0.9891      2.00000
    172      -0.9502      2.00000
    173      -0.9493      2.00000
    174      -0.9000      2.00000
    175      -0.8726      2.00000
    176      -0.8081      2.00000
    177      -0.7823      2.00000
    178      -0.7809      2.00000
    179      -0.7765      2.00000
    180      -0.7743      2.00000
    181      -0.6764      2.00000
    182      -0.6743      2.00000
    183      -0.5814      2.00000
    184      -0.5433      2.00000
    185      -0.5431      2.00000
    186      -0.5253      2.00000
    187      -0.5223      2.00000
    188      -0.4407      2.00000
    189      -0.3039      2.00000
    190      -0.2559      2.00000
    191      -0.2544      2.00000
    192      -0.1559      2.00000
    193      -0.1545      2.00000
    194       0.0876      2.00000
    195       0.1564      2.00000
    196       0.2230      2.00000
    197       0.2231      2.00000
    198       0.2264      2.00000
    199       0.2265      2.00000
    200       0.2755      2.00000
    201       0.3110      2.00000
    202       0.3127      2.00000
    203       0.3464      2.00000
    204       0.3623      2.00000
    205       0.3624      2.00000
    206       0.3699      2.00000
    207       0.4190      2.00000
    208       0.4911      2.00000
    209       0.4914      2.00000
    210       0.6286      2.00000
    211       0.7197      2.00000
    212       0.7610      2.00000
    213       0.8203      2.00000
    214       0.8212      2.00000
    215       0.9131      2.00000
    216       0.9145      2.00000
    217       1.0018      2.00000
    218       1.0402      2.00000
    219       1.0403      2.00000
    220       1.1427      2.00000
    221       1.1435      2.00000
    222       1.2103      2.00000
    223       1.2575      2.00000
    224       1.3450      2.00000
    225       1.4045      2.00000
    226       1.4045      2.00000
    227       1.4810      2.00000
    228       1.5233      2.00000
    229       1.5943      2.00000
    230       1.6853      2.00000
    231       1.6853      2.00000
    232       1.8421      2.00000
    233       1.8421      2.00000
    234       1.8820      2.00000
    235       3.5372      0.00000
    236       3.5377      0.00000
    237       3.8447      0.00000
    238       3.8459      0.00000
    239       3.9204      0.00000
    240       3.9208      0.00000
    241       3.9216      0.00000
    242       3.9292      0.00000
    243       3.9293      0.00000
    244       4.0803      0.00000
    245       4.0804      0.00000
    246       4.1774      0.00000
    247       4.1794      0.00000
    248       4.2070      0.00000
    249       4.2087      0.00000
    250       4.2115      0.00000
    251       4.2175      0.00000
    252       4.2306      0.00000
    253       4.2788      0.00000
    254       4.2962      0.00000
    255       4.2976      0.00000
    256       4.3586      0.00000
    257       4.4308      0.00000
    258       4.4461      0.00000
    259       4.4463      0.00000
    260       4.4813      0.00000
    261       4.4824      0.00000
    262       4.4930      0.00000
    263       4.4939      0.00000
    264       4.5011      0.00000
    265       4.5296      0.00000
    266       4.5765      0.00000
    267       4.5767      0.00000
    268       4.6659      0.00000
    269       4.6662      0.00000
    270       4.6729      0.00000
    271       4.6828      0.00000
    272       4.7130      0.00000
    273       4.8168      0.00000
    274       4.8281      0.00000
    275       4.8413      0.00000
    276       4.8414      0.00000
    277       4.9231      0.00000
    278       4.9233      0.00000
    279       4.9491      0.00000
    280       4.9508      0.00000
    281       5.0085      0.00000
    282       5.0539      0.00000
    283       5.0552      0.00000
    284       5.2654      0.00000
    285       5.4303      0.00000
    286       5.4619      0.00000

 k-point     8 :       0.4000    0.2000    0.0000
  band No.  band energies     occupation 
      1     -72.4542      2.00000
      2     -72.4503      2.00000
      3     -72.4496      2.00000
      4     -72.4463      2.00000
      5     -72.4454      2.00000
      6     -72.4443      2.00000
      7     -72.4434      2.00000
      8     -72.4426      2.00000
      9     -72.4423      2.00000
     10     -58.6469      2.00000
     11     -58.6372      2.00000
     12     -58.6372      2.00000
     13     -58.6276      2.00000
     14     -58.6276      2.00000
     15     -58.6232      2.00000
     16     -58.6231      2.00000
     17     -58.6210      2.00000
     18     -58.6201      2.00000
     19     -36.8120      2.00000
     20     -36.8118      2.00000
     21     -36.7959      2.00000
     22     -36.7794      2.00000
     23     -36.7609      2.00000
     24     -36.7604      2.00000
     25     -36.6889      2.00000
     26     -36.6859      2.00000
     27     -36.6856      2.00000
     28     -36.6819      2.00000
     29     -36.6345      2.00000
     30     -36.6314      2.00000
     31     -36.6311      2.00000
     32     -36.6301      2.00000
     33     -36.6298      2.00000
     34     -36.6183      2.00000
     35     -36.6177      2.00000
     36     -36.6020      2.00000
     37     -36.6014      2.00000
     38     -36.5967      2.00000
     39     -36.5957      2.00000
     40     -36.5954      2.00000
     41     -36.5945      2.00000
     42     -36.5939      2.00000
     43     -36.5904      2.00000
     44     -36.5889      2.00000
     45     -36.5716      2.00000
     46     -32.8867      2.00000
     47     -32.8866      2.00000
     48     -32.8686      2.00000
     49     -32.8500      2.00000
     50     -32.8295      2.00000
     51     -32.8293      2.00000
     52     -32.8292      2.00000
     53     -32.8080      2.00000
     54     -32.8079      2.00000
     55     -32.7866      2.00000
     56     -32.7865      2.00000
     57     -32.7766      2.00000
     58     -32.7766      2.00000
     59     -32.7717      2.00000
     60     -32.7698      2.00000
     61     -32.7476      2.00000
     62     -32.7455      2.00000
     63     -32.7455      2.00000
     64     -32.7397      2.00000
     65     -32.6831      2.00000
     66     -32.6831      2.00000
     67     -32.6815      2.00000
     68     -32.6815      2.00000
     69     -32.6458      2.00000
     70     -32.6437      2.00000
     71     -32.6437      2.00000
     72     -32.6174      2.00000
     73     -12.7435      2.00000
     74     -12.1563      2.00000
     75     -12.1529      2.00000
     76     -12.0573      2.00000
     77     -11.4836      2.00000
     78     -11.4836      2.00000
     79     -11.4827      2.00000
     80     -11.4794      2.00000
     81     -11.2902      2.00000
     82     -11.1159      2.00000
     83     -11.1127      2.00000
     84     -11.0532      2.00000
     85     -11.0328      2.00000
     86     -11.0321      2.00000
     87     -10.9457      2.00000
     88     -10.8645      2.00000
     89     -10.8532      2.00000
     90     -10.8521      2.00000
     91     -10.7783      2.00000
     92     -10.7783      2.00000
     93     -10.7267      2.00000
     94     -10.7262      2.00000
     95     -10.6801      2.00000
     96     -10.6782      2.00000
     97     -10.5928      2.00000
     98     -10.5669      2.00000
     99     -10.4263      2.00000
    100     -10.4263      2.00000
    101     -10.3958      2.00000
    102     -10.3957      2.00000
    103     -10.2333      2.00000
    104     -10.2333      2.00000
    105     -10.2308      2.00000
    106     -10.1459      2.00000
    107     -10.1200      2.00000
    108     -10.0761      2.00000
    109      -4.4886      2.00000
    110      -4.4866      2.00000
    111      -4.3593      2.00000
    112      -4.1245      2.00000
    113      -3.9185      2.00000
    114      -3.9178      2.00000
    115      -3.9165      2.00000
    116      -3.7911      2.00000
    117      -3.7886      2.00000
    118      -3.6973      2.00000
    119      -3.6261      2.00000
    120      -3.4963      2.00000
    121      -3.4963      2.00000
    122      -3.2536      2.00000
    123      -3.2519      2.00000
    124      -3.1922      2.00000
    125      -3.1516      2.00000
    126      -2.9771      2.00000
    127      -2.9758      2.00000
    128      -2.9668      2.00000
    129      -2.9494      2.00000
    130      -2.8627      2.00000
    131      -2.8620      2.00000
    132      -2.8541      2.00000
    133      -2.8537      2.00000
    134      -2.8196      2.00000
    135      -2.8187      2.00000
    136      -2.7732      2.00000
    137      -2.6661      2.00000
    138      -2.6654      2.00000
    139      -2.6172      2.00000
    140      -2.6166      2.00000
    141      -2.5615      2.00000
    142      -2.5373      2.00000
    143      -2.5361      2.00000
    144      -2.4306      2.00000
    145      -2.0507      2.00000
    146      -2.0506      2.00000
    147      -1.9498      2.00000
    148      -1.9486      2.00000
    149      -1.9327      2.00000
    150      -1.8507      2.00000
    151      -1.8499      2.00000
    152      -1.8424      2.00000
    153      -1.8181      2.00000
    154      -1.8167      2.00000
    155      -1.8149      2.00000
    156      -1.7677      2.00000
    157      -1.6272      2.00000
    158      -1.6267      2.00000
    159      -1.5721      2.00000
    160      -1.5031      2.00000
    161      -1.5024      2.00000
    162      -1.4645      2.00000
    163      -1.4202      2.00000
    164      -1.4201      2.00000
    165      -1.3586      2.00000
    166      -1.2935      2.00000
    167      -1.2922      2.00000
    168      -1.1577      2.00000
    169      -1.1183      2.00000
    170      -1.0808      2.00000
    171      -1.0799      2.00000
    172      -1.0493      2.00000
    173      -0.9594      2.00000
    174      -0.9443      2.00000
    175      -0.9086      2.00000
    176      -0.9080      2.00000
    177      -0.7506      2.00000
    178      -0.7482      2.00000
    179      -0.6783      2.00000
    180      -0.6776      2.00000
    181      -0.6768      2.00000
    182      -0.6766      2.00000
    183      -0.5663      2.00000
    184      -0.4952      2.00000
    185      -0.3798      2.00000
    186      -0.3485      2.00000
    187      -0.3123      2.00000
    188      -0.2569      2.00000
    189      -0.2551      2.00000
    190      -0.2529      2.00000
    191      -0.2087      2.00000
    192      -0.2069      2.00000
    193      -0.1402      2.00000
    194      -0.1401      2.00000
    195       0.0641      2.00000
    196       0.0664      2.00000
    197       0.0968      2.00000
    198       0.1803      2.00000
    199       0.1805      2.00000
    200       0.2546      2.00000
    201       0.2808      2.00000
    202       0.2985      2.00000
    203       0.2991      2.00000
    204       0.3125      2.00000
    205       0.3150      2.00000
    206       0.4683      2.00000
    207       0.6495      2.00000
    208       0.6498      2.00000
    209       0.7166      2.00000
    210       0.7166      2.00000
    211       0.7409      2.00000
    212       0.8074      2.00000
    213       0.8091      2.00000
    214       0.8189      2.00000
    215       0.8200      2.00000
    216       0.9283      2.00000
    217       0.9287      2.00000
    218       0.9802      2.00000
    219       0.9816      2.00000
    220       1.0600      2.00000
    221       1.0603      2.00000
    222       1.1665      2.00000
    223       1.2711      2.00000
    224       1.2788      2.00000
    225       1.3501      2.00000
    226       1.3501      2.00000
    227       1.5233      2.00000
    228       1.5233      2.00000
    229       1.5546      2.00000
    230       1.6837      2.00000
    231       1.6837      2.00000
    232       1.8364      2.00000
    233       1.9520      2.00000
    234       1.9913      2.00000
    235       3.6490      0.00000
    236       3.6495      0.00000
    237       3.7112      0.00000
    238       3.7389      0.00000
    239       3.7397      0.00000
    240       3.7629      0.00000
    241       4.0345      0.00000
    242       4.0432      0.00000
    243       4.0454      0.00000
    244       4.0477      0.00000
    245       4.0586      0.00000
    246       4.0597      0.00000
    247       4.1141      0.00000
    248       4.1147      0.00000
    249       4.1910      0.00000
    250       4.1915      0.00000
    251       4.2328      0.00000
    252       4.2508      0.00000
    253       4.2524      0.00000
    254       4.2961      0.00000
    255       4.3825      0.00000
    256       4.3835      0.00000
    257       4.4195      0.00000
    258       4.4446      0.00000
    259       4.4454      0.00000
    260       4.4704      0.00000
    261       4.4708      0.00000
    262       4.4980      0.00000
    263       4.4985      0.00000
    264       4.5043      0.00000
    265       4.5045      0.00000
    266       4.5570      0.00000
    267       4.6158      0.00000
    268       4.6173      0.00000
    269       4.6405      0.00000
    270       4.7474      0.00000
    271       4.7542      0.00000
    272       4.7545      0.00000
    273       4.7597      0.00000
    274       4.7769      0.00000
    275       4.8270      0.00000
    276       4.8804      0.00000
    277       4.8810      0.00000
    278       4.9577      0.00000
    279       4.9592      0.00000
    280       5.0575      0.00000
    281       5.1203      0.00000
    282       5.2074      0.00000
    283       5.2082      0.00000
    284       5.3394      0.00000
    285       5.4008      0.00000
    286       5.4054      0.00000

 k-point     9 :       0.2000    0.4000    0.0000
  band No.  band energies     occupation 
      1     -72.4542      2.00000
      2     -72.4502      2.00000
      3     -72.4497      2.00000
      4     -72.4463      2.00000
      5     -72.4455      2.00000
      6     -72.4442      2.00000
      7     -72.4435      2.00000
      8     -72.4426      2.00000
      9     -72.4423      2.00000
     10     -58.6469      2.00000
     11     -58.6372      2.00000
     12     -58.6372      2.00000
     13     -58.6276      2.00000
     14     -58.6276      2.00000
     15     -58.6232      2.00000
     16     -58.6232      2.00000
     17     -58.6210      2.00000
     18     -58.6201      2.00000
     19     -36.8120      2.00000
     20     -36.8118      2.00000
     21     -36.7959      2.00000
     22     -36.7794      2.00000
     23     -36.7608      2.00000
     24     -36.7605      2.00000
     25     -36.6888      2.00000
     26     -36.6859      2.00000
     27     -36.6857      2.00000
     28     -36.6819      2.00000
     29     -36.6345      2.00000
     30     -36.6314      2.00000
     31     -36.6311      2.00000
     32     -36.6300      2.00000
     33     -36.6299      2.00000
     34     -36.6183      2.00000
     35     -36.6177      2.00000
     36     -36.6020      2.00000
     37     -36.6014      2.00000
     38     -36.5967      2.00000
     39     -36.5956      2.00000
     40     -36.5954      2.00000
     41     -36.5945      2.00000
     42     -36.5939      2.00000
     43     -36.5904      2.00000
     44     -36.5889      2.00000
     45     -36.5716      2.00000
     46     -32.8867      2.00000
     47     -32.8867      2.00000
     48     -32.8686      2.00000
     49     -32.8500      2.00000
     50     -32.8295      2.00000
     51     -32.8293      2.00000
     52     -32.8292      2.00000
     53     -32.8079      2.00000
     54     -32.8079      2.00000
     55     -32.7865      2.00000
     56     -32.7865      2.00000
     57     -32.7766      2.00000
     58     -32.7766      2.00000
     59     -32.7717      2.00000
     60     -32.7698      2.00000
     61     -32.7476      2.00000
     62     -32.7455      2.00000
     63     -32.7455      2.00000
     64     -32.7397      2.00000
     65     -32.6831      2.00000
     66     -32.6831      2.00000
     67     -32.6815      2.00000
     68     -32.6815      2.00000
     69     -32.6458      2.00000
     70     -32.6437      2.00000
     71     -32.6437      2.00000
     72     -32.6174      2.00000
     73     -12.7435      2.00000
     74     -12.1564      2.00000
     75     -12.1528      2.00000
     76     -12.0573      2.00000
     77     -11.4837      2.00000
     78     -11.4836      2.00000
     79     -11.4827      2.00000
     80     -11.4795      2.00000
     81     -11.2902      2.00000
     82     -11.1159      2.00000
     83     -11.1124      2.00000
     84     -11.0532      2.00000
     85     -11.0330      2.00000
     86     -11.0320      2.00000
     87     -10.9456      2.00000
     88     -10.8646      2.00000
     89     -10.8533      2.00000
     90     -10.8519      2.00000
     91     -10.7784      2.00000
     92     -10.7783      2.00000
     93     -10.7267      2.00000
     94     -10.7260      2.00000
     95     -10.6801      2.00000
     96     -10.6785      2.00000
     97     -10.5929      2.00000
     98     -10.5668      2.00000
     99     -10.4263      2.00000
    100     -10.4262      2.00000
    101     -10.3958      2.00000
    102     -10.3957      2.00000
    103     -10.2333      2.00000
    104     -10.2333      2.00000
    105     -10.2308      2.00000
    106     -10.1459      2.00000
    107     -10.1200      2.00000
    108     -10.0761      2.00000
    109      -4.4889      2.00000
    110      -4.4865      2.00000
    111      -4.3592      2.00000
    112      -4.1243      2.00000
    113      -3.9186      2.00000
    114      -3.9179      2.00000
    115      -3.9162      2.00000
    116      -3.7911      2.00000
    117      -3.7885      2.00000
    118      -3.6975      2.00000
    119      -3.6259      2.00000
    120      -3.4963      2.00000
    121      -3.4963      2.00000
    122      -3.2536      2.00000
    123      -3.2516      2.00000
    124      -3.1922      2.00000
    125      -3.1516      2.00000
    126      -2.9771      2.00000
    127      -2.9757      2.00000
    128      -2.9668      2.00000
    129      -2.9494      2.00000
    130      -2.8629      2.00000
    131      -2.8617      2.00000
    132      -2.8540      2.00000
    133      -2.8538      2.00000
    134      -2.8201      2.00000
    135      -2.8185      2.00000
    136      -2.7732      2.00000
    137      -2.6662      2.00000
    138      -2.6654      2.00000
    139      -2.6170      2.00000
    140      -2.6168      2.00000
    141      -2.5616      2.00000
    142      -2.5374      2.00000
    143      -2.5359      2.00000
    144      -2.4307      2.00000
    145      -2.0508      2.00000
    146      -2.0506      2.00000
    147      -1.9496      2.00000
    148      -1.9490      2.00000
    149      -1.9325      2.00000
    150      -1.8507      2.00000
    151      -1.8500      2.00000
    152      -1.8423      2.00000
    153      -1.8181      2.00000
    154      -1.8166      2.00000
    155      -1.8150      2.00000
    156      -1.7677      2.00000
    157      -1.6272      2.00000
    158      -1.6267      2.00000
    159      -1.5723      2.00000
    160      -1.5031      2.00000
    161      -1.5024      2.00000
    162      -1.4644      2.00000
    163      -1.4202      2.00000
    164      -1.4201      2.00000
    165      -1.3586      2.00000
    166      -1.2935      2.00000
    167      -1.2921      2.00000
    168      -1.1578      2.00000
    169      -1.1188      2.00000
    170      -1.0808      2.00000
    171      -1.0794      2.00000
    172      -1.0493      2.00000
    173      -0.9594      2.00000
    174      -0.9443      2.00000
    175      -0.9086      2.00000
    176      -0.9079      2.00000
    177      -0.7506      2.00000
    178      -0.7480      2.00000
    179      -0.6783      2.00000
    180      -0.6776      2.00000
    181      -0.6768      2.00000
    182      -0.6766      2.00000
    183      -0.5663      2.00000
    184      -0.4944      2.00000
    185      -0.3798      2.00000
    186      -0.3483      2.00000
    187      -0.3125      2.00000
    188      -0.2570      2.00000
    189      -0.2551      2.00000
    190      -0.2528      2.00000
    191      -0.2085      2.00000
    192      -0.2068      2.00000
    193      -0.1402      2.00000
    194      -0.1401      2.00000
    195       0.0642      2.00000
    196       0.0663      2.00000
    197       0.0969      2.00000
    198       0.1803      2.00000
    199       0.1804      2.00000
    200       0.2546      2.00000
    201       0.2808      2.00000
    202       0.2986      2.00000
    203       0.2991      2.00000
    204       0.3123      2.00000
    205       0.3151      2.00000
    206       0.4682      2.00000
    207       0.6495      2.00000
    208       0.6499      2.00000
    209       0.7166      2.00000
    210       0.7166      2.00000
    211       0.7409      2.00000
    212       0.8073      2.00000
    213       0.8088      2.00000
    214       0.8190      2.00000
    215       0.8202      2.00000
    216       0.9283      2.00000
    217       0.9286      2.00000
    218       0.9801      2.00000
    219       0.9816      2.00000
    220       1.0599      2.00000
    221       1.0604      2.00000
    222       1.1664      2.00000
    223       1.2712      2.00000
    224       1.2788      2.00000
    225       1.3500      2.00000
    226       1.3501      2.00000
    227       1.5233      2.00000
    228       1.5233      2.00000
    229       1.5546      2.00000
    230       1.6837      2.00000
    231       1.6837      2.00000
    232       1.8364      2.00000
    233       1.9520      2.00000
    234       1.9912      2.00000
    235       3.6491      0.00000
    236       3.6494      0.00000
    237       3.7114      0.00000
    238       3.7387      0.00000
    239       3.7396      0.00000
    240       3.7628      0.00000
    241       4.0345      0.00000
    242       4.0431      0.00000
    243       4.0456      0.00000
    244       4.0477      0.00000
    245       4.0586      0.00000
    246       4.0597      0.00000
    247       4.1142      0.00000
    248       4.1146      0.00000
    249       4.1911      0.00000
    250       4.1914      0.00000
    251       4.2337      0.00000
    252       4.2508      0.00000
    253       4.2525      0.00000
    254       4.2962      0.00000
    255       4.3823      0.00000
    256       4.3837      0.00000
    257       4.4194      0.00000
    258       4.4450      0.00000
    259       4.4452      0.00000
    260       4.4704      0.00000
    261       4.4707      0.00000
    262       4.4979      0.00000
    263       4.4986      0.00000
    264       4.5042      0.00000
    265       4.5045      0.00000
    266       4.5570      0.00000
    267       4.6159      0.00000
    268       4.6171      0.00000
    269       4.6405      0.00000
    270       4.7474      0.00000
    271       4.7538      0.00000
    272       4.7546      0.00000
    273       4.7589      0.00000
    274       4.7769      0.00000
    275       4.8270      0.00000
    276       4.8806      0.00000
    277       4.8810      0.00000
    278       4.9577      0.00000
    279       4.9588      0.00000
    280       5.0575      0.00000
    281       5.1205      0.00000
    282       5.2076      0.00000
    283       5.2080      0.00000
    284       5.3245      0.00000
    285       5.4009      0.00000
    286       5.4051      0.00000

 k-point    10 :      -0.2000    0.2000    0.0000
  band No.  band energies     occupation 
      1     -72.4541      2.00000
      2     -72.4504      2.00000
      3     -72.4494      2.00000
      4     -72.4463      2.00000
      5     -72.4454      2.00000
      6     -72.4444      2.00000
      7     -72.4434      2.00000
      8     -72.4426      2.00000
      9     -72.4423      2.00000
     10     -58.6469      2.00000
     11     -58.6372      2.00000
     12     -58.6372      2.00000
     13     -58.6276      2.00000
     14     -58.6276      2.00000
     15     -58.6232      2.00000
     16     -58.6232      2.00000
     17     -58.6210      2.00000
     18     -58.6201      2.00000
     19     -36.8119      2.00000
     20     -36.8118      2.00000
     21     -36.7960      2.00000
     22     -36.7794      2.00000
     23     -36.7609      2.00000
     24     -36.7604      2.00000
     25     -36.6889      2.00000
     26     -36.6859      2.00000
     27     -36.6856      2.00000
     28     -36.6819      2.00000
     29     -36.6345      2.00000
     30     -36.6313      2.00000
     31     -36.6311      2.00000
     32     -36.6302      2.00000
     33     -36.6298      2.00000
     34     -36.6183      2.00000
     35     -36.6177      2.00000
     36     -36.6020      2.00000
     37     -36.6014      2.00000
     38     -36.5967      2.00000
     39     -36.5957      2.00000
     40     -36.5954      2.00000
     41     -36.5945      2.00000
     42     -36.5939      2.00000
     43     -36.5904      2.00000
     44     -36.5889      2.00000
     45     -36.5716      2.00000
     46     -32.8867      2.00000
     47     -32.8867      2.00000
     48     -32.8686      2.00000
     49     -32.8500      2.00000
     50     -32.8295      2.00000
     51     -32.8293      2.00000
     52     -32.8292      2.00000
     53     -32.8079      2.00000
     54     -32.8079      2.00000
     55     -32.7866      2.00000
     56     -32.7865      2.00000
     57     -32.7766      2.00000
     58     -32.7766      2.00000
     59     -32.7717      2.00000
     60     -32.7698      2.00000
     61     -32.7476      2.00000
     62     -32.7455      2.00000
     63     -32.7455      2.00000
     64     -32.7397      2.00000
     65     -32.6831      2.00000
     66     -32.6831      2.00000
     67     -32.6815      2.00000
     68     -32.6815      2.00000
     69     -32.6458      2.00000
     70     -32.6437      2.00000
     71     -32.6437      2.00000
     72     -32.6174      2.00000
     73     -12.7435      2.00000
     74     -12.1563      2.00000
     75     -12.1529      2.00000
     76     -12.0573      2.00000
     77     -11.4837      2.00000
     78     -11.4836      2.00000
     79     -11.4827      2.00000
     80     -11.4791      2.00000
     81     -11.2902      2.00000
     82     -11.1158      2.00000
     83     -11.1129      2.00000
     84     -11.0532      2.00000
     85     -11.0329      2.00000
     86     -11.0321      2.00000
     87     -10.9458      2.00000
     88     -10.8644      2.00000
     89     -10.8532      2.00000
     90     -10.8522      2.00000
     91     -10.7783      2.00000
     92     -10.7783      2.00000
     93     -10.7267      2.00000
     94     -10.7263      2.00000
     95     -10.6802      2.00000
     96     -10.6780      2.00000
     97     -10.5927      2.00000
     98     -10.5670      2.00000
     99     -10.4263      2.00000
    100     -10.4263      2.00000
    101     -10.3958      2.00000
    102     -10.3957      2.00000
    103     -10.2333      2.00000
    104     -10.2333      2.00000
    105     -10.2308      2.00000
    106     -10.1459      2.00000
    107     -10.1200      2.00000
    108     -10.0761      2.00000
    109      -4.4883      2.00000
    110      -4.4868      2.00000
    111      -4.3593      2.00000
    112      -4.1246      2.00000
    113      -3.9183      2.00000
    114      -3.9176      2.00000
    115      -3.9169      2.00000
    116      -3.7911      2.00000
    117      -3.7887      2.00000
    118      -3.6971      2.00000
    119      -3.6263      2.00000
    120      -3.4963      2.00000
    121      -3.4962      2.00000
    122      -3.2535      2.00000
    123      -3.2523      2.00000
    124      -3.1922      2.00000
    125      -3.1516      2.00000
    126      -2.9771      2.00000
    127      -2.9758      2.00000
    128      -2.9668      2.00000
    129      -2.9494      2.00000
    130      -2.8626      2.00000
    131      -2.8622      2.00000
    132      -2.8541      2.00000
    133      -2.8537      2.00000
    134      -2.8195      2.00000
    135      -2.8185      2.00000
    136      -2.7732      2.00000
    137      -2.6660      2.00000
    138      -2.6653      2.00000
    139      -2.6173      2.00000
    140      -2.6164      2.00000
    141      -2.5613      2.00000
    142      -2.5371      2.00000
    143      -2.5364      2.00000
    144      -2.4304      2.00000
    145      -2.0508      2.00000
    146      -2.0505      2.00000
    147      -1.9500      2.00000
    148      -1.9480      2.00000
    149      -1.9329      2.00000
    150      -1.8508      2.00000
    151      -1.8496      2.00000
    152      -1.8425      2.00000
    153      -1.8181      2.00000
    154      -1.8168      2.00000
    155      -1.8147      2.00000
    156      -1.7677      2.00000
    157      -1.6271      2.00000
    158      -1.6267      2.00000
    159      -1.5720      2.00000
    160      -1.5031      2.00000
    161      -1.5023      2.00000
    162      -1.4645      2.00000
    163      -1.4202      2.00000
    164      -1.4201      2.00000
    165      -1.3586      2.00000
    166      -1.2938      2.00000
    167      -1.2921      2.00000
    168      -1.1576      2.00000
    169      -1.1178      2.00000
    170      -1.0807      2.00000
    171      -1.0803      2.00000
    172      -1.0493      2.00000
    173      -0.9595      2.00000
    174      -0.9443      2.00000
    175      -0.9085      2.00000
    176      -0.9080      2.00000
    177      -0.7505      2.00000
    178      -0.7484      2.00000
    179      -0.6784      2.00000
    180      -0.6775      2.00000
    181      -0.6768      2.00000
    182      -0.6766      2.00000
    183      -0.5663      2.00000
    184      -0.4960      2.00000
    185      -0.3798      2.00000
    186      -0.3487      2.00000
    187      -0.3121      2.00000
    188      -0.2567      2.00000
    189      -0.2551      2.00000
    190      -0.2529      2.00000
    191      -0.2089      2.00000
    192      -0.2070      2.00000
    193      -0.1402      2.00000
    194      -0.1401      2.00000
    195       0.0640      2.00000
    196       0.0665      2.00000
    197       0.0968      2.00000
    198       0.1803      2.00000
    199       0.1805      2.00000
    200       0.2546      2.00000
    201       0.2808      2.00000
    202       0.2985      2.00000
    203       0.2990      2.00000
    204       0.3126      2.00000
    205       0.3149      2.00000
    206       0.4684      2.00000
    207       0.6494      2.00000
    208       0.6497      2.00000
    209       0.7166      2.00000
    210       0.7166      2.00000
    211       0.7409      2.00000
    212       0.8076      2.00000
    213       0.8093      2.00000
    214       0.8189      2.00000
    215       0.8197      2.00000
    216       0.9284      2.00000
    217       0.9288      2.00000
    218       0.9803      2.00000
    219       0.9815      2.00000
    220       1.0600      2.00000
    221       1.0601      2.00000
    222       1.1666      2.00000
    223       1.2710      2.00000
    224       1.2788      2.00000
    225       1.3501      2.00000
    226       1.3501      2.00000
    227       1.5233      2.00000
    228       1.5233      2.00000
    229       1.5547      2.00000
    230       1.6837      2.00000
    231       1.6837      2.00000
    232       1.8364      2.00000
    233       1.9520      2.00000
    234       1.9914      2.00000
    235       3.6490      0.00000
    236       3.6496      0.00000
    237       3.7110      0.00000
    238       3.7390      0.00000
    239       3.7397      0.00000
    240       3.7630      0.00000
    241       4.0345      0.00000
    242       4.0433      0.00000
    243       4.0453      0.00000
    244       4.0477      0.00000
    245       4.0584      0.00000
    246       4.0599      0.00000
    247       4.1141      0.00000
    248       4.1146      0.00000
    249       4.1910      0.00000
    250       4.1916      0.00000
    251       4.2319      0.00000
    252       4.2508      0.00000
    253       4.2523      0.00000
    254       4.2960      0.00000
    255       4.3826      0.00000
    256       4.3834      0.00000
    257       4.4195      0.00000
    258       4.4442      0.00000
    259       4.4456      0.00000
    260       4.4704      0.00000
    261       4.4709      0.00000
    262       4.4981      0.00000
    263       4.4984      0.00000
    264       4.5043      0.00000
    265       4.5045      0.00000
    266       4.5571      0.00000
    267       4.6158      0.00000
    268       4.6174      0.00000
    269       4.6405      0.00000
    270       4.7474      0.00000
    271       4.7542      0.00000
    272       4.7548      0.00000
    273       4.7604      0.00000
    274       4.7769      0.00000
    275       4.8270      0.00000
    276       4.8802      0.00000
    277       4.8810      0.00000
    278       4.9577      0.00000
    279       4.9595      0.00000
    280       5.0575      0.00000
    281       5.1201      0.00000
    282       5.2075      0.00000
    283       5.2081      0.00000
    284       5.3309      0.00000
    285       5.4012      0.00000
    286       5.4051      0.00000

 k-point    11 :      -0.4000    0.2000    0.0000
  band No.  band energies     occupation 
      1     -72.4527      2.00000
      2     -72.4520      2.00000
      3     -72.4501      2.00000
      4     -72.4462      2.00000
      5     -72.4446      2.00000
      6     -72.4441      2.00000
      7     -72.4433      2.00000
      8     -72.4428      2.00000
      9     -72.4426      2.00000
     10     -58.6426      2.00000
     11     -58.6426      2.00000
     12     -58.6380      2.00000
     13     -58.6280      2.00000
     14     -58.6239      2.00000
     15     -58.6239      2.00000
     16     -58.6220      2.00000
     17     -58.6215      2.00000
     18     -58.6214      2.00000
     19     -36.8224      2.00000
     20     -36.8100      2.00000
     21     -36.8098      2.00000
     22     -36.7753      2.00000
     23     -36.7751      2.00000
     24     -36.7506      2.00000
     25     -36.6754      2.00000
     26     -36.6596      2.00000
     27     -36.6595      2.00000
     28     -36.6521      2.00000
     29     -36.6519      2.00000
     30     -36.6371      2.00000
     31     -36.6361      2.00000
     32     -36.6358      2.00000
     33     -36.6329      2.00000
     34     -36.6275      2.00000
     35     -36.6270      2.00000
     36     -36.6194      2.00000
     37     -36.6024      2.00000
     38     -36.5965      2.00000
     39     -36.5957      2.00000
     40     -36.5951      2.00000
     41     -36.5923      2.00000
     42     -36.5913      2.00000
     43     -36.5909      2.00000
     44     -36.5822      2.00000
     45     -36.5820      2.00000
     46     -32.8985      2.00000
     47     -32.8844      2.00000
     48     -32.8843      2.00000
     49     -32.8454      2.00000
     50     -32.8454      2.00000
     51     -32.8201      2.00000
     52     -32.8200      2.00000
     53     -32.8179      2.00000
     54     -32.8097      2.00000
     55     -32.7874      2.00000
     56     -32.7782      2.00000
     57     -32.7782      2.00000
     58     -32.7740      2.00000
     59     -32.7728      2.00000
     60     -32.7728      2.00000
     61     -32.7339      2.00000
     62     -32.7148      2.00000
     63     -32.7148      2.00000
     64     -32.7062      2.00000
     65     -32.7062      2.00000
     66     -32.6898      2.00000
     67     -32.6898      2.00000
     68     -32.6897      2.00000
     69     -32.6847      2.00000
     70     -32.6449      2.00000
     71     -32.6289      2.00000
     72     -32.6289      2.00000
     73     -12.4962      2.00000
     74     -12.4926      2.00000
     75     -12.2073      2.00000
     76     -11.8160      2.00000
     77     -11.8159      2.00000
     78     -11.5357      2.00000
     79     -11.5118      2.00000
     80     -11.1904      2.00000
     81     -11.1875      2.00000
     82     -11.1780      2.00000
     83     -11.1770      2.00000
     84     -11.0541      2.00000
     85     -11.0094      2.00000
     86     -10.9743      2.00000
     87     -10.9707      2.00000
     88     -10.9413      2.00000
     89     -10.9411      2.00000
     90     -10.8757      2.00000
     91     -10.8040      2.00000
     92     -10.7448      2.00000
     93     -10.6948      2.00000
     94     -10.6930      2.00000
     95     -10.6419      2.00000
     96     -10.6196      2.00000
     97     -10.6175      2.00000
     98     -10.4748      2.00000
     99     -10.4748      2.00000
    100     -10.4410      2.00000
    101     -10.2878      2.00000
    102     -10.2619      2.00000
    103     -10.2619      2.00000
    104     -10.2537      2.00000
    105     -10.2537      2.00000
    106     -10.1764      2.00000
    107     -10.1479      2.00000
    108     -10.1479      2.00000
    109      -4.6005      2.00000
    110      -4.3905      2.00000
    111      -4.3889      2.00000
    112      -4.0850      2.00000
    113      -4.0832      2.00000
    114      -3.9658      2.00000
    115      -3.9652      2.00000
    116      -3.8013      2.00000
    117      -3.7812      2.00000
    118      -3.6480      2.00000
    119      -3.4898      2.00000
    120      -3.4875      2.00000
    121      -3.4201      2.00000
    122      -3.4196      2.00000
    123      -3.3559      2.00000
    124      -3.2641      2.00000
    125      -3.2611      2.00000
    126      -2.9704      2.00000
    127      -2.9701      2.00000
    128      -2.9483      2.00000
    129      -2.9415      2.00000
    130      -2.9127      2.00000
    131      -2.9121      2.00000
    132      -2.8946      2.00000
    133      -2.8943      2.00000
    134      -2.7783      2.00000
    135      -2.7742      2.00000
    136      -2.6387      2.00000
    137      -2.6023      2.00000
    138      -2.6013      2.00000
    139      -2.5959      2.00000
    140      -2.5727      2.00000
    141      -2.5704      2.00000
    142      -2.5604      2.00000
    143      -2.3638      2.00000
    144      -2.3635      2.00000
    145      -2.3405      2.00000
    146      -2.3373      2.00000
    147      -1.9723      2.00000
    148      -1.9253      2.00000
    149      -1.9244      2.00000
    150      -1.8588      2.00000
    151      -1.8563      2.00000
    152      -1.8553      2.00000
    153      -1.8419      2.00000
    154      -1.7840      2.00000
    155      -1.6533      2.00000
    156      -1.5474      2.00000
    157      -1.5470      2.00000
    158      -1.4988      2.00000
    159      -1.4969      2.00000
    160      -1.4819      2.00000
    161      -1.4291      2.00000
    162      -1.4284      2.00000
    163      -1.4169      2.00000
    164      -1.3120      2.00000
    165      -1.3109      2.00000
    166      -1.3099      2.00000
    167      -1.0631      2.00000
    168      -1.0321      2.00000
    169      -1.0320      2.00000
    170      -0.9462      2.00000
    171      -0.9437      2.00000
    172      -0.9353      2.00000
    173      -0.9288      2.00000
    174      -0.9283      2.00000
    175      -0.9140      2.00000
    176      -0.8945      2.00000
    177      -0.8907      2.00000
    178      -0.8747      2.00000
    179      -0.8743      2.00000
    180      -0.7729      2.00000
    181      -0.7628      2.00000
    182      -0.7611      2.00000
    183      -0.6925      2.00000
    184      -0.6415      2.00000
    185      -0.6406      2.00000
    186      -0.3896      2.00000
    187      -0.3895      2.00000
    188      -0.3239      2.00000
    189      -0.3029      2.00000
    190      -0.2983      2.00000
    191      -0.2966      2.00000
    192      -0.1624      2.00000
    193      -0.0213      2.00000
    194      -0.0192      2.00000
    195      -0.0092      2.00000
    196       0.1134      2.00000
    197       0.1665      2.00000
    198       0.1667      2.00000
    199       0.2329      2.00000
    200       0.2369      2.00000
    201       0.2369      2.00000
    202       0.2866      2.00000
    203       0.2869      2.00000
    204       0.4527      2.00000
    205       0.4559      2.00000
    206       0.4573      2.00000
    207       0.4977      2.00000
    208       0.4980      2.00000
    209       0.5128      2.00000
    210       0.5129      2.00000
    211       0.6045      2.00000
    212       0.7477      2.00000
    213       0.8914      2.00000
    214       0.9197      2.00000
    215       0.9347      2.00000
    216       0.9357      2.00000
    217       0.9669      2.00000
    218       1.0693      2.00000
    219       1.0708      2.00000
    220       1.0880      2.00000
    221       1.2444      2.00000
    222       1.2459      2.00000
    223       1.2596      2.00000
    224       1.4053      2.00000
    225       1.4069      2.00000
    226       1.4155      2.00000
    227       1.5169      2.00000
    228       1.6265      2.00000
    229       1.6267      2.00000
    230       1.6500      2.00000
    231       1.6500      2.00000
    232       1.7602      2.00000
    233       1.8368      2.00000
    234       1.8368      2.00000
    235       3.5513      0.00000
    236       3.6764      0.00000
    237       3.7825      0.00000
    238       3.7831      0.00000
    239       3.9728      0.00000
    240       3.9736      0.00000
    241       4.0096      0.00000
    242       4.0156      0.00000
    243       4.0321      0.00000
    244       4.0326      0.00000
    245       4.1741      0.00000
    246       4.1742      0.00000
    247       4.1787      0.00000
    248       4.1903      0.00000
    249       4.1931      0.00000
    250       4.2048      0.00000
    251       4.2055      0.00000
    252       4.2113      0.00000
    253       4.2503      0.00000
    254       4.2534      0.00000
    255       4.2584      0.00000
    256       4.2937      0.00000
    257       4.3543      0.00000
    258       4.3547      0.00000
    259       4.3920      0.00000
    260       4.4551      0.00000
    261       4.4555      0.00000
    262       4.4963      0.00000
    263       4.5137      0.00000
    264       4.5669      0.00000
    265       4.5820      0.00000
    266       4.5999      0.00000
    267       4.6000      0.00000
    268       4.6558      0.00000
    269       4.6561      0.00000
    270       4.6653      0.00000
    271       4.6656      0.00000
    272       4.7289      0.00000
    273       4.7410      0.00000
    274       4.7420      0.00000
    275       4.7447      0.00000
    276       4.7603      0.00000
    277       4.7604      0.00000
    278       4.8142      0.00000
    279       4.8147      0.00000
    280       5.0421      0.00000
    281       5.1874      0.00000
    282       5.1889      0.00000
    283       5.2461      0.00000
    284       5.2473      0.00000
    285       5.2601      0.00000
    286       5.2610      0.00000

 k-point    12 :       0.4000   -0.4000    0.0000
  band No.  band energies     occupation 
      1     -72.4528      2.00000
      2     -72.4518      2.00000
      3     -72.4502      2.00000
      4     -72.4462      2.00000
      5     -72.4446      2.00000
      6     -72.4440      2.00000
      7     -72.4434      2.00000
      8     -72.4428      2.00000
      9     -72.4426      2.00000
     10     -58.6426      2.00000
     11     -58.6426      2.00000
     12     -58.6380      2.00000
     13     -58.6280      2.00000
     14     -58.6239      2.00000
     15     -58.6239      2.00000
     16     -58.6220      2.00000
     17     -58.6215      2.00000
     18     -58.6214      2.00000
     19     -36.8225      2.00000
     20     -36.8100      2.00000
     21     -36.8098      2.00000
     22     -36.7754      2.00000
     23     -36.7750      2.00000
     24     -36.7505      2.00000
     25     -36.6754      2.00000
     26     -36.6596      2.00000
     27     -36.6594      2.00000
     28     -36.6522      2.00000
     29     -36.6518      2.00000
     30     -36.6371      2.00000
     31     -36.6362      2.00000
     32     -36.6357      2.00000
     33     -36.6329      2.00000
     34     -36.6275      2.00000
     35     -36.6270      2.00000
     36     -36.6194      2.00000
     37     -36.6024      2.00000
     38     -36.5965      2.00000
     39     -36.5957      2.00000
     40     -36.5951      2.00000
     41     -36.5922      2.00000
     42     -36.5913      2.00000
     43     -36.5909      2.00000
     44     -36.5822      2.00000
     45     -36.5820      2.00000
     46     -32.8985      2.00000
     47     -32.8844      2.00000
     48     -32.8843      2.00000
     49     -32.8454      2.00000
     50     -32.8454      2.00000
     51     -32.8201      2.00000
     52     -32.8200      2.00000
     53     -32.8179      2.00000
     54     -32.8097      2.00000
     55     -32.7874      2.00000
     56     -32.7782      2.00000
     57     -32.7782      2.00000
     58     -32.7740      2.00000
     59     -32.7728      2.00000
     60     -32.7728      2.00000
     61     -32.7339      2.00000
     62     -32.7148      2.00000
     63     -32.7148      2.00000
     64     -32.7062      2.00000
     65     -32.7062      2.00000
     66     -32.6898      2.00000
     67     -32.6898      2.00000
     68     -32.6897      2.00000
     69     -32.6847      2.00000
     70     -32.6449      2.00000
     71     -32.6289      2.00000
     72     -32.6289      2.00000
     73     -12.4962      2.00000
     74     -12.4926      2.00000
     75     -12.2074      2.00000
     76     -11.8160      2.00000
     77     -11.8159      2.00000
     78     -11.5357      2.00000
     79     -11.5119      2.00000
     80     -11.1904      2.00000
     81     -11.1874      2.00000
     82     -11.1779      2.00000
     83     -11.1771      2.00000
     84     -11.0540      2.00000
     85     -11.0090      2.00000
     86     -10.9743      2.00000
     87     -10.9710      2.00000
     88     -10.9413      2.00000
     89     -10.9411      2.00000
     90     -10.8756      2.00000
     91     -10.8040      2.00000
     92     -10.7447      2.00000
     93     -10.6948      2.00000
     94     -10.6931      2.00000
     95     -10.6423      2.00000
     96     -10.6196      2.00000
     97     -10.6172      2.00000
     98     -10.4748      2.00000
     99     -10.4748      2.00000
    100     -10.4410      2.00000
    101     -10.2878      2.00000
    102     -10.2619      2.00000
    103     -10.2619      2.00000
    104     -10.2537      2.00000
    105     -10.2537      2.00000
    106     -10.1764      2.00000
    107     -10.1479      2.00000
    108     -10.1479      2.00000
    109      -4.6009      2.00000
    110      -4.3901      2.00000
    111      -4.3890      2.00000
    112      -4.0851      2.00000
    113      -4.0830      2.00000
    114      -3.9659      2.00000
    115      -3.9649      2.00000
    116      -3.8014      2.00000
    117      -3.7813      2.00000
    118      -3.6480      2.00000
    119      -3.4899      2.00000
    120      -3.4876      2.00000
    121      -3.4201      2.00000
    122      -3.4197      2.00000
    123      -3.3555      2.00000
    124      -3.2641      2.00000
    125      -3.2604      2.00000
    126      -2.9704      2.00000
    127      -2.9701      2.00000
    128      -2.9481      2.00000
    129      -2.9416      2.00000
    130      -2.9126      2.00000
    131      -2.9123      2.00000
    132      -2.8946      2.00000
    133      -2.8942      2.00000
    134      -2.7788      2.00000
    135      -2.7746      2.00000
    136      -2.6388      2.00000
    137      -2.6023      2.00000
    138      -2.6015      2.00000
    139      -2.5955      2.00000
    140      -2.5724      2.00000
    141      -2.5711      2.00000
    142      -2.5606      2.00000
    143      -2.3638      2.00000
    144      -2.3635      2.00000
    145      -2.3407      2.00000
    146      -2.3366      2.00000
    147      -1.9721      2.00000
    148      -1.9254      2.00000
    149      -1.9248      2.00000
    150      -1.8588      2.00000
    151      -1.8566      2.00000
    152      -1.8557      2.00000
    153      -1.8412      2.00000
    154      -1.7835      2.00000
    155      -1.6532      2.00000
    156      -1.5474      2.00000
    157      -1.5472      2.00000
    158      -1.4988      2.00000
    159      -1.4983      2.00000
    160      -1.4817      2.00000
    161      -1.4289      2.00000
    162      -1.4286      2.00000
    163      -1.4179      2.00000
    164      -1.3118      2.00000
    165      -1.3110      2.00000
    166      -1.3098      2.00000
    167      -1.0629      2.00000
    168      -1.0321      2.00000
    169      -1.0319      2.00000
    170      -0.9461      2.00000
    171      -0.9443      2.00000
    172      -0.9356      2.00000
    173      -0.9289      2.00000
    174      -0.9284      2.00000
    175      -0.9138      2.00000
    176      -0.8949      2.00000
    177      -0.8883      2.00000
    178      -0.8746      2.00000
    179      -0.8742      2.00000
    180      -0.7728      2.00000
    181      -0.7626      2.00000
    182      -0.7608      2.00000
    183      -0.6925      2.00000
    184      -0.6415      2.00000
    185      -0.6406      2.00000
    186      -0.3896      2.00000
    187      -0.3894      2.00000
    188      -0.3239      2.00000
    189      -0.3034      2.00000
    190      -0.2977      2.00000
    191      -0.2965      2.00000
    192      -0.1624      2.00000
    193      -0.0209      2.00000
    194      -0.0191      2.00000
    195      -0.0093      2.00000
    196       0.1134      2.00000
    197       0.1666      2.00000
    198       0.1667      2.00000
    199       0.2327      2.00000
    200       0.2369      2.00000
    201       0.2369      2.00000
    202       0.2866      2.00000
    203       0.2868      2.00000
    204       0.4526      2.00000
    205       0.4559      2.00000
    206       0.4572      2.00000
    207       0.4977      2.00000
    208       0.4979      2.00000
    209       0.5128      2.00000
    210       0.5128      2.00000
    211       0.6045      2.00000
    212       0.7481      2.00000
    213       0.8916      2.00000
    214       0.9192      2.00000
    215       0.9344      2.00000
    216       0.9357      2.00000
    217       0.9668      2.00000
    218       1.0693      2.00000
    219       1.0709      2.00000
    220       1.0889      2.00000
    221       1.2445      2.00000
    222       1.2456      2.00000
    223       1.2596      2.00000
    224       1.4054      2.00000
    225       1.4062      2.00000
    226       1.4155      2.00000
    227       1.5169      2.00000
    228       1.6265      2.00000
    229       1.6266      2.00000
    230       1.6500      2.00000
    231       1.6500      2.00000
    232       1.7602      2.00000
    233       1.8368      2.00000
    234       1.8368      2.00000
    235       3.5512      0.00000
    236       3.6760      0.00000
    237       3.7825      0.00000
    238       3.7831      0.00000
    239       3.9728      0.00000
    240       3.9737      0.00000
    241       4.0094      0.00000
    242       4.0156      0.00000
    243       4.0320      0.00000
    244       4.0329      0.00000
    245       4.1741      0.00000
    246       4.1742      0.00000
    247       4.1783      0.00000
    248       4.1915      0.00000
    249       4.1932      0.00000
    250       4.2045      0.00000
    251       4.2057      0.00000
    252       4.2112      0.00000
    253       4.2517      0.00000
    254       4.2533      0.00000
    255       4.2581      0.00000
    256       4.2936      0.00000
    257       4.3541      0.00000
    258       4.3546      0.00000
    259       4.3923      0.00000
    260       4.4550      0.00000
    261       4.4552      0.00000
    262       4.4961      0.00000
    263       4.5139      0.00000
    264       4.5669      0.00000
    265       4.5821      0.00000
    266       4.5998      0.00000
    267       4.6000      0.00000
    268       4.6558      0.00000
    269       4.6560      0.00000
    270       4.6651      0.00000
    271       4.6656      0.00000
    272       4.7288      0.00000
    273       4.7405      0.00000
    274       4.7422      0.00000
    275       4.7450      0.00000
    276       4.7602      0.00000
    277       4.7603      0.00000
    278       4.8143      0.00000
    279       4.8145      0.00000
    280       5.0426      0.00000
    281       5.1857      0.00000
    282       5.1887      0.00000
    283       5.2456      0.00000
    284       5.2471      0.00000
    285       5.2598      0.00000
    286       5.2609      0.00000

 k-point    13 :      -0.2000    0.4000    0.0000
  band No.  band energies     occupation 
      1     -72.4528      2.00000
      2     -72.4519      2.00000
      3     -72.4501      2.00000
      4     -72.4462      2.00000
      5     -72.4446      2.00000
      6     -72.4440      2.00000
      7     -72.4433      2.00000
      8     -72.4428      2.00000
      9     -72.4426      2.00000
     10     -58.6427      2.00000
     11     -58.6426      2.00000
     12     -58.6380      2.00000
     13     -58.6280      2.00000
     14     -58.6239      2.00000
     15     -58.6239      2.00000
     16     -58.6220      2.00000
     17     -58.6215      2.00000
     18     -58.6214      2.00000
     19     -36.8224      2.00000
     20     -36.8100      2.00000
     21     -36.8098      2.00000
     22     -36.7753      2.00000
     23     -36.7750      2.00000
     24     -36.7505      2.00000
     25     -36.6754      2.00000
     26     -36.6596      2.00000
     27     -36.6595      2.00000
     28     -36.6522      2.00000
     29     -36.6519      2.00000
     30     -36.6371      2.00000
     31     -36.6362      2.00000
     32     -36.6357      2.00000
     33     -36.6329      2.00000
     34     -36.6275      2.00000
     35     -36.6270      2.00000
     36     -36.6194      2.00000
     37     -36.6024      2.00000
     38     -36.5965      2.00000
     39     -36.5957      2.00000
     40     -36.5951      2.00000
     41     -36.5922      2.00000
     42     -36.5913      2.00000
     43     -36.5909      2.00000
     44     -36.5822      2.00000
     45     -36.5820      2.00000
     46     -32.8985      2.00000
     47     -32.8844      2.00000
     48     -32.8843      2.00000
     49     -32.8454      2.00000
     50     -32.8454      2.00000
     51     -32.8201      2.00000
     52     -32.8200      2.00000
     53     -32.8179      2.00000
     54     -32.8097      2.00000
     55     -32.7874      2.00000
     56     -32.7782      2.00000
     57     -32.7782      2.00000
     58     -32.7740      2.00000
     59     -32.7728      2.00000
     60     -32.7728      2.00000
     61     -32.7339      2.00000
     62     -32.7148      2.00000
     63     -32.7148      2.00000
     64     -32.7062      2.00000
     65     -32.7062      2.00000
     66     -32.6898      2.00000
     67     -32.6898      2.00000
     68     -32.6897      2.00000
     69     -32.6847      2.00000
     70     -32.6449      2.00000
     71     -32.6290      2.00000
     72     -32.6289      2.00000
     73     -12.4962      2.00000
     74     -12.4927      2.00000
     75     -12.2074      2.00000
     76     -11.8160      2.00000
     77     -11.8159      2.00000
     78     -11.5357      2.00000
     79     -11.5119      2.00000
     80     -11.1904      2.00000
     81     -11.1875      2.00000
     82     -11.1778      2.00000
     83     -11.1772      2.00000
     84     -11.0541      2.00000
     85     -11.0092      2.00000
     86     -10.9743      2.00000
     87     -10.9709      2.00000
     88     -10.9412      2.00000
     89     -10.9412      2.00000
     90     -10.8757      2.00000
     91     -10.8040      2.00000
     92     -10.7447      2.00000
     93     -10.6948      2.00000
     94     -10.6931      2.00000
     95     -10.6421      2.00000
     96     -10.6196      2.00000
     97     -10.6174      2.00000
     98     -10.4748      2.00000
     99     -10.4748      2.00000
    100     -10.4410      2.00000
    101     -10.2878      2.00000
    102     -10.2619      2.00000
    103     -10.2619      2.00000
    104     -10.2537      2.00000
    105     -10.2537      2.00000
    106     -10.1764      2.00000
    107     -10.1479      2.00000
    108     -10.1479      2.00000
    109      -4.6007      2.00000
    110      -4.3903      2.00000
    111      -4.3889      2.00000
    112      -4.0850      2.00000
    113      -4.0831      2.00000
    114      -3.9658      2.00000
    115      -3.9650      2.00000
    116      -3.8013      2.00000
    117      -3.7812      2.00000
    118      -3.6480      2.00000
    119      -3.4898      2.00000
    120      -3.4875      2.00000
    121      -3.4201      2.00000
    122      -3.4197      2.00000
    123      -3.3557      2.00000
    124      -3.2641      2.00000
    125      -3.2608      2.00000
    126      -2.9704      2.00000
    127      -2.9701      2.00000
    128      -2.9482      2.00000
    129      -2.9416      2.00000
    130      -2.9126      2.00000
    131      -2.9122      2.00000
    132      -2.8946      2.00000
    133      -2.8942      2.00000
    134      -2.7786      2.00000
    135      -2.7744      2.00000
    136      -2.6387      2.00000
    137      -2.6023      2.00000
    138      -2.6014      2.00000
    139      -2.5957      2.00000
    140      -2.5726      2.00000
    141      -2.5708      2.00000
    142      -2.5605      2.00000
    143      -2.3638      2.00000
    144      -2.3635      2.00000
    145      -2.3406      2.00000
    146      -2.3369      2.00000
    147      -1.9722      2.00000
    148      -1.9253      2.00000
    149      -1.9246      2.00000
    150      -1.8588      2.00000
    151      -1.8564      2.00000
    152      -1.8555      2.00000
    153      -1.8415      2.00000
    154      -1.7837      2.00000
    155      -1.6533      2.00000
    156      -1.5474      2.00000
    157      -1.5471      2.00000
    158      -1.4988      2.00000
    159      -1.4976      2.00000
    160      -1.4818      2.00000
    161      -1.4290      2.00000
    162      -1.4285      2.00000
    163      -1.4174      2.00000
    164      -1.3119      2.00000
    165      -1.3109      2.00000
    166      -1.3099      2.00000
    167      -1.0630      2.00000
    168      -1.0321      2.00000
    169      -1.0320      2.00000
    170      -0.9462      2.00000
    171      -0.9440      2.00000
    172      -0.9354      2.00000
    173      -0.9289      2.00000
    174      -0.9283      2.00000
    175      -0.9139      2.00000
    176      -0.8947      2.00000
    177      -0.8895      2.00000
    178      -0.8746      2.00000
    179      -0.8743      2.00000
    180      -0.7728      2.00000
    181      -0.7627      2.00000
    182      -0.7610      2.00000
    183      -0.6925      2.00000
    184      -0.6415      2.00000
    185      -0.6406      2.00000
    186      -0.3896      2.00000
    187      -0.3895      2.00000
    188      -0.3239      2.00000
    189      -0.3031      2.00000
    190      -0.2980      2.00000
    191      -0.2965      2.00000
    192      -0.1624      2.00000
    193      -0.0211      2.00000
    194      -0.0192      2.00000
    195      -0.0092      2.00000
    196       0.1134      2.00000
    197       0.1666      2.00000
    198       0.1667      2.00000
    199       0.2328      2.00000
    200       0.2369      2.00000
    201       0.2369      2.00000
    202       0.2866      2.00000
    203       0.2868      2.00000
    204       0.4527      2.00000
    205       0.4559      2.00000
    206       0.4572      2.00000
    207       0.4977      2.00000
    208       0.4979      2.00000
    209       0.5128      2.00000
    210       0.5129      2.00000
    211       0.6045      2.00000
    212       0.7479      2.00000
    213       0.8915      2.00000
    214       0.9194      2.00000
    215       0.9345      2.00000
    216       0.9357      2.00000
    217       0.9669      2.00000
    218       1.0693      2.00000
    219       1.0709      2.00000
    220       1.0885      2.00000
    221       1.2445      2.00000
    222       1.2457      2.00000
    223       1.2596      2.00000
    224       1.4053      2.00000
    225       1.4065      2.00000
    226       1.4155      2.00000
    227       1.5169      2.00000
    228       1.6265      2.00000
    229       1.6266      2.00000
    230       1.6500      2.00000
    231       1.6500      2.00000
    232       1.7602      2.00000
    233       1.8368      2.00000
    234       1.8368      2.00000
    235       3.5513      0.00000
    236       3.6762      0.00000
    237       3.7825      0.00000
    238       3.7831      0.00000
    239       3.9728      0.00000
    240       3.9737      0.00000
    241       4.0096      0.00000
    242       4.0156      0.00000
    243       4.0320      0.00000
    244       4.0328      0.00000
    245       4.1741      0.00000
    246       4.1742      0.00000
    247       4.1785      0.00000
    248       4.1912      0.00000
    249       4.1928      0.00000
    250       4.2047      0.00000
    251       4.2056      0.00000
    252       4.2113      0.00000
    253       4.2509      0.00000
    254       4.2535      0.00000
    255       4.2582      0.00000
    256       4.2936      0.00000
    257       4.3542      0.00000
    258       4.3547      0.00000
    259       4.3922      0.00000
    260       4.4550      0.00000
    261       4.4554      0.00000
    262       4.4962      0.00000
    263       4.5138      0.00000
    264       4.5669      0.00000
    265       4.5821      0.00000
    266       4.5998      0.00000
    267       4.6000      0.00000
    268       4.6557      0.00000
    269       4.6560      0.00000
    270       4.6652      0.00000
    271       4.6656      0.00000
    272       4.7288      0.00000
    273       4.7407      0.00000
    274       4.7421      0.00000
    275       4.7448      0.00000
    276       4.7602      0.00000
    277       4.7604      0.00000
    278       4.8142      0.00000
    279       4.8146      0.00000
    280       5.0423      0.00000
    281       5.1867      0.00000
    282       5.1886      0.00000
    283       5.2458      0.00000
    284       5.2473      0.00000
    285       5.2600      0.00000
    286       5.2609      0.00000


--------------------------------------------------------------------------------------------------------


 soft charge-density along one line, spin component           1
         0         1         2         3         4         5         6         7         8         9
 total charge-density along one line
 
 pseudopotential strength for first ion, spin component:           1
 -4.876  12.211   0.000  -0.000   0.000  -0.000   0.000  -0.000
 12.211   3.227  -0.000   0.000  -0.000   0.000  -0.000   0.000
  0.000  -0.000 -19.014  -0.000  -0.000   9.912   0.000   0.000
 -0.000   0.000  -0.000 -19.018   0.000   0.000   9.917  -0.000
  0.000  -0.000  -0.000   0.000 -19.014   0.000  -0.000   9.912
 -0.000   0.000   9.912   0.000   0.000   5.190  -0.000  -0.000
  0.000  -0.000   0.000   9.917  -0.000  -0.000   5.187   0.000
 -0.000   0.000   0.000  -0.000   9.912  -0.000   0.000   5.190
 -0.000   0.000   0.000  -0.000  -0.008  -0.000   0.000   0.004
 -0.000   0.000  -0.000   0.000  -0.000   0.000  -0.000   0.000
 -0.002   0.001  -0.000  -0.000  -0.000   0.000   0.000   0.000
  0.000  -0.000  -0.000   0.000  -0.000   0.000  -0.000   0.000
  0.000  -0.000  -0.008   0.000   0.000   0.004  -0.000  -0.000
 -0.000   0.000   0.000  -0.000  -0.008  -0.000   0.000   0.004
 -0.000   0.000  -0.000   0.000  -0.000   0.000  -0.000   0.000
 -0.002   0.001  -0.000  -0.000  -0.000   0.000   0.000   0.000
  0.000  -0.000  -0.000   0.000  -0.000   0.000  -0.000   0.000
  0.000  -0.000  -0.008   0.000   0.000   0.004  -0.000  -0.000
 total augmentation occupancy for first ion, spin component:           1
  1.996  -0.036  -0.000   0.000   0.000  -0.000   0.000  -0.000  -0.000   0.000  -0.004  -0.000   0.000   0.000  -0.000   0.003
 -0.036   1.136  -0.000   0.000   0.000  -0.000   0.000   0.000   0.000  -0.000  -0.136   0.000   0.000  -0.000   0.000   0.223
 -0.000  -0.000   1.998   0.000  -0.000  -0.039   0.000  -0.000   0.000   0.000  -0.000   0.000  -0.010  -0.000   0.000   0.000
  0.000   0.000   0.000   1.999  -0.000  -0.000  -0.043  -0.000  -0.000   0.000   0.000   0.000   0.000   0.000  -0.000  -0.000
  0.000   0.000  -0.000  -0.000   1.998  -0.000  -0.000  -0.039  -0.010   0.000  -0.000   0.000   0.000   0.001  -0.000   0.000
 -0.000  -0.000  -0.039  -0.000  -0.000   0.090  -0.000   0.000   0.000  -0.001   0.000   0.000  -0.147   0.000   0.000  -0.000
  0.000   0.000   0.000  -0.043  -0.000  -0.000   0.111   0.000   0.000   0.000   0.000   0.000  -0.000  -0.000  -0.000   0.000
 -0.000   0.000  -0.000  -0.000  -0.039   0.000   0.000   0.090  -0.147   0.000   0.000  -0.001  -0.000   0.172   0.000  -0.000
 -0.000   0.000   0.000  -0.000  -0.010   0.000   0.000  -0.147   1.934   0.000   0.000   0.003  -0.000  -2.198   0.000   0.000
  0.000  -0.000   0.000   0.000   0.000  -0.001   0.000   0.000   0.000   3.117   0.000  -0.000   0.003   0.000  -3.921   0.000
 -0.004  -0.136  -0.000   0.000  -0.000   0.000   0.000   0.000   0.000   0.000   1.519   0.000  -0.000  -0.000  -0.000  -1.679
 -0.000   0.000   0.000   0.000   0.000   0.000   0.000  -0.001   0.003  -0.000   0.000   3.117  -0.000  -0.003   0.000  -0.000
  0.000   0.000  -0.010   0.000   0.000  -0.147  -0.000  -0.000  -0.000   0.003  -0.000  -0.000   1.934   0.000  -0.003  -0.000
  0.000  -0.000  -0.000   0.000   0.001   0.000  -0.000   0.172  -2.198   0.000  -0.000  -0.003   0.000   3.266   0.000  -0.000
 -0.000   0.000   0.000  -0.000  -0.000   0.000  -0.000   0.000   0.000  -3.921  -0.000   0.000  -0.003   0.000   5.416   0.000
  0.003   0.223   0.000  -0.000   0.000  -0.000   0.000  -0.000   0.000   0.000  -1.679  -0.000  -0.000  -0.000   0.000   2.683
  0.000  -0.000  -0.000  -0.000   0.000  -0.000   0.000   0.000  -0.003   0.000  -0.000  -3.921   0.000   0.002  -0.000   0.000
 -0.000   0.000   0.001  -0.000  -0.000   0.172   0.000  -0.000   0.000  -0.003  -0.000   0.000  -2.198  -0.000   0.002   0.000


------------------------ aborting loop because EDIFF is reached ----------------------------------------


    CHARGE:  cpu time      0.4630: real time      0.4666
    FORLOC:  cpu time      0.0294: real time      0.0295
    FORNL :  cpu time      1.9565: real time      1.9686
    STRESS:  cpu time      5.8899: real time      5.9258
    FORCOR:  cpu time      0.1309: real time      0.1317
    FORHAR:  cpu time      0.0510: real time      0.0513
    MIXING:  cpu time      0.0357: real time      0.0358
    OFIELD:  cpu time      0.0001: real time      0.0001

 ---------------------------------------------------------------------------------------------

         DFTD3 V3.0 Rev 1        
 DF pbe       
 parameters
 k1-k3        =   16.0000    1.3333   -4.0000
 Edisp (eV)  -20.73758

 E6    (eV) :   -11.6358
 E8    (eV) :    -9.1017
 % E8        : 43.89
    FORVDW:  cpu time      0.1501: real time      0.1508

  FORCE on cell =-STRESS in cart. coord.  units (eV):
  Direction    XX          YY          ZZ          XY          YZ          ZX
  --------------------------------------------------------------------------------------
  Alpha Z  1198.06821  1198.06821  1198.06821
  Ewald   67162.45609 67162.45769-91886.29056     0.62967    -0.00225    -0.44394
  Hartree 77571.00351 77571.00452-73201.58581     0.22781    -0.00060    -0.13314
  E(xc)   -1989.27946 -1989.27947 -1993.01279     0.00083    -0.00000    -0.00036
  Local  ************************156895.15917    -0.83873     0.00270     0.58183
  n-local  1792.87553  1792.87560  1886.10215     0.01728    -0.00015    -0.03505
  augment   514.75254   514.75263   499.86709     0.00075     0.00003     0.00005
  Kinetic  6582.38029  6582.38024  6616.01352    -0.02501     0.00004    -0.03198
  Fock        0.00000     0.00000     0.00000     0.00000     0.00000     0.00000
  vdW       -21.42445   -21.42445   -15.49467    -0.00011     0.00000     0.00010
  -------------------------------------------------------------------------------------
  Total     -19.53585   -19.53596    -1.17369     0.01248    -0.00023    -0.06249
  in kB     -18.97174   -18.97185    -1.13980     0.01212    -0.00022    -0.06068
  external pressure =      -13.03 kB  Pullay stress =        0.00 kB


 VOLUME and BASIS-vectors are now :
 -----------------------------------------------------------------------------
  energy-cutoff  :      520.00
  volume of cell :     1649.82
      direct lattice vectors                 reciprocal lattice vectors
     9.759724624  0.000000000  0.000000000     0.102461907 -0.059156410  0.000000000
     4.879862312  8.452169459  0.000000000     0.000000000  0.118312820  0.000000000
     0.000000000  0.000000000 20.000000000     0.000000000  0.000000000  0.050000000

  length of vectors
     9.759724624  9.759724624 20.000000000     0.118312820  0.118312820  0.050000000


 FORCES acting on ions
    electron-ion (+dipol)            ewald-force                    non-local-force                 convergence-correction
 -----------------------------------------------------------------------------------------------
   0.316E-02 -.308E-02 0.136E+04   -.297E-02 -.299E-11 -.136E+04   -.115E-04 -.729E-04 0.650E-02   -.149E-03 0.310E-02 -.824E-02
   0.294E-02 -.198E-02 0.136E+04   -.398E-02 0.128E-10 -.136E+04   0.151E-03 0.567E-04 0.856E-02   0.119E-02 0.195E-02 -.817E-02
   -.608E-02 -.180E-02 0.136E+04   0.695E-02 -.279E-10 -.136E+04   -.139E-03 0.754E-04 0.858E-02   -.105E-02 0.173E-02 -.816E-02
   0.406E-02 0.430E-02 0.136E+04   -.342E-02 -.348E-02 -.136E+04   0.208E-03 0.150E-03 0.858E-02   -.655E-03 -.754E-03 -.815E-02
   -.136E-02 0.240E-02 0.136E+04   0.138E-02 0.201E-05 -.136E+04   0.737E-05 0.952E-04 0.920E-02   -.759E-04 -.253E-02 -.818E-02
   -.269E-02 0.707E-02 0.136E+04   0.204E-02 -.598E-02 -.136E+04   -.229E-03 0.139E-03 0.856E-02   0.717E-03 -.101E-02 -.814E-02
   -.388E-03 -.515E-02 0.136E+04   0.204E-02 0.598E-02 -.136E+04   0.515E-04 -.215E-03 0.860E-02   -.182E-02 -.863E-03 -.817E-02
   0.205E-02 -.252E-02 0.136E+04   -.342E-02 0.348E-02 -.136E+04   -.515E-04 -.224E-03 0.856E-02   0.152E-02 -.940E-03 -.812E-02
   -.167E-02 0.747E-03 0.136E+04   0.138E-02 -.201E-05 -.136E+04   -.744E-05 -.506E-05 0.915E-02   0.317E-03 -.684E-03 -.811E-02
   0.301E-03 -.483E-03 0.119E+04   -.597E-03 -.125E-03 -.120E+04   0.168E-02 0.993E-03 0.241E+01   0.672E-04 0.469E-03 -.358E-02
   -.301E-03 -.511E-03 0.119E+04   0.460E-03 -.727E-04 -.120E+04   0.146E-04 -.947E-03 0.241E+01   -.151E-03 0.445E-03 -.344E-02
   0.833E-05 -.602E-03 0.119E+04   0.137E-03 -.298E-03 -.120E+04   -.169E-02 0.964E-03 0.241E+01   0.834E-04 0.738E-03 -.359E-02
   -.197E-04 0.811E-03 0.119E+04   -.197E-04 0.277E-03 -.120E+04   -.835E-03 0.460E-03 0.241E+01   -.629E-04 -.101E-02 -.388E-02
   -.218E-03 0.175E-02 0.119E+04   0.107E-03 -.204E-03 -.120E+04   0.813E-03 0.484E-03 0.241E+01   0.214E-03 -.144E-02 -.399E-02
   0.251E-03 0.339E-03 0.119E+04   -.870E-04 -.335E-03 -.120E+04   0.166E-04 0.117E-02 0.241E+01   -.151E-03 -.236E-03 -.323E-02
   0.688E-03 -.882E-03 0.119E+04   -.380E-03 0.423E-03 -.120E+04   0.118E-04 -.195E-02 0.241E+01   -.293E-03 0.710E-03 -.502E-02
   -.122E-02 -.230E-03 0.119E+04   -.100E-03 0.721E-05 -.120E+04   0.101E-02 -.600E-03 0.241E+01   0.108E-02 0.337E-03 -.427E-02
   0.525E-03 -.185E-03 0.119E+04   0.480E-03 0.327E-03 -.120E+04   -.102E-02 -.574E-03 0.241E+01   -.785E-03 -.149E-04 -.417E-02
   0.102E-01 0.353E-02 -.321E+02   -.105E-01 -.412E-02 0.346E+02   0.159E-04 0.138E-04 -.247E+01   0.980E-04 0.480E-03 -.418E-02
   -.361E-02 0.874E-03 -.321E+02   0.373E-02 -.137E-02 0.346E+02   0.176E-04 -.388E-02 -.248E+01   -.140E-03 0.415E-03 -.431E-02
   -.661E-02 0.493E-02 -.321E+02   0.678E-02 -.585E-02 0.346E+02   -.413E-04 0.266E-04 -.247E+01   0.420E-04 0.748E-03 -.415E-02
   0.817E-03 -.160E-02 -.321E+02   -.799E-03 0.262E-02 0.346E+02   -.338E-02 0.193E-02 -.248E+01   -.768E-04 -.986E-03 -.379E-02
   -.177E-02 0.275E-02 -.321E+02   0.157E-02 -.125E-02 0.346E+02   0.335E-02 0.194E-02 -.248E+01   0.234E-03 -.141E-02 -.368E-02
   0.990E-03 0.686E-02 -.321E+02   -.776E-03 -.698E-02 0.346E+02   -.279E-04 0.194E-02 -.248E+01   -.156E-03 -.166E-03 -.449E-02
   0.363E-02 -.104E-01 -.321E+02   -.335E-02 0.997E-02 0.346E+02   0.373E-04 -.293E-04 -.247E+01   -.287E-03 0.662E-03 -.277E-02
   0.298E-02 -.222E-02 -.321E+02   -.438E-02 0.208E-02 0.346E+02   0.167E-02 -.100E-02 -.248E+01   0.112E-02 0.298E-03 -.332E-02
   -.660E-02 -.472E-02 -.321E+02   0.771E-02 0.490E-02 0.346E+02   -.170E-02 -.942E-03 -.248E+01   -.836E-03 -.364E-04 -.343E-02
   0.782E+00 0.255E+00 -.136E+04   -.798E+00 -.266E+00 0.136E+04   0.776E-02 0.194E-02 -.386E-01   0.581E-03 0.208E-03 -.415E-02
   -.128E+00 0.155E-01 -.136E+04   0.128E+00 -.155E-01 0.136E+04   0.821E-03 0.915E-03 -.487E-01   0.135E-03 -.395E-03 -.417E-02
   -.107E+01 0.812E+00 -.136E+04   0.111E+01 -.832E+00 0.136E+04   0.761E-02 -.188E-02 -.272E-01   -.710E-03 0.162E-04 -.422E-02
   -.394E-02 -.721E-01 -.136E+04   0.386E-02 0.715E-01 0.136E+04   0.764E-03 0.332E-04 -.485E-01   -.170E-03 0.531E-03 -.405E-02
   -.304E-01 0.559E-01 -.136E+04   0.309E-01 -.557E-01 0.136E+04   -.832E-03 -.960E-03 -.489E-01   0.730E-04 0.417E-03 -.415E-02
   0.366E-01 0.142E+00 -.136E+04   -.382E-01 -.145E+00 0.136E+04   -.222E-03 0.514E-03 -.480E-01   0.938E-04 0.139E-02 -.419E-02
   0.339E+00 -.107E+01 -.136E+04   -.336E+00 0.110E+01 0.136E+04   0.438E-02 -.712E-04 -.329E-01   -.160E-03 -.901E-03 -.393E-02
   0.191E-01 0.104E-01 -.136E+04   -.213E-01 -.992E-02 0.136E+04   0.269E-03 -.267E-03 -.477E-01   0.911E-03 -.666E-03 -.416E-02
   -.227E+00 -.152E+00 -.136E+04   0.230E+00 0.155E+00 0.136E+04   -.640E-03 -.229E-03 -.482E-01   -.755E-03 -.598E-03 -.419E-02
   0.657E-01 -.684E-03 0.568E+02   -.663E-01 -.190E-11 -.617E+02   -.123E-03 0.232E-04 0.498E+01   -.160E-03 0.680E-03 -.314E-02
   0.356E-01 -.397E-03 0.571E+02   -.363E-01 0.189E-11 -.620E+02   -.562E-03 0.161E-02 0.497E+01   -.255E-03 -.783E-03 -.289E-02
   -.889E-01 -.813E-03 0.570E+02   0.893E-01 -.112E-10 -.620E+02   0.241E-02 0.333E-02 0.497E+01   0.410E-03 -.682E-03 -.283E-02
   0.344E-01 0.345E-01 0.571E+02   -.367E-01 -.361E-01 -.620E+02   0.854E-03 0.311E-03 0.497E+01   0.688E-03 0.134E-03 -.293E-02
   -.118E-01 -.845E-03 0.571E+02   0.119E-01 0.202E-04 -.620E+02   0.248E-04 0.329E-04 0.496E+01   -.661E-04 0.782E-03 -.281E-02
   -.238E-01 0.740E-01 0.570E+02   0.262E-01 -.727E-01 -.620E+02   -.203E-02 -.534E-02 0.497E+01   -.622E-03 -.852E-04 -.296E-02
   -.248E-01 -.701E-01 0.570E+02   0.262E-01 0.727E-01 -.620E+02   0.133E-02 -.515E-03 0.497E+01   -.106E-02 -.506E-03 -.254E-02
   0.374E-01 -.347E-01 0.571E+02   -.367E-01 0.361E-01 -.620E+02   -.440E-02 0.545E-03 0.497E+01   0.106E-02 -.431E-03 -.259E-02
   -.118E-01 -.913E-03 0.571E+02   0.119E-01 -.202E-04 -.620E+02   -.173E-04 0.268E-04 0.496E+01   -.966E-05 0.896E-03 -.243E-02
   0.649E+00 0.930E-03 -.122E+04   -.645E+00 -.145E-02 0.122E+04   -.533E-01 -.176E-03 -.506E+01   -.126E-03 0.569E-03 0.631E-04
   -.150E+00 0.156E-02 -.122E+04   0.152E+00 0.201E-11 0.122E+04   0.208E-02 -.371E-03 -.496E+01   -.312E-03 -.811E-03 -.297E-03
   -.152E+00 0.107E-02 -.122E+04   0.152E+00 -.955E-11 0.122E+04   0.215E-02 -.252E-03 -.495E+01   0.440E-03 -.738E-03 -.382E-03
   0.222E-02 -.884E-01 -.122E+04   -.283E-02 0.887E-01 0.122E+04   0.667E-03 0.971E-03 -.495E+01   0.717E-03 0.155E-03 -.285E-03
   -.282E-01 -.953E-03 -.122E+04   0.283E-01 0.531E-04 0.122E+04   -.167E-03 0.342E-04 -.495E+01   -.101E-03 0.867E-03 -.400E-03
   0.157E-02 0.893E-01 -.122E+04   -.208E-02 -.896E-01 0.122E+04   0.114E-02 -.730E-03 -.496E+01   -.614E-03 -.486E-04 -.323E-03
   0.289E-02 -.887E-01 -.122E+04   -.208E-02 0.896E-01 0.122E+04   0.561E-03 0.744E-03 -.495E+01   -.976E-03 -.504E-03 -.483E-03
   0.115E-02 0.876E-01 -.122E+04   -.283E-02 -.887E-01 0.122E+04   0.109E-02 -.446E-03 -.496E+01   0.980E-03 -.387E-03 -.437E-03
   -.282E-01 -.867E-03 -.122E+04   0.283E-01 -.531E-04 0.122E+04   -.259E-03 0.295E-04 -.496E+01   -.406E-05 0.888E-03 -.758E-03
 -----------------------------------------------------------------------------------------------
   0.274E-01 0.159E-03 0.111E+01   0.173E-12 -.667E-14 -.955E-11   -.287E-01 -.176E-03 -.894E+00   -.161E-04 0.111E-04 -.208E+00
 
 
 POSITION                                       TOTAL-FORCE (eV/Angst)
 -----------------------------------------------------------------------------------
      0.00000      0.00000     10.13660         0.000062     -0.000054     -0.003932
      3.25324      0.00000     10.13660         0.000330      0.000036     -0.001746
      6.50648      0.00000     10.13660        -0.000305      0.000010     -0.001734
      1.62662      2.81739     10.13660         0.000221      0.000224     -0.001718
      4.87986      2.81739     10.13660        -0.000029     -0.000032     -0.001042
      8.13310      2.81739     10.13660        -0.000137      0.000225     -0.001754
      3.25324      5.63478     10.13660        -0.000090     -0.000244     -0.001732
      6.50648      5.63478     10.13660         0.000121     -0.000208     -0.001756
      9.75972      5.63478     10.13660         0.000039      0.000055     -0.001086
      1.62662      0.93913      8.44958         0.001477      0.000854      0.000268
      4.87986      0.93913      8.44958         0.000048     -0.001085     -0.000063
      8.13310      0.93913      8.44958        -0.001441      0.000802      0.000260
      3.25324      3.75652      8.44958        -0.000912      0.000540     -0.000056
      6.50648      3.75652      8.44958         0.000940      0.000593     -0.000061
      9.75972      3.75652      8.44958         0.000055      0.000935     -0.000919
      4.87986      6.57391      8.44958         0.000053     -0.001698      0.000351
      8.13310      6.57391      8.44958         0.000795     -0.000487     -0.000847
     11.38635      6.57391      8.44958        -0.000775     -0.000447     -0.000844
      1.62662      0.93913     11.82231        -0.000165     -0.000096      0.006093
      4.87986      0.93913     11.82231         0.000022     -0.003960      0.003701
      8.13310      0.93913     11.82231         0.000197     -0.000143      0.006089
      3.25324      3.75652     11.82231        -0.003416      0.001966      0.003710
      6.50648      3.75652     11.82231         0.003414      0.002037      0.003684
      9.75972      3.75652     11.82231         0.000056      0.001653      0.000798
      4.87986      6.57391     11.82231         0.000063      0.000195      0.005997
      8.13310      6.57391     11.82231         0.001415     -0.000845      0.000754
     11.38635      6.57391     11.82231        -0.001402     -0.000805      0.000718
      1.62662      0.93913     16.36364        -0.008287     -0.008618      0.022631
      4.87986      0.93913     16.36364         0.000378      0.000472     -0.006107
      8.13310      0.93913     16.36364         0.044494     -0.021805      0.048224
      3.25324      3.75652     16.36364         0.000534     -0.000115     -0.006063
      6.50648      3.75652     16.36364        -0.000230     -0.000378     -0.006027
      9.75972      3.75652     16.36364        -0.001763     -0.001638     -0.005823
      4.87986      6.57391     16.36364         0.006680      0.030588      0.035508
      8.13310      6.57391     16.36364        -0.000955     -0.000471     -0.006503
     11.38635      6.57391     16.36364         0.001841      0.002073     -0.004999
      0.00000      0.00000     14.82098        -0.000831      0.000019      0.027007
      3.25324      0.00000     14.82098        -0.001494      0.000431      0.004706
      6.50648      0.00000     14.82098         0.003188      0.001835      0.006020
      1.62662      2.81739     14.82098        -0.000685     -0.001120      0.004579
      4.87986      2.81739     14.82098         0.000109     -0.000009      0.002717
      8.13310      2.81739     14.82098        -0.000265     -0.004048      0.006169
      3.25324      5.63478     14.82098         0.001657      0.001523      0.005224
      6.50648      5.63478     14.82098        -0.002604      0.001398      0.005508
      9.75972      5.63478     14.82098         0.000108     -0.000011      0.002875
      0.00439      0.00000     17.91587        -0.049752     -0.000129     -0.131118
      3.25324      0.00000     17.90688         0.003273      0.000377     -0.003684
      6.50648      0.00000     17.90688         0.002514      0.000077     -0.002545
      1.62662      2.81739     17.90688         0.000819      0.001474     -0.003320
      4.87986      2.81739     17.90688        -0.000157      0.000001      0.000469
      8.13310      2.81739     17.90688         0.000064     -0.001061     -0.002931
      3.25324      5.63478     17.90688         0.000441      0.001123     -0.002722
      6.50648      5.63478     17.90688         0.000440     -0.002007     -0.003484
      9.75972      5.63478     17.90688        -0.000153     -0.000002      0.000559
 -----------------------------------------------------------------------------------
    total drift:                               -0.001357     -0.000006      0.008262


--------------------------------------------------------------------------------------------------------



  FREE ENERGIE OF THE ION-ELECTRON SYSTEM (eV)
  ---------------------------------------------------
  free  energy   TOTEN  =      -412.39900715 eV

  energy  without entropy=     -412.39900715  energy(sigma->0) =     -412.39900715
 


--------------------------------------------------------------------------------------------------------


    POTLOK:  cpu time      0.1574: real time      0.1584


--------------------------------------------------------------------------------------------------------


     LOOP+:  cpu time    207.1986: real time    208.7469
    4ORBIT:  cpu time      0.0000: real time      0.0000

 total amount of memory used by VASP MPI-rank0   147273. kBytes
=======================================================================

   base                                    :      30000. kBytes
   nonlr-proj                              :      18791. kBytes
   fftplans                                :      13412. kBytes
   grid                                    :      23521. kBytes
   one-center                              :        217. kBytes
   wavefun                                 :      61332. kBytes
 
  
  
 General timing and accounting informations for this job:
 ========================================================
  
                  Total CPU time used (sec):      213.121
                            User time (sec):      207.858
                          System time (sec):        5.263
                         Elapsed time (sec):      215.437
  
                   Maximum memory used (kb):      449488.
                   Average memory used (kb):          N/A
  
                          Minor page faults:        47609
                          Major page faults:           62
                 Voluntary context switches:         1850
