cpu-bind=MASK - c132, task  0  0 [264172]: mask 0x7ffefffefffe set
 running  264 mpi-ranks, with    1 threads/rank, on    6 nodes
 distrk:  each k-point on   44 cores,    6 groups
 distr:  one band on    4 cores,   11 groups
 vasp.6.5.1 10Mar25 (build Aug 29 2025 00:30:47) complex                        
  
 POSCAR found type information on POSCAR MoSeW S 
 POSCAR found :  4 types and      54 ions
 scaLAPACK will be used
 LDA part: xc-table for (Slater+PW92), standard interpolation
 POSCAR, INCAR and KPOINTS ok, starting setup
 FFT: planning ... GRIDC
 FFT: planning ... GRID_SOFT
 FFT: planning ... GRID
 WAVECAR not read
 entering main loop
       N       E                     dE             d eps       ncg     rms          rms(c)
DAV:   1     0.457364115678E+04    0.45736E+04   -0.24738E+05  8855   0.147E+03
DAV:   2    -0.364903150879E+02   -0.46101E+04   -0.44810E+04  8822   0.375E+02
DAV:   3    -0.397118017477E+03   -0.36063E+03   -0.35387E+03  8833   0.986E+01
DAV:   4    -0.413375862078E+03   -0.16258E+02   -0.16133E+02  9900   0.192E+01
DAV:   5    -0.413857335703E+03   -0.48147E+00   -0.47966E+00 10208   0.338E+00    0.919E+01
DAV:   6    -0.396440357497E+03    0.17417E+02   -0.11786E+02  8822   0.211E+01    0.374E+01
DAV:   7    -0.394989754173E+03    0.14506E+01   -0.50438E+01  8701   0.126E+01    0.206E+01
DAV:   8    -0.391817744937E+03    0.31720E+01   -0.12118E+01  8514   0.664E+00    0.537E+00
DAV:   9    -0.391726222641E+03    0.91522E-01   -0.12696E+00  9306   0.193E+00    0.228E+00
DAV:  10    -0.391699982869E+03    0.26240E-01   -0.11498E-01  9405   0.656E-01    0.111E+00
DAV:  11    -0.391681865333E+03    0.18118E-01   -0.35424E-02  9790   0.462E-01    0.444E-01
DAV:  12    -0.391674315058E+03    0.75503E-02   -0.17919E-02  8976   0.356E-01    0.329E-01
DAV:  13    -0.391664172670E+03    0.10142E-01   -0.67698E-03  9658   0.228E-01    0.156E-01
DAV:  14    -0.391656825607E+03    0.73471E-02   -0.58240E-03  9394   0.213E-01    0.161E-01
DAV:  15    -0.391652767208E+03    0.40584E-02   -0.54720E-03  9262   0.200E-01    0.129E-01
DAV:  16    -0.391651276691E+03    0.14905E-02   -0.31940E-03  9207   0.160E-01    0.107E-01
DAV:  17    -0.391653519041E+03   -0.22423E-02   -0.28089E-03  8943   0.118E-01    0.923E-02
DAV:  18    -0.391655671813E+03   -0.21528E-02   -0.76826E-04  9394   0.689E-02    0.723E-02
DAV:  19    -0.391657318884E+03   -0.16471E-02   -0.18381E-04  8778   0.321E-02    0.450E-02
DAV:  20    -0.391660063261E+03   -0.27444E-02   -0.29580E-04  8580   0.351E-02    0.279E-02
DAV:  21    -0.391660778050E+03   -0.71479E-03   -0.73251E-05  8954   0.279E-02    0.249E-02
DAV:  22    -0.391660991009E+03   -0.21296E-03   -0.22177E-05  8943   0.151E-02    0.147E-02
DAV:  23    -0.391661386752E+03   -0.39574E-03   -0.34770E-05  8910   0.215E-02    0.147E-02
DAV:  24    -0.391661450037E+03   -0.63285E-04   -0.68269E-05  7414   0.159E-02    0.143E-02
DAV:  25    -0.391661432053E+03    0.17984E-04   -0.13129E-05  8338   0.711E-03    0.892E-03
DAV:  26    -0.391661426184E+03    0.58689E-05   -0.13317E-06  6193   0.477E-03    0.464E-03
DAV:  27    -0.391661426868E+03   -0.68433E-06   -0.19192E-06  6787   0.621E-03
   1 F= -.41239901E+03 E0= -.41239901E+03  d E =-.368898E-23
