Bilayer WS2/WSe2 2H (relaxed monolayers)
   1.00000000000000     
     3.2845986873446593    0.0000000000000000    0.0000000000000000
     1.6422993436723297    2.8445459044774957    0.0000000000000000
     0.0000000000000000    0.0000000000000000   20.0000000000000000
   W    S    Se
     2     2     2
Direct
    -0.0000000000000000   -0.0000000000000000    0.5071656044619640
     0.3333333333333357    0.3333333333333357    0.8178300103349007
     0.3333333333333357    0.3333333333333357    0.4305105599925924
     0.3333333333333357    0.3333333333333357    0.5837660896979808
     0.0000000000000000    0.0000000000000000    0.7335296125422051
    -0.0000000000000000    0.0000000000000000    0.9021981229695218
 
  0.00000000E+00  0.00000000E+00  0.00000000E+00
  0.00000000E+00  0.00000000E+00  0.00000000E+00
  0.00000000E+00  0.00000000E+00  0.00000000E+00
  0.00000000E+00  0.00000000E+00  0.00000000E+00
  0.00000000E+00  0.00000000E+00  0.00000000E+00
  0.00000000E+00  0.00000000E+00  0.00000000E+00
