Bilayer MoS2/MoSe2 3R (relaxed monolayer
   1.00000000000000     
     3.2169800000000000    0.0000000000000000    0.0000000000000000
     1.6084900000000000    2.7859864034664632    0.0000000000000000
     0.0000000000000000    0.0000000000000000   20.0000000000000000
   Mo   S    Se
     2     2     2
Direct
     0.0000000000000000    0.0000000000000000    0.5000517957796901
     0.3333333333333357    0.3333333333333357    0.8090506934978041
     0.3333333333333357    0.3333333333333357    0.4227586233791473
     0.3333333333333357    0.3333333333333357    0.5772006954179248
     0.6666666666666714    0.6666666666666714    0.7240824105286758
     0.6666666666666714    0.6666666666666714    0.8941117804960863
 
  0.00000000E+00  0.00000000E+00  0.00000000E+00
  0.00000000E+00  0.00000000E+00  0.00000000E+00
  0.00000000E+00  0.00000000E+00  0.00000000E+00
  0.00000000E+00  0.00000000E+00  0.00000000E+00
  0.00000000E+00  0.00000000E+00  0.00000000E+00
  0.00000000E+00  0.00000000E+00  0.00000000E+00
