WSe2_GaN_TM_TX phonon                   
           1
     9.786549    0.000000    0.000000
     4.893274    8.475400    0.000000
     0.000000    0.000000   20.000000
   W    Se   Ga   N 
     9    18     9     9
Direct configuration=     1
   0.99955089  0.00000000  0.52328583
   0.33333333  0.00000000  0.52373495
   0.66666667  0.00000000  0.52373495
   0.00000000  0.33333333  0.52373495
   0.33333333  0.33333333  0.52373495
   0.66666667  0.33333333  0.52373495
   0.00000000  0.66666667  0.52373495
   0.33333333  0.66666667  0.52373495
   0.66666667  0.66666667  0.52373495
   0.11111111  0.11111111  0.43887270
   0.44444444  0.11111111  0.43887270
   0.77777778  0.11111111  0.43887270
   0.11111111  0.44444444  0.43887270
   0.44444444  0.44444444  0.43887270
   0.77777778  0.44444444  0.43887270
   0.11111111  0.77777778  0.43887270
   0.44444444  0.77777778  0.43887270
   0.77777778  0.77777778  0.43887270
   0.11111111  0.11111111  0.60861106
   0.44444444  0.11111111  0.60861106
   0.77777778  0.11111111  0.60861106
   0.11111111  0.44444444  0.60861106
   0.44444444  0.44444444  0.60861106
   0.77777778  0.44444444  0.60861106
   0.11111111  0.77777778  0.60861106
   0.44444444  0.77777778  0.60861106
   0.77777778  0.77777778  0.60861106
   0.00000000  0.00000000  0.78902459
   0.33333333  0.00000000  0.78902459
   0.66666667  0.00000000  0.78902459
   0.00000000  0.33333333  0.78902459
   0.33333333  0.33333333  0.78902459
   0.66666667  0.33333333  0.78902459
   0.00000000  0.66666667  0.78902459
   0.33333333  0.66666667  0.78902459
   0.66666667  0.66666667  0.78902459
   0.11111111  0.11111111  0.78975670
   0.44444444  0.11111111  0.78975670
   0.77777778  0.11111111  0.78975670
   0.11111111  0.44444444  0.78975670
   0.44444444  0.44444444  0.78975670
   0.77777778  0.44444444  0.78975670
   0.11111111  0.77777778  0.78975670
   0.44444444  0.77777778  0.78975670
   0.77777778  0.77777778  0.78975670
