    6    6  600    1
  0.3295884E+02  0.3378946E-09  0.3378946E-09  0.2000000E-08  0.5000000E-15
  1.000000000000000E-004
  CAR 
 MoS2_MoTe2_3R relaxation                
     52     27     33
 
  0.1276756E-14  0.1276756E-14  0.1276756E-14  0.4444444E-02
      1        -58.486595   1.000000
      2        -57.154802   1.000000
      3        -32.514451   1.000000
      4        -32.501668   1.000000
      5        -32.501668   1.000000
      6        -31.409259   1.000000
      7        -31.143874   1.000000
      8        -31.143874   1.000000
      9        -11.201673   1.000000
     10         -9.911616   1.000000
     11         -9.622624   1.000000
     12         -8.849462   1.000000
     13         -2.877322   1.000000
     14         -1.809704   1.000000
     15         -0.423959   1.000000
     16         -0.423958   1.000000
     17          0.605443   1.000000
     18          0.667081   1.000000
     19          0.667081   1.000000
     20          1.851852   1.000000
     21          2.031099   1.000000
     22          2.031099   1.000000
     23          2.587077   1.000000
     24          2.828218   1.000000
     25          2.828218   1.000000
     26          3.460519   0.963352
     27          4.851815   0.000000
     28          4.851815   0.000000
     29          5.245100   0.000000
     30          5.245100   0.000000
     31          7.039835   0.000000
     32          7.039835   0.000000
     33          7.291254   0.000000
 
  0.6666667E-01  0.8389420E-14  0.1276756E-14  0.2666667E-01
      1        -58.485869   1.000000
      2        -57.154070   1.000000
      3        -32.512779   1.000000
      4        -32.510581   1.000000
      5        -32.503725   1.000000
      6        -31.407412   1.000000
      7        -31.152479   1.000000
      8        -31.145872   1.000000
      9        -11.150884   1.000000
     10         -9.874614   1.000000
     11         -9.567319   1.000000
     12         -8.797660   1.000000
     13         -2.816581   1.000000
     14         -1.736309   1.000000
     15         -0.540973   1.000000
     16         -0.369255   1.000000
     17          0.330291   1.000000
     18          0.582875   1.000000
     19          0.810240   1.000000
     20          1.836234   1.000000
     21          1.892924   1.000000
     22          2.092884   1.000000
     23          2.579042   1.000000
     24          2.736267   1.000000
     25          2.812419   1.000000
     26          3.359610   0.999998
     27          4.805748   0.000000
     28          4.952724   0.000000
     29          5.178313   0.000000
     30          5.180090   0.000000
     31          6.698463   0.000000
     32          6.825703   0.000000
     33          7.077004   0.000000
 
  0.1333333E+00  0.8393043E-14  0.1276756E-14  0.2666667E-01
      1        -58.483829   1.000000
      2        -57.152012   1.000000
      3        -32.535704   1.000000
      4        -32.509536   1.000000
      5        -32.508045   1.000000
      6        -31.402190   1.000000
      7        -31.176736   1.000000
      8        -31.151518   1.000000
      9        -11.004296   1.000000
     10         -9.785741   1.000000
     11         -9.385531   1.000000
     12         -8.643870   1.000000
     13         -2.650074   1.000000
     14         -1.530333   1.000000
     15         -0.836091   1.000000
     16         -0.211769   1.000000
     17         -0.030591   1.000000
     18          0.365829   1.000000
     19          0.777434   1.000000
     20          1.448052   1.000000
     21          1.831577   1.000000
     22          2.271176   1.000000
     23          2.493974   1.000000
     24          2.540295   1.000000
     25          2.676636   1.000000
     26          3.054950   1.000000
     27          4.764914   0.000000
     28          4.984801   0.000000
     29          5.062659   0.000000
     30          5.237940   0.000000
     31          5.946261   0.000000
     32          6.120488   0.000000
     33          6.715822   0.000000
 
  0.2000000E+00  0.1292168E-14  0.1276756E-14  0.2666667E-01
      1        -58.480817   1.000000
      2        -57.148974   1.000000
      3        -32.572504   1.000000
      4        -32.518082   1.000000
      5        -32.501063   1.000000
      6        -31.394490   1.000000
      7        -31.212273   1.000000
      8        -31.159822   1.000000
      9        -10.779395   1.000000
     10         -9.677644   1.000000
     11         -9.063514   1.000000
     12         -8.394581   1.000000
     13         -2.439441   1.000000
     14         -1.288482   1.000000
     15         -1.135388   1.000000
     16         -0.402456   1.000000
     17          0.016640   1.000000
     18          0.100335   1.000000
     19          0.532937   1.000000
     20          0.810206   1.000000
     21          1.700975   1.000000
     22          2.174331   1.000000
     23          2.339311   1.000000
     24          2.402705   1.000000
     25          2.543439   1.000000
     26          2.635752   1.000000
     27          4.757488   0.000000
     28          4.845681   0.000000
     29          4.880111   0.000000
     30          5.302642   0.000000
     31          5.569774   0.000000
     32          5.885762   0.000000
     33          6.238073   0.000000
 
  0.2666667E+00  0.1327253E-14  0.1276756E-14  0.2666667E-01
      1        -58.477371   1.000000
      2        -57.145498   1.000000
      3        -32.614463   1.000000
      4        -32.527877   1.000000
      5        -32.493036   1.000000
      6        -31.385639   1.000000
      7        -31.252799   1.000000
      8        -31.169341   1.000000
      9        -10.505841   1.000000
     10         -9.564241   1.000000
     11         -8.621023   1.000000
     12         -8.065936   1.000000
     13         -2.338327   1.000000
     14         -1.440477   1.000000
     15         -1.043632   1.000000
     16         -0.682560   1.000000
     17         -0.195073   1.000000
     18          0.043156   1.000000
     19          0.090750   1.000000
     20          0.326364   1.000000
     21          1.451827   1.000000
     22          1.847992   1.000000
     23          1.938752   1.000000
     24          2.094392   1.000000
     25          2.367729   1.000000
     26          2.867190   1.000000
     27          4.531534   0.000000
     28          4.646315   0.000000
     29          4.940672   0.000000
     30          5.278202   0.000000
     31          5.726225   0.000000
     32          5.973782   0.000000
     33          6.062115   0.000000
 
  0.3333333E+00  0.8399909E-14  0.1276756E-14  0.2666667E-01
      1        -58.474068   1.000000
      2        -57.142167   1.000000
      3        -32.654288   1.000000
      4        -32.537222   1.000000
      5        -32.485349   1.000000
      6        -31.377165   1.000000
      7        -31.291273   1.000000
      8        -31.178425   1.000000
      9        -10.225724   1.000000
     10         -9.456766   1.000000
     11         -8.103173   1.000000
     12         -7.691962   1.000000
     13         -2.466584   1.000000
     14         -1.558726   1.000000
     15         -1.248858   1.000000
     16         -1.076521   1.000000
     17         -0.576864   1.000000
     18         -0.429109   1.000000
     19         -0.214340   1.000000
     20          0.619367   1.000000
     21          1.221558   1.000000
     22          1.566862   1.000000
     23          1.671618   1.000000
     24          1.896701   1.000000
     25          2.261211   1.000000
     26          3.176909   1.000000
     27          4.352026   0.000000
     28          4.640750   0.000000
     29          4.944264   0.000000
     30          5.449626   0.000000
     31          5.586777   0.000000
     32          6.196423   0.000000
     33          6.384837   0.000000
 
  0.4000000E+00  0.8439303E-14  0.1276756E-14  0.2666667E-01
      1        -58.471480   1.000000
      2        -57.139556   1.000000
      3        -32.685207   1.000000
      4        -32.544511   1.000000
      5        -32.479334   1.000000
      6        -31.370538   1.000000
      7        -31.321149   1.000000
      8        -31.185510   1.000000
      9         -9.991435   1.000000
     10         -9.370741   1.000000
     11         -7.593363   1.000000
     12         -7.337852   1.000000
     13         -2.660466   1.000000
     14         -2.043391   1.000000
     15         -1.570491   1.000000
     16         -1.443274   1.000000
     17         -1.070436   1.000000
     18         -0.596547   1.000000
     19         -0.130362   1.000000
     20          0.857369   1.000000
     21          1.090234   1.000000
     22          1.365469   1.000000
     23          1.554337   1.000000
     24          1.898318   1.000000
     25          2.364352   1.000000
     26          3.399416   0.999784
     27          4.236939   0.000000
     28          4.657641   0.000000
     29          5.046171   0.000000
     30          5.293301   0.000000
     31          5.888042   0.000000
     32          6.363151   0.000000
     33          6.681516   0.000000
 
  0.4666667E+00  0.1352306E-14  0.1276756E-14  0.2666667E-01
      1        -58.470065   1.000000
      2        -57.138130   1.000000
      3        -32.702058   1.000000
      4        -32.548496   1.000000
      5        -32.476039   1.000000
      6        -31.366908   1.000000
      7        -31.337433   1.000000
      8        -31.189383   1.000000
      9         -9.856428   1.000000
     10         -9.322364   1.000000
     11         -7.246550   1.000000
     12         -7.108749   1.000000
     13         -2.782834   1.000000
     14         -2.514507   1.000000
     15         -1.867351   1.000000
     16         -1.618156   1.000000
     17         -1.218922   1.000000
     18         -0.683317   1.000000
     19         -0.090115   1.000000
     20          0.987192   1.000000
     21          1.035786   1.000000
     22          1.264521   1.000000
     23          1.505325   1.000000
     24          2.012626   1.000000
     25          2.524925   1.000000
     26          3.502914   0.723033
     27          4.182758   0.000000
     28          4.598755   0.000000
     29          5.213402   0.000000
     30          5.253123   0.000000
     31          6.057637   0.000000
     32          6.442996   0.000000
     33          6.843850   0.000000
 
  0.1333333E+00  0.6666667E-01  0.1276756E-14  0.2666667E-01
      1        -58.484489   1.000000
      2        -57.152677   1.000000
      3        -32.527312   1.000000
      4        -32.509575   1.000000
      5        -32.507947   1.000000
      6        -31.403878   1.000000
      7        -31.168629   1.000000
      8        -31.149975   1.000000
      9        -11.052174   1.000000
     10         -9.812407   1.000000
     11         -9.448015   1.000000
     12         -8.694820   1.000000
     13         -2.702411   1.000000
     14         -1.595951   1.000000
     15         -0.744987   1.000000
     16         -0.265277   1.000000
     17          0.083889   1.000000
     18          0.401435   1.000000
     19          0.823218   1.000000
     20          1.590937   1.000000
     21          1.854655   1.000000
     22          2.206259   1.000000
     23          2.506979   1.000000
     24          2.561868   1.000000
     25          2.779913   1.000000
     26          3.168201   1.000000
     27          4.742031   0.000000
     28          5.022330   0.000000
     29          5.101955   0.000000
     30          5.179687   0.000000
     31          6.199786   0.000000
     32          6.272321   0.000000
     33          6.780484   0.000000
 
  0.2000000E+00  0.6666667E-01  0.1276756E-14  0.5333333E-01
      1        -58.481963   1.000000
      2        -57.150130   1.000000
      3        -32.557504   1.000000
      4        -32.515892   1.000000
      5        -32.503717   1.000000
      6        -31.397417   1.000000
      7        -31.197776   1.000000
      8        -31.157699   1.000000
      9        -10.866256   1.000000
     10         -9.716850   1.000000
     11         -9.192879   1.000000
     12         -8.492932   1.000000
     13         -2.508619   1.000000
     14         -1.350920   1.000000
     15         -1.051844   1.000000
     16         -0.235267   1.000000
     17         -0.077838   1.000000
     18          0.107777   1.000000
     19          0.696017   1.000000
     20          1.081112   1.000000
     21          1.808330   1.000000
     22          2.089855   1.000000
     23          2.372445   1.000000
     24          2.478636   1.000000
     25          2.630710   1.000000
     26          2.865332   1.000000
     27          4.736503   0.000000
     28          4.817323   0.000000
     29          4.970708   0.000000
     30          5.439731   0.000000
     31          5.553852   0.000000
     32          5.874668   0.000000
     33          6.278132   0.000000
 
  0.2666667E+00  0.6666667E-01  0.1276756E-14  0.5333333E-01
      1        -58.478734   1.000000
      2        -57.146873   1.000000
      3        -32.595855   1.000000
      4        -32.526085   1.000000
      5        -32.496213   1.000000
      6        -31.389141   1.000000
      7        -31.234803   1.000000
      8        -31.167608   1.000000
      9        -10.616450   1.000000
     10         -9.608332   1.000000
     11         -8.807116   1.000000
     12         -8.202734   1.000000
     13         -2.336734   1.000000
     14         -1.364772   1.000000
     15         -1.051570   1.000000
     16         -0.580622   1.000000
     17         -0.178825   1.000000
     18          0.174858   1.000000
     19          0.368629   1.000000
     20          0.417882   1.000000
     21          1.501343   1.000000
     22          1.774025   1.000000
     23          2.145494   1.000000
     24          2.311405   1.000000
     25          2.476839   1.000000
     26          2.793699   1.000000
     27          4.589478   0.000000
     28          4.701657   0.000000
     29          4.871575   0.000000
     30          5.154952   0.000000
     31          5.708522   0.000000
     32          5.859879   0.000000
     33          5.991982   0.000000
 
  0.3333333E+00  0.6666667E-01  0.1276756E-14  0.5333333E-01
      1        -58.475356   1.000000
      2        -57.143466   1.000000
      3        -32.635663   1.000000
      4        -32.536730   1.000000
      5        -32.488354   1.000000
      6        -31.380479   1.000000
      7        -31.273243   1.000000
      8        -31.177959   1.000000
      9        -10.338332   1.000000
     10         -9.498266   1.000000
     11         -8.322694   1.000000
     12         -7.848126   1.000000
     13         -2.358530   1.000000
     14         -1.471962   1.000000
     15         -1.143683   1.000000
     16         -0.818806   1.000000
     17         -0.424064   1.000000
     18         -0.204929   1.000000
     19         -0.103877   1.000000
     20          0.423456   1.000000
     21          1.165764   1.000000
     22          1.569831   1.000000
     23          1.843073   1.000000
     24          2.104083   1.000000
     25          2.152476   1.000000
     26          3.057179   1.000000
     27          4.415542   0.000000
     28          4.567080   0.000000
     29          4.909598   0.000000
     30          5.299367   0.000000
     31          5.534107   0.000000
     32          6.025183   0.000000
     33          6.264341   0.000000
 
  0.4000000E+00  0.6666667E-01  0.1276756E-14  0.5333333E-01
      1        -58.472411   1.000000
      2        -57.140495   1.000000
      3        -32.670091   1.000000
      4        -32.545982   1.000000
      5        -32.481503   1.000000
      6        -31.372928   1.000000
      7        -31.306494   1.000000
      8        -31.186957   1.000000
      9        -10.079071   1.000000
     10         -9.400743   1.000000
     11         -7.799705   1.000000
     12         -7.476717   1.000000
     13         -2.531326   1.000000
     14         -1.725037   1.000000
     15         -1.408859   1.000000
     16         -1.329070   1.000000
     17         -0.865340   1.000000
     18         -0.514942   1.000000
     19         -0.116512   1.000000
     20          0.624934   1.000000
     21          1.012357   1.000000
     22          1.387503   1.000000
     23          1.703645   1.000000
     24          1.890893   1.000000
     25          2.112261   1.000000
     26          3.258451   1.000000
     27          4.305810   0.000000
     28          4.617120   0.000000
     29          4.911655   0.000000
     30          5.395641   0.000000
     31          5.659637   0.000000
     32          6.274057   0.000000
     33          6.495235   0.000000
 
  0.4666667E+00  0.6666667E-01  0.1276756E-14  0.5333333E-01
      1        -58.470411   1.000000
      2        -57.138478   1.000000
      3        -32.693335   1.000000
      4        -32.552252   1.000000
      5        -32.476848   1.000000
      6        -31.367799   1.000000
      7        -31.328947   1.000000
      8        -31.193055   1.000000
      9         -9.892232   1.000000
     10         -9.332470   1.000000
     11         -7.352924   1.000000
     12         -7.173366   1.000000
     13         -2.683241   1.000000
     14         -2.273185   1.000000
     15         -1.736335   1.000000
     16         -1.611566   1.000000
     17         -1.159513   1.000000
     18         -0.597729   1.000000
     19         -0.068924   1.000000
     20          0.762151   1.000000
     21          0.964380   1.000000
     22          1.262291   1.000000
     23          1.562931   1.000000
     24          1.949792   1.000000
     25          2.246307   1.000000
     26          3.362708   0.999997
     27          4.217235   0.000000
     28          4.644721   0.000000
     29          5.070736   0.000000
     30          5.387704   0.000000
     31          5.934153   0.000000
     32          6.384857   0.000000
     33          6.695844   0.000000
 
 -0.4666667E+00  0.6666667E-01  0.1276756E-14  0.2666667E-01
      1        -58.469704   1.000000
      2        -57.137766   1.000000
      3        -32.701534   1.000000
      4        -32.554467   1.000000
      5        -32.475200   1.000000
      6        -31.365985   1.000000
      7        -31.336866   1.000000
      8        -31.195211   1.000000
      9         -9.823745   1.000000
     10         -9.307776   1.000000
     11         -7.165849   1.000000
     12         -7.051493   1.000000
     13         -2.741999   1.000000
     14         -2.524681   1.000000
     15         -1.893533   1.000000
     16         -1.722504   1.000000
     17         -1.222443   1.000000
     18         -0.623780   1.000000
     19         -0.059873   1.000000
     20          0.815643   1.000000
     21          0.952961   1.000000
     22          1.218150   1.000000
     23          1.501986   1.000000
     24          2.027719   1.000000
     25          2.328624   1.000000
     26          3.397126   0.999831
     27          4.166599   0.000000
     28          4.643639   0.000000
     29          5.195558   0.000000
     30          5.393694   0.000000
     31          6.043817   0.000000
     32          6.395458   0.000000
     33          6.817587   0.000000
 
  0.2666667E+00  0.1333333E+00  0.1276756E-14  0.2666667E-01
      1        -58.479218   1.000000
      2        -57.147362   1.000000
      3        -32.587890   1.000000
      4        -32.526835   1.000000
      5        -32.497336   1.000000
      6        -31.390381   1.000000
      7        -31.227084   1.000000
      8        -31.168348   1.000000
      9        -10.655000   1.000000
     10         -9.623917   1.000000
     11         -8.870078   1.000000
     12         -8.249243   1.000000
     13         -2.339671   1.000000
     14         -1.320553   1.000000
     15         -1.069885   1.000000
     16         -0.497589   1.000000
     17         -0.239633   1.000000
     18          0.105924   1.000000
     19          0.539469   1.000000
     20          0.578533   1.000000
     21          1.404610   1.000000
     22          1.816998   1.000000
     23          2.198185   1.000000
     24          2.240988   1.000000
     25          2.688065   1.000000
     26          2.806717   1.000000
     27          4.590428   0.000000
     28          4.733909   0.000000
     29          4.773834   0.000000
     30          5.148186   0.000000
     31          5.596278   0.000000
     32          5.788662   0.000000
     33          5.985676   0.000000
 
  0.3333333E+00  0.1333333E+00  0.1276756E-14  0.5333333E-01
      1        -58.476062   1.000000
      2        -57.144178   1.000000
      3        -32.621823   1.000000
      4        -32.540135   1.000000
      5        -32.490000   1.000000
      6        -31.382293   1.000000
      7        -31.259804   1.000000
      8        -31.181300   1.000000
      9        -10.399177   1.000000
     10         -9.520305   1.000000
     11         -8.436987   1.000000
     12         -7.929673   1.000000
     13         -2.278626   1.000000
     14         -1.421004   1.000000
     15         -1.055721   1.000000
     16         -0.772018   1.000000
     17         -0.400941   1.000000
     18          0.040414   1.000000
     19          0.194720   1.000000
     20          0.262683   1.000000
     21          0.877000   1.000000
     22          1.677445   1.000000
     23          1.866028   1.000000
     24          1.958700   1.000000
     25          2.428720   1.000000
     26          3.008693   1.000000
     27          4.434745   0.000000
     28          4.478999   0.000000
     29          4.860240   0.000000
     30          5.064275   0.000000
     31          5.495530   0.000000
     32          5.715173   0.000000
     33          6.294618   0.000000
 
  0.4000000E+00  0.1333333E+00  0.1276756E-14  0.5333333E-01
      1        -58.473043   1.000000
      2        -57.141133   1.000000
      3        -32.653768   1.000000
      4        -32.553135   1.000000
      5        -32.482977   1.000000
      6        -31.374553   1.000000
      7        -31.290602   1.000000
      8        -31.193966   1.000000
      9        -10.138950   1.000000
     10         -9.419520   1.000000
     11         -7.936613   1.000000
     12         -7.568492   1.000000
     13         -2.375302   1.000000
     14         -1.509679   1.000000
     15         -1.386474   1.000000
     16         -1.061383   1.000000
     17         -0.632982   1.000000
     18         -0.396069   1.000000
     19         -0.008762   1.000000
     20          0.310767   1.000000
     21          0.702398   1.000000
     22          1.469171   1.000000
     23          1.665447   1.000000
     24          1.765220   1.000000
     25          2.083065   1.000000
     26          3.133687   1.000000
     27          4.371058   0.000000
     28          4.468153   0.000000
     29          4.841354   0.000000
     30          5.311163   0.000000
     31          5.503564   0.000000
     32          5.836959   0.000000
     33          6.484020   0.000000
 
  0.4666667E+00  0.1333333E+00  0.1276756E-14  0.5333333E-01
      1        -58.470683   1.000000
      2        -57.138752   1.000000
      3        -32.678490   1.000000
      4        -32.563382   1.000000
      5        -32.477483   1.000000
      6        -31.368501   1.000000
      7        -31.314435   1.000000
      8        -31.203954   1.000000
      9         -9.923054   1.000000
     10         -9.337831   1.000000
     11         -7.450922   1.000000
     12         -7.229369   1.000000
     13         -2.495695   1.000000
     14         -1.913162   1.000000
     15         -1.721997   1.000000
     16         -1.428146   1.000000
     17         -1.030840   1.000000
     18         -0.485547   1.000000
     19          0.021941   1.000000
     20          0.322214   1.000000
     21          0.677118   1.000000
     22          1.291083   1.000000
     23          1.598977   1.000000
     24          1.686962   1.000000
     25          1.924306   1.000000
     26          3.197028   1.000000
     27          4.261559   0.000000
     28          4.638828   0.000000
     29          4.964807   0.000000
     30          5.516361   0.000000
     31          5.650872   0.000000
     32          5.982073   0.000000
     33          6.512120   0.000000
 
 -0.4666667E+00  0.1333333E+00  0.1276756E-14  0.5333333E-01
      1        -58.469392   1.000000
      2        -57.137450   1.000000
      3        -32.691947   1.000000
      4        -32.569010   1.000000
      5        -32.474475   1.000000
      6        -31.365187   1.000000
      7        -31.327407   1.000000
      8        -31.209440   1.000000
      9         -9.799535   1.000000
     10         -9.291593   1.000000
     11         -7.126244   1.000000
     12         -7.011776   1.000000
     13         -2.564753   1.000000
     14         -2.298949   1.000000
     15         -1.934843   1.000000
     16         -1.725447   1.000000
     17         -1.179411   1.000000
     18         -0.469811   1.000000
     19          0.004365   1.000000
     20          0.343897   1.000000
     21          0.685427   1.000000
     22          1.184982   1.000000
     23          1.512624   1.000000
     24          1.642714   1.000000
     25          2.047220   1.000000
     26          3.266208   1.000000
     27          4.094030   0.000000
     28          4.804255   0.000000
     29          5.146803   0.000000
     30          5.593902   0.000000
     31          5.797049   0.000000
     32          6.125400   0.000000
     33          6.438635   0.000000
 
  0.4000000E+00  0.2000000E+00  0.1276756E-14  0.2666667E-01
      1        -58.473269   1.000000
      2        -57.141361   1.000000
      3        -32.646038   1.000000
      4        -32.557639   1.000000
      5        -32.483498   1.000000
      6        -31.375129   1.000000
      7        -31.283050   1.000000
      8        -31.198392   1.000000
      9        -10.160178   1.000000
     10         -9.425877   1.000000
     11         -7.984310   1.000000
     12         -7.600467   1.000000
     13         -2.303237   1.000000
     14         -1.447325   1.000000
     15         -1.374297   1.000000
     16         -0.932439   1.000000
     17         -0.556730   1.000000
     18         -0.244176   1.000000
     19          0.069836   1.000000
     20          0.194757   1.000000
     21          0.473025   1.000000
     22          1.339261   1.000000
     23          1.604675   1.000000
     24          1.752965   1.000000
     25          2.200302   1.000000
     26          3.091355   1.000000
     27          4.358512   0.000000
     28          4.427891   0.000000
     29          4.816764   0.000000
     30          5.199720   0.000000
     31          5.486378   0.000000
     32          5.611251   0.000000
     33          6.516170   0.000000
 
  0.4666667E+00  0.2000000E+00  0.1276756E-14  0.5333333E-01
      1        -58.470831   1.000000
      2        -57.138902   1.000000
      3        -32.665228   1.000000
      4        -32.574674   1.000000
      5        -32.477832   1.000000
      6        -31.368887   1.000000
      7        -31.301401   1.000000
      8        -31.215066   1.000000
      9         -9.940903   1.000000
     10         -9.339845   1.000000
     11         -7.508639   1.000000
     12         -7.261732   1.000000
     13         -2.337246   1.000000
     14         -1.833893   1.000000
     15         -1.522105   1.000000
     16         -1.182646   1.000000
     17         -0.889643   1.000000
     18         -0.422014   1.000000
     19         -0.054683   1.000000
     20          0.204885   1.000000
     21          0.364534   1.000000
     22          0.938611   1.000000
     23          1.378299   1.000000
     24          1.731247   1.000000
     25          1.950550   1.000000
     26          3.113008   1.000000
     27          4.279272   0.000000
     28          4.566165   0.000000
     29          4.951518   0.000000
     30          5.387748   0.000000
     31          5.577093   0.000000
     32          5.617026   0.000000
     33          6.578997   0.000000
 
 -0.4666667E+00  0.2000000E+00  0.1276756E-14  0.5333333E-01
      1        -58.469173   1.000000
      2        -57.137230   1.000000
      3        -32.677340   1.000000
      4        -32.587092   1.000000
      5        -32.473984   1.000000
      6        -31.364649   1.000000
      7        -31.312933   1.000000
      8        -31.227251   1.000000
      9         -9.785463   1.000000
     10         -9.278691   1.000000
     11         -7.116803   1.000000
     12         -6.990728   1.000000
     13         -2.334576   1.000000
     14         -2.095191   1.000000
     15         -1.883483   1.000000
     16         -1.495642   1.000000
     17         -1.108250   1.000000
     18         -0.346838   1.000000
     19         -0.205597   1.000000
     20          0.089805   1.000000
     21          0.346983   1.000000
     22          0.863043   1.000000
     23          1.177271   1.000000
     24          1.549925   1.000000
     25          2.041256   1.000000
     26          3.208499   1.000000
     27          4.007445   0.000000
     28          4.854128   0.000000
     29          5.163082   0.000000
     30          5.374094   0.000000
     31          5.662018   0.000000
     32          5.891736   0.000000
     33          6.517464   0.000000
 
 -0.4000000E+00  0.2000000E+00  0.1276756E-14  0.2666667E-01
      1        -58.468587   1.000000
      2        -57.136638   1.000000
      3        -32.681451   1.000000
      4        -32.591647   1.000000
      5        -32.472623   1.000000
      6        -31.363150   1.000000
      7        -31.316834   1.000000
      8        -31.231729   1.000000
      9         -9.729104   1.000000
     10         -9.256417   1.000000
     11         -6.958436   1.000000
     12         -6.883405   1.000000
     13         -2.331382   1.000000
     14         -2.175658   1.000000
     15         -2.050276   1.000000
     16         -1.661976   1.000000
     17         -1.173339   1.000000
     18         -0.304093   1.000000
     19         -0.239560   1.000000
     20          0.004399   1.000000
     21          0.343652   1.000000
     22          0.887339   1.000000
     23          1.095527   1.000000
     24          1.447126   1.000000
     25          2.146078   1.000000
     26          3.279659   1.000000
     27          3.856125   0.000000
     28          4.992941   0.000000
     29          5.225815   0.000000
     30          5.357065   0.000000
     31          5.746780   0.000000
     32          6.019717   0.000000
     33          6.474264   0.000000
 
 -0.4666667E+00  0.2666667E+00  0.1276756E-14  0.2666667E-01
      1        -58.469095   1.000000
      2        -57.137151   1.000000
      3        -32.668855   1.000000
      4        -32.596828   1.000000
      5        -32.473811   1.000000
      6        -31.364460   1.000000
      7        -31.304426   1.000000
      8        -31.236958   1.000000
      9         -9.780954   1.000000
     10         -9.273744   1.000000
     11         -7.116831   1.000000
     12         -6.984466   1.000000
     13         -2.232699   1.000000
     14         -2.119624   1.000000
     15         -1.649261   1.000000
     16         -1.306454   1.000000
     17         -1.107958   1.000000
     18         -0.477339   1.000000
     19         -0.307035   1.000000
     20          0.122314   1.000000
     21          0.198691   1.000000
     22          0.468453   1.000000
     23          1.164482   1.000000
     24          1.571360   1.000000
     25          2.043094   1.000000
     26          3.192824   1.000000
     27          3.970455   0.000000
     28          4.825673   0.000000
     29          5.172060   0.000000
     30          5.223161   0.000000
     31          5.601805   0.000000
     32          5.910228   0.000000
     33          6.562848   0.000000
 
 -0.4000000E+00  0.2666667E+00  0.1276756E-14  0.5333333E-01
      1        -58.468148   1.000000
      2        -57.136195   1.000000
      3        -32.667221   1.000000
      4        -32.612570   1.000000
      5        -32.471610   1.000000
      6        -31.362037   1.000000
      7        -31.302203   1.000000
      8        -31.252815   1.000000
      9         -9.691467   1.000000
     10         -9.235859   1.000000
     11         -6.872827   1.000000
     12         -6.812783   1.000000
     13         -2.329722   1.000000
     14         -2.012142   1.000000
     15         -1.722830   1.000000
     16         -1.508208   1.000000
     17         -1.162567   1.000000
     18         -0.791110   1.000000
     19         -0.333958   1.000000
     20         -0.117371   1.000000
     21          0.096660   1.000000
     22          0.524205   1.000000
     23          0.994153   1.000000
     24          1.420294   1.000000
     25          2.239322   1.000000
     26          3.328722   1.000000
     27          3.666754   0.000026
     28          4.955208   0.000000
     29          5.053352   0.000000
     30          5.397960   0.000000
     31          5.671389   0.000000
     32          6.206947   0.000000
     33          6.521926   0.000000
 
 -0.3333333E+00  0.3333333E+00  0.1276756E-14  0.8888889E-02
      1        -58.467782   1.000000
      2        -57.135826   1.000000
      3        -32.657082   1.000000
      4        -32.628150   1.000000
      5        -32.470770   1.000000
      6        -31.361112   1.000000
      7        -31.290104   1.000000
      8        -31.270168   1.000000
      9         -9.658150   1.000000
     10         -9.220131   1.000000
     11         -6.783931   1.000000
     12         -6.745409   1.000000
     13         -2.403224   1.000000
     14         -1.763664   1.000000
     15         -1.531018   1.000000
     16         -1.470671   1.000000
     17         -1.284574   1.000000
     18         -1.015946   1.000000
     19         -0.767781   1.000000
     20         -0.021265   1.000000
     21         -0.015548   1.000000
     22          0.511697   1.000000
     23          0.892078   1.000000
     24          1.372431   1.000000
     25          2.362624   1.000000
     26          3.406156   0.999564
     27          3.487093   0.850681
     28          4.924703   0.000000
     29          4.938032   0.000000
     30          5.540942   0.000000
     31          5.665520   0.000000
     32          6.385643   0.000000
     33          6.525016   0.000000
