       N       E                     dE             d eps       ncg     rms          rms(c)
DAV:   1     0.380051663855E+03    0.38005E+03   -0.28005E+04  2134   0.137E+03
DAV:   2    -0.180579100570E+02   -0.39811E+03   -0.39088E+03  2145   0.316E+02
DAV:   3    -0.411020403521E+02   -0.23044E+02   -0.22827E+02  2420   0.665E+01
DAV:   4    -0.416638314452E+02   -0.56179E+00   -0.56049E+00  2563   0.107E+01
DAV:   5    -0.416751251536E+02   -0.11294E-01   -0.11286E-01  2596   0.129E+00    0.260E+01
DAV:   6    -0.400696563804E+02    0.16055E+01   -0.14134E+01  1991   0.195E+01    0.118E+01
DAV:   7    -0.399433677522E+02    0.12629E+00   -0.94220E+00  1892   0.157E+01    0.748E+00
DAV:   8    -0.392365431117E+02    0.70682E+00   -0.16665E+00  1925   0.702E+00    0.233E+00
DAV:   9    -0.392363824802E+02    0.16063E-03   -0.25027E-01  2299   0.234E+00    0.143E+00
DAV:  10    -0.392234180663E+02    0.12964E-01   -0.29471E-02  2266   0.985E-01    0.603E-01
DAV:  11    -0.392194982678E+02    0.39198E-02   -0.14479E-02  2464   0.560E-01    0.292E-01
DAV:  12    -0.392177450686E+02    0.17532E-02   -0.60816E-03  2200   0.343E-01    0.168E-01
DAV:  13    -0.392173146632E+02    0.43041E-03   -0.58055E-04  2277   0.114E-01    0.112E-01
DAV:  14    -0.392156345654E+02    0.16801E-02   -0.22796E-03  2178   0.252E-01    0.895E-02
DAV:  15    -0.392156131034E+02    0.21462E-04   -0.28285E-04  2310   0.601E-02    0.684E-02
DAV:  16    -0.392153316987E+02    0.28140E-03   -0.95655E-04  2244   0.163E-01    0.886E-02
DAV:  17    -0.392157339490E+02   -0.40225E-03   -0.48822E-04  2244   0.976E-02    0.963E-02
DAV:  18    -0.392158506218E+02   -0.11667E-03   -0.62469E-05  2123   0.307E-02    0.634E-02
DAV:  19    -0.392161403616E+02   -0.28974E-03   -0.65064E-05  2123   0.357E-02    0.175E-02
DAV:  20    -0.392163824656E+02   -0.24210E-03   -0.61347E-05  2134   0.322E-02    0.482E-02
DAV:  21    -0.392163986425E+02   -0.16177E-04   -0.82784E-06  2255   0.160E-02    0.409E-02
DAV:  22    -0.392164054581E+02   -0.68157E-05   -0.82589E-06  2145   0.123E-02    0.146E-02
DAV:  23    -0.392163985454E+02    0.69128E-05   -0.48611E-06  1804   0.811E-03    0.627E-03
DAV:  24    -0.392163991664E+02   -0.62099E-06   -0.34729E-07  1254   0.290E-03
   1 F= -.41720932E+02 E0= -.41720927E+02  d E =-.417209E+02
       N       E                     dE             d eps       ncg     rms          rms(c)
DAV:   1    -0.393204112356E+02   -0.10401E+00   -0.69286E+00  1837   0.962E+00    0.260E+00
DAV:   2    -0.393449135815E+02   -0.24502E-01   -0.34918E-01  2046   0.247E+00    0.112E+00
DAV:   3    -0.393441293836E+02    0.78420E-03   -0.12508E-02  2310   0.604E-01    0.652E-01
DAV:   4    -0.393455409148E+02   -0.14115E-02   -0.12721E-02  2035   0.598E-01    0.432E-01
DAV:   5    -0.393435445168E+02    0.19964E-02   -0.59108E-03  1947   0.426E-01    0.859E-02
DAV:   6    -0.393435331936E+02    0.11323E-04   -0.43204E-04  2475   0.919E-02    0.815E-02
DAV:   7    -0.393435199101E+02    0.13284E-04   -0.37269E-05  2079   0.253E-02    0.612E-02
DAV:   8    -0.393435087343E+02    0.11176E-04   -0.92674E-05  2101   0.405E-02    0.290E-02
DAV:   9    -0.393435097399E+02   -0.10056E-05   -0.17269E-05  2079   0.201E-02    0.968E-03
DAV:  10    -0.393435137326E+02   -0.39927E-05   -0.11904E-06  1419   0.521E-03    0.613E-03
DAV:  11    -0.393435177709E+02   -0.40384E-05   -0.88689E-07  1507   0.406E-03    0.280E-03
DAV:  12    -0.393435233866E+02   -0.56157E-05   -0.11372E-06  1694   0.441E-03    0.342E-03
DAV:  13    -0.393435262400E+02   -0.28534E-05   -0.73430E-07  1408   0.300E-03    0.200E-03
DAV:  14    -0.393435271784E+02   -0.93847E-06   -0.20441E-07  1199   0.148E-03
   2 F= -.41843102E+02 E0= -.41842711E+02  d E =-.122170E+00
       N       E                     dE             d eps       ncg     rms          rms(c)
DAV:   1    -0.393508085739E+02   -0.72823E-02   -0.87339E-01  1782   0.421E+00    0.822E-01
DAV:   2    -0.393539809202E+02   -0.31723E-02   -0.44562E-02  2090   0.965E-01    0.372E-01
DAV:   3    -0.393538786414E+02    0.10228E-03   -0.14770E-03  2365   0.204E-01    0.219E-01
DAV:   4    -0.393539456219E+02   -0.66981E-04   -0.13857E-03  2200   0.181E-01    0.128E-01
DAV:   5    -0.393538097511E+02    0.13587E-03   -0.79743E-04  2101   0.134E-01    0.336E-02
DAV:   6    -0.393538044828E+02    0.52683E-05   -0.45183E-05  2233   0.321E-02    0.277E-02
DAV:   7    -0.393538042493E+02    0.23346E-06   -0.27920E-06  1980   0.709E-03
   3 F= -.41852200E+02 E0= -.41851825E+02  d E =-.909768E-02
       N       E                     dE             d eps       ncg     rms          rms(c)
DAV:   1    -0.393536976594E+02    0.10682E-03   -0.46210E-02  1782   0.142E+00    0.864E-02
DAV:   2    -0.393538817542E+02   -0.18409E-03   -0.20385E-03  2101   0.260E-01    0.361E-02
DAV:   3    -0.393538772787E+02    0.44756E-05   -0.37043E-05  2332   0.333E-02    0.243E-02
DAV:   4    -0.393538758758E+02    0.14029E-05   -0.11184E-05  2431   0.166E-02    0.163E-02
DAV:   5    -0.393538749783E+02    0.89747E-06   -0.74801E-06  2200   0.119E-02
   4 F= -.41852410E+02 E0= -.41852033E+02  d E =-.210549E-03
       N       E                     dE             d eps       ncg     rms          rms(c)
DAV:   1    -0.393536373666E+02    0.23851E-03   -0.18106E-02  1782   0.958E-01    0.347E-02
DAV:   2    -0.393537100174E+02   -0.72651E-04   -0.77084E-04  1782   0.163E-01    0.140E-02
DAV:   3    -0.393537086390E+02    0.13784E-05   -0.84892E-06  2222   0.191E-02    0.981E-03
DAV:   4    -0.393537088321E+02   -0.19316E-06   -0.38388E-06  2156   0.957E-03
   5 F= -.41852533E+02 E0= -.41852156E+02  d E =-.122529E-03
       N       E                     dE             d eps       ncg     rms          rms(c)
DAV:   1    -0.393534057558E+02    0.30288E-03   -0.12168E-02  1782   0.806E-01    0.386E-02
DAV:   2    -0.393534581435E+02   -0.52388E-04   -0.57517E-04  2101   0.146E-01    0.183E-02
DAV:   3    -0.393534569699E+02    0.11736E-05   -0.71127E-06  2079   0.173E-02    0.141E-02
DAV:   4    -0.393534567069E+02    0.26301E-06   -0.17218E-06  1430   0.712E-03
   6 F= -.41852665E+02 E0= -.41852288E+02  d E =-.132108E-03
       N       E                     dE             d eps       ncg     rms          rms(c)
DAV:   1    -0.393531838881E+02    0.27308E-03   -0.10022E-02  1782   0.754E-01    0.268E-02
DAV:   2    -0.393532264974E+02   -0.42609E-04   -0.45805E-04  1892   0.133E-01    0.141E-02
DAV:   3    -0.393532257094E+02    0.78806E-06   -0.56006E-06  2244   0.155E-02
   7 F= -.41852766E+02 E0= -.41852389E+02  d E =-.101397E-03
       N       E                     dE             d eps       ncg     rms          rms(c)
DAV:   1    -0.393331396489E+02    0.20087E-01   -0.36287E+00  1782   0.142E+01    0.600E-01
DAV:   2    -0.393488817987E+02   -0.15742E-01   -0.17125E-01  1980   0.256E+00    0.267E-01
DAV:   3    -0.393485556086E+02    0.32619E-03   -0.21024E-03  2145   0.303E-01    0.204E-01
DAV:   4    -0.393484612693E+02    0.94339E-04   -0.54563E-04  2299   0.121E-01    0.131E-01
DAV:   5    -0.393484518093E+02    0.94600E-05   -0.10212E-04  2233   0.610E-02    0.718E-02
DAV:   6    -0.393484561647E+02   -0.43555E-05   -0.40771E-05  2255   0.398E-02    0.285E-02
DAV:   7    -0.393484568054E+02   -0.64062E-06   -0.14286E-05  2002   0.208E-02    0.149E-02
DAV:   8    -0.393484559787E+02    0.82667E-06   -0.19854E-06  1551   0.796E-03
   8 F= -.41854670E+02 E0= -.41854289E+02  d E =-.190385E-02
       N       E                     dE             d eps       ncg     rms          rms(c)
DAV:   1    -0.393485410910E+02   -0.84286E-04   -0.62958E-03  1782   0.531E-01    0.228E-02
DAV:   2    -0.393485659517E+02   -0.24861E-04   -0.26505E-04  1848   0.920E-02    0.917E-03
DAV:   3    -0.393485654540E+02    0.49768E-06   -0.28664E-06  2200   0.110E-02
   9 F= -.41854630E+02 E0= -.41854249E+02  d E =0.400324E-04
       N       E                     dE             d eps       ncg     rms          rms(c)
DAV:   1    -0.393481423357E+02    0.42362E-03   -0.19507E-02  1782   0.106E+00    0.400E-02
DAV:   2    -0.393482263979E+02   -0.84062E-04   -0.90341E-04  1848   0.187E-01    0.174E-02
DAV:   3    -0.393482245269E+02    0.18710E-05   -0.11151E-05  2046   0.223E-02    0.133E-02
DAV:   4    -0.393482240256E+02    0.50137E-06   -0.35317E-06  2101   0.953E-03
  10 F= -.41854751E+02 E0= -.41854369E+02  d E =-.120930E-03
       N       E                     dE             d eps       ncg     rms          rms(c)
DAV:   1    -0.393485566539E+02   -0.33213E-03   -0.21700E-02  1782   0.109E+00    0.533E-02
DAV:   2    -0.393486508755E+02   -0.94222E-04   -0.10346E-03  2057   0.197E-01    0.188E-02
DAV:   3    -0.393486487544E+02    0.21211E-05   -0.13305E-05  2145   0.238E-02    0.150E-02
DAV:   4    -0.393486483182E+02    0.43623E-06   -0.29056E-06  1947   0.849E-03
  11 F= -.41854608E+02 E0= -.41854227E+02  d E =0.143219E-03
       N       E                     dE             d eps       ncg     rms          rms(c)
DAV:   1    -0.393479120215E+02    0.73673E-03   -0.70128E-01  1782   0.628E+00    0.256E-01
DAV:   2    -0.393509269399E+02   -0.30149E-02   -0.32717E-02  1947   0.112E+00    0.117E-01
DAV:   3    -0.393508637516E+02    0.63188E-04   -0.40772E-04  2156   0.132E-01    0.901E-02
DAV:   4    -0.393508457069E+02    0.18045E-04   -0.10504E-04  2332   0.527E-02    0.578E-02
DAV:   5    -0.393508429534E+02    0.27535E-05   -0.23283E-05  2266   0.287E-02    0.324E-02
DAV:   6    -0.393508436417E+02   -0.68833E-06   -0.84584E-06  2321   0.159E-02
  12 F= -.41853818E+02 E0= -.41853440E+02  d E =0.789855E-03
       N       E                     dE             d eps       ncg     rms          rms(c)
DAV:   1    -0.393398744445E+02    0.10969E-01   -0.17621E+00  1782   0.989E+00    0.424E-01
DAV:   2    -0.393474867504E+02   -0.76123E-02   -0.82706E-02  1991   0.178E+00    0.185E-01
DAV:   3    -0.393473230841E+02    0.16367E-03   -0.10205E-03  2156   0.210E-01    0.143E-01
DAV:   4    -0.393472788533E+02    0.44231E-04   -0.26118E-04  2321   0.826E-02    0.917E-02
DAV:   5    -0.393472730184E+02    0.58349E-05   -0.51151E-05  2222   0.435E-02    0.504E-02
DAV:   6    -0.393472747096E+02   -0.16912E-05   -0.20577E-05  2277   0.265E-02    0.197E-02
DAV:   7    -0.393472753243E+02   -0.61463E-06   -0.80390E-06  2211   0.150E-02
  13 F= -.41855068E+02 E0= -.41854686E+02  d E =-.124984E-02
       N       E                     dE             d eps       ncg     rms          rms(c)
DAV:   1    -0.393326763654E+02    0.14598E-01   -0.24415E+00  1782   0.117E+01    0.481E-01
DAV:   2    -0.393432271725E+02   -0.10551E-01   -0.11454E-01  1936   0.210E+00    0.209E-01
DAV:   3    -0.393430141788E+02    0.21299E-03   -0.14239E-03  2101   0.249E-01    0.160E-01
DAV:   4    -0.393429551222E+02    0.59057E-04   -0.36877E-04  2343   0.994E-02    0.101E-01
DAV:   5    -0.393429508351E+02    0.42872E-05   -0.65939E-05  2255   0.487E-02    0.564E-02
DAV:   6    -0.393429540139E+02   -0.31788E-05   -0.24948E-05  2233   0.310E-02    0.243E-02
DAV:   7    -0.393429546191E+02   -0.60517E-06   -0.97840E-06  2068   0.177E-02
  14 F= -.41856219E+02 E0= -.41855833E+02  d E =-.115056E-02
       N       E                     dE             d eps       ncg     rms          rms(c)
DAV:   1    -0.393432861279E+02   -0.33211E-03   -0.22381E-01  1782   0.357E+00    0.128E-01
DAV:   2    -0.393442359464E+02   -0.94982E-03   -0.10208E-02  1892   0.630E-01    0.608E-02
DAV:   3    -0.393442167018E+02    0.19245E-04   -0.12457E-04  2123   0.733E-02    0.473E-02
DAV:   4    -0.393442107713E+02    0.59305E-05   -0.32513E-05  2387   0.294E-02    0.295E-02
DAV:   5    -0.393442097766E+02    0.99464E-06   -0.67148E-06  2255   0.154E-02
  15 F= -.41855911E+02 E0= -.41855526E+02  d E =0.307441E-03
       N       E                     dE             d eps       ncg     rms          rms(c)
DAV:   1    -0.393428447809E+02    0.13660E-02   -0.10701E-01  1782   0.244E+00    0.107E-01
DAV:   2    -0.393433082113E+02   -0.46343E-03   -0.50288E-03  2013   0.438E-01    0.429E-02
DAV:   3    -0.393432975915E+02    0.10620E-04   -0.63125E-05  2156   0.520E-02    0.343E-02
DAV:   4    -0.393432952889E+02    0.23026E-05   -0.14561E-05  2321   0.192E-02    0.218E-02
DAV:   5    -0.393432945072E+02    0.78171E-06   -0.32318E-06  2112   0.113E-02
  16 F= -.41856151E+02 E0= -.41855766E+02  d E =-.239628E-03
       N       E                     dE             d eps       ncg     rms          rms(c)
DAV:   1    -0.393407593433E+02    0.25359E-02   -0.24881E-01  1782   0.374E+00    0.154E-01
DAV:   2    -0.393418259594E+02   -0.10666E-02   -0.11603E-02  1936   0.668E-01    0.709E-02
DAV:   3    -0.393418043448E+02    0.21615E-04   -0.14553E-04  2145   0.791E-02    0.544E-02
DAV:   4    -0.393417980935E+02    0.62513E-05   -0.38956E-05  2266   0.325E-02    0.346E-02
DAV:   5    -0.393417979936E+02    0.99824E-07   -0.77180E-06  2288   0.164E-02
  17 F= -.41856485E+02 E0= -.41856098E+02  d E =-.334288E-03
       N       E                     dE             d eps       ncg     rms          rms(c)
DAV:   1    -0.393412604938E+02    0.53760E-03   -0.28524E-02  1782   0.126E+00    0.499E-02
DAV:   2    -0.393413797717E+02   -0.11928E-03   -0.13104E-03  1936   0.224E-01    0.241E-02
DAV:   3    -0.393413776697E+02    0.21020E-05   -0.17271E-05  2233   0.265E-02    0.179E-02
DAV:   4    -0.393413771034E+02    0.56635E-06   -0.42424E-06  2255   0.110E-02
  18 F= -.41856585E+02 E0= -.41856198E+02  d E =-.100290E-03
       N       E                     dE             d eps       ncg     rms          rms(c)
DAV:   1    -0.393403837541E+02    0.99392E-03   -0.64263E-02  1782   0.191E+00    0.739E-02
DAV:   2    -0.393406587235E+02   -0.27497E-03   -0.29875E-03  1892   0.340E-01    0.371E-02
DAV:   3    -0.393406532940E+02    0.54295E-05   -0.36887E-05  2079   0.402E-02    0.279E-02
DAV:   4    -0.393406515515E+02    0.17424E-05   -0.10668E-05  2354   0.175E-02    0.177E-02
DAV:   5    -0.393406515066E+02    0.44957E-07   -0.20708E-06  1650   0.851E-03
  19 F= -.41856725E+02 E0= -.41856338E+02  d E =-.139394E-03
       N       E                     dE             d eps       ncg     rms          rms(c)
DAV:   1    -0.393401917371E+02    0.45981E-03   -0.16755E-02  1782   0.957E-01    0.407E-02
DAV:   2    -0.393402628286E+02   -0.71092E-04   -0.78128E-04  1969   0.172E-01    0.192E-02
DAV:   3    -0.393402615562E+02    0.12724E-05   -0.99411E-06  2112   0.204E-02    0.147E-02
DAV:   4    -0.393402611709E+02    0.38539E-06   -0.23143E-06  1870   0.821E-03
  20 F= -.41856805E+02 E0= -.41856417E+02  d E =-.800235E-04
       N       E                     dE             d eps       ncg     rms          rms(c)
DAV:   1    -0.393404346819E+02   -0.17313E-03   -0.62131E-03  1782   0.602E-01    0.232E-02
DAV:   2    -0.393404614062E+02   -0.26724E-04   -0.28625E-04  1837   0.105E-01    0.839E-03
DAV:   3    -0.393404608306E+02    0.57567E-06   -0.35498E-06  1991   0.127E-02
  21 F= -.41856763E+02 E0= -.41856376E+02  d E =0.413503E-04
       N       E                     dE             d eps       ncg     rms          rms(c)
DAV:   1    -0.393399617027E+02    0.49970E-03   -0.18809E-02  1782   0.103E+00    0.453E-02
DAV:   2    -0.393400437916E+02   -0.82089E-04   -0.89420E-04  1958   0.184E-01    0.171E-02
DAV:   3    -0.393400419818E+02    0.18098E-05   -0.11269E-05  2079   0.223E-02    0.132E-02
DAV:   4    -0.393400416270E+02    0.35488E-06   -0.29446E-06  2013   0.869E-03
  22 F= -.41856847E+02 E0= -.41856459E+02  d E =-.835750E-04
       N       E                     dE             d eps       ncg     rms          rms(c)
DAV:   1    -0.393400160875E+02    0.25894E-04   -0.89687E-05  1782   0.720E-02    0.332E-03
DAV:   2    -0.393400164423E+02   -0.35487E-06   -0.38356E-06  1826   0.128E-02
  23 F= -.41856853E+02 E0= -.41856465E+02  d E =-.563622E-05
       N       E                     dE             d eps       ncg     rms          rms(c)
DAV:   1    -0.393386013050E+02    0.14148E-02   -0.82005E-02  1782   0.204E+00    0.111E-01
DAV:   2    -0.393389524022E+02   -0.35110E-03   -0.39153E-03  2134   0.376E-01    0.484E-02
DAV:   3    -0.393389448495E+02    0.75527E-05   -0.53440E-05  2068   0.462E-02    0.377E-02
DAV:   4    -0.393389429679E+02    0.18817E-05   -0.10941E-05  2321   0.169E-02    0.254E-02
DAV:   5    -0.393389425218E+02    0.44603E-06   -0.39047E-06  2178   0.121E-02
  24 F= -.41857025E+02 E0= -.41856637E+02  d E =-.172581E-03
       N       E                     dE             d eps       ncg     rms          rms(c)
DAV:   1    -0.393376835648E+02    0.12594E-02   -0.89970E-02  1782   0.223E+00    0.926E-02
DAV:   2    -0.393380661695E+02   -0.38260E-03   -0.41739E-03  1958   0.399E-01    0.421E-02
DAV:   3    -0.393380586853E+02    0.74841E-05   -0.51983E-05  2134   0.470E-02    0.325E-02
DAV:   4    -0.393380567937E+02    0.18916E-05   -0.13268E-05  2398   0.191E-02    0.203E-02
DAV:   5    -0.393380567684E+02    0.25327E-07   -0.25096E-06  1947   0.965E-03
  25 F= -.41857191E+02 E0= -.41856803E+02  d E =-.165961E-03
       N       E                     dE             d eps       ncg     rms          rms(c)
DAV:   1    -0.393381807042E+02   -0.12391E-03   -0.58812E-04  1782   0.149E-01    0.135E-02
DAV:   2    -0.393381833006E+02   -0.25964E-05   -0.29693E-05  2343   0.290E-02    0.490E-03
DAV:   3    -0.393381831628E+02    0.13786E-06   -0.61082E-07  1100   0.483E-03
  26 F= -.41857180E+02 E0= -.41856791E+02  d E =0.111570E-04
       N       E                     dE             d eps       ncg     rms          rms(c)
DAV:   1    -0.393376948455E+02    0.48846E-03   -0.20112E-02  1782   0.105E+00    0.493E-02
DAV:   2    -0.393377811372E+02   -0.86292E-04   -0.94969E-04  2002   0.190E-01    0.203E-02
DAV:   3    -0.393377791362E+02    0.20010E-05   -0.12484E-05  2145   0.230E-02    0.156E-02
DAV:   4    -0.393377786882E+02    0.44797E-06   -0.30386E-06  2167   0.913E-03
  27 F= -.41857250E+02 E0= -.41856861E+02  d E =-.700103E-04
       N       E                     dE             d eps       ncg     rms          rms(c)
DAV:   1    -0.393382609739E+02   -0.48184E-03   -0.45205E-01  1782   0.492E+00    0.244E-01
DAV:   2    -0.393402137366E+02   -0.19528E-02   -0.21519E-02  2101   0.895E-01    0.989E-02
DAV:   3    -0.393401693604E+02    0.44376E-04   -0.28145E-04  2090   0.108E-01    0.782E-02
DAV:   4    -0.393401589575E+02    0.10403E-04   -0.61901E-05  2299   0.397E-02    0.515E-02
DAV:   5    -0.393401555705E+02    0.33870E-05   -0.16513E-05  2233   0.250E-02    0.267E-02
DAV:   6    -0.393401556663E+02   -0.95756E-07   -0.69883E-06  2222   0.138E-02
  28 F= -.41856833E+02 E0= -.41856447E+02  d E =0.416780E-03
       N       E                     dE             d eps       ncg     rms          rms(c)
DAV:   1    -0.393364554340E+02    0.37001E-02   -0.42730E-01  1782   0.489E+00    0.196E-01
DAV:   2    -0.393382918222E+02   -0.18364E-02   -0.19859E-02  1969   0.873E-01    0.908E-02
DAV:   3    -0.393382522507E+02    0.39571E-04   -0.24274E-04  2145   0.102E-01    0.705E-02
DAV:   4    -0.393382410408E+02    0.11210E-04   -0.61846E-05  2376   0.404E-02    0.446E-02
DAV:   5    -0.393382387427E+02    0.22981E-05   -0.13152E-05  2222   0.222E-02    0.248E-02
DAV:   6    -0.393382390263E+02   -0.28360E-06   -0.43978E-06  2178   0.125E-02
  29 F= -.41857171E+02 E0= -.41856783E+02  d E =-.337369E-03
       N       E                     dE             d eps       ncg     rms          rms(c)
DAV:   1    -0.393380320046E+02    0.20674E-03   -0.53246E-03  1782   0.421E-01    0.352E-02
DAV:   2    -0.393380508816E+02   -0.18877E-04   -0.21435E-04  2354   0.759E-02    0.150E-02
DAV:   3    -0.393380509708E+02   -0.89230E-07   -0.46046E-06  2398   0.995E-03
  30 F= -.41857222E+02 E0= -.41856833E+02  d E =-.515188E-04
       N       E                     dE             d eps       ncg     rms          rms(c)
DAV:   1    -0.393377808627E+02    0.27002E-03   -0.68249E-03  1782   0.610E-01    0.267E-02
DAV:   2    -0.393378091189E+02   -0.28256E-04   -0.29843E-04  1804   0.107E-01    0.127E-02
DAV:   3    -0.393378087871E+02    0.33188E-06   -0.41277E-06  2354   0.130E-02
  31 F= -.41857264E+02 E0= -.41856875E+02  d E =-.422893E-04
       N       E                     dE             d eps       ncg     rms          rms(c)
DAV:   1    -0.393374645973E+02    0.34452E-03   -0.68155E-03  1782   0.608E-01    0.289E-02
DAV:   2    -0.393374936363E+02   -0.29039E-04   -0.31858E-04  1969   0.110E-01    0.147E-02
DAV:   3    -0.393374931443E+02    0.49195E-06   -0.44324E-06  2123   0.135E-02
  32 F= -.41857312E+02 E0= -.41856922E+02  d E =-.479947E-04
       N       E                     dE             d eps       ncg     rms          rms(c)
DAV:   1    -0.393348117687E+02    0.26819E-02   -0.25464E-01  1782   0.377E+00    0.153E-01
DAV:   2    -0.393359002280E+02   -0.10885E-02   -0.11831E-02  1947   0.674E-01    0.726E-02
DAV:   3    -0.393358784401E+02    0.21788E-04   -0.15035E-04  2145   0.797E-02    0.560E-02
DAV:   4    -0.393358723313E+02    0.61088E-05   -0.36751E-05  2332   0.318E-02    0.360E-02
DAV:   5    -0.393358714856E+02    0.84576E-06   -0.94413E-06  2233   0.188E-02
  33 F= -.41857524E+02 E0= -.41857134E+02  d E =-.211677E-03
       N       E                     dE             d eps       ncg     rms          rms(c)
DAV:   1    -0.393348510454E+02    0.10213E-02   -0.63034E-02  1782   0.188E+00    0.743E-02
DAV:   2    -0.393351182380E+02   -0.26719E-03   -0.29185E-03  1936   0.336E-01    0.371E-02
DAV:   3    -0.393351132387E+02    0.49993E-05   -0.35413E-05  2156   0.391E-02    0.280E-02
DAV:   4    -0.393351116037E+02    0.16350E-05   -0.10299E-05  2354   0.174E-02    0.174E-02
DAV:   5    -0.393351118016E+02   -0.19797E-06   -0.19306E-06  1584   0.817E-03
  34 F= -.41857611E+02 E0= -.41857219E+02  d E =-.867543E-04
       N       E                     dE             d eps       ncg     rms          rms(c)
DAV:   1    -0.393354767677E+02   -0.36516E-03   -0.20197E-02  1782   0.107E+00    0.435E-02
DAV:   2    -0.393355639757E+02   -0.87208E-04   -0.93737E-04  1980   0.190E-01    0.194E-02
DAV:   3    -0.393355619043E+02    0.20714E-05   -0.11161E-05  2145   0.221E-02    0.151E-02
DAV:   4    -0.393355613099E+02    0.59436E-06   -0.31824E-06  2112   0.899E-03
  35 F= -.41857564E+02 E0= -.41857172E+02  d E =0.470556E-04
       N       E                     dE             d eps       ncg     rms          rms(c)
DAV:   1    -0.393343698570E+02    0.11920E-02   -0.68473E-02  1782   0.196E+00    0.861E-02
DAV:   2    -0.393346655094E+02   -0.29565E-03   -0.32168E-03  2002   0.350E-01    0.340E-02
DAV:   3    -0.393346591674E+02    0.63420E-05   -0.41157E-05  2156   0.419E-02    0.265E-02
DAV:   4    -0.393346578049E+02    0.13625E-05   -0.95705E-06  2310   0.156E-02    0.169E-02
DAV:   5    -0.393346576144E+02    0.19049E-06   -0.17880E-06  1452   0.864E-03
  36 F= -.41857649E+02 E0= -.41857257E+02  d E =-.854492E-04
       N       E                     dE             d eps       ncg     rms          rms(c)
DAV:   1    -0.393341646694E+02    0.49314E-03   -0.18421E-02  1782   0.100E+00    0.440E-02
DAV:   2    -0.393342423863E+02   -0.77717E-04   -0.85541E-04  1969   0.180E-01    0.208E-02
DAV:   3    -0.393342407888E+02    0.15974E-05   -0.10960E-05  2134   0.213E-02    0.158E-02
DAV:   4    -0.393342403693E+02    0.41954E-06   -0.27107E-06  1980   0.879E-03
  37 F= -.41857694E+02 E0= -.41857302E+02  d E =-.449447E-04
       N       E                     dE             d eps       ncg     rms          rms(c)
DAV:   1    -0.393343986685E+02   -0.15788E-03   -0.26548E-03  1782   0.378E-01    0.183E-02
DAV:   2    -0.393344100606E+02   -0.11392E-04   -0.12363E-04  2024   0.678E-02    0.541E-03
DAV:   3    -0.393344097637E+02    0.29684E-06   -0.16095E-06  1386   0.827E-03
  38 F= -.41857678E+02 E0= -.41857286E+02  d E =0.156368E-04
       N       E                     dE             d eps       ncg     rms          rms(c)
DAV:   1    -0.393343195703E+02    0.90490E-04   -0.12121E-03  1782   0.256E-01    0.145E-02
DAV:   2    -0.393343246486E+02   -0.50783E-05   -0.58068E-05  2068   0.465E-02    0.528E-03
DAV:   3    -0.393343244642E+02    0.18441E-06   -0.74707E-07  1133   0.576E-03
  39 F= -.41857689E+02 E0= -.41857297E+02  d E =-.109291E-04
       N       E                     dE             d eps       ncg     rms          rms(c)
DAV:   1    -0.393342324746E+02    0.92174E-04   -0.22005E-03  1782   0.354E-01    0.135E-02
DAV:   2    -0.393342412567E+02   -0.87821E-05   -0.95896E-05  1837   0.617E-02    0.771E-03
DAV:   3    -0.393342410222E+02    0.23453E-06   -0.11030E-06  1738   0.696E-03
  40 F= -.41857699E+02 E0= -.41857307E+02  d E =-.950135E-05
       N       E                     dE             d eps       ncg     rms          rms(c)
DAV:   1    -0.393342577386E+02   -0.16482E-04   -0.41322E-05  1793   0.483E-02    0.338E-03
DAV:   2    -0.393342578655E+02   -0.12683E-06   -0.19446E-06  1683   0.851E-03
  41 F= -.41857698E+02 E0= -.41857306E+02  d E =0.129102E-05
       N       E                     dE             d eps       ncg     rms          rms(c)
DAV:   1    -0.393338286003E+02    0.42914E-03   -0.12243E-02  1782   0.833E-01    0.344E-02
DAV:   2    -0.393338812555E+02   -0.52655E-04   -0.56968E-04  1925   0.148E-01    0.150E-02
DAV:   3    -0.393338801796E+02    0.10758E-05   -0.73814E-06  2112   0.177E-02    0.114E-02
DAV:   4    -0.393338799449E+02    0.23469E-06   -0.17981E-06  1386   0.706E-03
  42 F= -.41857734E+02 E0= -.41857342E+02  d E =-.368633E-04
       N       E                     dE             d eps       ncg     rms          rms(c)
DAV:   1    -0.393344697510E+02   -0.58957E-03   -0.74725E-02  1782   0.205E+00    0.869E-02
DAV:   2    -0.393347923390E+02   -0.32259E-03   -0.35025E-03  1991   0.366E-01    0.363E-02
DAV:   3    -0.393347851717E+02    0.71672E-05   -0.43180E-05  2134   0.434E-02    0.284E-02
DAV:   4    -0.393347834024E+02    0.17693E-05   -0.11011E-05  2310   0.169E-02    0.178E-02
DAV:   5    -0.393347830619E+02    0.34049E-06   -0.17781E-06  1496   0.853E-03
  43 F= -.41857647E+02 E0= -.41857255E+02  d E =0.875877E-04
       N       E                     dE             d eps       ncg     rms          rms(c)
DAV:   1    -0.393346156243E+02    0.16778E-03   -0.14329E-03  1782   0.254E-01    0.144E-02
DAV:   2    -0.393346219063E+02   -0.62820E-05   -0.67893E-05  2079   0.460E-02    0.514E-03
DAV:   3    -0.393346217486E+02    0.15773E-06   -0.11666E-06  1474   0.678E-03
  44 F= -.41857660E+02 E0= -.41857268E+02  d E =-.126088E-04
       N       E                     dE             d eps       ncg     rms          rms(c)
DAV:   1    -0.393349362106E+02   -0.31430E-03   -0.10120E-02  1782   0.750E-01    0.347E-02
DAV:   2    -0.393349802243E+02   -0.44014E-04   -0.48328E-04  2013   0.135E-01    0.138E-02
DAV:   3    -0.393349792475E+02    0.97679E-06   -0.63701E-06  2079   0.165E-02
  45 F= -.41857628E+02 E0= -.41857236E+02  d E =0.319366E-04
       N       E                     dE             d eps       ncg     rms          rms(c)
DAV:   1    -0.393333808425E+02    0.15994E-02   -0.11957E-01  1782   0.259E+00    0.112E-01
DAV:   2    -0.393338972299E+02   -0.51639E-03   -0.56204E-03  1991   0.464E-01    0.438E-02
DAV:   3    -0.393338860113E+02    0.11219E-04   -0.69540E-05  2123   0.551E-02    0.343E-02
DAV:   4    -0.393338835035E+02    0.25078E-05   -0.17314E-05  2354   0.212E-02    0.212E-02
DAV:   5    -0.393338829925E+02    0.51094E-06   -0.29254E-06  2046   0.106E-02
  46 F= -.41857735E+02 E0= -.41857342E+02  d E =-.106971E-03
       N       E                     dE             d eps       ncg     rms          rms(c)
DAV:   1    -0.393331968932E+02    0.68661E-03   -0.25714E-02  1782   0.117E+00    0.541E-02
DAV:   2    -0.393333058956E+02   -0.10900E-03   -0.12024E-03  2002   0.212E-01    0.262E-02
DAV:   3    -0.393333037406E+02    0.21550E-05   -0.15415E-05  2145   0.252E-02    0.202E-02
DAV:   4    -0.393333031161E+02    0.62450E-06   -0.37346E-06  2211   0.103E-02
  47 F= -.41857791E+02 E0= -.41857398E+02  d E =-.566666E-04
       N       E                     dE             d eps       ncg     rms          rms(c)
DAV:   1    -0.393332958471E+02    0.78935E-05   -0.14966E-04  1782   0.889E-02    0.804E-03
DAV:   2    -0.393332965779E+02   -0.73083E-06   -0.76806E-06  2090   0.164E-02
  48 F= -.41857791E+02 E0= -.41857398E+02  d E =0.306491E-06
       N       E                     dE             d eps       ncg     rms          rms(c)
DAV:   1    -0.393331361508E+02    0.15970E-03   -0.22504E-03  1782   0.347E-01    0.149E-02
DAV:   2    -0.393331456639E+02   -0.95132E-05   -0.10442E-04  1980   0.626E-02    0.755E-03
DAV:   3    -0.393331455111E+02    0.15284E-06   -0.12413E-06  1232   0.738E-03
  49 F= -.41857806E+02 E0= -.41857413E+02  d E =-.149587E-04
       N       E                     dE             d eps       ncg     rms          rms(c)
DAV:   1    -0.393331939370E+02   -0.48273E-04   -0.22163E-04  1782   0.111E-01    0.755E-03
DAV:   2    -0.393331949550E+02   -0.10180E-05   -0.11114E-05  2145   0.201E-02    0.103E-03
DAV:   3    -0.393331949292E+02    0.25797E-07   -0.16769E-07   935   0.276E-03
  50 F= -.41857801E+02 E0= -.41857408E+02  d E =0.464057E-05
       N       E                     dE             d eps       ncg     rms          rms(c)
DAV:   1    -0.393331512258E+02    0.43729E-04   -0.64407E-04  1782   0.183E-01    0.110E-02
DAV:   2    -0.393331537440E+02   -0.25182E-05   -0.29365E-05  1958   0.332E-02    0.477E-03
DAV:   3    -0.393331536199E+02    0.12407E-06   -0.42058E-07  1067   0.417E-03
  51 F= -.41857807E+02 E0= -.41857414E+02  d E =-.588714E-05
       N       E                     dE             d eps       ncg     rms          rms(c)
DAV:   1    -0.393334585928E+02   -0.30485E-03   -0.52265E-03  1782   0.523E-01    0.382E-02
DAV:   2    -0.393334793543E+02   -0.20762E-04   -0.24372E-04  1936   0.939E-02    0.164E-02
DAV:   3    -0.393334785463E+02    0.80801E-06   -0.44415E-06  2145   0.127E-02
  52 F= -.41857767E+02 E0= -.41857376E+02  d E =0.401976E-04
       N       E                     dE             d eps       ncg     rms          rms(c)
DAV:   1    -0.393341908721E+02   -0.71152E-03   -0.91106E-02  1782   0.227E+00    0.103E-01
DAV:   2    -0.393345789965E+02   -0.38812E-03   -0.42478E-03  1925   0.404E-01    0.463E-02
DAV:   3    -0.393345703001E+02    0.86964E-05   -0.56593E-05  2112   0.491E-02    0.335E-02
DAV:   4    -0.393345677121E+02    0.25880E-05   -0.17535E-05  2310   0.219E-02    0.215E-02
DAV:   5    -0.393345673631E+02    0.34905E-06   -0.49569E-06  2024   0.121E-02
  53 F= -.41857600E+02 E0= -.41857211E+02  d E =0.166883E-03
       N       E                     dE             d eps       ncg     rms          rms(c)
DAV:   1    -0.393330020085E+02    0.15657E-02   -0.89794E-02  1782   0.223E+00    0.128E-01
DAV:   2    -0.393333789050E+02   -0.37690E-03   -0.41972E-03  1903   0.398E-01    0.537E-02
DAV:   3    -0.393333702310E+02    0.86740E-05   -0.74404E-05  2145   0.526E-02    0.353E-02
DAV:   4    -0.393333692504E+02    0.98058E-06   -0.29487E-05  2332   0.267E-02    0.252E-02
DAV:   5    -0.393333694843E+02   -0.23382E-06   -0.13490E-05  2266   0.174E-02    0.826E-03
DAV:   6    -0.393333696490E+02   -0.16478E-06   -0.27220E-06  1485   0.688E-03
  54 F= -.41857784E+02 E0= -.41857391E+02  d E =-.184188E-03
       N       E                     dE             d eps       ncg     rms          rms(c)
DAV:   1    -0.393332386586E+02    0.13083E-03   -0.10649E-03  1782   0.237E-01    0.136E-02
DAV:   2    -0.393332432436E+02   -0.45850E-05   -0.52899E-05  2057   0.436E-02    0.507E-03
DAV:   3    -0.393332431797E+02    0.63922E-07   -0.97731E-07  1265   0.613E-03
  55 F= -.41857796E+02 E0= -.41857403E+02  d E =-.115595E-04
       N       E                     dE             d eps       ncg     rms          rms(c)
DAV:   1    -0.393332060620E+02    0.37182E-04   -0.16567E-04  1782   0.958E-02    0.279E-03
DAV:   2    -0.393332067348E+02   -0.67273E-06   -0.72710E-06  1815   0.170E-02
  56 F= -.41857800E+02 E0= -.41857406E+02  d E =-.373351E-05
       N       E                     dE             d eps       ncg     rms          rms(c)
DAV:   1    -0.393316827571E+02    0.15233E-02   -0.10582E-01  1782   0.242E+00    0.104E-01
DAV:   2    -0.393321365820E+02   -0.45382E-03   -0.49500E-03  2013   0.434E-01    0.477E-02
DAV:   3    -0.393321268607E+02    0.97212E-05   -0.60691E-05  2156   0.509E-02    0.371E-02
DAV:   4    -0.393321242733E+02    0.25874E-05   -0.15628E-05  2332   0.205E-02    0.235E-02
DAV:   5    -0.393321239509E+02    0.32234E-06   -0.32772E-06  2079   0.111E-02
  57 F= -.41857907E+02 E0= -.41857512E+02  d E =-.107142E-03
       N       E                     dE             d eps       ncg     rms          rms(c)
DAV:   1    -0.393312256888E+02    0.89858E-03   -0.45159E-02  1782   0.159E+00    0.646E-02
DAV:   2    -0.393314177873E+02   -0.19210E-03   -0.20971E-03  1936   0.284E-01    0.302E-02
DAV:   3    -0.393314142921E+02    0.34952E-05   -0.26142E-05  2123   0.335E-02    0.229E-02
DAV:   4    -0.393314132647E+02    0.10274E-05   -0.70640E-06  2332   0.141E-02    0.144E-02
DAV:   5    -0.393314133952E+02   -0.13047E-06   -0.12203E-06  1155   0.679E-03
  58 F= -.41857974E+02 E0= -.41857578E+02  d E =-.668558E-04
       N       E                     dE             d eps       ncg     rms          rms(c)
DAV:   1    -0.393278381461E+02    0.35751E-02   -0.35425E-01  1782   0.446E+00    0.187E-01
DAV:   2    -0.393293569159E+02   -0.15188E-02   -0.16541E-02  1936   0.797E-01    0.818E-02
DAV:   3    -0.393293268101E+02    0.30106E-04   -0.21294E-04  2134   0.953E-02    0.628E-02
DAV:   4    -0.393293188892E+02    0.79210E-05   -0.51955E-05  2299   0.373E-02    0.400E-02
DAV:   5    -0.393293180720E+02    0.81719E-06   -0.11301E-05  2244   0.204E-02    0.219E-02
DAV:   6    -0.393293186458E+02   -0.57383E-06   -0.38637E-06  2200   0.115E-02
  59 F= -.41858121E+02 E0= -.41857722E+02  d E =-.147588E-03
       N       E                     dE             d eps       ncg     rms          rms(c)
DAV:   1    -0.393287911368E+02    0.52694E-03   -0.18632E-02  1782   0.102E+00    0.434E-02
DAV:   2    -0.393288700618E+02   -0.78925E-04   -0.86995E-04  1947   0.182E-01    0.178E-02
DAV:   3    -0.393288687266E+02    0.13352E-05   -0.11909E-05  2145   0.222E-02    0.134E-02
DAV:   4    -0.393288684761E+02    0.25050E-06   -0.24407E-06  1947   0.849E-03
  60 F= -.41858146E+02 E0= -.41857746E+02  d E =-.247526E-04
       N       E                     dE             d eps       ncg     rms          rms(c)
DAV:   1    -0.393290127586E+02   -0.14403E-03   -0.15471E-03  1782   0.285E-01    0.160E-02
DAV:   2    -0.393290193831E+02   -0.66245E-05   -0.72735E-05  2035   0.516E-02    0.451E-03
DAV:   3    -0.393290191755E+02    0.20760E-06   -0.10167E-06  1199   0.653E-03
  61 F= -.41858139E+02 E0= -.41857740E+02  d E =0.665291E-05
       N       E                     dE             d eps       ncg     rms          rms(c)
DAV:   1    -0.393289856796E+02    0.33704E-04   -0.92963E-05  1782   0.698E-02    0.514E-03
DAV:   2    -0.393289860580E+02   -0.37837E-06   -0.48559E-06  2134   0.131E-02
  62 F= -.41858141E+02 E0= -.41857742E+02  d E =-.208058E-05
       N       E                     dE             d eps       ncg     rms          rms(c)
DAV:   1    -0.393286177998E+02    0.36788E-03   -0.10799E-02  1782   0.785E-01    0.308E-02
DAV:   2    -0.393286638261E+02   -0.46026E-04   -0.50014E-04  1892   0.139E-01    0.151E-02
DAV:   3    -0.393286628445E+02    0.98163E-06   -0.63449E-06  2090   0.166E-02
  63 F= -.41858158E+02 E0= -.41857759E+02  d E =-.163595E-04
       N       E                     dE             d eps       ncg     rms          rms(c)
DAV:   1    -0.393285961665E+02    0.67660E-04   -0.38944E-04  1782   0.139E-01    0.659E-03
DAV:   2    -0.393285975541E+02   -0.13877E-05   -0.15830E-05  2024   0.248E-02    0.632E-03
DAV:   3    -0.393285975228E+02    0.31302E-07   -0.22462E-07  1122   0.302E-03
  64 F= -.41858160E+02 E0= -.41857761E+02  d E =-.276570E-05
       N       E                     dE             d eps       ncg     rms          rms(c)
DAV:   1    -0.393283453224E+02    0.25223E-03   -0.42462E-03  1782   0.486E-01    0.199E-02
DAV:   2    -0.393283634747E+02   -0.18152E-04   -0.19905E-04  1980   0.873E-02    0.928E-03
DAV:   3    -0.393283631303E+02    0.34441E-06   -0.27150E-06  1958   0.106E-02
  65 F= -.41858170E+02 E0= -.41857770E+02  d E =-.909030E-05
       N       E                     dE             d eps       ncg     rms          rms(c)
DAV:   1    -0.393279906162E+02    0.37286E-03   -0.90071E-03  1782   0.709E-01    0.259E-02
DAV:   2    -0.393280286880E+02   -0.38072E-04   -0.41189E-04  1914   0.126E-01    0.160E-02
DAV:   3    -0.393280279605E+02    0.72745E-06   -0.50609E-06  2167   0.146E-02
  66 F= -.41858180E+02 E0= -.41857780E+02  d E =-.105653E-04
       N       E                     dE             d eps       ncg     rms          rms(c)
DAV:   1    -0.393279149309E+02    0.11376E-03   -0.86697E-04  1782   0.221E-01    0.614E-03
DAV:   2    -0.393279184165E+02   -0.34855E-05   -0.37885E-05  1848   0.392E-02    0.864E-03
DAV:   3    -0.393279184030E+02    0.13467E-07   -0.42060E-07  1100   0.417E-03
  67 F= -.41858184E+02 E0= -.41857783E+02  d E =-.364374E-05
       N       E                     dE             d eps       ncg     rms          rms(c)
DAV:   1    -0.393285042996E+02   -0.58588E-03   -0.51404E-02  1782   0.170E+00    0.739E-02
DAV:   2    -0.393287263102E+02   -0.22201E-03   -0.24091E-03  1980   0.304E-01    0.300E-02
DAV:   3    -0.393287212506E+02    0.50596E-05   -0.30312E-05  2134   0.362E-02    0.234E-02
DAV:   4    -0.393287200402E+02    0.12104E-05   -0.77563E-06  2332   0.142E-02    0.145E-02
DAV:   5    -0.393287197617E+02    0.27854E-06   -0.12349E-06  1122   0.720E-03
  68 F= -.41858155E+02 E0= -.41857756E+02  d E =0.289386E-04
       N       E                     dE             d eps       ncg     rms          rms(c)
DAV:   1    -0.393262630702E+02    0.24570E-02   -0.19824E-01  1782   0.332E+00    0.145E-01
DAV:   2    -0.393271186163E+02   -0.85555E-03   -0.93158E-03  2013   0.596E-01    0.620E-02
DAV:   3    -0.393270994618E+02    0.19155E-04   -0.11759E-04  2156   0.708E-02    0.486E-02
DAV:   4    -0.393270950302E+02    0.44315E-05   -0.28251E-05  2332   0.272E-02    0.310E-02
DAV:   5    -0.393270940465E+02    0.98377E-06   -0.62545E-06  2189   0.155E-02
  69 F= -.41858206E+02 E0= -.41857804E+02  d E =-.511875E-04
       N       E                     dE             d eps       ncg     rms          rms(c)
DAV:   1    -0.393272611329E+02   -0.16610E-03   -0.14216E-03  1782   0.266E-01    0.201E-02
DAV:   2    -0.393272675547E+02   -0.64218E-05   -0.72029E-05  2200   0.499E-02    0.497E-03
DAV:   3    -0.393272673140E+02    0.24067E-06   -0.17272E-06  1353   0.792E-03
  70 F= -.41858203E+02 E0= -.41857801E+02  d E =0.282390E-05
       N       E                     dE             d eps       ncg     rms          rms(c)
DAV:   1    -0.393271425881E+02    0.12497E-03   -0.96063E-04  1782   0.225E-01    0.130E-02
DAV:   2    -0.393271467224E+02   -0.41343E-05   -0.46917E-05  2112   0.413E-02    0.397E-03
DAV:   3    -0.393271466396E+02    0.82848E-07   -0.63218E-07  1067   0.526E-03
  71 F= -.41858206E+02 E0= -.41857804E+02  d E =-.251452E-05
       N       E                     dE             d eps       ncg     rms          rms(c)
DAV:   1    -0.393270822531E+02    0.64469E-04   -0.37652E-04  1782   0.146E-01    0.469E-03
DAV:   2    -0.393270838074E+02   -0.15543E-05   -0.17055E-05  1859   0.259E-02    0.362E-03
DAV:   3    -0.393270837782E+02    0.29207E-07   -0.18291E-07   891   0.293E-03
  72 F= -.41858207E+02 E0= -.41857805E+02  d E =-.112058E-05
       N       E                     dE             d eps       ncg     rms          rms(c)
DAV:   1    -0.393268104975E+02    0.27331E-03   -0.52469E-03  1782   0.538E-01    0.219E-02
DAV:   2    -0.393268327374E+02   -0.22240E-04   -0.24236E-04  1969   0.964E-02    0.108E-02
DAV:   3    -0.393268323060E+02    0.43147E-06   -0.29818E-06  2112   0.112E-02
  73 F= -.41858211E+02 E0= -.41857809E+02  d E =-.414889E-05
       N       E                     dE             d eps       ncg     rms          rms(c)
DAV:   1    -0.393266820892E+02    0.15065E-03   -0.16129E-03  1782   0.300E-01    0.915E-03
DAV:   2    -0.393266887371E+02   -0.66479E-05   -0.72012E-05  1881   0.533E-02    0.865E-03
DAV:   3    -0.393266886468E+02    0.90337E-07   -0.80129E-07  1199   0.595E-03
  74 F= -.41858213E+02 E0= -.41857810E+02  d E =-.194113E-05
       N       E                     dE             d eps       ncg     rms          rms(c)
DAV:   1    -0.393267138251E+02   -0.25088E-04   -0.30099E-05  1826   0.391E-02    0.506E-03
DAV:   2    -0.393267139685E+02   -0.14340E-06   -0.16764E-06  1749   0.740E-03
  75 F= -.41858212E+02 E0= -.41857810E+02  d E =0.598489E-06
       N       E                     dE             d eps       ncg     rms          rms(c)
DAV:   1    -0.393267013388E+02    0.12486E-04   -0.63164E-05  1782   0.472E-02    0.480E-03
DAV:   2    -0.393267016485E+02   -0.30965E-06   -0.30623E-06  1969   0.930E-03
  76 F= -.41858213E+02 E0= -.41857810E+02  d E =-.434559E-06
       N       E                     dE             d eps       ncg     rms          rms(c)
DAV:   1    -0.393267240614E+02   -0.22723E-04   -0.16199E-05  1793   0.220E-02    0.289E-03
DAV:   2    -0.393267240886E+02   -0.27162E-07   -0.63902E-07   891   0.435E-03
  77 F= -.41858212E+02 E0= -.41857810E+02  d E =0.421328E-06
       N       E                     dE             d eps       ncg     rms          rms(c)
DAV:   1    -0.393267652015E+02   -0.41140E-04   -0.10454E-04  1782   0.770E-02    0.435E-03
DAV:   2    -0.393267655881E+02   -0.38664E-06   -0.47966E-06  1980   0.136E-02
  78 F= -.41858211E+02 E0= -.41857809E+02  d E =0.954495E-06
       N       E                     dE             d eps       ncg     rms          rms(c)
DAV:   1    -0.393267939735E+02   -0.28772E-04   -0.32998E-05  1782   0.415E-02    0.256E-03
DAV:   2    -0.393267940407E+02   -0.67213E-07   -0.14085E-06  1342   0.758E-03
  79 F= -.41858211E+02 E0= -.41857808E+02  d E =0.667111E-06
       N       E                     dE             d eps       ncg     rms          rms(c)
DAV:   1    -0.393265930476E+02    0.20093E-03   -0.17710E-03  1782   0.313E-01    0.169E-02
DAV:   2    -0.393266007068E+02   -0.76592E-05   -0.83885E-05  1925   0.557E-02    0.617E-03
DAV:   3    -0.393266006051E+02    0.10167E-06   -0.12995E-06  1320   0.744E-03
  80 F= -.41858215E+02 E0= -.41857812E+02  d E =-.400259E-05
       N       E                     dE             d eps       ncg     rms          rms(c)
DAV:   1    -0.393265800877E+02    0.20619E-04   -0.33261E-05  1782   0.426E-02    0.227E-03
DAV:   2    -0.393265802544E+02   -0.16670E-06   -0.13801E-06  1199   0.769E-03
  81 F= -.41858215E+02 E0= -.41857812E+02  d E =-.404595E-06
       N       E                     dE             d eps       ncg     rms          rms(c)
DAV:   1    -0.393265541038E+02    0.25984E-04   -0.28318E-05  1782   0.373E-02    0.189E-03
DAV:   2    -0.393265542494E+02   -0.14561E-06   -0.11871E-06  1034   0.695E-03
  82 F= -.41858215E+02 E0= -.41857813E+02  d E =-.437319E-06
       N       E                     dE             d eps       ncg     rms          rms(c)
DAV:   1    -0.393264650489E+02    0.89055E-04   -0.46139E-04  1782   0.159E-01    0.663E-03
DAV:   2    -0.393264670725E+02   -0.20236E-05   -0.21433E-05  2024   0.287E-02    0.404E-03
DAV:   3    -0.393264670441E+02    0.28433E-07   -0.24108E-07   902   0.335E-03
  83 F= -.41858217E+02 E0= -.41857814E+02  d E =-.117507E-05
       N       E                     dE             d eps       ncg     rms          rms(c)
DAV:   1    -0.393264649192E+02    0.21533E-05   -0.50514E-07   902   0.565E-03    0.170E-03
DAV:   2    -0.393264649357E+02   -0.16437E-07   -0.63658E-08   891   0.166E-03
  84 F= -.41858217E+02 E0= -.41857814E+02  d E =-.469632E-07
       N       E                     dE             d eps       ncg     rms          rms(c)
DAV:   1    -0.393264531755E+02    0.11744E-04   -0.19244E-05  1782   0.247E-02    0.233E-03
DAV:   2    -0.393264532210E+02   -0.45475E-07   -0.77770E-07   913   0.495E-03
  85 F= -.41858217E+02 E0= -.41857814E+02  d E =-.901863E-07
       N       E                     dE             d eps       ncg     rms          rms(c)
DAV:   1    -0.393264049283E+02    0.48247E-04   -0.11925E-04  1782   0.796E-02    0.389E-03
DAV:   2    -0.393264054498E+02   -0.52149E-06   -0.55760E-06  2046   0.145E-02
  86 F= -.41858217E+02 E0= -.41857814E+02  d E =-.400860E-06
       N       E                     dE             d eps       ncg     rms          rms(c)
DAV:   1    -0.393264000561E+02    0.48721E-05   -0.27482E-06  1485   0.128E-02    0.160E-03
DAV:   2    -0.393264000719E+02   -0.15786E-07   -0.15523E-07   891   0.260E-03
  87 F= -.41858217E+02 E0= -.41857814E+02  d E =-.474962E-07
       N       E                     dE             d eps       ncg     rms          rms(c)
DAV:   1    -0.393264171087E+02   -0.17053E-04   -0.86510E-06  1859   0.165E-02    0.161E-03
DAV:   2    -0.393264171334E+02   -0.24726E-07   -0.35976E-07   891   0.326E-03
  88 F= -.41858217E+02 E0= -.41857814E+02  d E =0.607578E-07
       N       E                     dE             d eps       ncg     rms          rms(c)
DAV:   1    -0.393264085366E+02    0.85721E-05   -0.50892E-06  1705   0.171E-02    0.890E-04
DAV:   2    -0.393264085561E+02   -0.19451E-07   -0.25085E-07   891   0.310E-03
  89 F= -.41858217E+02 E0= -.41857814E+02  d E =-.653425E-07
       N       E                     dE             d eps       ncg     rms          rms(c)
DAV:   1    -0.393264033861E+02    0.51505E-05   -0.25294E-06  1529   0.104E-02    0.367E-04
DAV:   2    -0.393264033997E+02   -0.13672E-07   -0.15031E-07   891   0.213E-03
  90 F= -.41858217E+02 E0= -.41857814E+02  d E =-.440613E-07
       N       E                     dE             d eps       ncg     rms          rms(c)
DAV:   1    -0.393263932873E+02    0.10099E-04   -0.13120E-05  1782   0.279E-02    0.801E-04
DAV:   2    -0.393263933355E+02   -0.48273E-07   -0.52150E-07   891   0.482E-03
  91 F= -.41858217E+02 E0= -.41857814E+02  d E =-.726451E-07
       N       E                     dE             d eps       ncg     rms          rms(c)
DAV:   1    -0.393263845728E+02    0.87144E-05   -0.52111E-06  1771   0.169E-02    0.662E-04
DAV:   2    -0.393263845938E+02   -0.20939E-07   -0.21537E-07   891   0.306E-03
  92 F= -.41858217E+02 E0= -.41857814E+02  d E =-.616381E-07
       N       E                     dE             d eps       ncg     rms          rms(c)
DAV:   1    -0.393264011813E+02   -0.16608E-04   -0.26083E-05  1782   0.389E-02    0.165E-03
DAV:   2    -0.393264012811E+02   -0.99856E-07   -0.11002E-06   891   0.682E-03
  93 F= -.41858217E+02 E0= -.41857814E+02  d E =0.126802E-06
       N       E                     dE             d eps       ncg     rms          rms(c)
DAV:   1    -0.393263634884E+02    0.37693E-04   -0.11863E-04  1782   0.827E-02    0.320E-03
DAV:   2    -0.393263639976E+02   -0.50925E-06   -0.56052E-06  1826   0.145E-02
  94 F= -.41858218E+02 E0= -.41857814E+02  d E =-.269736E-06
       N       E                     dE             d eps       ncg     rms          rms(c)
DAV:   1    -0.393263562872E+02    0.72011E-05   -0.23385E-06  1716   0.818E-03    0.924E-04
DAV:   2    -0.393263562952E+02   -0.79526E-08   -0.10864E-07   891   0.197E-03
  95 F= -.41858218E+02 E0= -.41857814E+02  d E =-.326373E-07
       N       E                     dE             d eps       ncg     rms          rms(c)
DAV:   1    -0.393263442284E+02    0.12059E-04   -0.15928E-05  1782   0.306E-02    0.767E-04
DAV:   2    -0.393263442911E+02   -0.62660E-07   -0.64669E-07   891   0.536E-03
  96 F= -.41858218E+02 E0= -.41857814E+02  d E =-.672556E-07
       N       E                     dE             d eps       ncg     rms          rms(c)
DAV:   1    -0.393263355145E+02    0.87139E-05   -0.75067E-06  1782   0.194E-02    0.588E-04
DAV:   2    -0.393263355435E+02   -0.28990E-07   -0.29341E-07   891   0.354E-03
  97 F= -.41858218E+02 E0= -.41857814E+02  d E =-.527760E-07
       N       E                     dE             d eps       ncg     rms          rms(c)
DAV:   1    -0.393263282370E+02    0.72775E-05   -0.41580E-06  1606   0.155E-02    0.434E-04
DAV:   2    -0.393263282608E+02   -0.23816E-07   -0.23264E-07   891   0.302E-03
  98 F= -.41858218E+02 E0= -.41857814E+02  d E =-.363515E-07
       N       E                     dE             d eps       ncg     rms          rms(c)
DAV:   1    -0.393263181256E+02    0.10111E-04   -0.90855E-06  1782   0.224E-02    0.635E-04
DAV:   2    -0.393263181608E+02   -0.35249E-07   -0.36519E-07   891   0.402E-03
  99 F= -.41858218E+02 E0= -.41857814E+02  d E =-.465916E-07
       N       E                     dE             d eps       ncg     rms          rms(c)
DAV:   1    -0.393263418961E+02   -0.23770E-04   -0.41654E-05  1782   0.484E-02    0.238E-03
DAV:   2    -0.393263420631E+02   -0.16703E-06   -0.18913E-06  1496   0.864E-03
 100 F= -.41858218E+02 E0= -.41857814E+02  d E =0.116575E-06
       N       E                     dE             d eps       ncg     rms          rms(c)
DAV:   1    -0.393263298558E+02    0.12040E-04   -0.11108E-05  1782   0.254E-02    0.123E-03
DAV:   2    -0.393263298974E+02   -0.41598E-07   -0.50897E-07   891   0.449E-03
 101 F= -.41858218E+02 E0= -.41857814E+02  d E =-.611852E-07
       N       E                     dE             d eps       ncg     rms          rms(c)
DAV:   1    -0.393263277438E+02    0.21120E-05   -0.21939E-07   891   0.228E-03    0.268E-04
DAV:   2    -0.393263277480E+02   -0.42182E-08   -0.43704E-08   891   0.112E-03
 102 F= -.41858218E+02 E0= -.41857814E+02  d E =-.138968E-07
       N       E                     dE             d eps       ncg     rms          rms(c)
DAV:   1    -0.393263266778E+02    0.10660E-05   -0.42833E-07   891   0.518E-03    0.150E-04
DAV:   2    -0.393263266818E+02   -0.40372E-08   -0.35284E-08   891   0.118E-03
 103 F= -.41858218E+02 E0= -.41857814E+02  d E =-.730940E-08
       N       E                     dE             d eps       ncg     rms          rms(c)
DAV:   1    -0.393263240407E+02    0.26371E-05   -0.10175E-06  1188   0.615E-03    0.215E-04
DAV:   2    -0.393263240489E+02   -0.81900E-08   -0.84505E-08   891   0.156E-03
 104 F= -.41858218E+02 E0= -.41857814E+02  d E =-.131871E-07
       N       E                     dE             d eps       ncg     rms          rms(c)
DAV:   1    -0.393263226386E+02    0.14021E-05   -0.36561E-07   891   0.457E-03    0.154E-04
DAV:   2    -0.393263226411E+02   -0.24866E-08   -0.27695E-08   891   0.972E-04
 105 F= -.41858218E+02 E0= -.41857814E+02  d E =-.539617E-08
       N       E                     dE             d eps       ncg     rms          rms(c)
DAV:   1    -0.393263218475E+02    0.79105E-06   -0.26655E-08   891   0.816E-04    0.820E-05
DAV:   2    -0.393263218479E+02   -0.42110E-09   -0.42841E-09   891   0.344E-04
 106 F= -.41858218E+02 E0= -.41857814E+02  d E =-.350237E-08
       N       E                     dE             d eps       ncg     rms          rms(c)
DAV:   1    -0.393263232370E+02   -0.13895E-05   -0.33400E-07  1188   0.389E-03    0.182E-04
DAV:   2    -0.393263232384E+02   -0.13324E-08   -0.20161E-08   891   0.772E-04
 107 F= -.41858218E+02 E0= -.41857814E+02  d E =0.447027E-08
       N       E                     dE             d eps       ncg     rms          rms(c)
DAV:   1    -0.393263172901E+02    0.59470E-05   -0.65932E-06  1727   0.187E-02    0.570E-04
DAV:   2    -0.393263173160E+02   -0.25892E-07   -0.26936E-07   891   0.326E-03
 108 F= -.41858218E+02 E0= -.41857814E+02  d E =-.252032E-07
       N       E                     dE             d eps       ncg     rms          rms(c)
DAV:   1    -0.393263153196E+02    0.19704E-05   -0.54582E-07   990   0.479E-03    0.285E-04
DAV:   2    -0.393263153236E+02   -0.39945E-08   -0.39165E-08   891   0.114E-03
 109 F= -.41858218E+02 E0= -.41857814E+02  d E =-.930802E-08
       N       E                     dE             d eps       ncg     rms          rms(c)
DAV:   1    -0.393263050453E+02    0.10274E-04   -0.15546E-05  1782   0.297E-02    0.872E-04
DAV:   2    -0.393263051046E+02   -0.59282E-07   -0.61223E-07   891   0.513E-03
 110 F= -.41858218E+02 E0= -.41857814E+02  d E =-.368586E-07
       N       E                     dE             d eps       ncg     rms          rms(c)
DAV:   1    -0.393263053245E+02   -0.27921E-06   -0.17337E-06  1221   0.944E-03    0.419E-04
DAV:   2    -0.393263053331E+02   -0.86011E-08   -0.97760E-08   891   0.186E-03
 111 F= -.41858218E+02 E0= -.41857814E+02  d E =-.192532E-08
       N       E                     dE             d eps       ncg     rms          rms(c)
DAV:   1    -0.393263036485E+02    0.16760E-05   -0.18113E-07   891   0.283E-03    0.245E-04
DAV:   2    -0.393263036503E+02   -0.18445E-08   -0.17899E-08   891   0.740E-04
 112 F= -.41858218E+02 E0= -.41857814E+02  d E =-.911125E-08
       N       E                     dE             d eps       ncg     rms          rms(c)
DAV:   1    -0.393263006377E+02    0.30108E-05   -0.40906E-07   891   0.426E-03    0.203E-04
DAV:   2    -0.393263006431E+02   -0.53478E-08   -0.43742E-08   891   0.111E-03
 113 F= -.41858218E+02 E0= -.41857814E+02  d E =-.852347E-08
       N       E                     dE             d eps       ncg     rms          rms(c)
DAV:   1    -0.393263005479E+02    0.89854E-07   -0.12534E-07   891   0.237E-03    0.843E-05
DAV:   2    -0.393263005489E+02   -0.10850E-08   -0.98208E-09   891   0.588E-04
 114 F= -.41858218E+02 E0= -.41857814E+02  d E =-.328593E-08
       N       E                     dE             d eps       ncg     rms          rms(c)
DAV:   1    -0.393262974036E+02    0.31443E-05   -0.11112E-06  1188   0.640E-03    0.230E-04
DAV:   2    -0.393262974129E+02   -0.93405E-08   -0.96728E-08   891   0.166E-03
 115 F= -.41858218E+02 E0= -.41857815E+02  d E =-.110532E-07
       N       E                     dE             d eps       ncg     rms          rms(c)
DAV:   1    -0.393262972426E+02    0.16099E-06   -0.47526E-07  1188   0.463E-03    0.202E-04
DAV:   2    -0.393262972446E+02   -0.20445E-08   -0.31059E-08   891   0.980E-04
 116 F= -.41858218E+02 E0= -.41857814E+02  d E =-.168957E-08
       N       E                     dE             d eps       ncg     rms          rms(c)
DAV:   1    -0.393262948982E+02    0.23444E-05   -0.19602E-07   891   0.304E-03    0.144E-04
DAV:   2    -0.393262949002E+02   -0.20264E-08   -0.24005E-08   891   0.846E-04
 117 F= -.41858218E+02 E0= -.41857815E+02  d E =-.676043E-08
       N       E                     dE             d eps       ncg     rms          rms(c)
DAV:   1    -0.393262939258E+02    0.97235E-06   -0.36326E-07   891   0.441E-03    0.102E-04
DAV:   2    -0.393262939286E+02   -0.28076E-08   -0.30398E-08   891   0.105E-03
 118 F= -.41858218E+02 E0= -.41857815E+02  d E =-.456757E-08
       N       E                     dE             d eps       ncg     rms          rms(c)
DAV:   1    -0.393262925583E+02    0.13675E-05   -0.80176E-08   891   0.182E-03    0.887E-05
DAV:   2    -0.393262925596E+02   -0.12551E-08   -0.92875E-09   891   0.521E-04
 119 F= -.41858218E+02 E0= -.41857815E+02  d E =-.352081E-08
       N       E                     dE             d eps       ncg     rms          rms(c)
DAV:   1    -0.393262912048E+02    0.13535E-05   -0.34352E-07   891   0.423E-03    0.167E-04
DAV:   2    -0.393262912090E+02   -0.42537E-08   -0.36629E-08   891   0.111E-03
 120 F= -.41858218E+02 E0= -.41857815E+02  d E =-.552455E-08
       N       E                     dE             d eps       ncg     rms          rms(c)
DAV:   1    -0.393262906795E+02    0.52530E-06   -0.25357E-07   891   0.356E-03    0.142E-04
DAV:   2    -0.393262906809E+02   -0.14043E-08   -0.17999E-08   891   0.745E-04
 121 F= -.41858218E+02 E0= -.41857815E+02  d E =-.233306E-08
       N       E                     dE             d eps       ncg     rms          rms(c)
DAV:   1    -0.393262879274E+02    0.27521E-05   -0.19801E-06  1287   0.103E-02    0.276E-04
DAV:   2    -0.393262879380E+02   -0.10603E-07   -0.12045E-07   891   0.202E-03
 122 F= -.41858218E+02 E0= -.41857815E+02  d E =-.894898E-08
       N       E                     dE             d eps       ncg     rms          rms(c)
DAV:   1    -0.393262875832E+02    0.34420E-06   -0.48211E-07  1188   0.472E-03    0.199E-04
DAV:   2    -0.393262875861E+02   -0.28667E-08   -0.24525E-08   891   0.887E-04
 123 F= -.41858218E+02 E0= -.41857815E+02  d E =-.101420E-08
       N       E                     dE             d eps       ncg     rms          rms(c)
DAV:   1    -0.393262857120E+02    0.18712E-05   -0.36851E-07   891   0.477E-03    0.113E-04
DAV:   2    -0.393262857148E+02   -0.27630E-08   -0.30609E-08   891   0.104E-03
 124 F= -.41858218E+02 E0= -.41857815E+02  d E =-.620600E-08
       N       E                     dE             d eps       ncg     rms          rms(c)
DAV:   1    -0.393262849498E+02    0.76220E-06   -0.17114E-07   891   0.291E-03    0.122E-04
DAV:   2    -0.393262849510E+02   -0.12215E-08   -0.18915E-08   891   0.794E-04
 125 F= -.41858218E+02 E0= -.41857815E+02  d E =-.226368E-08
       N       E                     dE             d eps       ncg     rms          rms(c)
DAV:   1    -0.393262843139E+02    0.63594E-06   -0.14103E-07   891   0.278E-03    0.991E-05
DAV:   2    -0.393262843150E+02   -0.11041E-08   -0.10072E-08   891   0.578E-04
 126 F= -.41858218E+02 E0= -.41857815E+02  d E =-.180334E-08
       N       E                     dE             d eps       ncg     rms          rms(c)
DAV:   1    -0.393262851717E+02   -0.85787E-06   -0.33691E-08   891   0.131E-03    0.944E-05
DAV:   2    -0.393262851720E+02   -0.29195E-09   -0.40745E-09   891   0.348E-04
 127 F= -.41858218E+02 E0= -.41857815E+02  d E =0.196322E-08
       N       E                     dE             d eps       ncg     rms          rms(c)
DAV:   1    -0.393262852632E+02   -0.91406E-07   -0.30109E-08   891   0.125E-03    0.548E-05
DAV:   2    -0.393262852635E+02   -0.37380E-09   -0.20515E-09   891   0.270E-04
 128 F= -.41858218E+02 E0= -.41857815E+02  d E =-.663043E-09
       N       E                     dE             d eps       ncg     rms          rms(c)
DAV:   1    -0.393262838452E+02    0.14180E-05   -0.15844E-07   891   0.261E-03    0.105E-04
DAV:   2    -0.393262838467E+02   -0.15561E-08   -0.15515E-08   891   0.692E-04
 129 F= -.41858218E+02 E0= -.41857815E+02  d E =-.401765E-08
       N       E                     dE             d eps       ncg     rms          rms(c)
DAV:   1    -0.393262836888E+02    0.15639E-06   -0.70719E-09   891   0.555E-04    0.383E-05
DAV:   2    -0.393262836887E+02    0.92768E-10   -0.10533E-09   891   0.196E-04
 130 F= -.41858218E+02 E0= -.41857815E+02  d E =-.818140E-09
       N       E                     dE             d eps       ncg     rms          rms(c)
DAV:   1    -0.393262820741E+02    0.16147E-05   -0.10122E-06  1265   0.681E-03    0.199E-04
DAV:   2    -0.393262820790E+02   -0.49586E-08   -0.59569E-08   891   0.134E-03
 131 F= -.41858218E+02 E0= -.41857815E+02  d E =-.116516E-08
       N       E                     dE             d eps       ncg     rms          rms(c)
DAV:   1    -0.393262826665E+02   -0.59240E-06   -0.44233E-07  1188   0.503E-03    0.150E-04
DAV:   2    -0.393262826687E+02   -0.22765E-08   -0.24984E-08   891   0.934E-04
 132 F= -.41858218E+02 E0= -.41857815E+02  d E =0.724235E-09
       N       E                     dE             d eps       ncg     rms          rms(c)
DAV:   1    -0.393262788662E+02    0.38002E-05   -0.45056E-06  1661   0.141E-02    0.538E-04
DAV:   2    -0.393262788859E+02   -0.19701E-07   -0.19153E-07   891   0.256E-03
 133 F= -.41858218E+02 E0= -.41857815E+02  d E =-.116119E-07
       N       E                     dE             d eps       ncg     rms          rms(c)
DAV:   1    -0.393262783025E+02    0.56368E-06   -0.84507E-07  1188   0.620E-03    0.257E-04
DAV:   2    -0.393262783067E+02   -0.41673E-08   -0.43103E-08   891   0.116E-03
 134 F= -.41858218E+02 E0= -.41857815E+02  d E =-.412591E-08
       N       E                     dE             d eps       ncg     rms          rms(c)
DAV:   1    -0.393262759837E+02    0.23189E-05   -0.11892E-06  1188   0.870E-03    0.228E-04
DAV:   2    -0.393262759905E+02   -0.68558E-08   -0.73385E-08   891   0.163E-03
 135 F= -.41858218E+02 E0= -.41857815E+02  d E =-.570816E-08
       N       E                     dE             d eps       ncg     rms          rms(c)
DAV:   1    -0.393262758151E+02    0.16861E-06   -0.23680E-07   891   0.364E-03    0.140E-04
DAV:   2    -0.393262758170E+02   -0.19309E-08   -0.18189E-08   891   0.785E-04
 136 F= -.41858218E+02 E0= -.41857815E+02  d E =-.166483E-08
       N       E                     dE             d eps       ncg     rms          rms(c)
DAV:   1    -0.393262739130E+02    0.19021E-05   -0.28042E-07   891   0.399E-03    0.104E-04
DAV:   2    -0.393262739151E+02   -0.20755E-08   -0.24324E-08   891   0.885E-04
 137 F= -.41858218E+02 E0= -.41857815E+02  d E =-.435987E-08
       N       E                     dE             d eps       ncg     rms          rms(c)
DAV:   1    -0.393262731839E+02    0.72905E-06   -0.60210E-07  1188   0.511E-03    0.162E-04
DAV:   2    -0.393262731877E+02   -0.37508E-08   -0.38651E-08   891   0.110E-03
 138 F= -.41858218E+02 E0= -.41857815E+02  d E =-.267069E-08
       N       E                     dE             d eps       ncg     rms          rms(c)
DAV:   1    -0.393262727105E+02    0.47347E-06   -0.20263E-07   891   0.324E-03    0.131E-04
DAV:   2    -0.393262727119E+02   -0.14725E-08   -0.11925E-08   891   0.642E-04
 139 F= -.41858218E+02 E0= -.41857815E+02  d E =-.192407E-08
       N       E                     dE             d eps       ncg     rms          rms(c)
DAV:   1    -0.393262734710E+02   -0.76056E-06   -0.55984E-08   891   0.167E-03    0.994E-05
DAV:   2    -0.393262734715E+02   -0.51477E-09   -0.54991E-09   891   0.424E-04
 140 F= -.41858218E+02 E0= -.41857815E+02  d E =0.238612E-08
       N       E                     dE             d eps       ncg     rms          rms(c)
DAV:   1    -0.393262733394E+02    0.13159E-06   -0.51847E-08   891   0.163E-03    0.585E-05
DAV:   2    -0.393262733398E+02   -0.32833E-09   -0.31328E-09   891   0.322E-04
 141 F= -.41858218E+02 E0= -.41857815E+02  d E =-.108251E-08
       N       E                     dE             d eps       ncg     rms          rms(c)
DAV:   1    -0.393262718588E+02    0.14807E-05   -0.24610E-07   891   0.308E-03    0.121E-04
DAV:   2    -0.393262718610E+02   -0.22437E-08   -0.22888E-08   891   0.829E-04
 142 F= -.41858218E+02 E0= -.41857815E+02  d E =-.316716E-08
       N       E                     dE             d eps       ncg     rms          rms(c)
DAV:   1    -0.393262717287E+02    0.13005E-06   -0.23967E-08   891   0.113E-03    0.522E-05
DAV:   2    -0.393262717292E+02   -0.46384E-09   -0.21046E-09   891   0.291E-04
 143 F= -.41858218E+02 E0= -.41857815E+02  d E =-.142744E-08
       N       E                     dE             d eps       ncg     rms          rms(c)
DAV:   1    -0.393262692229E+02    0.25058E-05   -0.71332E-07  1188   0.609E-03    0.196E-04
DAV:   2    -0.393262692269E+02   -0.39299E-08   -0.48025E-08   891   0.121E-03
 144 F= -.41858218E+02 E0= -.41857815E+02  d E =-.463112E-08
       N       E                     dE             d eps       ncg     rms          rms(c)
DAV:   1    -0.393262698329E+02   -0.60991E-06   -0.18273E-07   891   0.346E-03    0.114E-04
DAV:   2    -0.393262698340E+02   -0.11669E-08   -0.11213E-08   891   0.670E-04
 145 F= -.41858218E+02 E0= -.41857815E+02  d E =0.109297E-08
       N       E                     dE             d eps       ncg     rms          rms(c)
DAV:   1    -0.393262695458E+02    0.28708E-06   -0.21395E-07   891   0.355E-03    0.922E-05
DAV:   2    -0.393262695480E+02   -0.22455E-08   -0.17556E-08   891   0.823E-04
 146 F= -.41858218E+02 E0= -.41857815E+02  d E =-.792880E-09
       N       E                     dE             d eps       ncg     rms          rms(c)
DAV:   1    -0.393262685744E+02    0.97135E-06   -0.19774E-07   891   0.311E-03    0.959E-05
DAV:   2    -0.393262685754E+02   -0.96679E-09   -0.13834E-08   891   0.642E-04
 147 F= -.41858218E+02 E0= -.41857815E+02  d E =-.254638E-08
       N       E                     dE             d eps       ncg     rms          rms(c)
DAV:   1    -0.393262676195E+02    0.95489E-06   -0.84814E-08   891   0.201E-03    0.905E-05
DAV:   2    -0.393262676207E+02   -0.12187E-08   -0.97697E-09   891   0.541E-04
 148 F= -.41858218E+02 E0= -.41857815E+02  d E =-.159324E-08
       N       E                     dE             d eps       ncg     rms          rms(c)
DAV:   1    -0.393262663957E+02    0.12238E-05   -0.11009E-06  1188   0.804E-03    0.204E-04
DAV:   2    -0.393262664019E+02   -0.61164E-08   -0.63549E-08   891   0.152E-03
 149 F= -.41858218E+02 E0= -.41857815E+02  d E =-.432623E-08
       N       E                     dE             d eps       ncg     rms          rms(c)
DAV:   1    -0.393262661166E+02    0.27912E-06   -0.27663E-07   891   0.346E-03    0.145E-04
DAV:   2    -0.393262661182E+02   -0.16144E-08   -0.15684E-08   891   0.680E-04
 150 F= -.41858218E+02 E0= -.41857815E+02  d E =-.804782E-09
       N       E                     dE             d eps       ncg     rms          rms(c)
DAV:   1    -0.393262645794E+02    0.15372E-05   -0.23754E-07   891   0.384E-03    0.933E-05
DAV:   2    -0.393262645813E+02   -0.18626E-08   -0.19773E-08   891   0.822E-04
 151 F= -.41858218E+02 E0= -.41857815E+02  d E =-.311219E-08
