Bilayer structure
 1.0000000000000000
  3.2193199999999997   0.0000000000000000   0.0000000000000000
  1.6096599999999999   2.7880129029113188   0.0000000000000000
  0.0000000000000000   0.0000000000000000  20.0000000000000000
   Mo   S   Se
     2     2     2
Direct
  0.0000000000000000   0.0000000000000000   0.5000000000000000
  0.3333333333333333   0.3333333333333333   0.8109924500000000
  0.3333333333333333   0.3333333333333333   0.4189287750000000
  0.3333333333333333   0.3333333333333333   0.5810712250000000
  0.0000000000000000   0.0000000000000000   0.7299212250000000
  0.0000000000000000   0.0000000000000000   0.8920636749999999
