Bilayer MoSe2/TiS2 2H (relaxed monolayer
    1.000000000000000     
     3.2927960000000001    0.0000000000000000    0.0000000000000000
     1.6463980000000000    2.8516449854797843    0.0000000000000000
     0.0000000000000000    0.0000000000000000   20.0000000000000000
  Mo              Se              Ti              S             
     1     2     1     2
Direct
     0.0000000000000000   -0.0000000000000000    0.5001833221516768
     0.3333333333333357    0.3333333333333357    0.4164277362982947
     0.3333333333333357    0.3333333333333357    0.5839047066415487
     0.3333333333333357    0.3333333333333357    0.8086336704647455
    -0.0000000000000000   -0.0000000000000000    0.7329490562919626
     0.0000000000000000   -0.0000000000000000    0.8841367450034205
 
  0.00000000E+00  0.00000000E+00  0.00000000E+00
  0.00000000E+00  0.00000000E+00  0.00000000E+00
  0.00000000E+00  0.00000000E+00  0.00000000E+00
  0.00000000E+00  0.00000000E+00  0.00000000E+00
  0.00000000E+00  0.00000000E+00  0.00000000E+00
  0.00000000E+00  0.00000000E+00  0.00000000E+00
