Bilayer structure
 1.0000000000000000
  3.2157439999999999   0.0000000000000000   0.0000000000000000
  1.6078720000000000   2.7849159960673857   0.0000000000000000
  0.0000000000000000   0.0000000000000000  20.0000000000000000
   Mo   Se   W   S
     1     2     1     2
Direct
  0.0000000000000000   0.0000000000000000   0.5000000000000000
  0.3333333333333333   0.3333333333333333   0.4186836250000000
  0.3333333333333333   0.3333333333333333   0.5813163750000000
  0.3333333333333333   0.3333333333333333   0.8118327500000000
  0.0000000000000000   0.0000000000000000   0.7305163750000000
  0.0000000000000000   0.0000000000000000   0.8931491250000000
