   27   27    1    1
  0.6434983E+02  0.1001556E-08  0.1001556E-08  0.2000000E-08  0.5000000E-15
  1.000000000000000E-004
  CAR 
 TaS2 phonon                             
    207     13    132
 
  0.1276756E-14  0.1276756E-14  0.1276756E-14  0.4000000E-01
      1        -37.395218   1.000000
      2        -37.394924   1.000000
      3        -37.394570   1.000000
      4        -37.394251   1.000000
      5        -37.394148   1.000000
      6        -37.394023   1.000000
      7        -37.394011   1.000000
      8        -37.393696   1.000000
      9        -37.359966   1.000000
     10        -37.359953   1.000000
     11        -37.280427   1.000000
     12        -37.239890   1.000000
     13        -37.238866   1.000000
     14        -37.238204   1.000000
     15        -37.237978   1.000000
     16        -37.237900   1.000000
     17        -37.237710   1.000000
     18        -37.226221   1.000000
     19        -37.225908   1.000000
     20        -37.225538   1.000000
     21        -37.225201   1.000000
     22        -37.225172   1.000000
     23        -37.225040   1.000000
     24        -37.217648   1.000000
     25        -37.216965   1.000000
     26        -37.174355   1.000000
     27        -37.174237   1.000000
     28        -16.735863   1.000000
     29        -15.529799   1.000000
     30        -15.529789   1.000000
     31        -15.529766   1.000000
     32        -15.529584   1.000000
     33        -15.529533   1.000000
     34        -15.519505   1.000000
     35        -15.170635   1.000000
     36        -14.818466   1.000000
     37        -14.818344   1.000000
     38        -14.818303   1.000000
     39        -14.818172   1.000000
     40        -14.818107   1.000000
     41        -14.815152   1.000000
     42        -14.792134   1.000000
     43        -14.788040   1.000000
     44        -14.575235   1.000000
     45        -14.573391   1.000000
     46         -8.280604   1.000000
     47         -7.825356   1.000000
     48         -7.824456   1.000000
     49         -7.824450   1.000000
     50         -7.821301   1.000000
     51         -7.820671   1.000000
     52         -7.819873   1.000000
     53         -7.658832   1.000000
     54         -7.657798   1.000000
     55         -7.396397   1.000000
     56         -7.394550   1.000000
     57         -6.738183   1.000000
     58         -6.737784   1.000000
     59         -6.737440   1.000000
     60         -6.736334   1.000000
     61         -6.736140   1.000000
     62         -6.732412   1.000000
     63         -6.609598   1.000000
     64         -6.607563   1.000000
     65         -6.515804   1.000000
     66         -6.515366   1.000000
     67         -6.515019   1.000000
     68         -6.514264   1.000000
     69         -6.512533   1.000000
     70         -6.512431   1.000000
     71         -6.203341   1.000000
     72         -6.201190   1.000000
     73         -5.436839   1.000000
     74         -5.435291   1.000000
     75         -5.333472   1.000000
     76         -5.333363   1.000000
     77         -5.333320   1.000000
     78         -5.333074   1.000000
     79         -5.328959   1.000000
     80         -5.326277   1.000000
     81         -5.175468   1.000000
     82         -5.174998   1.000000
     83         -4.480367   1.000000
     84         -4.478353   1.000000
     85         -4.253401   1.000000
     86         -4.253274   1.000000
     87         -4.253217   1.000000
     88         -4.253061   1.000000
     89         -4.247470   1.000000
     90         -4.247231   1.000000
     91         -4.241221   1.000000
     92         -4.134753   1.000000
     93         -4.129014   1.000000
     94         -4.128903   1.000000
     95         -4.128453   1.000000
     96         -4.128409   1.000000
     97         -4.127867   1.000000
     98         -4.046916   1.000000
     99         -4.044790   1.000000
    100         -3.068817   1.000000
    101         -3.067171   1.000000
    102         -3.066640   1.000000
    103         -3.066502   1.000000
    104         -3.066100   1.000000
    105         -3.064815   1.000000
    106         -2.043345   0.000000
    107         -2.042589   0.000000
    108         -1.682906   0.000000
    109         -0.386037   0.000000
    110         -0.385494   0.000000
    111          0.500387   0.000000
    112          0.500543   0.000000
    113          0.502861   0.000000
    114          0.503033   0.000000
    115          0.503734   0.000000
    116          0.503788   0.000000
    117          0.520293   0.000000
    118          0.522594   0.000000
    119          0.622881   0.000000
    120          0.623958   0.000000
    121          0.667238   0.000000
    122          0.668718   0.000000
    123          0.669970   0.000000
    124          0.671585   0.000000
    125          0.672098   0.000000
    126          0.672232   0.000000
    127          1.341808   0.000000
    128          1.344402   0.000000
    129          1.345335   0.000000
    130          1.346472   0.000000
    131          1.347363   0.000000
    132          1.348077   0.000000
 
  0.2000000E+00  0.1279561E-14  0.1276756E-14  0.8000000E-01
      1        -37.438340   1.000000
      2        -37.417012   1.000000
      3        -37.416639   1.000000
      4        -37.411165   1.000000
      5        -37.410876   1.000000
      6        -37.367896   1.000000
      7        -37.367367   1.000000
      8        -37.337218   1.000000
      9        -37.335674   1.000000
     10        -37.335560   1.000000
     11        -37.278018   1.000000
     12        -37.249592   1.000000
     13        -37.243103   1.000000
     14        -37.242439   1.000000
     15        -37.238277   1.000000
     16        -37.238155   1.000000
     17        -37.236003   1.000000
     18        -37.233249   1.000000
     19        -37.232496   1.000000
     20        -37.229650   1.000000
     21        -37.224992   1.000000
     22        -37.224683   1.000000
     23        -37.218852   1.000000
     24        -37.218184   1.000000
     25        -37.212108   1.000000
     26        -37.187195   1.000000
     27        -37.177315   1.000000
     28        -16.673676   1.000000
     29        -15.878962   1.000000
     30        -15.671076   1.000000
     31        -15.667610   1.000000
     32        -15.343147   1.000000
     33        -15.339761   1.000000
     34        -15.229728   1.000000
     35        -15.152213   1.000000
     36        -14.918431   1.000000
     37        -14.857298   1.000000
     38        -14.856640   1.000000
     39        -14.836612   1.000000
     40        -14.833116   1.000000
     41        -14.763410   1.000000
     42        -14.762134   1.000000
     43        -14.733700   1.000000
     44        -14.592178   1.000000
     45        -14.590379   1.000000
     46         -8.204703   1.000000
     47         -8.195896   1.000000
     48         -7.979270   1.000000
     49         -7.978384   1.000000
     50         -7.610465   1.000000
     51         -7.609474   1.000000
     52         -7.590815   1.000000
     53         -7.590604   1.000000
     54         -7.575260   1.000000
     55         -7.573969   1.000000
     56         -7.509083   1.000000
     57         -6.866117   1.000000
     58         -6.844774   1.000000
     59         -6.832264   1.000000
     60         -6.831969   1.000000
     61         -6.744221   1.000000
     62         -6.743425   1.000000
     63         -6.631553   1.000000
     64         -6.629397   1.000000
     65         -6.580025   1.000000
     66         -6.436843   1.000000
     67         -6.435845   1.000000
     68         -6.310507   1.000000
     69         -6.309930   1.000000
     70         -6.052006   1.000000
     71         -6.051287   1.000000
     72         -6.050213   1.000000
     73         -5.523674   1.000000
     74         -5.505368   1.000000
     75         -5.503623   1.000000
     76         -5.494928   1.000000
     77         -5.493179   1.000000
     78         -5.370326   1.000000
     79         -5.336751   1.000000
     80         -5.334073   1.000000
     81         -5.119276   1.000000
     82         -5.061286   1.000000
     83         -4.556232   1.000000
     84         -4.479176   1.000000
     85         -4.476415   1.000000
     86         -4.475357   1.000000
     87         -4.406062   1.000000
     88         -4.404163   1.000000
     89         -4.376215   1.000000
     90         -4.374510   1.000000
     91         -4.214941   1.000000
     92         -4.149101   1.000000
     93         -4.132753   1.000000
     94         -4.130571   1.000000
     95         -4.091242   1.000000
     96         -3.998374   1.000000
     97         -3.986773   1.000000
     98         -3.984949   1.000000
     99         -3.857949   1.000000
    100         -3.095968   1.000000
    101         -3.016661   1.000000
    102         -3.015541   1.000000
    103         -2.921168   1.000000
    104         -2.920712   1.000000
    105         -2.790974   0.917540
    106         -2.227243   0.000000
    107         -2.226699   0.000000
    108         -1.746714   0.000000
    109         -0.124362   0.000000
    110         -0.123644   0.000000
    111          0.284091   0.000000
    112          0.284505   0.000000
    113          0.394930   0.000000
    114          0.433056   0.000000
    115          0.479747   0.000000
    116          0.508905   0.000000
    117          0.514261   0.000000
    118          0.515548   0.000000
    119          0.580874   0.000000
    120          0.658519   0.000000
    121          0.686846   0.000000
    122          0.694114   0.000000
    123          0.696307   0.000000
    124          0.886239   0.000000
    125          0.886897   0.000000
    126          0.943534   0.000000
    127          0.993486   0.000000
    128          1.114596   0.000000
    129          1.115084   0.000000
    130          1.471196   0.000000
    131          1.472245   0.000000
    132          1.592924   0.000000
 
  0.2000000E+00  0.2000000E+00  0.1276756E-14  0.8000000E-01
      1        -37.438472   1.000000
      2        -37.416835   1.000000
      3        -37.416704   1.000000
      4        -37.411152   1.000000
      5        -37.410904   1.000000
      6        -37.367650   1.000000
      7        -37.367427   1.000000
      8        -37.337347   1.000000
      9        -37.335711   1.000000
     10        -37.335528   1.000000
     11        -37.278018   1.000000
     12        -37.249558   1.000000
     13        -37.243196   1.000000
     14        -37.242406   1.000000
     15        -37.238377   1.000000
     16        -37.238087   1.000000
     17        -37.235945   1.000000
     18        -37.233202   1.000000
     19        -37.232502   1.000000
     20        -37.229663   1.000000
     21        -37.225129   1.000000
     22        -37.224687   1.000000
     23        -37.218858   1.000000
     24        -37.218178   1.000000
     25        -37.212012   1.000000
     26        -37.187297   1.000000
     27        -37.177213   1.000000
     28        -16.673666   1.000000
     29        -15.878809   1.000000
     30        -15.671067   1.000000
     31        -15.667871   1.000000
     32        -15.343134   1.000000
     33        -15.339983   1.000000
     34        -15.229411   1.000000
     35        -15.152222   1.000000
     36        -14.918620   1.000000
     37        -14.857336   1.000000
     38        -14.856305   1.000000
     39        -14.836610   1.000000
     40        -14.833103   1.000000
     41        -14.763450   1.000000
     42        -14.761852   1.000000
     43        -14.734091   1.000000
     44        -14.592184   1.000000
     45        -14.590356   1.000000
     46         -8.204679   1.000000
     47         -8.196122   1.000000
     48         -7.978869   1.000000
     49         -7.978582   1.000000
     50         -7.610421   1.000000
     51         -7.609440   1.000000
     52         -7.590870   1.000000
     53         -7.590573   1.000000
     54         -7.575029   1.000000
     55         -7.574210   1.000000
     56         -7.508925   1.000000
     57         -6.865884   1.000000
     58         -6.844570   1.000000
     59         -6.832543   1.000000
     60         -6.832073   1.000000
     61         -6.743979   1.000000
     62         -6.743356   1.000000
     63         -6.631261   1.000000
     64         -6.630158   1.000000
     65         -6.579535   1.000000
     66         -6.437241   1.000000
     67         -6.435906   1.000000
     68         -6.310843   1.000000
     69         -6.309959   1.000000
     70         -6.052393   1.000000
     71         -6.051382   1.000000
     72         -6.049806   1.000000
     73         -5.523009   1.000000
     74         -5.505350   1.000000
     75         -5.504706   1.000000
     76         -5.495036   1.000000
     77         -5.493395   1.000000
     78         -5.369980   1.000000
     79         -5.336287   1.000000
     80         -5.334613   1.000000
     81         -5.119691   1.000000
     82         -5.060260   1.000000
     83         -4.557056   1.000000
     84         -4.479018   1.000000
     85         -4.476841   1.000000
     86         -4.475394   1.000000
     87         -4.405947   1.000000
     88         -4.404046   1.000000
     89         -4.376118   1.000000
     90         -4.374204   1.000000
     91         -4.215448   1.000000
     92         -4.147504   1.000000
     93         -4.131952   1.000000
     94         -4.130615   1.000000
     95         -4.091039   1.000000
     96         -3.998421   1.000000
     97         -3.986932   1.000000
     98         -3.985115   1.000000
     99         -3.858690   1.000000
    100         -3.096916   1.000000
    101         -3.016923   1.000000
    102         -3.015078   1.000000
    103         -2.920523   1.000000
    104         -2.919840   1.000000
    105         -2.791824   0.921136
    106         -2.227310   0.000000
    107         -2.226575   0.000000
    108         -1.746810   0.000000
    109         -0.124183   0.000000
    110         -0.123828   0.000000
    111          0.283509   0.000000
    112          0.284007   0.000000
    113          0.395213   0.000000
    114          0.433319   0.000000
    115          0.481737   0.000000
    116          0.508350   0.000000
    117          0.514410   0.000000
    118          0.515546   0.000000
    119          0.581725   0.000000
    120          0.656573   0.000000
    121          0.686666   0.000000
    122          0.694543   0.000000
    123          0.696572   0.000000
    124          0.885687   0.000000
    125          0.886548   0.000000
    126          0.943834   0.000000
    127          0.994281   0.000000
    128          1.114389   0.000000
    129          1.115176   0.000000
    130          1.468809   0.000000
    131          1.472630   0.000000
    132          1.589515   0.000000
 
  0.1276756E-14  0.2000000E+00  0.1276756E-14  0.8000000E-01
      1        -37.438407   1.000000
      2        -37.416947   1.000000
      3        -37.416645   1.000000
      4        -37.411175   1.000000
      5        -37.410876   1.000000
      6        -37.367796   1.000000
      7        -37.367375   1.000000
      8        -37.337283   1.000000
      9        -37.335709   1.000000
     10        -37.335527   1.000000
     11        -37.278018   1.000000
     12        -37.249585   1.000000
     13        -37.243125   1.000000
     14        -37.242429   1.000000
     15        -37.238348   1.000000
     16        -37.238106   1.000000
     17        -37.235965   1.000000
     18        -37.233242   1.000000
     19        -37.232500   1.000000
     20        -37.229648   1.000000
     21        -37.225074   1.000000
     22        -37.224675   1.000000
     23        -37.218854   1.000000
     24        -37.218181   1.000000
     25        -37.212059   1.000000
     26        -37.187245   1.000000
     27        -37.177265   1.000000
     28        -16.673671   1.000000
     29        -15.878885   1.000000
     30        -15.671135   1.000000
     31        -15.667677   1.000000
     32        -15.343175   1.000000
     33        -15.339838   1.000000
     34        -15.229569   1.000000
     35        -15.152218   1.000000
     36        -14.918526   1.000000
     37        -14.857390   1.000000
     38        -14.856401   1.000000
     39        -14.836612   1.000000
     40        -14.833105   1.000000
     41        -14.763468   1.000000
     42        -14.761953   1.000000
     43        -14.733898   1.000000
     44        -14.592184   1.000000
     45        -14.590365   1.000000
     46         -8.204685   1.000000
     47         -8.196018   1.000000
     48         -7.979109   1.000000
     49         -7.978441   1.000000
     50         -7.610704   1.000000
     51         -7.609197   1.000000
     52         -7.590860   1.000000
     53         -7.590562   1.000000
     54         -7.575142   1.000000
     55         -7.574102   1.000000
     56         -7.509000   1.000000
     57         -6.865992   1.000000
     58         -6.844680   1.000000
     59         -6.832485   1.000000
     60         -6.831939   1.000000
     61         -6.744147   1.000000
     62         -6.743343   1.000000
     63         -6.631437   1.000000
     64         -6.629747   1.000000
     65         -6.579779   1.000000
     66         -6.437162   1.000000
     67         -6.435758   1.000000
     68         -6.310761   1.000000
     69         -6.309861   1.000000
     70         -6.052411   1.000000
     71         -6.051203   1.000000
     72         -6.049928   1.000000
     73         -5.523343   1.000000
     74         -5.505476   1.000000
     75         -5.504044   1.000000
     76         -5.495017   1.000000
     77         -5.493254   1.000000
     78         -5.370152   1.000000
     79         -5.336626   1.000000
     80         -5.334242   1.000000
     81         -5.119483   1.000000
     82         -5.060769   1.000000
     83         -4.556645   1.000000
     84         -4.479087   1.000000
     85         -4.476717   1.000000
     86         -4.475295   1.000000
     87         -4.406001   1.000000
     88         -4.404100   1.000000
     89         -4.376351   1.000000
     90         -4.374184   1.000000
     91         -4.215199   1.000000
     92         -4.148299   1.000000
     93         -4.132353   1.000000
     94         -4.130590   1.000000
     95         -4.091140   1.000000
     96         -3.998397   1.000000
     97         -3.986863   1.000000
     98         -3.985020   1.000000
     99         -3.858321   1.000000
    100         -3.096440   1.000000
    101         -3.016930   1.000000
    102         -3.015173   1.000000
    103         -2.921009   1.000000
    104         -2.920114   1.000000
    105         -2.791398   0.919348
    106         -2.227322   0.000000
    107         -2.226592   0.000000
    108         -1.746762   0.000000
    109         -0.124367   0.000000
    110         -0.123642   0.000000
    111          0.283685   0.000000
    112          0.284364   0.000000
    113          0.395070   0.000000
    114          0.433201   0.000000
    115          0.480748   0.000000
    116          0.508631   0.000000
    117          0.514303   0.000000
    118          0.515559   0.000000
    119          0.581306   0.000000
    120          0.657552   0.000000
    121          0.686750   0.000000
    122          0.694317   0.000000
    123          0.696454   0.000000
    124          0.885940   0.000000
    125          0.886739   0.000000
    126          0.943690   0.000000
    127          0.993887   0.000000
    128          1.114303   0.000000
    129          1.115315   0.000000
    130          1.469977   0.000000
    131          1.472561   0.000000
    132          1.581735   0.000000
 
  0.4000000E+00  0.8346566E-14  0.1276756E-14  0.8000000E-01
      1        -37.462320   1.000000
      2        -37.428774   1.000000
      3        -37.428436   1.000000
      4        -37.426547   1.000000
      5        -37.426265   1.000000
      6        -37.348047   1.000000
      7        -37.347402   1.000000
      8        -37.298117   1.000000
      9        -37.298037   1.000000
     10        -37.276814   1.000000
     11        -37.271198   1.000000
     12        -37.263542   1.000000
     13        -37.263454   1.000000
     14        -37.261133   1.000000
     15        -37.245485   1.000000
     16        -37.244809   1.000000
     17        -37.241753   1.000000
     18        -37.230105   1.000000
     19        -37.229651   1.000000
     20        -37.227522   1.000000
     21        -37.226705   1.000000
     22        -37.224911   1.000000
     23        -37.223595   1.000000
     24        -37.222195   1.000000
     25        -37.221603   1.000000
     26        -37.198018   1.000000
     27        -37.185690   1.000000
     28        -16.494005   1.000000
     29        -16.217490   1.000000
     30        -15.746857   1.000000
     31        -15.743364   1.000000
     32        -15.141674   1.000000
     33        -15.138494   1.000000
     34        -15.099035   1.000000
     35        -15.054979   1.000000
     36        -15.017458   1.000000
     37        -14.961301   1.000000
     38        -14.957882   1.000000
     39        -14.877401   1.000000
     40        -14.876476   1.000000
     41        -14.699601   1.000000
     42        -14.698310   1.000000
     43        -14.685847   1.000000
     44        -14.637834   1.000000
     45        -14.636114   1.000000
     46         -8.412290   1.000000
     47         -8.006282   1.000000
     48         -8.005529   1.000000
     49         -7.989334   1.000000
     50         -7.877999   1.000000
     51         -7.877331   1.000000
     52         -7.686243   1.000000
     53         -7.382781   1.000000
     54         -7.381377   1.000000
     55         -7.346198   1.000000
     56         -7.345199   1.000000
     57         -7.055889   1.000000
     58         -7.037016   1.000000
     59         -7.036175   1.000000
     60         -6.919544   1.000000
     61         -6.917027   1.000000
     62         -6.526993   1.000000
     63         -6.521292   1.000000
     64         -6.518861   1.000000
     65         -6.438597   1.000000
     66         -6.432609   1.000000
     67         -6.430058   1.000000
     68         -6.132038   1.000000
     69         -6.131320   1.000000
     70         -5.855188   1.000000
     71         -5.622950   1.000000
     72         -5.620308   1.000000
     73         -5.618982   1.000000
     74         -5.594555   1.000000
     75         -5.593088   1.000000
     76         -5.535126   1.000000
     77         -5.490310   1.000000
     78         -5.489368   1.000000
     79         -5.486472   1.000000
     80         -5.483568   1.000000
     81         -5.023369   1.000000
     82         -4.961531   1.000000
     83         -4.859481   1.000000
     84         -4.858228   1.000000
     85         -4.739292   1.000000
     86         -4.731272   1.000000
     87         -4.706587   1.000000
     88         -4.703294   1.000000
     89         -4.409734   1.000000
     90         -4.259650   1.000000
     91         -4.257588   1.000000
     92         -4.254216   1.000000
     93         -4.151714   1.000000
     94         -4.149901   1.000000
     95         -4.011718   1.000000
     96         -3.852607   1.000000
     97         -3.799718   1.000000
     98         -3.798197   1.000000
     99         -3.774960   1.000000
    100         -3.002692   1.000000
    101         -2.809416   0.971954
    102         -2.808576   0.970391
    103         -2.788786   0.907718
    104         -2.788251   0.905191
    105         -2.542507   0.000000
    106         -2.542108   0.000000
    107         -2.362890   0.000000
    108         -1.970801   0.000000
    109          0.099242   0.000000
    110          0.099616   0.000000
    111          0.297498   0.000000
    112          0.331828   0.000000
    113          0.335421   0.000000
    114          0.336926   0.000000
    115          0.399454   0.000000
    116          0.481101   0.000000
    117          0.483977   0.000000
    118          0.558325   0.000000
    119          0.561296   0.000000
    120          0.663333   0.000000
    121          0.751221   0.000000
    122          0.753365   0.000000
    123          0.837380   0.000000
    124          0.879976   0.000000
    125          0.880621   0.000000
    126          1.009154   0.000000
    127          1.063282   0.000000
    128          1.064544   0.000000
    129          1.182487   0.000000
    130          1.388889   0.000000
    131          1.389789   0.000000
    132          1.451879   0.000000
 
  0.4000000E+00  0.4000000E+00  0.1276756E-14  0.8000000E-01
      1        -37.462453   1.000000
      2        -37.428617   1.000000
      3        -37.428463   1.000000
      4        -37.426523   1.000000
      5        -37.426333   1.000000
      6        -37.347768   1.000000
      7        -37.347436   1.000000
      8        -37.298186   1.000000
      9        -37.297997   1.000000
     10        -37.276933   1.000000
     11        -37.271205   1.000000
     12        -37.263633   1.000000
     13        -37.263403   1.000000
     14        -37.261105   1.000000
     15        -37.245556   1.000000
     16        -37.244780   1.000000
     17        -37.241663   1.000000
     18        -37.230251   1.000000
     19        -37.229709   1.000000
     20        -37.227478   1.000000
     21        -37.226710   1.000000
     22        -37.224912   1.000000
     23        -37.223688   1.000000
     24        -37.222227   1.000000
     25        -37.221593   1.000000
     26        -37.197923   1.000000
     27        -37.185584   1.000000
     28        -16.493965   1.000000
     29        -16.217402   1.000000
     30        -15.746849   1.000000
     31        -15.743638   1.000000
     32        -15.141661   1.000000
     33        -15.138648   1.000000
     34        -15.099102   1.000000
     35        -15.054618   1.000000
     36        -15.017562   1.000000
     37        -14.961293   1.000000
     38        -14.957972   1.000000
     39        -14.877442   1.000000
     40        -14.876051   1.000000
     41        -14.699632   1.000000
     42        -14.698107   1.000000
     43        -14.686288   1.000000
     44        -14.637852   1.000000
     45        -14.636033   1.000000
     46         -8.412599   1.000000
     47         -8.005985   1.000000
     48         -8.005559   1.000000
     49         -7.989275   1.000000
     50         -7.877876   1.000000
     51         -7.877209   1.000000
     52         -7.686109   1.000000
     53         -7.382891   1.000000
     54         -7.381409   1.000000
     55         -7.345959   1.000000
     56         -7.345327   1.000000
     57         -7.055508   1.000000
     58         -7.036628   1.000000
     59         -7.036252   1.000000
     60         -6.919756   1.000000
     61         -6.917332   1.000000
     62         -6.526841   1.000000
     63         -6.521043   1.000000
     64         -6.519260   1.000000
     65         -6.438409   1.000000
     66         -6.432462   1.000000
     67         -6.430764   1.000000
     68         -6.132559   1.000000
     69         -6.131652   1.000000
     70         -5.854880   1.000000
     71         -5.622641   1.000000
     72         -5.620660   1.000000
     73         -5.619316   1.000000
     74         -5.594780   1.000000
     75         -5.593525   1.000000
     76         -5.535894   1.000000
     77         -5.490197   1.000000
     78         -5.489241   1.000000
     79         -5.485790   1.000000
     80         -5.483598   1.000000
     81         -5.024345   1.000000
     82         -4.961882   1.000000
     83         -4.859435   1.000000
     84         -4.857849   1.000000
     85         -4.738538   1.000000
     86         -4.731076   1.000000
     87         -4.706713   1.000000
     88         -4.703107   1.000000
     89         -4.408289   1.000000
     90         -4.259440   1.000000
     91         -4.257360   1.000000
     92         -4.254693   1.000000
     93         -4.151090   1.000000
     94         -4.149746   1.000000
     95         -4.011509   1.000000
     96         -3.852553   1.000000
     97         -3.800408   1.000000
     98         -3.798061   1.000000
     99         -3.775162   1.000000
    100         -3.003596   1.000000
    101         -2.809723   0.972509
    102         -2.808212   0.969692
    103         -2.787918   0.903591
    104         -2.787421   0.901167
    105         -2.542739   0.000000
    106         -2.541772   0.000000
    107         -2.363540   0.000000
    108         -1.971162   0.000000
    109          0.098536   0.000000
    110          0.099172   0.000000
    111          0.297504   0.000000
    112          0.331474   0.000000
    113          0.335726   0.000000
    114          0.336659   0.000000
    115          0.399993   0.000000
    116          0.482431   0.000000
    117          0.484709   0.000000
    118          0.558872   0.000000
    119          0.561103   0.000000
    120          0.664240   0.000000
    121          0.751557   0.000000
    122          0.753809   0.000000
    123          0.837062   0.000000
    124          0.879241   0.000000
    125          0.881223   0.000000
    126          1.007515   0.000000
    127          1.062883   0.000000
    128          1.064216   0.000000
    129          1.182446   0.000000
    130          1.388622   0.000000
    131          1.389488   0.000000
    132          1.454476   0.000000
 
  0.1276756E-14  0.4000000E+00  0.1276756E-14  0.8000000E-01
      1        -37.462387   1.000000
      2        -37.428707   1.000000
      3        -37.428432   1.000000
      4        -37.426563   1.000000
      5        -37.426277   1.000000
      6        -37.347927   1.000000
      7        -37.347400   1.000000
      8        -37.298175   1.000000
      9        -37.297994   1.000000
     10        -37.276874   1.000000
     11        -37.271198   1.000000
     12        -37.263602   1.000000
     13        -37.263414   1.000000
     14        -37.261128   1.000000
     15        -37.245504   1.000000
     16        -37.244801   1.000000
     17        -37.241707   1.000000
     18        -37.230196   1.000000
     19        -37.229667   1.000000
     20        -37.227520   1.000000
     21        -37.226706   1.000000
     22        -37.224902   1.000000
     23        -37.223638   1.000000
     24        -37.222206   1.000000
     25        -37.221598   1.000000
     26        -37.197969   1.000000
     27        -37.185639   1.000000
     28        -16.493984   1.000000
     29        -16.217446   1.000000
     30        -15.746923   1.000000
     31        -15.743432   1.000000
     32        -15.141686   1.000000
     33        -15.138552   1.000000
     34        -15.099067   1.000000
     35        -15.054798   1.000000
     36        -15.017513   1.000000
     37        -14.961304   1.000000
     38        -14.957922   1.000000
     39        -14.877495   1.000000
     40        -14.876188   1.000000
     41        -14.699640   1.000000
     42        -14.698183   1.000000
     43        -14.686070   1.000000
     44        -14.637854   1.000000
     45        -14.636063   1.000000
     46         -8.412447   1.000000
     47         -8.006288   1.000000
     48         -8.005390   1.000000
     49         -7.989301   1.000000
     50         -7.878255   1.000000
     51         -7.876954   1.000000
     52         -7.686176   1.000000
     53         -7.382854   1.000000
     54         -7.381369   1.000000
     55         -7.346126   1.000000
     56         -7.345218   1.000000
     57         -7.055699   1.000000
     58         -7.036919   1.000000
     59         -7.036114   1.000000
     60         -6.919658   1.000000
     61         -6.917172   1.000000
     62         -6.526910   1.000000
     63         -6.521173   1.000000
     64         -6.519059   1.000000
     65         -6.438513   1.000000
     66         -6.432535   1.000000
     67         -6.430405   1.000000
     68         -6.132461   1.000000
     69         -6.131327   1.000000
     70         -5.855034   1.000000
     71         -5.622776   1.000000
     72         -5.620610   1.000000
     73         -5.619029   1.000000
     74         -5.594740   1.000000
     75         -5.593243   1.000000
     76         -5.535520   1.000000
     77         -5.490629   1.000000
     78         -5.488936   1.000000
     79         -5.486320   1.000000
     80         -5.483383   1.000000
     81         -5.023864   1.000000
     82         -4.961702   1.000000
     83         -4.859873   1.000000
     84         -4.857628   1.000000
     85         -4.738890   1.000000
     86         -4.731193   1.000000
     87         -4.706737   1.000000
     88         -4.703114   1.000000
     89         -4.409012   1.000000
     90         -4.259540   1.000000
     91         -4.257471   1.000000
     92         -4.254460   1.000000
     93         -4.151410   1.000000
     94         -4.149816   1.000000
     95         -4.011610   1.000000
     96         -3.852578   1.000000
     97         -3.800057   1.000000
     98         -3.798129   1.000000
     99         -3.775070   1.000000
    100         -3.003142   1.000000
    101         -2.809705   0.972477
    102         -2.808269   0.969802
    103         -2.788453   0.906148
    104         -2.787727   0.902663
    105         -2.542740   0.000000
    106         -2.541822   0.000000
    107         -2.363215   0.000000
    108         -1.970982   0.000000
    109          0.098747   0.000000
    110          0.099530   0.000000
    111          0.297509   0.000000
    112          0.331667   0.000000
    113          0.335477   0.000000
    114          0.336869   0.000000
    115          0.399724   0.000000
    116          0.481620   0.000000
    117          0.484490   0.000000
    118          0.558590   0.000000
    119          0.561209   0.000000
    120          0.663786   0.000000
    121          0.751373   0.000000
    122          0.753603   0.000000
    123          0.837224   0.000000
    124          0.879739   0.000000
    125          0.880790   0.000000
    126          1.008333   0.000000
    127          1.063046   0.000000
    128          1.064414   0.000000
    129          1.182466   0.000000
    130          1.388733   0.000000
    131          1.390041   0.000000
    132          1.451733   0.000000
 
  0.4000000E+00  0.2000000E+00  0.1276756E-14  0.8000000E-01
      1        -37.450033   1.000000
      2        -37.449772   1.000000
      3        -37.432228   1.000000
      4        -37.414015   1.000000
      5        -37.393491   1.000000
      6        -37.393149   1.000000
      7        -37.312453   1.000000
      8        -37.310544   1.000000
      9        -37.310363   1.000000
     10        -37.304687   1.000000
     11        -37.273406   1.000000
     12        -37.254385   1.000000
     13        -37.253880   1.000000
     14        -37.249005   1.000000
     15        -37.248479   1.000000
     16        -37.247305   1.000000
     17        -37.247067   1.000000
     18        -37.235300   1.000000
     19        -37.234736   1.000000
     20        -37.226355   1.000000
     21        -37.225879   1.000000
     22        -37.221743   1.000000
     23        -37.219904   1.000000
     24        -37.211553   1.000000
     25        -37.209576   1.000000
     26        -37.209453   1.000000
     27        -37.183357   1.000000
     28        -16.552702   1.000000
     29        -16.017755   1.000000
     30        -16.014244   1.000000
     31        -15.418637   1.000000
     32        -15.415357   1.000000
     33        -15.116566   1.000000
     34        -15.102673   1.000000
     35        -15.099233   1.000000
     36        -14.958374   1.000000
     37        -14.958096   1.000000
     38        -14.952793   1.000000
     39        -14.885269   1.000000
     40        -14.780565   1.000000
     41        -14.779159   1.000000
     42        -14.696188   1.000000
     43        -14.694500   1.000000
     44        -14.631049   1.000000
     45        -14.613997   1.000000
     46         -8.272756   1.000000
     47         -8.270815   1.000000
     48         -8.058356   1.000000
     49         -7.916622   1.000000
     50         -7.708674   1.000000
     51         -7.703900   1.000000
     52         -7.702181   1.000000
     53         -7.501877   1.000000
     54         -7.499363   1.000000
     55         -7.451456   1.000000
     56         -7.384656   1.000000
     57         -7.032498   1.000000
     58         -7.030732   1.000000
     59         -6.741204   1.000000
     60         -6.740759   1.000000
     61         -6.694000   1.000000
     62         -6.692653   1.000000
     63         -6.646193   1.000000
     64         -6.643962   1.000000
     65         -6.528753   1.000000
     66         -6.526473   1.000000
     67         -6.431751   1.000000
     68         -6.401811   1.000000
     69         -5.799778   1.000000
     70         -5.798456   1.000000
     71         -5.787243   1.000000
     72         -5.704461   1.000000
     73         -5.604447   1.000000
     74         -5.602614   1.000000
     75         -5.591294   1.000000
     76         -5.588962   1.000000
     77         -5.583032   1.000000
     78         -5.559868   1.000000
     79         -5.542769   1.000000
     80         -5.086789   1.000000
     81         -5.085763   1.000000
     82         -5.017035   1.000000
     83         -4.873333   1.000000
     84         -4.783769   1.000000
     85         -4.780791   1.000000
     86         -4.640683   1.000000
     87         -4.639922   1.000000
     88         -4.378974   1.000000
     89         -4.336325   1.000000
     90         -4.309686   1.000000
     91         -4.308225   1.000000
     92         -4.256081   1.000000
     93         -4.226764   1.000000
     94         -4.225081   1.000000
     95         -3.976044   1.000000
     96         -3.973673   1.000000
     97         -3.827306   1.000000
     98         -3.824779   1.000000
     99         -3.745490   1.000000
    100         -2.930961   1.000000
    101         -2.929031   1.000000
    102         -2.890455   0.999987
    103         -2.889451   0.999985
    104         -2.601818   0.000037
    105         -2.600474   0.000032
    106         -2.492222   0.000000
    107         -2.422698   0.000000
    108         -1.890796   0.000000
    109          0.184008   0.000000
    110          0.186865   0.000000
    111          0.205017   0.000000
    112          0.229142   0.000000
    113          0.302765   0.000000
    114          0.304063   0.000000
    115          0.364651   0.000000
    116          0.443846   0.000000
    117          0.514096   0.000000
    118          0.530991   0.000000
    119          0.532781   0.000000
    120          0.736819   0.000000
    121          0.737919   0.000000
    122          0.756508   0.000000
    123          0.757419   0.000000
    124          0.916003   0.000000
    125          0.917215   0.000000
    126          0.920114   0.000000
    127          1.099110   0.000000
    128          1.100680   0.000000
    129          1.235073   0.000000
    130          1.235944   0.000000
    131          1.405572   0.000000
    132          1.531278   0.000000
 
  0.2000000E+00  0.4000000E+00  0.1276756E-14  0.8000000E-01
      1        -37.450106   1.000000
      2        -37.449774   1.000000
      3        -37.432164   1.000000
      4        -37.414079   1.000000
      5        -37.393301   1.000000
      6        -37.393229   1.000000
      7        -37.312387   1.000000
      8        -37.310571   1.000000
      9        -37.310352   1.000000
     10        -37.304745   1.000000
     11        -37.273406   1.000000
     12        -37.254331   1.000000
     13        -37.253934   1.000000
     14        -37.249031   1.000000
     15        -37.248544   1.000000
     16        -37.247219   1.000000
     17        -37.247096   1.000000
     18        -37.235259   1.000000
     19        -37.234789   1.000000
     20        -37.226297   1.000000
     21        -37.225919   1.000000
     22        -37.221752   1.000000
     23        -37.219901   1.000000
     24        -37.211641   1.000000
     25        -37.209568   1.000000
     26        -37.209415   1.000000
     27        -37.183307   1.000000
     28        -16.552688   1.000000
     29        -16.017837   1.000000
     30        -16.014145   1.000000
     31        -15.418744   1.000000
     32        -15.415426   1.000000
     33        -15.116593   1.000000
     34        -15.102738   1.000000
     35        -15.098987   1.000000
     36        -14.958466   1.000000
     37        -14.958054   1.000000
     38        -14.952675   1.000000
     39        -14.885380   1.000000
     40        -14.780696   1.000000
     41        -14.778797   1.000000
     42        -14.696218   1.000000
     43        -14.694689   1.000000
     44        -14.631155   1.000000
     45        -14.613868   1.000000
     46         -8.273063   1.000000
     47         -8.270624   1.000000
     48         -8.058339   1.000000
     49         -7.916505   1.000000
     50         -7.708722   1.000000
     51         -7.703977   1.000000
     52         -7.701997   1.000000
     53         -7.501962   1.000000
     54         -7.499237   1.000000
     55         -7.451634   1.000000
     56         -7.384434   1.000000
     57         -7.032531   1.000000
     58         -7.030373   1.000000
     59         -6.741171   1.000000
     60         -6.740839   1.000000
     61         -6.694330   1.000000
     62         -6.692620   1.000000
     63         -6.646293   1.000000
     64         -6.644085   1.000000
     65         -6.529036   1.000000
     66         -6.525976   1.000000
     67         -6.431909   1.000000
     68         -6.401922   1.000000
     69         -5.799707   1.000000
     70         -5.798901   1.000000
     71         -5.787038   1.000000
     72         -5.704257   1.000000
     73         -5.604437   1.000000
     74         -5.602519   1.000000
     75         -5.591236   1.000000
     76         -5.589173   1.000000
     77         -5.583125   1.000000
     78         -5.560121   1.000000
     79         -5.542820   1.000000
     80         -5.086889   1.000000
     81         -5.085149   1.000000
     82         -5.017206   1.000000
     83         -4.873829   1.000000
     84         -4.783874   1.000000
     85         -4.780627   1.000000
     86         -4.640625   1.000000
     87         -4.640029   1.000000
     88         -4.378274   1.000000
     89         -4.336081   1.000000
     90         -4.309655   1.000000
     91         -4.308032   1.000000
     92         -4.256059   1.000000
     93         -4.226847   1.000000
     94         -4.225165   1.000000
     95         -3.975828   1.000000
     96         -3.973786   1.000000
     97         -3.827442   1.000000
     98         -3.824741   1.000000
     99         -3.745649   1.000000
    100         -2.931170   1.000000
    101         -2.929364   1.000000
    102         -2.890288   0.999987
    103         -2.889050   0.999984
    104         -2.601888   0.000038
    105         -2.600382   0.000031
    106         -2.492325   0.000000
    107         -2.422543   0.000000
    108         -1.890947   0.000000
    109          0.183759   0.000000
    110          0.186725   0.000000
    111          0.205174   0.000000
    112          0.229035   0.000000
    113          0.302962   0.000000
    114          0.303752   0.000000
    115          0.364558   0.000000
    116          0.444612   0.000000
    117          0.514358   0.000000
    118          0.531357   0.000000
    119          0.532845   0.000000
    120          0.736956   0.000000
    121          0.737843   0.000000
    122          0.756599   0.000000
    123          0.757396   0.000000
    124          0.915857   0.000000
    125          0.917308   0.000000
    126          0.919349   0.000000
    127          1.099137   0.000000
    128          1.100386   0.000000
    129          1.234831   0.000000
    130          1.235964   0.000000
    131          1.404633   0.000000
    132          1.529774   0.000000
 
 -0.2000000E+00  0.2000000E+00  0.1276756E-14  0.8000000E-01
      1        -37.449987   1.000000
      2        -37.449743   1.000000
      3        -37.432292   1.000000
      4        -37.413947   1.000000
      5        -37.393740   1.000000
      6        -37.393014   1.000000
      7        -37.312514   1.000000
      8        -37.310488   1.000000
      9        -37.310413   1.000000
     10        -37.304624   1.000000
     11        -37.273404   1.000000
     12        -37.254579   1.000000
     13        -37.253684   1.000000
     14        -37.248990   1.000000
     15        -37.248357   1.000000
     16        -37.247508   1.000000
     17        -37.246968   1.000000
     18        -37.235452   1.000000
     19        -37.234547   1.000000
     20        -37.226607   1.000000
     21        -37.225687   1.000000
     22        -37.221705   1.000000
     23        -37.219923   1.000000
     24        -37.211468   1.000000
     25        -37.209630   1.000000
     26        -37.209438   1.000000
     27        -37.183409   1.000000
     28        -16.552717   1.000000
     29        -16.017734   1.000000
     30        -16.014281   1.000000
     31        -15.418646   1.000000
     32        -15.415172   1.000000
     33        -15.116536   1.000000
     34        -15.102598   1.000000
     35        -15.099489   1.000000
     36        -14.958399   1.000000
     37        -14.958031   1.000000
     38        -14.952906   1.000000
     39        -14.885155   1.000000
     40        -14.780524   1.000000
     41        -14.779427   1.000000
     42        -14.696128   1.000000
     43        -14.694343   1.000000
     44        -14.630947   1.000000
     45        -14.614125   1.000000
     46         -8.272447   1.000000
     47         -8.271012   1.000000
     48         -8.058376   1.000000
     49         -7.916736   1.000000
     50         -7.708624   1.000000
     51         -7.703819   1.000000
     52         -7.702365   1.000000
     53         -7.501821   1.000000
     54         -7.499464   1.000000
     55         -7.451271   1.000000
     56         -7.384880   1.000000
     57         -7.032448   1.000000
     58         -7.031104   1.000000
     59         -6.741320   1.000000
     60         -6.740602   1.000000
     61         -6.693712   1.000000
     62         -6.692640   1.000000
     63         -6.646192   1.000000
     64         -6.643744   1.000000
     65         -6.528434   1.000000
     66         -6.527003   1.000000
     67         -6.431592   1.000000
     68         -6.401702   1.000000
     69         -5.799921   1.000000
     70         -5.797996   1.000000
     71         -5.787413   1.000000
     72         -5.704653   1.000000
     73         -5.604381   1.000000
     74         -5.602795   1.000000
     75         -5.591395   1.000000
     76         -5.588685   1.000000
     77         -5.582957   1.000000
     78         -5.559611   1.000000
     79         -5.542717   1.000000
     80         -5.087224   1.000000
     81         -5.085841   1.000000
     82         -5.016861   1.000000
     83         -4.872841   1.000000
     84         -4.783658   1.000000
     85         -4.780965   1.000000
     86         -4.640745   1.000000
     87         -4.639808   1.000000
     88         -4.379689   1.000000
     89         -4.336567   1.000000
     90         -4.309752   1.000000
     91         -4.308370   1.000000
     92         -4.256090   1.000000
     93         -4.226614   1.000000
     94         -4.225069   1.000000
     95         -3.976239   1.000000
     96         -3.973579   1.000000
     97         -3.827163   1.000000
     98         -3.824821   1.000000
     99         -3.745337   1.000000
    100         -2.930674   1.000000
    101         -2.928779   1.000000
    102         -2.890530   0.999987
    103         -2.889940   0.999986
    104         -2.601665   0.000037
    105         -2.600651   0.000032
    106         -2.492116   0.000000
    107         -2.422855   0.000000
    108         -1.890646   0.000000
    109          0.184207   0.000000
    110          0.187051   0.000000
    111          0.204857   0.000000
    112          0.229258   0.000000
    113          0.302514   0.000000
    114          0.304422   0.000000
    115          0.364751   0.000000
    116          0.443070   0.000000
    117          0.513823   0.000000
    118          0.530645   0.000000
    119          0.532725   0.000000
    120          0.736768   0.000000
    121          0.737958   0.000000
    122          0.756122   0.000000
    123          0.757686   0.000000
    124          0.916151   0.000000
    125          0.917085   0.000000
    126          0.920914   0.000000
    127          1.099042   0.000000
    128          1.101013   0.000000
    129          1.235368   0.000000
    130          1.235876   0.000000
    131          1.405137   0.000000
    132          1.529736   0.000000
 
 -0.4000000E+00  0.2000000E+00  0.1276756E-14  0.8000000E-01
      1        -37.461497   1.000000
      2        -37.447858   1.000000
      3        -37.447544   1.000000
      4        -37.409452   1.000000
      5        -37.409247   1.000000
      6        -37.382233   1.000000
      7        -37.299043   1.000000
      8        -37.280229   1.000000
      9        -37.279921   1.000000
     10        -37.271671   1.000000
     11        -37.271531   1.000000
     12        -37.265176   1.000000
     13        -37.264763   1.000000
     14        -37.255800   1.000000
     15        -37.255537   1.000000
     16        -37.255086   1.000000
     17        -37.254848   1.000000
     18        -37.250444   1.000000
     19        -37.235778   1.000000
     20        -37.227866   1.000000
     21        -37.227363   1.000000
     22        -37.223838   1.000000
     23        -37.222640   1.000000
     24        -37.222434   1.000000
     25        -37.210612   1.000000
     26        -37.195110   1.000000
     27        -37.194634   1.000000
     28        -16.326243   1.000000
     29        -16.322538   1.000000
     30        -16.063527   1.000000
     31        -15.443501   1.000000
     32        -15.164093   1.000000
     33        -15.160741   1.000000
     34        -15.049283   1.000000
     35        -15.048462   1.000000
     36        -15.011946   1.000000
     37        -14.980769   1.000000
     38        -14.977408   1.000000
     39        -14.970970   1.000000
     40        -14.785602   1.000000
     41        -14.700303   1.000000
     42        -14.698553   1.000000
     43        -14.670562   1.000000
     44        -14.653229   1.000000
     45        -14.651347   1.000000
     46         -8.378103   1.000000
     47         -8.175599   1.000000
     48         -8.173731   1.000000
     49         -7.792952   1.000000
     50         -7.790911   1.000000
     51         -7.755459   1.000000
     52         -7.754766   1.000000
     53         -7.555135   1.000000
     54         -7.507556   1.000000
     55         -7.247401   1.000000
     56         -7.244708   1.000000
     57         -7.132531   1.000000
     58         -7.046022   1.000000
     59         -7.043118   1.000000
     60         -6.738717   1.000000
     61         -6.675873   1.000000
     62         -6.599515   1.000000
     63         -6.520121   1.000000
     64         -6.518398   1.000000
     65         -6.507847   1.000000
     66         -6.474669   1.000000
     67         -6.471425   1.000000
     68         -6.227323   1.000000
     69         -6.224327   1.000000
     70         -5.651595   1.000000
     71         -5.650739   1.000000
     72         -5.648575   1.000000
     73         -5.636770   1.000000
     74         -5.634086   1.000000
     75         -5.620009   1.000000
     76         -5.618440   1.000000
     77         -5.299681   1.000000
     78         -5.297560   1.000000
     79         -5.284373   1.000000
     80         -5.283119   1.000000
     81         -5.217947   1.000000
     82         -4.963528   1.000000
     83         -4.878588   1.000000
     84         -4.876991   1.000000
     85         -4.843211   1.000000
     86         -4.838704   1.000000
     87         -4.750338   1.000000
     88         -4.747889   1.000000
     89         -4.729281   1.000000
     90         -4.281973   1.000000
     91         -4.261249   1.000000
     92         -4.258951   1.000000
     93         -4.257354   1.000000
     94         -4.078574   1.000000
     95         -4.076703   1.000000
     96         -3.894358   1.000000
     97         -3.723868   1.000000
     98         -3.720418   1.000000
     99         -3.699619   1.000000
    100         -2.859398   0.999556
    101         -2.841070   0.997489
    102         -2.743474   0.518028
    103         -2.742627   0.508476
    104         -2.674754   0.028817
    105         -2.673283   0.026185
    106         -2.515149   0.000000
    107         -2.200225   0.000000
    108         -2.197947   0.000000
    109          0.094014   0.000000
    110          0.217035   0.000000
    111          0.225131   0.000000
    112          0.226982   0.000000
    113          0.423358   0.000000
    114          0.424758   0.000000
    115          0.465841   0.000000
    116          0.467847   0.000000
    117          0.508338   0.000000
    118          0.510985   0.000000
    119          0.572479   0.000000
    120          0.583062   0.000000
    121          0.583729   0.000000
    122          0.619316   0.000000
    123          0.798501   0.000000
    124          0.932963   0.000000
    125          1.061019   0.000000
    126          1.061605   0.000000
    127          1.114811   0.000000
    128          1.261878   0.000000
    129          1.343725   0.000000
    130          1.345388   0.000000
    131          1.359510   0.000000
    132          1.368525   0.000000
 
  0.4000000E+00 -0.4000000E+00  0.1276756E-14  0.8000000E-01
      1        -37.461631   1.000000
      2        -37.447732   1.000000
      3        -37.447561   1.000000
      4        -37.409533   1.000000
      5        -37.409227   1.000000
      6        -37.382102   1.000000
      7        -37.298919   1.000000
      8        -37.280151   1.000000
      9        -37.279930   1.000000
     10        -37.271886   1.000000
     11        -37.271430   1.000000
     12        -37.265394   1.000000
     13        -37.264519   1.000000
     14        -37.255908   1.000000
     15        -37.255748   1.000000
     16        -37.255136   1.000000
     17        -37.254785   1.000000
     18        -37.250351   1.000000
     19        -37.235793   1.000000
     20        -37.228047   1.000000
     21        -37.227109   1.000000
     22        -37.223808   1.000000
     23        -37.222925   1.000000
     24        -37.222235   1.000000
     25        -37.210715   1.000000
     26        -37.195079   1.000000
     27        -37.194501   1.000000
     28        -16.326155   1.000000
     29        -16.322522   1.000000
     30        -16.063623   1.000000
     31        -15.443661   1.000000
     32        -15.163968   1.000000
     33        -15.160816   1.000000
     34        -15.049224   1.000000
     35        -15.048670   1.000000
     36        -15.011616   1.000000
     37        -14.980628   1.000000
     38        -14.977746   1.000000
     39        -14.970853   1.000000
     40        -14.785378   1.000000
     41        -14.700162   1.000000
     42        -14.698782   1.000000
     43        -14.670973   1.000000
     44        -14.653124   1.000000
     45        -14.651173   1.000000
     46         -8.378419   1.000000
     47         -8.175018   1.000000
     48         -8.174006   1.000000
     49         -7.792910   1.000000
     50         -7.790804   1.000000
     51         -7.755556   1.000000
     52         -7.754511   1.000000
     53         -7.555192   1.000000
     54         -7.507661   1.000000
     55         -7.247426   1.000000
     56         -7.244905   1.000000
     57         -7.132084   1.000000
     58         -7.045939   1.000000
     59         -7.042647   1.000000
     60         -6.738904   1.000000
     61         -6.676150   1.000000
     62         -6.600224   1.000000
     63         -6.520196   1.000000
     64         -6.518728   1.000000
     65         -6.507230   1.000000
     66         -6.474277   1.000000
     67         -6.472308   1.000000
     68         -6.227451   1.000000
     69         -6.223777   1.000000
     70         -5.651759   1.000000
     71         -5.651304   1.000000
     72         -5.648136   1.000000
     73         -5.636529   1.000000
     74         -5.633228   1.000000
     75         -5.620123   1.000000
     76         -5.619167   1.000000
     77         -5.299615   1.000000
     78         -5.299128   1.000000
     79         -5.284227   1.000000
     80         -5.282979   1.000000
     81         -5.218436   1.000000
     82         -4.963571   1.000000
     83         -4.878527   1.000000
     84         -4.876890   1.000000
     85         -4.843007   1.000000
     86         -4.839498   1.000000
     87         -4.750534   1.000000
     88         -4.745534   1.000000
     89         -4.729085   1.000000
     90         -4.281868   1.000000
     91         -4.260913   1.000000
     92         -4.258779   1.000000
     93         -4.257754   1.000000
     94         -4.078347   1.000000
     95         -4.076510   1.000000
     96         -3.894606   1.000000
     97         -3.723634   1.000000
     98         -3.720582   1.000000
     99         -3.699825   1.000000
    100         -2.860142   0.999589
    101         -2.840386   0.997334
    102         -2.743698   0.520560
    103         -2.742645   0.508683
    104         -2.674537   0.028415
    105         -2.673125   0.025915
    106         -2.514318   0.000000
    107         -2.200141   0.000000
    108         -2.198938   0.000000
    109          0.093205   0.000000
    110          0.216758   0.000000
    111          0.225416   0.000000
    112          0.227144   0.000000
    113          0.422942   0.000000
    114          0.425295   0.000000
    115          0.466263   0.000000
    116          0.467746   0.000000
    117          0.509896   0.000000
    118          0.510834   0.000000
    119          0.572784   0.000000
    120          0.583158   0.000000
    121          0.584025   0.000000
    122          0.618831   0.000000
    123          0.798136   0.000000
    124          0.933428   0.000000
    125          1.060778   0.000000
    126          1.061194   0.000000
    127          1.115201   0.000000
    128          1.262867   0.000000
    129          1.340252   0.000000
    130          1.344426   0.000000
    131          1.349856   0.000000
    132          1.373617   0.000000
 
 -0.2000000E+00  0.4000000E+00  0.1276756E-14  0.8000000E-01
      1        -37.461565   1.000000
      2        -37.447784   1.000000
      3        -37.447563   1.000000
      4        -37.409448   1.000000
      5        -37.409281   1.000000
      6        -37.382168   1.000000
      7        -37.298980   1.000000
      8        -37.280171   1.000000
      9        -37.279953   1.000000
     10        -37.271717   1.000000
     11        -37.271533   1.000000
     12        -37.265218   1.000000
     13        -37.264716   1.000000
     14        -37.255827   1.000000
     15        -37.255676   1.000000
     16        -37.255108   1.000000
     17        -37.254809   1.000000
     18        -37.250394   1.000000
     19        -37.235782   1.000000
     20        -37.227912   1.000000
     21        -37.227306   1.000000
     22        -37.223826   1.000000
     23        -37.222719   1.000000
     24        -37.222374   1.000000
     25        -37.210663   1.000000
     26        -37.195074   1.000000
     27        -37.194588   1.000000
     28        -16.326159   1.000000
     29        -16.322570   1.000000
     30        -16.063575   1.000000
     31        -15.443582   1.000000
     32        -15.163996   1.000000
     33        -15.160811   1.000000
     34        -15.049161   1.000000
     35        -15.048658   1.000000
     36        -15.011783   1.000000
     37        -14.980694   1.000000
     38        -14.977587   1.000000
     39        -14.970905   1.000000
     40        -14.785490   1.000000
     41        -14.700212   1.000000
     42        -14.698687   1.000000
     43        -14.670771   1.000000
     44        -14.653181   1.000000
     45        -14.651254   1.000000
     46         -8.378264   1.000000
     47         -8.175311   1.000000
     48         -8.173864   1.000000
     49         -7.792897   1.000000
     50         -7.790893   1.000000
     51         -7.755486   1.000000
     52         -7.754659   1.000000
     53         -7.555163   1.000000
     54         -7.507607   1.000000
     55         -7.247415   1.000000
     56         -7.244804   1.000000
     57         -7.132308   1.000000
     58         -7.045975   1.000000
     59         -7.042887   1.000000
     60         -6.738811   1.000000
     61         -6.676011   1.000000
     62         -6.599874   1.000000
     63         -6.520148   1.000000
     64         -6.518559   1.000000
     65         -6.507551   1.000000
     66         -6.474474   1.000000
     67         -6.471863   1.000000
     68         -6.227383   1.000000
     69         -6.224057   1.000000
     70         -5.651663   1.000000
     71         -5.651072   1.000000
     72         -5.648318   1.000000
     73         -5.636651   1.000000
     74         -5.633671   1.000000
     75         -5.620122   1.000000
     76         -5.618734   1.000000
     77         -5.299622   1.000000
     78         -5.298374   1.000000
     79         -5.284302   1.000000
     80         -5.283041   1.000000
     81         -5.218202   1.000000
     82         -4.963547   1.000000
     83         -4.878542   1.000000
     84         -4.876953   1.000000
     85         -4.843113   1.000000
     86         -4.839102   1.000000
     87         -4.750369   1.000000
     88         -4.746781   1.000000
     89         -4.729176   1.000000
     90         -4.281921   1.000000
     91         -4.261086   1.000000
     92         -4.258842   1.000000
     93         -4.257569   1.000000
     94         -4.078460   1.000000
     95         -4.076606   1.000000
     96         -3.894481   1.000000
     97         -3.723720   1.000000
     98         -3.720531   1.000000
     99         -3.699724   1.000000
    100         -2.859767   0.999573
    101         -2.840732   0.997414
    102         -2.743632   0.519807
    103         -2.742588   0.508045
    104         -2.674673   0.028667
    105         -2.673176   0.026001
    106         -2.514734   0.000000
    107         -2.200189   0.000000
    108         -2.198437   0.000000
    109          0.093605   0.000000
    110          0.216893   0.000000
    111          0.225301   0.000000
    112          0.227043   0.000000
    113          0.423151   0.000000
    114          0.425032   0.000000
    115          0.466026   0.000000
    116          0.467798   0.000000
    117          0.509195   0.000000
    118          0.510850   0.000000
    119          0.572638   0.000000
    120          0.583094   0.000000
    121          0.583895   0.000000
    122          0.619066   0.000000
    123          0.798318   0.000000
    124          0.933196   0.000000
    125          1.060804   0.000000
    126          1.061492   0.000000
    127          1.115010   0.000000
    128          1.261522   0.000000
    129          1.346152   0.000000
    130          1.346585   0.000000
    131          1.358650   0.000000
    132          1.394206   0.000000
