Mo S 
 1.0000000000000000
     6.3101139999999996    5.4647190247758388    0.0000000000000000
    -1.5775284999999999    8.1970785371637582    0.0000000000000000
     0.0000000000000000    0.0000000000000000   20.0000000000000000
 Mo  S  
  14  28
Direct
  0.3333333333333334  0.3333333333333332  0.8015657265166605
  0.1428571428571428  0.5714285714285714  0.4999999999999999
  0.1904761904761905  0.0476190476190476  0.8015657265166605
  0.4285714285714285  0.7142857142857143  0.4999999999999999
  0.9047619047619049  0.4761904761904761  0.8015657265166605
  0.0476190476190480  0.7619047619047616  0.8015657265166605
  0.7142857142857142  0.8571428571428570  0.4999999999999999
  0.8571428571428570  0.4285714285714287  0.4999999999999999
  0.7619047619047622  0.1904761904761902  0.8015657265166605
  0.0000000000000000  0.0000000000000000  0.4999999999999999
  0.4761904761904763  0.6190476190476190  0.8015657265166605
  0.2857142857142857  0.1428571428571428  0.4999999999999999
  0.6190476190476193  0.9047619047619048  0.8015657265166605
  0.5714285714285714  0.2857142857142856  0.4999999999999999
  0.6666666666666669  0.6666666666666664  0.7232495765166604
  0.6666666666666669  0.6666666666666664  0.8798818765166605
  0.3809523809523810  0.5238095238095238  0.4216838500000000
  0.5238095238095239  0.3809523809523807  0.8798818765166605
  0.9523809523809523  0.2380952380952377  0.7232495765166604
  0.9523809523809523  0.2380952380952377  0.8798818765166605
  0.0952380952380955  0.5238095238095238  0.7232495765166604
  0.0952380952380955  0.5238095238095238  0.8798818765166605
  0.2380952380952383  0.8095238095238091  0.7232495765166604
  0.8095238095238096  0.9523809523809524  0.7232495765166604
  0.8095238095238096  0.9523809523809524  0.8798818765166605
  0.0952380952380949  0.3809523809523811  0.5783161500000000
  0.3809523809523811  0.0952380952380951  0.8798818765166605
  0.3809523809523811  0.0952380952380951  0.7232495765166604
  0.0952380952380949  0.3809523809523811  0.4216838500000000
  0.8095238095238095  0.2380952380952380  0.5783161500000000
  0.8095238095238095  0.2380952380952380  0.4216838500000000
  0.5238095238095237  0.0952380952380952  0.5783161500000000
  0.5238095238095237  0.0952380952380952  0.4216838500000000
  0.2380952380952381  0.9523809523809524  0.5783161500000000
  0.2380952380952381  0.9523809523809524  0.4216838500000000
  0.9523809523809522  0.8095238095238095  0.5783161500000000
  0.9523809523809522  0.8095238095238095  0.4216838500000000
  0.6666666666666666  0.6666666666666669  0.5783161500000000
  0.6666666666666666  0.6666666666666669  0.4216838500000000
  0.3809523809523810  0.5238095238095238  0.5783161500000000
  0.5238095238095239  0.3809523809523807  0.7232495765166604
  0.2380952380952383  0.8095238095238091  0.8798818765166605
