generated by phonopy                    
   1.00000000000000     
    10.1063029282566266    0.0000000000000000    0.0000000000000000
     5.0531514641283133    8.7523150742112996    0.0000000000000000
     0.0000000000000000    0.0000000000000000   20.0000000000000000
   Nb   S 
     9    18
Direct
     0.0000000000000000    0.0000000000000000    0.5000000000000000
     0.3333333333333357    0.0000000000000000    0.5000000000000000
     0.6666666666666643    0.0000000000000000    0.5000000000000000
     0.0000000000000000    0.3333333333333357    0.5000000000000000
     0.3333333333333357    0.3333333333333357    0.5000000000000000
     0.6666666666666643    0.3333333333333357    0.5000000000000000
     0.0000000000000000    0.6666666666666643    0.5000000000000000
     0.3333333333333357    0.6666666666666643    0.5000000000000000
     0.6666666666666643    0.6666666666666643    0.5000000000000000
     0.1115573719042970    0.1111111111111143    0.4230742360430000
     0.4444444444444429    0.1111111111111143    0.4226279752498101
     0.7777777777777786    0.1111111111111143    0.4226279752498101
     0.1111111111111143    0.4444444444444429    0.4226279752498101
     0.4444444444444429    0.4444444444444429    0.4226279752498101
     0.7777777777777786    0.4444444444444429    0.4226279752498101
     0.1111111111111143    0.7777777777777786    0.4226279752498101
     0.4444444444444429    0.7777777777777786    0.4226279752498101
     0.7777777777777786    0.7777777777777786    0.4226279752498101
     0.1111111111111143    0.1111111111111143    0.5773720247501899
     0.4444444444444429    0.1111111111111143    0.5773720247501899
     0.7777777777777786    0.1111111111111143    0.5773720247501899
     0.1111111111111143    0.4444444444444429    0.5773720247501899
     0.4444444444444429    0.4444444444444429    0.5773720247501899
     0.7777777777777786    0.4444444444444429    0.5773720247501899
     0.1111111111111143    0.7777777777777786    0.5773720247501899
     0.4444444444444429    0.7777777777777786    0.5773720247501899
     0.7777777777777786    0.7777777777777786    0.5773720247501899
 
  0.00000000E+00  0.00000000E+00  0.00000000E+00
  0.00000000E+00  0.00000000E+00  0.00000000E+00
  0.00000000E+00  0.00000000E+00  0.00000000E+00
  0.00000000E+00  0.00000000E+00  0.00000000E+00
  0.00000000E+00  0.00000000E+00  0.00000000E+00
  0.00000000E+00  0.00000000E+00  0.00000000E+00
  0.00000000E+00  0.00000000E+00  0.00000000E+00
  0.00000000E+00  0.00000000E+00  0.00000000E+00
  0.00000000E+00  0.00000000E+00  0.00000000E+00
  0.00000000E+00  0.00000000E+00  0.00000000E+00
  0.00000000E+00  0.00000000E+00  0.00000000E+00
  0.00000000E+00  0.00000000E+00  0.00000000E+00
  0.00000000E+00  0.00000000E+00  0.00000000E+00
  0.00000000E+00  0.00000000E+00  0.00000000E+00
  0.00000000E+00  0.00000000E+00  0.00000000E+00
  0.00000000E+00  0.00000000E+00  0.00000000E+00
  0.00000000E+00  0.00000000E+00  0.00000000E+00
  0.00000000E+00  0.00000000E+00  0.00000000E+00
  0.00000000E+00  0.00000000E+00  0.00000000E+00
  0.00000000E+00  0.00000000E+00  0.00000000E+00
  0.00000000E+00  0.00000000E+00  0.00000000E+00
  0.00000000E+00  0.00000000E+00  0.00000000E+00
  0.00000000E+00  0.00000000E+00  0.00000000E+00
  0.00000000E+00  0.00000000E+00  0.00000000E+00
  0.00000000E+00  0.00000000E+00  0.00000000E+00
  0.00000000E+00  0.00000000E+00  0.00000000E+00
  0.00000000E+00  0.00000000E+00  0.00000000E+00
