   27   27    1    1
  0.6552115E+02  0.1010630E-08  0.1010630E-08  0.2000000E-08  0.5000000E-15
  1.000000000000000E-004
  CAR 
 NbS2 phonon                             
    225     13    143
 
  0.1276756E-14  0.1276756E-14  0.1276756E-14  0.4000000E-01
      1        -57.446185   1.000000
      2        -57.423727   1.000000
      3        -57.423535   1.000000
      4        -57.423357   1.000000
      5        -57.423353   1.000000
      6        -57.422560   1.000000
      7        -57.421773   1.000000
      8        -57.411696   1.000000
      9        -57.411042   1.000000
     10        -33.632212   1.000000
     11        -33.631737   1.000000
     12        -33.628526   1.000000
     13        -33.628427   1.000000
     14        -33.628222   1.000000
     15        -33.628173   1.000000
     16        -33.627990   1.000000
     17        -33.627444   1.000000
     18        -33.582412   1.000000
     19        -33.582408   1.000000
     20        -33.522386   1.000000
     21        -33.469121   1.000000
     22        -33.469004   1.000000
     23        -33.468858   1.000000
     24        -33.468674   1.000000
     25        -33.468351   1.000000
     26        -33.467624   1.000000
     27        -33.441847   1.000000
     28        -33.441294   1.000000
     29        -33.430713   1.000000
     30        -33.430615   1.000000
     31        -33.430579   1.000000
     32        -33.430449   1.000000
     33        -33.430257   1.000000
     34        -33.429709   1.000000
     35        -33.372669   1.000000
     36        -33.372507   1.000000
     37        -15.858463   1.000000
     38        -14.845747   1.000000
     39        -14.836045   1.000000
     40        -14.836024   1.000000
     41        -14.835881   1.000000
     42        -14.835778   1.000000
     43        -14.835774   1.000000
     44        -14.547808   1.000000
     45        -14.260719   1.000000
     46        -14.256409   1.000000
     47        -14.256351   1.000000
     48        -14.256220   1.000000
     49        -14.256158   1.000000
     50        -14.256050   1.000000
     51        -14.243228   1.000000
     52        -14.241044   1.000000
     53        -14.057418   1.000000
     54        -14.055832   1.000000
     55         -7.387859   1.000000
     56         -7.098895   1.000000
     57         -7.097813   1.000000
     58         -7.068823   1.000000
     59         -7.067057   1.000000
     60         -7.066109   1.000000
     61         -7.063645   1.000000
     62         -7.063596   1.000000
     63         -7.063222   1.000000
     64         -6.384078   1.000000
     65         -6.382236   1.000000
     66         -5.973350   1.000000
     67         -5.971173   1.000000
     68         -5.970737   1.000000
     69         -5.969089   1.000000
     70         -5.968661   1.000000
     71         -5.968388   1.000000
     72         -5.947784   1.000000
     73         -5.947263   1.000000
     74         -5.945715   1.000000
     75         -5.945130   1.000000
     76         -5.944796   1.000000
     77         -5.944319   1.000000
     78         -5.937382   1.000000
     79         -5.935916   1.000000
     80         -5.674477   1.000000
     81         -5.672164   1.000000
     82         -4.955237   1.000000
     83         -4.952386   1.000000
     84         -4.948285   1.000000
     85         -4.948068   1.000000
     86         -4.948024   1.000000
     87         -4.947915   1.000000
     88         -4.819672   1.000000
     89         -4.819208   1.000000
     90         -4.796191   1.000000
     91         -4.794731   1.000000
     92         -4.006154   1.000000
     93         -4.004313   1.000000
     94         -3.857384   1.000000
     95         -3.857334   1.000000
     96         -3.851527   1.000000
     97         -3.851446   1.000000
     98         -3.851395   1.000000
     99         -3.851256   1.000000
    100         -3.769114   1.000000
    101         -3.767222   1.000000
    102         -3.643282   1.000000
    103         -3.582796   1.000000
    104         -3.582309   1.000000
    105         -3.582220   1.000000
    106         -3.581768   1.000000
    107         -3.581591   1.000000
    108         -3.576015   1.000000
    109         -2.660808   1.000000
    110         -2.659600   1.000000
    111         -2.659458   1.000000
    112         -2.659380   1.000000
    113         -2.658805   1.000000
    114         -2.657094   1.000000
    115         -1.900381   0.000000
    116         -1.899561   0.000000
    117         -1.414651   0.000000
    118         -0.424353   0.000000
    119         -0.423685   0.000000
    120          0.300211   0.000000
    121          0.300281   0.000000
    122          0.300923   0.000000
    123          0.301091   0.000000
    124          0.303087   0.000000
    125          0.303374   0.000000
    126          0.498253   0.000000
    127          0.500591   0.000000
    128          0.609500   0.000000
    129          0.609704   0.000000
    130          0.610102   0.000000
    131          0.611525   0.000000
    132          0.612522   0.000000
    133          0.614155   0.000000
    134          0.743930   0.000000
    135          0.744948   0.000000
    136          1.290147   0.000000
    137          1.290746   0.000000
    138          1.291414   0.000000
    139          1.292529   0.000000
    140          1.293427   0.000000
    141          1.295958   0.000000
    142          1.513314   0.000000
    143          1.514484   0.000000
 
  0.2000000E+00  0.1268669E-14  0.1276756E-14  0.8000000E-01
      1        -57.444858   1.000000
      2        -57.429234   1.000000
      3        -57.425746   1.000000
      4        -57.425141   1.000000
      5        -57.420262   1.000000
      6        -57.419824   1.000000
      7        -57.418107   1.000000
      8        -57.412362   1.000000
      9        -57.411691   1.000000
     10        -33.679388   1.000000
     11        -33.654437   1.000000
     12        -33.654022   1.000000
     13        -33.648961   1.000000
     14        -33.648537   1.000000
     15        -33.597370   1.000000
     16        -33.596849   1.000000
     17        -33.562016   1.000000
     18        -33.556567   1.000000
     19        -33.556449   1.000000
     20        -33.519304   1.000000
     21        -33.482854   1.000000
     22        -33.474433   1.000000
     23        -33.473927   1.000000
     24        -33.461732   1.000000
     25        -33.461231   1.000000
     26        -33.457409   1.000000
     27        -33.445014   1.000000
     28        -33.444926   1.000000
     29        -33.443415   1.000000
     30        -33.442825   1.000000
     31        -33.442086   1.000000
     32        -33.429984   1.000000
     33        -33.429789   1.000000
     34        -33.415149   1.000000
     35        -33.387723   1.000000
     36        -33.375867   1.000000
     37        -15.804786   1.000000
     38        -15.128630   1.000000
     39        -14.955908   1.000000
     40        -14.952521   1.000000
     41        -14.686755   1.000000
     42        -14.683389   1.000000
     43        -14.594536   1.000000
     44        -14.532464   1.000000
     45        -14.339361   1.000000
     46        -14.289365   1.000000
     47        -14.288054   1.000000
     48        -14.279090   1.000000
     49        -14.276330   1.000000
     50        -14.212436   1.000000
     51        -14.211388   1.000000
     52        -14.189099   1.000000
     53        -14.071414   1.000000
     54        -14.069879   1.000000
     55         -7.323304   1.000000
     56         -7.313165   1.000000
     57         -7.157855   1.000000
     58         -7.157349   1.000000
     59         -7.016209   1.000000
     60         -7.015299   1.000000
     61         -6.915939   1.000000
     62         -6.915021   1.000000
     63         -6.858078   1.000000
     64         -6.663914   1.000000
     65         -6.662986   1.000000
     66         -6.256543   1.000000
     67         -6.166137   1.000000
     68         -6.165316   1.000000
     69         -5.988367   1.000000
     70         -5.986866   1.000000
     71         -5.986084   1.000000
     72         -5.945856   1.000000
     73         -5.933033   1.000000
     74         -5.931212   1.000000
     75         -5.818396   1.000000
     76         -5.816787   1.000000
     77         -5.775894   1.000000
     78         -5.775362   1.000000
     79         -5.534499   1.000000
     80         -5.415548   1.000000
     81         -5.414650   1.000000
     82         -5.127514   1.000000
     83         -5.085585   1.000000
     84         -5.083290   1.000000
     85         -4.964808   1.000000
     86         -4.931891   1.000000
     87         -4.929689   1.000000
     88         -4.883484   1.000000
     89         -4.882219   1.000000
     90         -4.764440   1.000000
     91         -4.698903   1.000000
     92         -4.132628   1.000000
     93         -4.104652   1.000000
     94         -4.053816   1.000000
     95         -4.051359   1.000000
     96         -3.912520   1.000000
     97         -3.910935   1.000000
     98         -3.902712   1.000000
     99         -3.901295   1.000000
    100         -3.860457   1.000000
    101         -3.684525   1.000000
    102         -3.665960   1.000000
    103         -3.597259   1.000000
    104         -3.595194   1.000000
    105         -3.437725   1.000000
    106         -3.436158   1.000000
    107         -3.431045   1.000000
    108         -3.379207   1.000000
    109         -2.639506   1.000000
    110         -2.638553   1.000000
    111         -2.633544   1.000000
    112         -2.584296   0.999953
    113         -2.583904   0.999951
    114         -2.448448   0.524887
    115         -2.047873   0.000000
    116         -2.047257   0.000000
    117         -1.480207   0.000000
    118         -0.221443   0.000000
    119         -0.220702   0.000000
    120          0.260584   0.000000
    121          0.260849   0.000000
    122          0.321941   0.000000
    123          0.336702   0.000000
    124          0.338006   0.000000
    125          0.349715   0.000000
    126          0.451668   0.000000
    127          0.478702   0.000000
    128          0.579649   0.000000
    129          0.581364   0.000000
    130          0.618198   0.000000
    131          0.641221   0.000000
    132          0.677619   0.000000
    133          0.677819   0.000000
    134          0.693765   0.000000
    135          0.744909   0.000000
    136          0.925203   0.000000
    137          1.021744   0.000000
    138          1.022175   0.000000
    139          1.387596   0.000000
    140          1.388631   0.000000
    141          1.516472   0.000000
    142          1.524060   0.000000
    143          1.568325   0.000000
 
  0.2000000E+00  0.2000000E+00  0.1276756E-14  0.8000000E-01
      1        -57.444859   1.000000
      2        -57.429203   1.000000
      3        -57.425712   1.000000
      4        -57.425239   1.000000
      5        -57.420303   1.000000
      6        -57.419697   1.000000
      7        -57.418155   1.000000
      8        -57.412360   1.000000
      9        -57.411695   1.000000
     10        -33.679222   1.000000
     11        -33.654389   1.000000
     12        -33.654175   1.000000
     13        -33.648950   1.000000
     14        -33.648565   1.000000
     15        -33.597304   1.000000
     16        -33.597151   1.000000
     17        -33.561870   1.000000
     18        -33.556565   1.000000
     19        -33.556427   1.000000
     20        -33.519305   1.000000
     21        -33.482854   1.000000
     22        -33.474451   1.000000
     23        -33.473910   1.000000
     24        -33.461745   1.000000
     25        -33.461193   1.000000
     26        -33.457432   1.000000
     27        -33.445061   1.000000
     28        -33.444775   1.000000
     29        -33.443384   1.000000
     30        -33.442897   1.000000
     31        -33.442200   1.000000
     32        -33.429996   1.000000
     33        -33.429567   1.000000
     34        -33.415287   1.000000
     35        -33.387581   1.000000
     36        -33.376007   1.000000
     37        -15.804795   1.000000
     38        -15.128773   1.000000
     39        -14.955664   1.000000
     40        -14.952529   1.000000
     41        -14.686590   1.000000
     42        -14.683400   1.000000
     43        -14.594799   1.000000
     44        -14.532447   1.000000
     45        -14.339151   1.000000
     46        -14.289806   1.000000
     47        -14.288015   1.000000
     48        -14.279019   1.000000
     49        -14.276332   1.000000
     50        -14.212662   1.000000
     51        -14.211353   1.000000
     52        -14.188760   1.000000
     53        -14.071437   1.000000
     54        -14.069874   1.000000
     55         -7.323289   1.000000
     56         -7.313137   1.000000
     57         -7.158047   1.000000
     58         -7.157239   1.000000
     59         -7.016195   1.000000
     60         -7.015343   1.000000
     61         -6.916099   1.000000
     62         -6.914715   1.000000
     63         -6.858219   1.000000
     64         -6.663984   1.000000
     65         -6.663077   1.000000
     66         -6.256799   1.000000
     67         -6.166205   1.000000
     68         -6.165611   1.000000
     69         -5.988602   1.000000
     70         -5.986684   1.000000
     71         -5.985764   1.000000
     72         -5.946506   1.000000
     73         -5.932199   1.000000
     74         -5.931434   1.000000
     75         -5.817919   1.000000
     76         -5.816744   1.000000
     77         -5.775811   1.000000
     78         -5.774969   1.000000
     79         -5.534055   1.000000
     80         -5.416222   1.000000
     81         -5.414363   1.000000
     82         -5.128402   1.000000
     83         -5.084060   1.000000
     84         -5.083319   1.000000
     85         -4.965229   1.000000
     86         -4.931328   1.000000
     87         -4.930226   1.000000
     88         -4.883489   1.000000
     89         -4.882020   1.000000
     90         -4.764051   1.000000
     91         -4.699910   1.000000
     92         -4.131402   1.000000
     93         -4.104509   1.000000
     94         -4.053939   1.000000
     95         -4.051230   1.000000
     96         -3.912676   1.000000
     97         -3.911001   1.000000
     98         -3.903035   1.000000
     99         -3.901461   1.000000
    100         -3.862065   1.000000
    101         -3.684044   1.000000
    102         -3.666078   1.000000
    103         -3.597169   1.000000
    104         -3.596008   1.000000
    105         -3.437479   1.000000
    106         -3.436065   1.000000
    107         -3.430998   1.000000
    108         -3.378785   1.000000
    109         -2.639943   1.000000
    110         -2.638300   1.000000
    111         -2.632654   1.000000
    112         -2.585240   0.999958
    113         -2.584502   0.999954
    114         -2.447524   0.514476
    115         -2.047968   0.000000
    116         -2.047202   0.000000
    117         -1.480105   0.000000
    118         -0.221312   0.000000
    119         -0.220834   0.000000
    120          0.260861   0.000000
    121          0.261236   0.000000
    122          0.321725   0.000000
    123          0.336602   0.000000
    124          0.337738   0.000000
    125          0.349924   0.000000
    126          0.449863   0.000000
    127          0.478595   0.000000
    128          0.579503   0.000000
    129          0.580857   0.000000
    130          0.620091   0.000000
    131          0.641989   0.000000
    132          0.677903   0.000000
    133          0.678078   0.000000
    134          0.692979   0.000000
    135          0.744869   0.000000
    136          0.924388   0.000000
    137          1.021575   0.000000
    138          1.022462   0.000000
    139          1.387144   0.000000
    140          1.390756   0.000000
    141          1.514112   0.000000
    142          1.527125   0.000000
    143          1.567083   0.000000
 
  0.1276756E-14  0.2000000E+00  0.1276756E-14  0.8000000E-01
      1        -57.444858   1.000000
      2        -57.429226   1.000000
      3        -57.425735   1.000000
      4        -57.425168   1.000000
      5        -57.420276   1.000000
      6        -57.419784   1.000000
      7        -57.418122   1.000000
      8        -57.412362   1.000000
      9        -57.411692   1.000000
     10        -33.679306   1.000000
     11        -33.654438   1.000000
     12        -33.654069   1.000000
     13        -33.648970   1.000000
     14        -33.648541   1.000000
     15        -33.597369   1.000000
     16        -33.596968   1.000000
     17        -33.561941   1.000000
     18        -33.556597   1.000000
     19        -33.556409   1.000000
     20        -33.519304   1.000000
     21        -33.482857   1.000000
     22        -33.474436   1.000000
     23        -33.473919   1.000000
     24        -33.461734   1.000000
     25        -33.461223   1.000000
     26        -33.457416   1.000000
     27        -33.445067   1.000000
     28        -33.444826   1.000000
     29        -33.443399   1.000000
     30        -33.442860   1.000000
     31        -33.442138   1.000000
     32        -33.430013   1.000000
     33        -33.429659   1.000000
     34        -33.415218   1.000000
     35        -33.387651   1.000000
     36        -33.375937   1.000000
     37        -15.804790   1.000000
     38        -15.128702   1.000000
     39        -14.955836   1.000000
     40        -14.952475   1.000000
     41        -14.686698   1.000000
     42        -14.683369   1.000000
     43        -14.594668   1.000000
     44        -14.532456   1.000000
     45        -14.339256   1.000000
     46        -14.289637   1.000000
     47        -14.287985   1.000000
     48        -14.279052   1.000000
     49        -14.276330   1.000000
     50        -14.212582   1.000000
     51        -14.211336   1.000000
     52        -14.188932   1.000000
     53        -14.071429   1.000000
     54        -14.069874   1.000000
     55         -7.323291   1.000000
     56         -7.313159   1.000000
     57         -7.158009   1.000000
     58         -7.157233   1.000000
     59         -7.016211   1.000000
     60         -7.015311   1.000000
     61         -6.916052   1.000000
     62         -6.914838   1.000000
     63         -6.858147   1.000000
     64         -6.664361   1.000000
     65         -6.662620   1.000000
     66         -6.256671   1.000000
     67         -6.166210   1.000000
     68         -6.165420   1.000000
     69         -5.988555   1.000000
     70         -5.986714   1.000000
     71         -5.985917   1.000000
     72         -5.946194   1.000000
     73         -5.932640   1.000000
     74         -5.931285   1.000000
     75         -5.818175   1.000000
     76         -5.816747   1.000000
     77         -5.775951   1.000000
     78         -5.775072   1.000000
     79         -5.534279   1.000000
     80         -5.416183   1.000000
     81         -5.414207   1.000000
     82         -5.127960   1.000000
     83         -5.084907   1.000000
     84         -5.083218   1.000000
     85         -4.965019   1.000000
     86         -4.931741   1.000000
     87         -4.929827   1.000000
     88         -4.883505   1.000000
     89         -4.882103   1.000000
     90         -4.764243   1.000000
     91         -4.699402   1.000000
     92         -4.132021   1.000000
     93         -4.104573   1.000000
     94         -4.053910   1.000000
     95         -4.051263   1.000000
     96         -3.912602   1.000000
     97         -3.910946   1.000000
     98         -3.903031   1.000000
     99         -3.901248   1.000000
    100         -3.861251   1.000000
    101         -3.684289   1.000000
    102         -3.666016   1.000000
    103         -3.597222   1.000000
    104         -3.595592   1.000000
    105         -3.437621   1.000000
    106         -3.436092   1.000000
    107         -3.431020   1.000000
    108         -3.378999   1.000000
    109         -2.639869   1.000000
    110         -2.638276   1.000000
    111         -2.633106   1.000000
    112         -2.584905   0.999956
    113         -2.584065   0.999952
    114         -2.447985   0.519679
    115         -2.047962   0.000000
    116         -2.047188   0.000000
    117         -1.480156   0.000000
    118         -0.221463   0.000000
    119         -0.220683   0.000000
    120          0.260667   0.000000
    121          0.261091   0.000000
    122          0.321841   0.000000
    123          0.336647   0.000000
    124          0.337874   0.000000
    125          0.349820   0.000000
    126          0.450769   0.000000
    127          0.478644   0.000000
    128          0.579571   0.000000
    129          0.581112   0.000000
    130          0.619152   0.000000
    131          0.641614   0.000000
    132          0.677775   0.000000
    133          0.677926   0.000000
    134          0.693367   0.000000
    135          0.744893   0.000000
    136          0.924799   0.000000
    137          1.021521   0.000000
    138          1.022454   0.000000
    139          1.387428   0.000000
    140          1.389752   0.000000
    141          1.520693   0.000000
    142          1.526658   0.000000
    143          1.569997   0.000000
 
  0.4000000E+00  0.8321752E-14  0.1276756E-14  0.8000000E-01
      1        -57.441106   1.000000
      2        -57.435561   1.000000
      3        -57.427042   1.000000
      4        -57.426450   1.000000
      5        -57.417111   1.000000
      6        -57.416746   1.000000
      7        -57.415594   1.000000
      8        -57.414210   1.000000
      9        -57.413405   1.000000
     10        -33.707190   1.000000
     11        -33.668143   1.000000
     12        -33.667753   1.000000
     13        -33.665941   1.000000
     14        -33.665533   1.000000
     15        -33.574286   1.000000
     16        -33.573687   1.000000
     17        -33.513927   1.000000
     18        -33.513789   1.000000
     19        -33.510568   1.000000
     20        -33.497687   1.000000
     21        -33.491909   1.000000
     22        -33.477483   1.000000
     23        -33.476983   1.000000
     24        -33.474133   1.000000
     25        -33.474019   1.000000
     26        -33.454296   1.000000
     27        -33.453808   1.000000
     28        -33.451303   1.000000
     29        -33.448618   1.000000
     30        -33.447761   1.000000
     31        -33.447218   1.000000
     32        -33.436001   1.000000
     33        -33.435725   1.000000
     34        -33.430081   1.000000
     35        -33.399240   1.000000
     36        -33.385329   1.000000
     37        -15.650257   1.000000
     38        -15.414206   1.000000
     39        -15.018727   1.000000
     40        -15.015347   1.000000
     41        -14.523790   1.000000
     42        -14.520264   1.000000
     43        -14.488270   1.000000
     44        -14.454736   1.000000
     45        -14.420777   1.000000
     46        -14.378759   1.000000
     47        -14.375612   1.000000
     48        -14.304979   1.000000
     49        -14.304305   1.000000
     50        -14.160223   1.000000
     51        -14.158807   1.000000
     52        -14.150544   1.000000
     53        -14.109076   1.000000
     54        -14.107712   1.000000
     55         -7.459074   1.000000
     56         -7.146561   1.000000
     57         -7.135717   1.000000
     58         -7.135062   1.000000
     59         -6.970100   1.000000
     60         -6.969353   1.000000
     61         -6.927216   1.000000
     62         -6.796690   1.000000
     63         -6.795211   1.000000
     64         -6.786992   1.000000
     65         -6.786425   1.000000
     66         -6.470605   1.000000
     67         -6.469792   1.000000
     68         -6.424017   1.000000
     69         -5.989480   1.000000
     70         -5.986991   1.000000
     71         -5.966696   1.000000
     72         -5.880845   1.000000
     73         -5.878484   1.000000
     74         -5.832220   1.000000
     75         -5.830052   1.000000
     76         -5.744613   1.000000
     77         -5.637976   1.000000
     78         -5.637393   1.000000
     79         -5.327818   1.000000
     80         -5.219456   1.000000
     81         -5.129859   1.000000
     82         -5.128140   1.000000
     83         -5.070930   1.000000
     84         -5.038549   1.000000
     85         -5.036717   1.000000
     86         -5.032997   1.000000
     87         -5.031710   1.000000
     88         -4.832279   1.000000
     89         -4.831230   1.000000
     90         -4.607074   1.000000
     91         -4.594243   1.000000
     92         -4.401116   1.000000
     93         -4.372978   1.000000
     94         -4.272737   1.000000
     95         -4.271349   1.000000
     96         -4.246734   1.000000
     97         -4.243695   1.000000
     98         -4.098734   1.000000
     99         -3.742661   1.000000
    100         -3.741271   1.000000
    101         -3.733955   1.000000
    102         -3.624625   1.000000
    103         -3.622859   1.000000
    104         -3.568698   1.000000
    105         -3.282325   1.000000
    106         -3.250340   1.000000
    107         -3.248970   1.000000
    108         -3.235117   1.000000
    109         -2.518919   0.980092
    110         -2.518095   0.978941
    111         -2.517042   0.977388
    112         -2.510499   0.965429
    113         -2.509626   0.963497
    114         -2.305243   0.000033
    115         -2.304865   0.000032
    116         -2.068246   0.000000
    117         -1.700748   0.000000
    118          0.153606   0.000000
    119          0.154772   0.000000
    120          0.189312   0.000000
    121          0.189821   0.000000
    122          0.388931   0.000000
    123          0.391070   0.000000
    124          0.406008   0.000000
    125          0.410878   0.000000
    126          0.421937   0.000000
    127          0.430024   0.000000
    128          0.471651   0.000000
    129          0.566021   0.000000
    130          0.594778   0.000000
    131          0.602016   0.000000
    132          0.603766   0.000000
    133          0.751558   0.000000
    134          0.752222   0.000000
    135          0.766794   0.000000
    136          0.767419   0.000000
    137          0.830011   0.000000
    138          0.926963   0.000000
    139          1.113173   0.000000
    140          1.114451   0.000000
    141          1.319025   0.000000
    142          1.465852   0.000000
    143          1.475311   0.000000
 
  0.4000000E+00  0.4000000E+00  0.1276756E-14  0.8000000E-01
      1        -57.441119   1.000000
      2        -57.435527   1.000000
      3        -57.427023   1.000000
      4        -57.426512   1.000000
      5        -57.417137   1.000000
      6        -57.416645   1.000000
      7        -57.415630   1.000000
      8        -57.414185   1.000000
      9        -57.413447   1.000000
     10        -33.707020   1.000000
     11        -33.668107   1.000000
     12        -33.667852   1.000000
     13        -33.665920   1.000000
     14        -33.665600   1.000000
     15        -33.574236   1.000000
     16        -33.574051   1.000000
     17        -33.513953   1.000000
     18        -33.513734   1.000000
     19        -33.510572   1.000000
     20        -33.497684   1.000000
     21        -33.491762   1.000000
     22        -33.477502   1.000000
     23        -33.476957   1.000000
     24        -33.474173   1.000000
     25        -33.473925   1.000000
     26        -33.454301   1.000000
     27        -33.453781   1.000000
     28        -33.451324   1.000000
     29        -33.448746   1.000000
     30        -33.447797   1.000000
     31        -33.447189   1.000000
     32        -33.435989   1.000000
     33        -33.435471   1.000000
     34        -33.429921   1.000000
     35        -33.399375   1.000000
     36        -33.385469   1.000000
     37        -15.650293   1.000000
     38        -15.414288   1.000000
     39        -15.018479   1.000000
     40        -15.015354   1.000000
     41        -14.523670   1.000000
     42        -14.520273   1.000000
     43        -14.488229   1.000000
     44        -14.455042   1.000000
     45        -14.420649   1.000000
     46        -14.378699   1.000000
     47        -14.375617   1.000000
     48        -14.305370   1.000000
     49        -14.304273   1.000000
     50        -14.160343   1.000000
     51        -14.158780   1.000000
     52        -14.150177   1.000000
     53        -14.109162   1.000000
     54        -14.107697   1.000000
     55         -7.458932   1.000000
     56         -7.146651   1.000000
     57         -7.135820   1.000000
     58         -7.135127   1.000000
     59         -6.970254   1.000000
     60         -6.969434   1.000000
     61         -6.927344   1.000000
     62         -6.796680   1.000000
     63         -6.794986   1.000000
     64         -6.787169   1.000000
     65         -6.786434   1.000000
     66         -6.470538   1.000000
     67         -6.470175   1.000000
     68         -6.424412   1.000000
     69         -5.988936   1.000000
     70         -5.986746   1.000000
     71         -5.967238   1.000000
     72         -5.879959   1.000000
     73         -5.878724   1.000000
     74         -5.831487   1.000000
     75         -5.830264   1.000000
     76         -5.744911   1.000000
     77         -5.637547   1.000000
     78         -5.636740   1.000000
     79         -5.328168   1.000000
     80         -5.220292   1.000000
     81         -5.128701   1.000000
     82         -5.127999   1.000000
     83         -5.070028   1.000000
     84         -5.037644   1.000000
     85         -5.036605   1.000000
     86         -5.033353   1.000000
     87         -5.032542   1.000000
     88         -4.832708   1.000000
     89         -4.831228   1.000000
     90         -4.606729   1.000000
     91         -4.593180   1.000000
     92         -4.402402   1.000000
     93         -4.372661   1.000000
     94         -4.273246   1.000000
     95         -4.271448   1.000000
     96         -4.246880   1.000000
     97         -4.243624   1.000000
     98         -4.100146   1.000000
     99         -3.742912   1.000000
    100         -3.741639   1.000000
    101         -3.733310   1.000000
    102         -3.624778   1.000000
    103         -3.623538   1.000000
    104         -3.568910   1.000000
    105         -3.282385   1.000000
    106         -3.250374   1.000000
    107         -3.248307   1.000000
    108         -3.235006   1.000000
    109         -2.519386   0.980721
    110         -2.519034   0.980248
    111         -2.516309   0.976251
    112         -2.510841   0.966163
    113         -2.509421   0.963033
    114         -2.305544   0.000035
    115         -2.304632   0.000031
    116         -2.067551   0.000000
    117         -1.700371   0.000000
    118          0.153864   0.000000
    119          0.154422   0.000000
    120          0.189858   0.000000
    121          0.190171   0.000000
    122          0.389050   0.000000
    123          0.390622   0.000000
    124          0.406368   0.000000
    125          0.411036   0.000000
    126          0.421475   0.000000
    127          0.428656   0.000000
    128          0.472053   0.000000
    129          0.565331   0.000000
    130          0.593765   0.000000
    131          0.601574   0.000000
    132          0.603272   0.000000
    133          0.750948   0.000000
    134          0.752815   0.000000
    135          0.767132   0.000000
    136          0.767768   0.000000
    137          0.830155   0.000000
    138          0.928614   0.000000
    139          1.113285   0.000000
    140          1.114544   0.000000
    141          1.326290   0.000000
    142          1.464367   0.000000
    143          1.505217   0.000000
 
  0.1276756E-14  0.4000000E+00  0.1276756E-14  0.8000000E-01
      1        -57.441109   1.000000
      2        -57.435553   1.000000
      3        -57.427036   1.000000
      4        -57.426467   1.000000
      5        -57.417123   1.000000
      6        -57.416705   1.000000
      7        -57.415616   1.000000
      8        -57.414206   1.000000
      9        -57.413411   1.000000
     10        -33.707105   1.000000
     11        -33.668145   1.000000
     12        -33.667771   1.000000
     13        -33.665953   1.000000
     14        -33.665556   1.000000
     15        -33.574291   1.000000
     16        -33.573838   1.000000
     17        -33.513966   1.000000
     18        -33.513735   1.000000
     19        -33.510569   1.000000
     20        -33.497689   1.000000
     21        -33.491836   1.000000
     22        -33.477485   1.000000
     23        -33.476974   1.000000
     24        -33.474183   1.000000
     25        -33.473941   1.000000
     26        -33.454296   1.000000
     27        -33.453803   1.000000
     28        -33.451312   1.000000
     29        -33.448681   1.000000
     30        -33.447781   1.000000
     31        -33.447200   1.000000
     32        -33.436008   1.000000
     33        -33.435589   1.000000
     34        -33.429998   1.000000
     35        -33.399307   1.000000
     36        -33.385400   1.000000
     37        -15.650275   1.000000
     38        -15.414247   1.000000
     39        -15.018660   1.000000
     40        -15.015294   1.000000
     41        -14.523741   1.000000
     42        -14.520256   1.000000
     43        -14.488248   1.000000
     44        -14.454889   1.000000
     45        -14.420716   1.000000
     46        -14.378735   1.000000
     47        -14.375610   1.000000
     48        -14.305236   1.000000
     49        -14.304227   1.000000
     50        -14.160301   1.000000
     51        -14.158772   1.000000
     52        -14.150364   1.000000
     53        -14.109130   1.000000
     54        -14.107693   1.000000
     55         -7.459006   1.000000
     56         -7.146616   1.000000
     57         -7.135928   1.000000
     58         -7.134922   1.000000
     59         -6.970525   1.000000
     60         -6.969049   1.000000
     61         -6.927279   1.000000
     62         -6.796691   1.000000
     63         -6.795076   1.000000
     64         -6.787130   1.000000
     65         -6.786393   1.000000
     66         -6.470664   1.000000
     67         -6.469890   1.000000
     68         -6.424215   1.000000
     69         -5.989224   1.000000
     70         -5.986853   1.000000
     71         -5.966969   1.000000
     72         -5.880413   1.000000
     73         -5.878585   1.000000
     74         -5.831862   1.000000
     75         -5.830153   1.000000
     76         -5.744763   1.000000
     77         -5.637939   1.000000
     78         -5.636891   1.000000
     79         -5.327994   1.000000
     80         -5.219870   1.000000
     81         -5.129369   1.000000
     82         -5.127979   1.000000
     83         -5.070486   1.000000
     84         -5.038170   1.000000
     85         -5.036623   1.000000
     86         -5.033229   1.000000
     87         -5.032040   1.000000
     88         -4.832940   1.000000
     89         -4.830781   1.000000
     90         -4.606912   1.000000
     91         -4.593705   1.000000
     92         -4.401746   1.000000
     93         -4.372821   1.000000
     94         -4.273349   1.000000
     95         -4.271052   1.000000
     96         -4.246851   1.000000
     97         -4.243614   1.000000
     98         -4.099437   1.000000
     99         -3.742798   1.000000
    100         -3.741443   1.000000
    101         -3.733633   1.000000
    102         -3.624708   1.000000
    103         -3.623194   1.000000
    104         -3.568799   1.000000
    105         -3.282353   1.000000
    106         -3.250358   1.000000
    107         -3.248629   1.000000
    108         -3.235074   1.000000
    109         -2.519137   0.980387
    110         -2.518602   0.979656
    111         -2.516687   0.976843
    112         -2.510754   0.965978
    113         -2.509405   0.962996
    114         -2.305500   0.000034
    115         -2.304642   0.000031
    116         -2.067899   0.000000
    117         -1.700560   0.000000
    118          0.153622   0.000000
    119          0.154709   0.000000
    120          0.189496   0.000000
    121          0.190079   0.000000
    122          0.388956   0.000000
    123          0.390887   0.000000
    124          0.406188   0.000000
    125          0.410967   0.000000
    126          0.421640   0.000000
    127          0.429403   0.000000
    128          0.471851   0.000000
    129          0.565655   0.000000
    130          0.594287   0.000000
    131          0.601808   0.000000
    132          0.603512   0.000000
    133          0.751419   0.000000
    134          0.752355   0.000000
    135          0.766890   0.000000
    136          0.767660   0.000000
    137          0.830080   0.000000
    138          0.927789   0.000000
    139          1.113161   0.000000
    140          1.114500   0.000000
    141          1.318886   0.000000
    142          1.465040   0.000000
    143          1.484079   0.000000
 
  0.4000000E+00  0.2000000E+00  0.1276756E-14  0.8000000E-01
      1        -57.442322   1.000000
      2        -57.431968   1.000000
      3        -57.431423   1.000000
      4        -57.421450   1.000000
      5        -57.420943   1.000000
      6        -57.416592   1.000000
      7        -57.416012   1.000000
      8        -57.413849   1.000000
      9        -57.412667   1.000000
     10        -33.692781   1.000000
     11        -33.692516   1.000000
     12        -33.672524   1.000000
     13        -33.651604   1.000000
     14        -33.627199   1.000000
     15        -33.626942   1.000000
     16        -33.530984   1.000000
     17        -33.530821   1.000000
     18        -33.530169   1.000000
     19        -33.521404   1.000000
     20        -33.513395   1.000000
     21        -33.488846   1.000000
     22        -33.488597   1.000000
     23        -33.464374   1.000000
     24        -33.464074   1.000000
     25        -33.457360   1.000000
     26        -33.457130   1.000000
     27        -33.455242   1.000000
     28        -33.454957   1.000000
     29        -33.452982   1.000000
     30        -33.452648   1.000000
     31        -33.447230   1.000000
     32        -33.444947   1.000000
     33        -33.415888   1.000000
     34        -33.412578   1.000000
     35        -33.412363   1.000000
     36        -33.382837   1.000000
     37        -15.700672   1.000000
     38        -15.245488   1.000000
     39        -15.242171   1.000000
     40        -14.747853   1.000000
     41        -14.744592   1.000000
     42        -14.502871   1.000000
     43        -14.492854   1.000000
     44        -14.489701   1.000000
     45        -14.373410   1.000000
     46        -14.371174   1.000000
     47        -14.370350   1.000000
     48        -14.318333   1.000000
     49        -14.225964   1.000000
     50        -14.224779   1.000000
     51        -14.158192   1.000000
     52        -14.156740   1.000000
     53        -14.103221   1.000000
     54        -14.089752   1.000000
     55         -7.349204   1.000000
     56         -7.347476   1.000000
     57         -7.201804   1.000000
     58         -6.967325   1.000000
     59         -6.963660   1.000000
     60         -6.962978   1.000000
     61         -6.885038   1.000000
     62         -6.835193   1.000000
     63         -6.831277   1.000000
     64         -6.828571   1.000000
     65         -6.826228   1.000000
     66         -6.425400   1.000000
     67         -6.423598   1.000000
     68         -6.112326   1.000000
     69         -6.110024   1.000000
     70         -5.941404   1.000000
     71         -5.938894   1.000000
     72         -5.925862   1.000000
     73         -5.925084   1.000000
     74         -5.907467   1.000000
     75         -5.906495   1.000000
     76         -5.879060   1.000000
     77         -5.742112   1.000000
     78         -5.313715   1.000000
     79         -5.312334   1.000000
     80         -5.215931   1.000000
     81         -5.173482   1.000000
     82         -5.171422   1.000000
     83         -5.141350   1.000000
     84         -5.115589   1.000000
     85         -5.113450   1.000000
     86         -5.004774   1.000000
     87         -4.992982   1.000000
     88         -4.872446   1.000000
     89         -4.703815   1.000000
     90         -4.702688   1.000000
     91         -4.660749   1.000000
     92         -4.447703   1.000000
     93         -4.257009   1.000000
     94         -4.256075   1.000000
     95         -4.251168   1.000000
     96         -4.249621   1.000000
     97         -4.065857   1.000000
     98         -3.828135   1.000000
     99         -3.803455   1.000000
    100         -3.802130   1.000000
    101         -3.740884   1.000000
    102         -3.703271   1.000000
    103         -3.701579   1.000000
    104         -3.436825   1.000000
    105         -3.434608   1.000000
    106         -3.269261   1.000000
    107         -3.266873   1.000000
    108         -3.229674   1.000000
    109         -2.614095   0.999999
    110         -2.613167   0.999999
    111         -2.523054   0.985095
    112         -2.521327   0.983154
    113         -2.301264   0.000021
    114         -2.299873   0.000017
    115         -2.285646   0.000003
    116         -2.185668   0.000000
    117         -1.623925   0.000000
    118          0.016190   0.000000
    119          0.092676   0.000000
    120          0.263695   0.000000
    121          0.266165   0.000000
    122          0.318333   0.000000
    123          0.319928   0.000000
    124          0.394982   0.000000
    125          0.395707   0.000000
    126          0.396846   0.000000
    127          0.504946   0.000000
    128          0.509590   0.000000
    129          0.511637   0.000000
    130          0.607539   0.000000
    131          0.637829   0.000000
    132          0.638864   0.000000
    133          0.665048   0.000000
    134          0.665866   0.000000
    135          0.800103   0.000000
    136          0.801677   0.000000
    137          0.853109   0.000000
    138          1.099811   0.000000
    139          1.100493   0.000000
    140          1.158729   0.000000
    141          1.298990   0.000000
    142          1.426475   0.000000
    143          1.665846   0.000000
 
  0.2000000E+00  0.4000000E+00  0.1276756E-14  0.8000000E-01
      1        -57.442323   1.000000
      2        -57.431908   1.000000
      3        -57.431483   1.000000
      4        -57.421390   1.000000
      5        -57.421019   1.000000
      6        -57.416507   1.000000
      7        -57.416071   1.000000
      8        -57.413864   1.000000
      9        -57.412660   1.000000
     10        -33.692773   1.000000
     11        -33.692426   1.000000
     12        -33.672605   1.000000
     13        -33.651522   1.000000
     14        -33.627234   1.000000
     15        -33.627051   1.000000
     16        -33.530963   1.000000
     17        -33.530813   1.000000
     18        -33.530259   1.000000
     19        -33.521334   1.000000
     20        -33.513396   1.000000
     21        -33.488834   1.000000
     22        -33.488609   1.000000
     23        -33.464350   1.000000
     24        -33.464092   1.000000
     25        -33.457357   1.000000
     26        -33.457016   1.000000
     27        -33.455193   1.000000
     28        -33.455080   1.000000
     29        -33.452943   1.000000
     30        -33.452689   1.000000
     31        -33.447235   1.000000
     32        -33.444942   1.000000
     33        -33.415832   1.000000
     34        -33.412563   1.000000
     35        -33.412371   1.000000
     36        -33.382908   1.000000
     37        -15.700685   1.000000
     38        -15.245584   1.000000
     39        -15.242088   1.000000
     40        -14.747811   1.000000
     41        -14.744478   1.000000
     42        -14.502868   1.000000
     43        -14.493069   1.000000
     44        -14.489631   1.000000
     45        -14.373506   1.000000
     46        -14.371096   1.000000
     47        -14.370367   1.000000
     48        -14.318254   1.000000
     49        -14.226309   1.000000
     50        -14.224645   1.000000
     51        -14.158025   1.000000
     52        -14.156701   1.000000
     53        -14.103135   1.000000
     54        -14.089866   1.000000
     55         -7.349499   1.000000
     56         -7.347150   1.000000
     57         -7.201827   1.000000
     58         -6.967403   1.000000
     59         -6.963706   1.000000
     60         -6.962876   1.000000
     61         -6.884886   1.000000
     62         -6.835324   1.000000
     63         -6.831380   1.000000
     64         -6.828719   1.000000
     65         -6.826142   1.000000
     66         -6.425785   1.000000
     67         -6.423555   1.000000
     68         -6.112169   1.000000
     69         -6.109937   1.000000
     70         -5.941903   1.000000
     71         -5.938563   1.000000
     72         -5.925632   1.000000
     73         -5.925283   1.000000
     74         -5.907462   1.000000
     75         -5.906144   1.000000
     76         -5.878913   1.000000
     77         -5.742030   1.000000
     78         -5.313192   1.000000
     79         -5.312431   1.000000
     80         -5.216132   1.000000
     81         -5.173695   1.000000
     82         -5.171386   1.000000
     83         -5.141479   1.000000
     84         -5.115288   1.000000
     85         -5.113496   1.000000
     86         -5.004657   1.000000
     87         -4.992801   1.000000
     88         -4.872448   1.000000
     89         -4.704619   1.000000
     90         -4.702515   1.000000
     91         -4.660521   1.000000
     92         -4.447127   1.000000
     93         -4.257191   1.000000
     94         -4.255899   1.000000
     95         -4.251377   1.000000
     96         -4.249515   1.000000
     97         -4.066613   1.000000
     98         -3.828374   1.000000
     99         -3.803610   1.000000
    100         -3.802158   1.000000
    101         -3.740891   1.000000
    102         -3.703191   1.000000
    103         -3.701512   1.000000
    104         -3.436691   1.000000
    105         -3.434827   1.000000
    106         -3.269259   1.000000
    107         -3.266766   1.000000
    108         -3.229572   1.000000
    109         -2.614524   0.999999
    110         -2.613324   0.999999
    111         -2.522747   0.984765
    112         -2.521086   0.982868
    113         -2.301334   0.000021
    114         -2.299792   0.000017
    115         -2.285556   0.000003
    116         -2.185786   0.000000
    117         -1.623776   0.000000
    118          0.016020   0.000000
    119          0.092811   0.000000
    120          0.263739   0.000000
    121          0.266458   0.000000
    122          0.318473   0.000000
    123          0.319751   0.000000
    124          0.394855   0.000000
    125          0.395661   0.000000
    126          0.396393   0.000000
    127          0.505041   0.000000
    128          0.509472   0.000000
    129          0.511304   0.000000
    130          0.607377   0.000000
    131          0.637658   0.000000
    132          0.638950   0.000000
    133          0.665014   0.000000
    134          0.665818   0.000000
    135          0.800294   0.000000
    136          0.801684   0.000000
    137          0.853965   0.000000
    138          1.099716   0.000000
    139          1.100744   0.000000
    140          1.158967   0.000000
    141          1.298935   0.000000
    142          1.427548   0.000000
    143          1.671769   0.000000
 
 -0.2000000E+00  0.2000000E+00  0.1276756E-14  0.8000000E-01
      1        -57.442318   1.000000
      2        -57.432097   1.000000
      3        -57.431293   1.000000
      4        -57.421580   1.000000
      5        -57.420768   1.000000
      6        -57.416733   1.000000
      7        -57.415960   1.000000
      8        -57.413789   1.000000
      9        -57.412688   1.000000
     10        -33.692780   1.000000
     11        -33.692614   1.000000
     12        -33.672443   1.000000
     13        -33.651685   1.000000
     14        -33.627277   1.000000
     15        -33.626722   1.000000
     16        -33.531006   1.000000
     17        -33.530810   1.000000
     18        -33.530096   1.000000
     19        -33.521476   1.000000
     20        -33.513393   1.000000
     21        -33.488981   1.000000
     22        -33.488461   1.000000
     23        -33.464498   1.000000
     24        -33.463946   1.000000
     25        -33.457387   1.000000
     26        -33.457193   1.000000
     27        -33.455330   1.000000
     28        -33.454821   1.000000
     29        -33.453121   1.000000
     30        -33.452525   1.000000
     31        -33.447209   1.000000
     32        -33.444959   1.000000
     33        -33.415955   1.000000
     34        -33.412615   1.000000
     35        -33.412322   1.000000
     36        -33.382766   1.000000
     37        -15.700659   1.000000
     38        -15.245439   1.000000
     39        -15.242205   1.000000
     40        -14.747989   1.000000
     41        -14.744612   1.000000
     42        -14.502872   1.000000
     43        -14.492631   1.000000
     44        -14.489780   1.000000
     45        -14.373341   1.000000
     46        -14.371227   1.000000
     47        -14.370335   1.000000
     48        -14.318410   1.000000
     49        -14.225690   1.000000
     50        -14.224837   1.000000
     51        -14.158330   1.000000
     52        -14.156813   1.000000
     53        -14.103311   1.000000
     54        -14.089636   1.000000
     55         -7.348954   1.000000
     56         -7.347761   1.000000
     57         -7.201784   1.000000
     58         -6.967126   1.000000
     59         -6.963687   1.000000
     60         -6.963124   1.000000
     61         -6.885201   1.000000
     62         -6.835010   1.000000
     63         -6.831121   1.000000
     64         -6.828541   1.000000
     65         -6.826282   1.000000
     66         -6.424998   1.000000
     67         -6.423655   1.000000
     68         -6.112558   1.000000
     69         -6.110038   1.000000
     70         -5.940854   1.000000
     71         -5.939246   1.000000
     72         -5.926122   1.000000
     73         -5.924880   1.000000
     74         -5.907482   1.000000
     75         -5.906846   1.000000
     76         -5.879203   1.000000
     77         -5.742193   1.000000
     78         -5.314325   1.000000
     79         -5.312159   1.000000
     80         -5.215731   1.000000
     81         -5.173169   1.000000
     82         -5.171541   1.000000
     83         -5.141244   1.000000
     84         -5.115908   1.000000
     85         -5.113387   1.000000
     86         -5.004899   1.000000
     87         -4.993155   1.000000
     88         -4.872440   1.000000
     89         -4.703487   1.000000
     90         -4.702383   1.000000
     91         -4.660972   1.000000
     92         -4.448282   1.000000
     93         -4.256722   1.000000
     94         -4.256294   1.000000
     95         -4.251019   1.000000
     96         -4.249730   1.000000
     97         -4.065106   1.000000
     98         -3.827895   1.000000
     99         -3.803322   1.000000
    100         -3.802076   1.000000
    101         -3.740867   1.000000
    102         -3.703290   1.000000
    103         -3.701713   1.000000
    104         -3.436940   1.000000
    105         -3.434407   1.000000
    106         -3.269256   1.000000
    107         -3.266981   1.000000
    108         -3.229786   1.000000
    109         -2.613586   0.999999
    110         -2.613098   0.999999
    111         -2.523261   0.985314
    112         -2.521659   0.983543
    113         -2.301030   0.000020
    114         -2.300134   0.000018
    115         -2.285719   0.000003
    116         -2.185553   0.000000
    117         -1.624075   0.000000
    118          0.016358   0.000000
    119          0.092544   0.000000
    120          0.263541   0.000000
    121          0.265985   0.000000
    122          0.318115   0.000000
    123          0.320173   0.000000
    124          0.394874   0.000000
    125          0.395885   0.000000
    126          0.397403   0.000000
    127          0.504928   0.000000
    128          0.509686   0.000000
    129          0.511945   0.000000
    130          0.607689   0.000000
    131          0.638012   0.000000
    132          0.638754   0.000000
    133          0.664737   0.000000
    134          0.666265   0.000000
    135          0.799883   0.000000
    136          0.801707   0.000000
    137          0.852244   0.000000
    138          1.099796   0.000000
    139          1.100356   0.000000
    140          1.158495   0.000000
    141          1.299120   0.000000
    142          1.425962   0.000000
    143          1.661145   0.000000
 
 -0.4000000E+00  0.2000000E+00  0.1276756E-14  0.8000000E-01
      1        -57.437862   1.000000
      2        -57.437495   1.000000
      3        -57.432543   1.000000
      4        -57.421618   1.000000
      5        -57.417329   1.000000
      6        -57.416986   1.000000
      7        -57.415179   1.000000
      8        -57.414522   1.000000
      9        -57.413694   1.000000
     10        -33.706250   1.000000
     11        -33.690286   1.000000
     12        -33.689941   1.000000
     13        -33.645992   1.000000
     14        -33.645714   1.000000
     15        -33.614084   1.000000
     16        -33.517444   1.000000
     17        -33.502705   1.000000
     18        -33.502478   1.000000
     19        -33.493347   1.000000
     20        -33.493078   1.000000
     21        -33.490787   1.000000
     22        -33.483417   1.000000
     23        -33.483268   1.000000
     24        -33.466776   1.000000
     25        -33.466673   1.000000
     26        -33.465191   1.000000
     27        -33.464966   1.000000
     28        -33.458654   1.000000
     29        -33.454810   1.000000
     30        -33.454571   1.000000
     31        -33.449818   1.000000
     32        -33.448532   1.000000
     33        -33.448197   1.000000
     34        -33.413942   1.000000
     35        -33.395982   1.000000
     36        -33.395562   1.000000
     37        -15.506964   1.000000
     38        -15.503446   1.000000
     39        -15.283979   1.000000
     40        -14.767900   1.000000
     41        -14.541121   1.000000
     42        -14.537585   1.000000
     43        -14.447133   1.000000
     44        -14.446272   1.000000
     45        -14.420289   1.000000
     46        -14.395218   1.000000
     47        -14.391840   1.000000
     48        -14.382352   1.000000
     49        -14.229596   1.000000
     50        -14.160215   1.000000
     51        -14.158504   1.000000
     52        -14.137843   1.000000
     53        -14.122360   1.000000
     54        -14.120969   1.000000
     55         -7.417708   1.000000
     56         -7.230347   1.000000
     57         -7.228625   1.000000
     58         -6.998054   1.000000
     59         -6.994799   1.000000
     60         -6.946546   1.000000
     61         -6.945698   1.000000
     62         -6.869611   1.000000
     63         -6.820398   1.000000
     64         -6.663437   1.000000
     65         -6.660688   1.000000
     66         -6.514704   1.000000
     67         -6.507737   1.000000
     68         -6.504843   1.000000
     69         -6.089184   1.000000
     70         -5.958491   1.000000
     71         -5.917520   1.000000
     72         -5.914192   1.000000
     73         -5.892963   1.000000
     74         -5.885239   1.000000
     75         -5.802696   1.000000
     76         -5.800790   1.000000
     77         -5.599614   1.000000
     78         -5.596242   1.000000
     79         -5.201038   1.000000
     80         -5.169192   1.000000
     81         -5.144443   1.000000
     82         -5.120656   1.000000
     83         -5.118656   1.000000
     84         -5.116538   1.000000
     85         -5.115567   1.000000
     86         -4.854826   1.000000
     87         -4.852226   1.000000
     88         -4.808820   1.000000
     89         -4.670698   1.000000
     90         -4.669593   1.000000
     91         -4.479834   1.000000
     92         -4.475339   1.000000
     93         -4.415417   1.000000
     94         -4.397113   1.000000
     95         -4.395106   1.000000
     96         -4.331730   1.000000
     97         -4.267847   1.000000
     98         -4.266522   1.000000
     99         -3.766252   1.000000
    100         -3.742245   1.000000
    101         -3.741043   1.000000
    102         -3.738605   1.000000
    103         -3.546786   1.000000
    104         -3.545064   1.000000
    105         -3.351076   1.000000
    106         -3.175705   1.000000
    107         -3.172563   1.000000
    108         -3.148033   1.000000
    109         -2.603361   0.999996
    110         -2.510070   0.964491
    111         -2.509285   0.962720
    112         -2.442649   0.459545
    113         -2.359807   0.007249
    114         -2.358527   0.006552
    115         -2.238338   0.000000
    116         -1.924108   0.000000
    117         -1.921938   0.000000
    118          0.215457   0.000000
    119          0.293854   0.000000
    120          0.294386   0.000000
    121          0.302508   0.000000
    122          0.357055   0.000000
    123          0.358914   0.000000
    124          0.374587   0.000000
    125          0.375848   0.000000
    126          0.400565   0.000000
    127          0.434082   0.000000
    128          0.436643   0.000000
    129          0.511923   0.000000
    130          0.515135   0.000000
    131          0.517081   0.000000
    132          0.544587   0.000000
    133          0.632675   0.000000
    134          0.753171   0.000000
    135          0.753445   0.000000
    136          0.875075   0.000000
    137          0.964112   0.000000
    138          0.995160   0.000000
    139          0.996128   0.000000
    140          1.234981   0.000000
    141          1.236429   0.000000
    142          1.255265   0.000000
    143          1.256490   0.000000
 
  0.4000000E+00 -0.4000000E+00  0.1276756E-14  0.8000000E-01
      1        -57.438057   1.000000
      2        -57.437270   1.000000
      3        -57.432573   1.000000
      4        -57.421632   1.000000
      5        -57.417490   1.000000
      6        -57.416777   1.000000
      7        -57.414976   1.000000
      8        -57.414793   1.000000
      9        -57.413659   1.000000
     10        -33.706082   1.000000
     11        -33.690279   1.000000
     12        -33.690083   1.000000
     13        -33.645986   1.000000
     14        -33.645642   1.000000
     15        -33.614254   1.000000
     16        -33.517600   1.000000
     17        -33.502845   1.000000
     18        -33.502337   1.000000
     19        -33.493320   1.000000
     20        -33.493167   1.000000
     21        -33.490791   1.000000
     22        -33.483502   1.000000
     23        -33.483088   1.000000
     24        -33.466926   1.000000
     25        -33.466328   1.000000
     26        -33.465190   1.000000
     27        -33.464751   1.000000
     28        -33.458794   1.000000
     29        -33.454965   1.000000
     30        -33.454401   1.000000
     31        -33.449787   1.000000
     32        -33.448710   1.000000
     33        -33.448073   1.000000
     34        -33.413796   1.000000
     35        -33.396004   1.000000
     36        -33.395764   1.000000
     37        -15.506957   1.000000
     38        -15.503550   1.000000
     39        -15.283889   1.000000
     40        -14.767756   1.000000
     41        -14.541033   1.000000
     42        -14.537736   1.000000
     43        -14.446930   1.000000
     44        -14.446344   1.000000
     45        -14.420597   1.000000
     46        -14.394837   1.000000
     47        -14.391996   1.000000
     48        -14.382473   1.000000
     49        -14.229817   1.000000
     50        -14.159938   1.000000
     51        -14.158668   1.000000
     52        -14.137470   1.000000
     53        -14.122491   1.000000
     54        -14.121100   1.000000
     55         -7.417558   1.000000
     56         -7.229881   1.000000
     57         -7.229276   1.000000
     58         -6.998148   1.000000
     59         -6.994857   1.000000
     60         -6.946689   1.000000
     61         -6.945734   1.000000
     62         -6.869492   1.000000
     63         -6.820324   1.000000
     64         -6.663233   1.000000
     65         -6.660686   1.000000
     66         -6.515236   1.000000
     67         -6.508128   1.000000
     68         -6.504930   1.000000
     69         -6.088428   1.000000
     70         -5.959063   1.000000
     71         -5.916411   1.000000
     72         -5.914655   1.000000
     73         -5.892645   1.000000
     74         -5.884855   1.000000
     75         -5.802372   1.000000
     76         -5.800874   1.000000
     77         -5.600277   1.000000
     78         -5.596137   1.000000
     79         -5.201857   1.000000
     80         -5.169322   1.000000
     81         -5.144925   1.000000
     82         -5.119564   1.000000
     83         -5.118593   1.000000
     84         -5.116199   1.000000
     85         -5.115421   1.000000
     86         -4.852986   1.000000
     87         -4.852347   1.000000
     88         -4.808573   1.000000
     89         -4.670857   1.000000
     90         -4.669817   1.000000
     91         -4.479232   1.000000
     92         -4.475523   1.000000
     93         -4.415453   1.000000
     94         -4.399308   1.000000
     95         -4.394930   1.000000
     96         -4.331987   1.000000
     97         -4.267964   1.000000
     98         -4.266575   1.000000
     99         -3.766375   1.000000
    100         -3.742423   1.000000
    101         -3.741483   1.000000
    102         -3.738098   1.000000
    103         -3.547017   1.000000
    104         -3.545298   1.000000
    105         -3.350788   1.000000
    106         -3.175612   1.000000
    107         -3.172788   1.000000
    108         -3.147757   1.000000
    109         -2.604027   0.999996
    110         -2.510056   0.964460
    111         -2.509061   0.962201
    112         -2.441904   0.451191
    113         -2.359909   0.007306
    114         -2.358769   0.006679
    115         -2.239143   0.000000
    116         -1.923142   0.000000
    117         -1.921971   0.000000
    118          0.216179   0.000000
    119          0.293453   0.000000
    120          0.294384   0.000000
    121          0.302729   0.000000
    122          0.356839   0.000000
    123          0.358711   0.000000
    124          0.374601   0.000000
    125          0.375746   0.000000
    126          0.400994   0.000000
    127          0.434246   0.000000
    128          0.434976   0.000000
    129          0.512022   0.000000
    130          0.515229   0.000000
    131          0.517287   0.000000
    132          0.544126   0.000000
    133          0.632154   0.000000
    134          0.753227   0.000000
    135          0.754003   0.000000
    136          0.875291   0.000000
    137          0.963690   0.000000
    138          0.995431   0.000000
    139          0.995893   0.000000
    140          1.235354   0.000000
    141          1.237968   0.000000
    142          1.255188   0.000000
    143          1.257669   0.000000
 
 -0.2000000E+00  0.4000000E+00  0.1276756E-14  0.8000000E-01
      1        -57.437927   1.000000
      2        -57.437422   1.000000
      3        -57.432550   1.000000
      4        -57.421622   1.000000
      5        -57.417380   1.000000
      6        -57.416918   1.000000
      7        -57.415155   1.000000
      8        -57.414571   1.000000
      9        -57.413681   1.000000
     10        -33.706167   1.000000
     11        -33.690284   1.000000
     12        -33.690010   1.000000
     13        -33.645965   1.000000
     14        -33.645703   1.000000
     15        -33.614169   1.000000
     16        -33.517522   1.000000
     17        -33.502713   1.000000
     18        -33.502471   1.000000
     19        -33.493313   1.000000
     20        -33.493148   1.000000
     21        -33.490786   1.000000
     22        -33.483424   1.000000
     23        -33.483208   1.000000
     24        -33.466849   1.000000
     25        -33.466508   1.000000
     26        -33.465189   1.000000
     27        -33.464858   1.000000
     28        -33.458720   1.000000
     29        -33.454839   1.000000
     30        -33.454541   1.000000
     31        -33.449820   1.000000
     32        -33.448560   1.000000
     33        -33.448173   1.000000
     34        -33.413869   1.000000
     35        -33.395988   1.000000
     36        -33.395668   1.000000
     37        -15.506928   1.000000
     38        -15.503530   1.000000
     39        -15.283934   1.000000
     40        -14.767829   1.000000
     41        -14.541049   1.000000
     42        -14.537688   1.000000
     43        -14.446963   1.000000
     44        -14.446376   1.000000
     45        -14.420446   1.000000
     46        -14.395025   1.000000
     47        -14.391922   1.000000
     48        -14.382410   1.000000
     49        -14.229706   1.000000
     50        -14.160059   1.000000
     51        -14.158602   1.000000
     52        -14.137660   1.000000
     53        -14.122431   1.000000
     54        -14.121028   1.000000
     55         -7.417636   1.000000
     56         -7.230103   1.000000
     57         -7.228960   1.000000
     58         -6.998088   1.000000
     59         -6.994843   1.000000
     60         -6.946526   1.000000
     61         -6.945806   1.000000
     62         -6.869549   1.000000
     63         -6.820360   1.000000
     64         -6.663337   1.000000
     65         -6.660685   1.000000
     66         -6.514969   1.000000
     67         -6.507929   1.000000
     68         -6.504891   1.000000
     69         -6.088808   1.000000
     70         -5.958781   1.000000
     71         -5.916975   1.000000
     72         -5.914410   1.000000
     73         -5.892807   1.000000
     74         -5.885044   1.000000
     75         -5.802536   1.000000
     76         -5.800829   1.000000
     77         -5.599940   1.000000
     78         -5.596196   1.000000
     79         -5.201442   1.000000
     80         -5.169262   1.000000
     81         -5.144693   1.000000
     82         -5.120166   1.000000
     83         -5.118604   1.000000
     84         -5.116267   1.000000
     85         -5.115551   1.000000
     86         -4.853886   1.000000
     87         -4.852311   1.000000
     88         -4.808697   1.000000
     89         -4.670782   1.000000
     90         -4.669706   1.000000
     91         -4.479523   1.000000
     92         -4.475430   1.000000
     93         -4.415427   1.000000
     94         -4.398174   1.000000
     95         -4.395067   1.000000
     96         -4.331853   1.000000
     97         -4.267891   1.000000
     98         -4.266567   1.000000
     99         -3.766313   1.000000
    100         -3.742361   1.000000
    101         -3.741234   1.000000
    102         -3.738351   1.000000
    103         -3.546902   1.000000
    104         -3.545181   1.000000
    105         -3.350932   1.000000
    106         -3.175632   1.000000
    107         -3.172702   1.000000
    108         -3.147897   1.000000
    109         -2.603696   0.999996
    110         -2.510104   0.964566
    111         -2.509130   0.962363
    112         -2.442276   0.455357
    113         -2.359884   0.007292
    114         -2.358621   0.006601
    115         -2.238741   0.000000
    116         -1.923632   0.000000
    117         -1.921948   0.000000
    118          0.215814   0.000000
    119          0.293610   0.000000
    120          0.294423   0.000000
    121          0.302618   0.000000
    122          0.356976   0.000000
    123          0.358794   0.000000
    124          0.374603   0.000000
    125          0.375788   0.000000
    126          0.400786   0.000000
    127          0.434249   0.000000
    128          0.435708   0.000000
    129          0.512093   0.000000
    130          0.515200   0.000000
    131          0.517064   0.000000
    132          0.544351   0.000000
    133          0.632415   0.000000
    134          0.753139   0.000000
    135          0.753783   0.000000
    136          0.875184   0.000000
    137          0.963905   0.000000
    138          0.995286   0.000000
    139          0.996014   0.000000
    140          1.235401   0.000000
    141          1.236918   0.000000
    142          1.255196   0.000000
    143          1.257143   0.000000
