Mo1 W1 Se2 S2                           
   1.00000000000000     
     3.2182580000000001    0.0000000000000019    0.0000000000000000
     1.6091290000000105    2.7870931839325128    0.0000000000000000
    -0.0000000000000001   -0.0000000000000001   20.4745262477180958
   Mo   S    W    Se
     1     2     1     2
Direct
     0.0000000000000000    0.0000000000000000    0.5103201658016397
     0.3333333333333357    0.3333333333333357    0.4348641092562280
     0.3333333333333357    0.3333333333333357    0.5857462239412928
     0.3333333333333357    0.3333333333333357    0.8146795914296071
     0.0000000000000000   -0.0000000000000000    0.7310549420331812
    -0.0000000000000000    0.0000000000000000    0.8983349675381437
 
  0.00000000E+00  0.00000000E+00  0.00000000E+00
  0.00000000E+00  0.00000000E+00  0.00000000E+00
  0.00000000E+00  0.00000000E+00  0.00000000E+00
  0.00000000E+00  0.00000000E+00  0.00000000E+00
  0.00000000E+00  0.00000000E+00  0.00000000E+00
  0.00000000E+00  0.00000000E+00  0.00000000E+00
