Mo S  W 
 1.0000000000000000
     3.1865269999999999   -0.0000000000000007    0.0000000000000000
     1.5932634999999999    2.7596133318450091    0.0000000000000000
     0.0000000000000000    0.0000000000000000   20.0000000000000000
 Mo  S   W  
   1   4   1
Direct
  0.0000000000000000  0.0000000000000000  0.4803406546562606
  0.3333333333333357  0.3333333333333357  0.4022711626656452
  0.3333333333333357  0.3333333333333357  0.5584143617850827
  0.0000000000000000  0.0000000000000000  0.7753643617850798
  0.0000000000000000  0.0000000000000000  0.9325224167060298
  0.3333333333333357  0.3333333333333357  0.8539454108366565
Cartesian
  0.0000000000000000  0.0000000000000000  0.0000000000000000
  0.0000000000000000  0.0000000000000000  0.0000000000000000
  0.0000000000000000  0.0000000000000000  0.0000000000000000
  0.0000000000000000  0.0000000000000000  0.0000000000000000
  0.0000000000000000  0.0000000000000000  0.0000000000000000
  0.0000000000000000  0.0000000000000000  0.0000000000000000
