Bilayer MoS2/TiS2 3R (relaxed monolayers
    1.000000000000000     
     3.2244750000000000    0.0000000000000000    0.0000000000000000
     1.6122375000000000    2.7924772638678275    0.0000000000000000
     0.0000000000000000    0.0000000000000000   20.0000000000000000
  Mo              S               Ti            
     1     4     1
Direct
     0.0000000000000000    0.0000000000000000    0.5019286491746902
     0.3333333333333357    0.3333333333333357    0.4247466163422959
     0.3333333333333357    0.3333333333333357    0.5787714330062884
     0.6666666666666714    0.6666666666666714    0.7232944554763600
     0.6666666666666714    0.6666666666666714    0.8761815694362639
     0.3333333333333357    0.3333333333333357    0.7998139574519270
 
  0.00000000E+00  0.00000000E+00  0.00000000E+00
  0.00000000E+00  0.00000000E+00  0.00000000E+00
  0.00000000E+00  0.00000000E+00  0.00000000E+00
  0.00000000E+00  0.00000000E+00  0.00000000E+00
  0.00000000E+00  0.00000000E+00  0.00000000E+00
  0.00000000E+00  0.00000000E+00  0.00000000E+00
