 vasp.6.5.1 10Mar25 (build Aug 29 2025 00:30:47) complex                        
  
 executed on             LinuxIFC date 2026.06.03  20:27:33
 running  264 mpi-ranks, with    1 threads/rank, on    6 nodes
 distrk:  each k-point on   44 cores,    6 groups
 distr:  one band on NCORE=   4 cores,   11 groups


--------------------------------------------------------------------------------------------------------


 INCAR:
   SYSTEM = MoS2_bilayer_3R phonon
   PREC = Accurate
   ENCUT = 520
   EDIFF = 1E-6
   ISMEAR = 0
   SIGMA = 0.05
   LREAL = Auto
   ALGO = Normal
   AMIN = 0.01
   NELM = 200
   NSW = 0
   IBRION = -1
   IVDW = 12
   KPAR = 6
   NCORE = 4
   LWAVE = .FALSE.
   LCHARG = .FALSE.

 POTCAR:    PAW_PBE Mo_sv 02Feb2006               
 POTCAR:    PAW_PBE S 06Sep2000                   
 POTCAR:    PAW_PBE Mo_sv 02Feb2006               
   SHA256 =  2731df97e41766cc617548c5a8267718fdef1f509ac6bafa01e745abea2bdfaa Mo_sv/POTCAR          
   COPYR  = (c) Copyright 02Feb2006 Georg Kresse                                                    
   COPYR  = This file is part of the software VASP. Any use, copying, and all other rights are regul
   COPYR  = If you do not have a valid VASP license, you may not use, copy or distribute this file. 
   VRHFIN =Mo: 4p5s4d                                                                               
   LEXCH  = PE                                                                                      
   EATOM  =  1862.2866 eV,  136.8742 Ry                                                             
                                                                                                    
   TITEL  = PAW_PBE Mo_sv 02Feb2006                                                                 
   LULTRA =        F    use ultrasoft PP ?                                                          
   IUNSCR =        1    unscreen: 0-lin 1-nonlin 2-no                                               
   RPACOR =    2.200    partial core radius                                                         
   POMASS =   95.940; ZVAL   =   14.000    mass and valenz                                          
   RCORE  =    2.500    outmost cutoff radius                                                       
   RWIGS  =    2.750; RWIGS  =    1.455    wigner-seitz radius (au A)                               
   ENMAX  =  242.676; ENMIN  =  182.007 eV                                                          
   ICORE  =        3    local potential                                                             
   LCOR   =        T    correct aug charges                                                         
   LPAW   =        T    paw PP                                                                      
   EAUG   =  446.014                                                                                
   DEXC   =    0.000                                                                                
   RMAX   =    2.563    core radius for proj-oper                                                   
   RAUG   =    1.300    factor for augmentation sphere                                              
   RDEP   =    2.641    radius for radial grids                                                     
   RDEPT  =    2.031    core radius for aug-charge                                                  
                                                                                                    
   Atomic configuration                                                                             
   11 entries                                                                                       
     n  l   j            E        occ.                                                              
     1  0  0.50    -19819.0341   2.0000                                                             
     2  0  0.50     -2799.0127   2.0000                                                             
     2  1  1.50     -2502.0276   6.0000                                                             
     3  0  0.50      -476.4449   2.0000                                                             
     3  1  1.50      -379.1496   6.0000                                                             
     3  2  2.50      -220.9367  10.0000                                                             
     4  0  0.50       -64.3378   2.0000                                                             
     5  0  0.50        -4.0862   1.0000                                                             
     4  1  1.50       -38.4773   6.0000                                                             
     4  2  2.50        -3.7535   5.0000                                                             
     4  3  2.50        -1.3606   0.0000                                                             
   Description                                                                                      
     l       E           TYP  RCUT    TYP  RCUT                                                     
     0    -64.3377829     23  2.100                                                                 
     0     -4.0861640     23  2.400                                                                 
     1    -38.4772993     23  2.100                                                                 
     1     13.6058260     23  2.100                                                                 
     2     -3.7534941     23  2.400                                                                 
     2     -5.1140767     23  2.400                                                                 
     3     -4.0817478     23  2.500                                                                 
  local pseudopotential read in
  partial core-charges read in
  partial kinetic energy density read in
  atomic valenz-charges read in
  non local Contribution for L=           0  read in
    real space projection operators read in
  non local Contribution for L=           0  read in
    real space projection operators read in
  non local Contribution for L=           1  read in
    real space projection operators read in
  non local Contribution for L=           1  read in
    real space projection operators read in
  non local Contribution for L=           2  read in
    real space projection operators read in
  non local Contribution for L=           2  read in
    real space projection operators read in
    PAW grid and wavefunctions read in
 
   number of l-projection  operators is LMAX  =           6
   number of lm-projection operators is LMMAX =          18
 
 POTCAR:    PAW_PBE S 06Sep2000                   
   SHA256 =  0fc7481fb0695f01bdc6462160264c5c84044ae9ec85a907d398b887a2bc3132 S/POTCAR              
   COPYR  = (c) Copyright 06Sep2000 Georg Kresse                                                    
   COPYR  = This file is part of the software VASP. Any use, copying, and all other rights are regul
   COPYR  = If you do not have a valid VASP license, you may not use, copy or distribute this file. 
   VRHFIN =S : s2p4                                                                                 
   LEXCH  = PE                                                                                      
   EATOM  =   276.8230 eV,   20.3459 Ry                                                             
                                                                                                    
   TITEL  = PAW_PBE S 06Sep2000                                                                     
   LULTRA =        F    use ultrasoft PP ?                                                          
   IUNSCR =        1    unscreen: 0-lin 1-nonlin 2-no                                               
   RPACOR =    1.500    partial core radius                                                         
   POMASS =   32.066; ZVAL   =    6.000    mass and valenz                                          
   RCORE  =    1.900    outmost cutoff radius                                                       
   RWIGS  =    2.200; RWIGS  =    1.164    wigner-seitz radius (au A)                               
   ENMAX  =  258.689; ENMIN  =  194.016 eV                                                          
   ICORE  =        2    local potential                                                             
   LCOR   =        T    correct aug charges                                                         
   LPAW   =        T    paw PP                                                                      
   EAUG   =  335.092                                                                                
   DEXC   =    0.000                                                                                
   RMAX   =    1.942    core radius for proj-oper                                                   
   RAUG   =    1.300    factor for augmentation sphere                                              
   RDEP   =    1.954    radius for radial grids                                                     
   RDEPT  =    1.744    core radius for aug-charge                                                  
                                                                                                    
   Atomic configuration                                                                             
    6 entries                                                                                       
     n  l   j            E        occ.                                                              
     1  0  0.50     -2405.8406   2.0000                                                             
     2  0  0.50      -211.7007   2.0000                                                             
     2  1  1.50      -156.4958   6.0000                                                             
     3  0  0.50       -17.2562   2.0000                                                             
     3  1  0.50        -7.0085   4.0000                                                             
     3  2  1.50        -6.8029   0.0000                                                             
   Description                                                                                      
     l       E           TYP  RCUT    TYP  RCUT                                                     
     0    -17.2561641     23  1.900                                                                 
     0    -15.8743224     23  1.900                                                                 
     1     -7.0085400     23  1.900                                                                 
     1     -2.7779785     23  1.900                                                                 
     2     -6.8029130     23  1.900                                                                 
  local pseudopotential read in
  partial core-charges read in
  partial kinetic energy density read in
  atomic valenz-charges read in
  non local Contribution for L=           0  read in
    real space projection operators read in
  non local Contribution for L=           0  read in
    real space projection operators read in
  non local Contribution for L=           1  read in
    real space projection operators read in
  non local Contribution for L=           1  read in
    real space projection operators read in
    PAW grid and wavefunctions read in
 
   number of l-projection  operators is LMAX  =           4
   number of lm-projection operators is LMMAX =           8
 
 Optimization of the real space projectors (new method)

 maximal supplied QI-value         = 15.12
 optimisation between [QCUT,QGAM] = [ 11.64, 23.28] = [ 37.95,151.78] Ry 
 Optimized for a Real-space Cutoff    1.53 Angstroem

   l    n(q)    QCUT    max X(q) W(low)/X(q) W(high)/X(q)  e(spline) 
   0     11    11.641     3.559    0.80E-05    0.27E-04    0.27E-06
   0     11    11.641    20.730    0.39E-04    0.26E-04    0.29E-06
   1     10    11.641     3.279    0.18E-05    0.27E-05    0.28E-07
   1     10    11.641     4.693    0.11E-03    0.12E-04    0.28E-06
   2     10    11.641    67.616    0.19E-03    0.29E-03    0.91E-06
   2     10    11.641    62.420    0.19E-03    0.29E-03    0.92E-06
 Optimization of the real space projectors (new method)

 maximal supplied QI-value         = 19.84
 optimisation between [QCUT,QGAM] = [ 11.51, 23.22] = [ 37.09,150.92] Ry 
 Optimized for a Real-space Cutoff    1.21 Angstroem

   l    n(q)    QCUT    max X(q) W(low)/X(q) W(high)/X(q)  e(spline) 
   0      8    11.508   187.594    0.96E-04    0.18E-03    0.54E-07
   0      8    11.508   164.243    0.96E-04    0.18E-03    0.54E-07
   1      8    11.508    67.533    0.18E-03    0.65E-04    0.94E-07
   1      8    11.508    50.729    0.18E-03    0.63E-04    0.92E-07
  PAW_PBE Mo_sv 02Feb2006               :
 energy of atom  1       EATOM=-1862.2866
 kinetic energy error for atom=    0.0070 (will be added to EATOM!!)
  PAW_PBE S 06Sep2000                   :
 energy of atom  2       EATOM= -276.8230
 kinetic energy error for atom=    0.0016 (will be added to EATOM!!)
 
 
 POSCAR: generated by phonopy
  positions in direct lattice
  No initial velocities read in
 IVDW         = 12
 VDW_S6       =    1.0000
 VDW_S8       =    0.7875
 VDW_A1       =    0.4289
 VDW_A2       =    4.4407
 VDW_RADIUS   =   50.2022 A
 VDW_CNRADIUS =   21.1671 A


 exchange-correlation table for PE
   RHO(1)=    0.500       N(1)  =     2000
   RHO(2)=  100.500       N(2)  =     4000
 


--------------------------------------------------------------------------------------------------------


 ion  position               nearest neighbor table
   1  0.000  0.000  0.513-  30 2.41  34 2.41  28 2.41  25 2.41  21 2.41  19 2.41   7 3.19   8 3.19
                             4 3.19   6 3.19   2 3.19   3 3.19
   2  0.333  0.000  0.513-  28 2.41  29 2.41  35 2.41  19 2.41  20 2.41  26 2.41   3 3.19   9 3.19
                             5 3.19   8 3.19   4 3.19   1 3.19
   3  0.667  0.000  0.513-  29 2.41  36 2.41  30 2.41  27 2.41  20 2.41  21 2.41   2 3.19   5 3.19
                             6 3.19   7 3.19   9 3.19   1 3.19
   4  0.000  0.333  0.513-  28 2.41  31 2.41  33 2.41  19 2.41  22 2.41  24 2.41   7 3.19   9 3.19
                             1 3.19   2 3.19   5 3.19   6 3.19
   5  0.333  0.333  0.513-  32 2.41  31 2.41  29 2.41  23 2.41  20 2.41  22 2.41   8 3.19   6 3.19
                             3 3.19   7 3.19   2 3.19   4 3.19
   6  0.667  0.333  0.513-  30 2.41  32 2.41  33 2.41  21 2.41  23 2.41  24 2.41   8 3.19   9 3.19
                             5 3.19   3 3.19   1 3.19   4 3.19
   7  0.000  0.667  0.513-  31 2.41  36 2.41  34 2.41  27 2.41  22 2.41  25 2.41   4 3.19   5 3.19
                             1 3.19   3 3.19   8 3.19   9 3.19
   8  0.333  0.667  0.513-  32 2.41  34 2.41  35 2.41  23 2.41  25 2.41  26 2.41   5 3.19   6 3.19
                             9 3.19   2 3.19   1 3.19   7 3.19
   9  0.667  0.667  0.513-  33 2.41  35 2.41  36 2.41  26 2.41  24 2.41  27 2.41   6 3.19   8 3.19
                             2 3.19   4 3.19   3 3.19   7 3.19
  10  0.111  0.111  0.812-  37 2.41  43 2.41  39 2.41  46 2.41  48 2.41  52 2.41  13 3.19  11 3.19
                            17 3.19  15 3.19  16 3.19  12 3.19
  11  0.444  0.111  0.812-  37 2.40  44 2.41  38 2.41  46 2.41  53 2.41  47 2.41  13 3.19  14 3.19
                            10 3.19  17 3.19  18 3.19  12 3.19
  12  0.778  0.111  0.812-  45 2.41  39 2.41  38 2.41  47 2.41  54 2.41  48 2.41  15 3.19  14 3.19
                            16 3.19  18 3.19  10 3.19  11 3.19
  13  0.111  0.444  0.812-  37 2.40  40 2.41  42 2.41  46 2.41  49 2.41  51 2.41  10 3.19  11 3.19
                            14 3.19  16 3.19  18 3.19  15 3.19
  14  0.444  0.444  0.812-  38 2.41  40 2.41  41 2.41  47 2.41  49 2.41  50 2.41  11 3.19  13 3.19
                            16 3.19  12 3.19  17 3.19  15 3.19
  15  0.778  0.444  0.812-  39 2.41  41 2.41  42 2.41  48 2.41  50 2.41  51 2.41  12 3.19  10 3.19
                            17 3.19  18 3.19  13 3.19  14 3.19
  16  0.111  0.778  0.812-  40 2.41  43 2.41  45 2.41  49 2.41  52 2.41  54 2.41  17 3.19  14 3.19
                            13 3.19  10 3.19  12 3.19  18 3.19
  17  0.444  0.778  0.812-  41 2.41  43 2.41  44 2.41  50 2.41  52 2.41  53 2.41  16 3.19  10 3.19
                            14 3.19  15 3.19  11 3.19  18 3.19
  18  0.778  0.778  0.812-  42 2.41  44 2.41  45 2.41  51 2.41  53 2.41  54 2.41  13 3.19  15 3.19
                            11 3.19  12 3.19  16 3.19  17 3.19
  19  0.111  0.111  0.435-   2 2.41   4 2.41   1 2.41
  20  0.444  0.111  0.435-   2 2.41   3 2.41   5 2.41
  21  0.778  0.111  0.435-   1 2.41   6 2.41   3 2.41
  22  0.111  0.444  0.435-   4 2.41   5 2.41   7 2.41
  23  0.444  0.444  0.435-   5 2.41   6 2.41   8 2.41
  24  0.778  0.444  0.435-   4 2.41   6 2.41   9 2.41
  25  0.111  0.778  0.435-   1 2.41   8 2.41   7 2.41
  26  0.444  0.778  0.435-   2 2.41   8 2.41   9 2.41
  27  0.778  0.778  0.435-   3 2.41   7 2.41   9 2.41
  28  0.111  0.111  0.590-   2 2.41   4 2.41   1 2.41
  29  0.444  0.111  0.590-   2 2.41   3 2.41   5 2.41
  30  0.778  0.111  0.590-   1 2.41   6 2.41   3 2.41
  31  0.111  0.444  0.590-   4 2.41   5 2.41   7 2.41
  32  0.444  0.444  0.590-   5 2.41   6 2.41   8 2.41
  33  0.778  0.444  0.590-   4 2.41   6 2.41   9 2.41
  34  0.111  0.778  0.590-   1 2.41   8 2.41   7 2.41
  35  0.444  0.778  0.590-   2 2.41   8 2.41   9 2.41
  36  0.778  0.778  0.590-   3 2.41   7 2.41   9 2.41
  37  0.223  0.222  0.735-  11 2.40  13 2.40  10 2.41
  38  0.556  0.222  0.734-  14 2.41  12 2.41  11 2.41
  39  0.889  0.222  0.734-  15 2.41  12 2.41  10 2.41
  40  0.222  0.556  0.734-  16 2.41  14 2.41  13 2.41
  41  0.556  0.556  0.734-  17 2.41  15 2.41  14 2.41
  42  0.889  0.556  0.734-  18 2.41  13 2.41  15 2.41
  43  0.222  0.889  0.734-  10 2.41  16 2.41  17 2.41
  44  0.556  0.889  0.734-  11 2.41  18 2.41  17 2.41
  45  0.889  0.889  0.734-  12 2.41  16 2.41  18 2.41
  46  0.222  0.222  0.890-  10 2.41  11 2.41  13 2.41
  47  0.556  0.222  0.890-  12 2.41  14 2.41  11 2.41
  48  0.889  0.222  0.890-  10 2.41  15 2.41  12 2.41
  49  0.222  0.556  0.890-  16 2.41  14 2.41  13 2.41
  50  0.556  0.556  0.890-  17 2.41  15 2.41  14 2.41
  51  0.889  0.556  0.890-  18 2.41  13 2.41  15 2.41
  52  0.222  0.889  0.890-  10 2.41  16 2.41  17 2.41
  53  0.556  0.889  0.890-  11 2.41  18 2.41  17 2.41
  54  0.889  0.889  0.890-  12 2.41  16 2.41  18 2.41
 
  LATTYP: Found a hexagonal cell.
 ALAT       =     9.5767137364
 C/A-ratio  =     2.0883990637
  
  Lattice vectors:
  
 A1 = (  -4.7883568682,  -8.2936773805,   0.0000000000)
 A2 = (   9.5767137364,   0.0000000000,   0.0000000000)
 A3 = (   0.0000000000,   0.0000000000,  20.0000000000)


Analysis of symmetry for initial positions (statically):
=====================================================================
 Subroutine PRICEL returns:
 Original cell was already a primitive cell.
 

 Routine SETGRP: Setting up the symmetry group for a 
 hexagonal supercell.


 Subroutine GETGRP returns: Found  1 space group operations
 (whereof  1 operations were pure point group operations)
 out of a pool of 24 trial point group operations.


The static configuration has the point symmetry C_1 .


Analysis of symmetry for dynamics (positions and initial velocities):
=====================================================================
 Subroutine PRICEL returns:
 Original cell was already a primitive cell.
 

 Routine SETGRP: Setting up the symmetry group for a 
 hexagonal supercell.


 Subroutine GETGRP returns: Found  1 space group operations
 (whereof  1 operations were pure point group operations)
 out of a pool of 24 trial point group operations.


The dynamic configuration has the point symmetry C_1 .


 Subroutine INISYM returns: Found  1 space group operations
 (whereof  1 operations are pure point group operations),
 and found     1 'primitive' translations


----------------------------------------------------------------------------------------

                                     Primitive cell                                     

  volume of cell :    1588.5235

  direct lattice vectors                    reciprocal lattice vectors
     9.576713736  0.000000000  0.000000000     0.104419953 -0.060286888  0.000000000
     4.788356868  8.293677380  0.000000000     0.000000000  0.120573776  0.000000000
     0.000000000  0.000000000 20.000000000     0.000000000  0.000000000  0.050000000

  length of vectors
     9.576713736  9.576713736 20.000000000     0.120573776  0.120573776  0.050000000

  position of ions in fractional coordinates (direct lattice)
     0.000000000  0.000000000  0.512968345
     0.333333333  0.000000000  0.512968345
     0.666666667  0.000000000  0.512968345
     1.000000000  0.333333333  0.512968345
     0.333333333  0.333333333  0.512968345
     0.666666667  0.333333333  0.512968345
     1.000000000  0.666666667  0.512968345
     0.333333333  0.666666667  0.512968345
     0.666666667  0.666666667  0.512968345
     0.111111111  0.111111111  0.812069022
     0.444444444  0.111111111  0.812069022
     0.777777778  0.111111111  0.812069022
     0.111111111  0.444444444  0.812069022
     0.444444444  0.444444444  0.812069022
     0.777777778  0.444444444  0.812069022
     0.111111111  0.777777778  0.812069022
     0.444444444  0.777777778  0.812069022
     0.777777778  0.777777778  0.812069022
     0.111111111  0.111111111  0.435262930
     0.444444444  0.111111111  0.435262930
     0.777777778  0.111111111  0.435262930
     0.111111111  0.444444444  0.435262930
     0.444444444  0.444444444  0.435262930
     0.777777778  0.444444444  0.435262930
     0.111111111  0.777777778  0.435262930
     0.444444444  0.777777778  0.435262930
     0.777777778  0.777777778  0.435262930
     0.111111111  0.111111111  0.590474459
     0.444444444  0.111111111  0.590474459
     0.777777778  0.111111111  0.590474459
     0.111111111  0.444444444  0.590474459
     0.444444444  0.444444444  0.590474459
     0.777777778  0.444444444  0.590474459
     0.111111111  0.777777778  0.590474459
     0.444444444  0.777777778  0.590474459
     0.777777778  0.777777778  0.590474459
     0.222673188  0.222222222  0.734950184
     0.555555556  0.222222222  0.734499218
     0.888888889  0.222222222  0.734499218
     0.222222222  0.555555556  0.734499218
     0.555555556  0.555555556  0.734499218
     0.888888889  0.555555556  0.734499218
     0.222222222  0.888888889  0.734499218
     0.555555556  0.888888889  0.734499218
     0.888888889  0.888888889  0.734499218
     0.222222222  0.222222222  0.889726027
     0.555555556  0.222222222  0.889726027
     0.888888889  0.222222222  0.889726027
     0.222222222  0.555555556  0.889726027
     0.555555556  0.555555556  0.889726027
     0.888888889  0.555555556  0.889726027
     0.222222222  0.888888889  0.889726027
     0.555555556  0.888888889  0.889726027
     0.888888889  0.888888889  0.889726027

  ion indices of the primitive-cell ions
   primitive index   ion index
                 1           1
                 2           2
                 3           3
                 4           4
                 5           5
                 6           6
                 7           7
                 8           8
                 9           9
                10          10
                11          11
                12          12
                13          13
                14          14
                15          15
                16          16
                17          17
                18          18
                19          19
                20          20
                21          21
                22          22
                23          23
                24          24
                25          25
                26          26
                27          27
                28          28
                29          29
                30          30
                31          31
                32          32
                33          33
                34          34
                35          35
                36          36
                37          37
                38          38
                39          39
                40          40
                41          41
                42          42
                43          43
                44          44
                45          45
                46          46
                47          47
                48          48
                49          49
                50          50
                51          51
                52          52
                53          53
                54          54

----------------------------------------------------------------------------------------

 
 
 KPOINTS: Automatic mesh                          

Automatic generation of k-mesh.
 Grid dimensions read from file:
 generate k-points for:    5    5    1

 Generating k-lattice:

  Cartesian coordinates                     Fractional coordinates (reciprocal lattice)
     0.020883991 -0.012057378  0.000000000     0.200000000  0.000000000  0.000000000
     0.000000000  0.024114755  0.000000000     0.000000000  0.200000000  0.000000000
     0.000000000  0.000000000  0.050000000     0.000000000  0.000000000  1.000000000

  Length of vectors
     0.024114755  0.024114755  0.050000000

  Shift w.r.t. Gamma in fractional coordinates (k-lattice)
     0.000000000  0.000000000  0.000000000

 
 Subroutine IBZKPT returns following result:
 ===========================================
 
 Found     13 irreducible k-points:
 
 Following reciprocal coordinates:
            Coordinates               Weight
  0.000000  0.000000  0.000000      1.000000
  0.200000  0.000000  0.000000      2.000000
  0.200000  0.200000  0.000000      2.000000
  0.000000  0.200000  0.000000      2.000000
  0.400000  0.000000  0.000000      2.000000
  0.400000  0.400000  0.000000      2.000000
  0.000000  0.400000  0.000000      2.000000
  0.400000  0.200000  0.000000      2.000000
  0.200000  0.400000  0.000000      2.000000
 -0.200000  0.200000  0.000000      2.000000
 -0.400000  0.200000  0.000000      2.000000
  0.400000 -0.400000  0.000000      2.000000
 -0.200000  0.400000  0.000000      2.000000
 
 Following cartesian coordinates:
            Coordinates               Weight
  0.000000  0.000000  0.000000      1.000000
  0.020884 -0.012057  0.000000      2.000000
  0.020884  0.012057  0.000000      2.000000
  0.000000  0.024115  0.000000      2.000000
  0.041768 -0.024115  0.000000      2.000000
  0.041768  0.024115  0.000000      2.000000
  0.000000  0.048230  0.000000      2.000000
  0.041768  0.000000  0.000000      2.000000
  0.020884  0.036172  0.000000      2.000000
 -0.020884  0.036172  0.000000      2.000000
 -0.041768  0.048230  0.000000      2.000000
  0.041768 -0.072344  0.000000      2.000000
 -0.020884  0.060287  0.000000      2.000000
 


--------------------------------------------------------------------------------------------------------




 Dimension of arrays:
   k-points           NKPTS =     13   k-points in BZ     NKDIM =     13   number of bands    NBANDS=    286
   number of dos      NEDOS =    301   number of ions     NIONS =     54
   non local maximal  LDIM  =      6   non local SUM 2l+1 LMDIM =     18
   total plane-waves  NPLWV = 777600
   max r-space proj   IRMAX =   7448   max aug-charges    IRDMAX=  21604
   dimension x,y,z NGX =    72 NGY =   72 NGZ =  150
   dimension x,y,z NGXF=   144 NGYF=  144 NGZF=  300
   support grid    NGXF=   144 NGYF=  144 NGZF=  300
   ions per type =              18  36
   NGX,Y,Z   is equivalent  to a cutoff of  12.50, 12.50, 12.47 a.u.
   NGXF,Y,Z  is equivalent  to a cutoff of  25.00, 25.00, 24.94 a.u.

 SYSTEM =  MoS2_bilayer_3R phonon                  
 POSCAR =  generated by phonopy                    

 Startparameter for this run:
   NWRITE =      2    write-flag & timer
   PREC   = accura    normal or accurate (medium, high low for compatibility)
   ISTART =      0    job   : 0-new  1-cont  2-samecut
   ICHARG =      2    charge: 1-file 2-atom 10-const
   ISPIN  =      1    spin polarized calculation?
   LNONCOLLINEAR =      F non collinear calculations
   LSORBIT =      F    spin-orbit coupling
   INIWAV =      1    electr: 0-lowe 1-rand  2-diag
   LASPH  =      F    aspherical Exc in radial PAW
 Electronic Relaxation 1
   ENCUT  =  520.0 eV  38.22 Ry    6.18 a.u.  17.81 17.81 37.19*2*pi/ulx,y,z
   ENINI  =  520.0     initial cutoff
   ENAUG  =  446.0 eV  augmentation charge cutoff
   NELM   =    200;   NELMIN=  2; NELMDL= -5     # of ELM steps 
   EDIFF  = 0.1E-05   stopping-criterion for ELM
   LREAL  =      T    real-space projection
   NLSPLINE    = F    spline interpolate recip. space projectors
   LCOMPAT=      F    compatible to vasp.4.4
   GGA_COMPAT  = T    GGA compatible to vasp.4.4-vasp.4.6
   LMAXPAW     = -100 max onsite density
   LMAXMIX     =    2 max onsite mixed and CHGCAR
   VOSKOWN=      0    Vosko Wilk Nusair interpolation
   ROPT   =   -0.00025  -0.00025
 Ionic relaxation
   EDIFFG = 0.1E-04   stopping-criterion for IOM
   NSW    =      0    number of steps for IOM
   NBLOCK =      1;   KBLOCK =      1    inner block; outer block 
   IBRION =     -1    ionic relax: 0-MD 1-quasi-New 2-CG
   NFREE  =      0    steps in history (QN), initial steepest desc. (CG)
   ISIF   =      2    stress and relaxation
   IWAVPR =     10    prediction:  0-non 1-charg 2-wave 3-comb
   ISYM   =      2    0-nonsym 1-usesym 2-fastsym
   LCORR  =      T    Harris-Foulkes like correction to forces

   POTIM  = 0.5000    time-step for ionic-motion
   TEIN   =    0.0    initial temperature
   TEBEG  =    0.0;   TEEND  =   0.0 temperature during run
   SMASS  =  -3.00    Nose mass-parameter (am)
   estimated Nose-frequenzy (Omega)   =  0.10E-29 period in steps = 0.13E+47 mass=  -0.210E-26a.u.
   SCALEE = 1.0000    scale energy and forces
   NPACO  =    256;   APACO  = 10.0  distance and # of slots for P.C.
   PSTRESS=    0.0 pullay stress

  Mass of Ions in am
   POMASS =  95.94 32.07
  Ionic Valenz
   ZVAL   =  14.00  6.00
  Atomic Wigner-Seitz radii
   RWIGS  =  -1.00 -1.00
  virtual crystal weights 
   VCA    =   1.00  1.00
   NELECT =     468.0000    total number of electrons
   NUPDOWN=      -1.0000    fix difference up-down

 DOS related values:
   EMIN   =  10.00;   EMAX   =-10.00  energy-range for DOS
   EFERMI =   0.00;   METHOD = LEGACY      
   ISMEAR =     0;   SIGMA  =   0.05  broadening in eV -4-tet -1-fermi 0-gaus
   EFERMI_NEDOS =   21; number of points for ismear=-14 and -15

 Electronic relaxation 2 (details)
   IALGO  =     38    algorithm
   LDIAG  =      T    sub-space diagonalisation (order eigenvalues)
   LSUBROT=      F    optimize rotation matrix (better conditioning)
   LROBUST=      F    robust break criterion during scf (extrapolated energy error)
   ISEARCH=      0    line search for conjugate gradient (0, 1=use gradient)
   TURBO    =      0    0=normal 1=particle mesh
   IRESTART =      0    0=no restart 2=restart with 2 vectors
   NREBOOT  =      0    no. of reboots
   NMIN     =      0    reboot dimension
   EREF     =   0.00    reference energy to select bands
   IMIX   =      4    mixing-type and parameters
     AMIX     =   0.40;   BMIX     =  1.00
     AMIX_MAG =   1.60;   BMIX_MAG =  1.00
     AMIN     =   0.01
     WC   =   100.;   INIMIX=   1;  MIXPRE=   1;  MAXMIX= -45

 Intra band minimization:
   WEIMIN = 0.0000     energy-eigenvalue tresh-hold
   EBREAK =  0.87E-09  absolut break condition
   DEPER  =   0.30     relativ break condition  

   TIME   =   0.40     timestep for ELM

  volume/ion in A,a.u.               =      29.42       198.52
  Fermi-wavevector in a.u.,A,eV,Ry     =   1.089329  2.058533 16.145174  1.186637
  Thomas-Fermi vector in A             =   2.225529
 
 Write flags
   LWAVE        =      F    write WAVECAR
   LDOWNSAMPLE  =      F    k-point downsampling of WAVECAR
   LCHARG       =      F    write CHGCAR
   LVTOT        =      F    write LOCPOT, total local potential
   LVHAR        =      F    write LOCPOT, Hartree potential only
   WRT_POTENTIAL= false  ! write potential to hdf5 file
   LELF         =      F    write electronic localiz. function (ELF)
   LORBIT       =      0    0 simple, 1 ext, 2 COOP (PROOUT), +10 PAW based schemes


 Python interface
   PLUGINS active      =      F    recompile with -DPLUGINS to activate
 
 Dipole corrections
   LMONO      =      F    monopole corrections only (constant potential shift)
   LDIPOL     =      F    correct potential (dipole corrections)
   IDIPOL     =      0    1-x, 2-y, 3-z, 4-all directions 
   EPSILON    =  1.0000000 bulk dielectric constant
   LVACPOTAV  =      F  vacuum potentials using an averaging scheme for the charge density
   VACPOTFLAT =  0.1000000 required flatness to determine vacuum potential
 
Coulomb truncation method
  LTRUNCATE          =      F  Coulomb kernel truncation to be used

 
 Exchange correlation treatment:
   GGA     = PE    functional components
   XC_C    = 1    coefficients multiplying the functional components
   LIBXC   =     F    Libxc                    
   VOSKOWN =     0    Vosko Wilk Nusair interpolation
   LHFCALC =     F    Hartree Fock is set to
   LHFONE  =     F    Hartree Fock one center treatment
   AEXX    =    0.0000 exact exchange contribution

 Parameters of functionals:
   PE:
     No parameter
 
 Van der Waals corrections
   IVDW    =    12    specifies the selected vdW correction

 Linear response parameters
   LEPSILON=     F    determine dielectric tensor
   LRPA    =     F    only Hartree local field effects (RPA)
   LNABLA  =     F    use nabla operator in PAW spheres
   LVEL    =     F    velocity operator in full k-point grid
   CSHIFT  =0.1000    complex shift for real part using Kramers Kronig
   OMEGAMAX=  -1.0    maximum frequency
   DEG_THRESHOLD= 0.2000000E-02 threshold for treating states as degnerate
   RTIME   =   -0.100 relaxation time in fs
  (WPLASMAI=    0.000 imaginary part of plasma frequency in eV, 0.658/RTIME)
   DFIELD  = 0.0000000 0.0000000 0.0000000 field for delta impulse in time
 
  Optional k-point grid parameters
   LKPOINTS_OPT  =     F    use optional k-point grid
   KPOINTS_OPT_MODE=     1    mode for optional k-point grid
 
 Orbital magnetization related:
   ORBITALMAG=     F  switch on orbital magnetization
   LCHIMAG   =     F  perturbation theory with respect to B field
   DQ        =  0.001000  dq finite difference perturbation B field
   LLRAUG    =     F  two centre corrections for induced B field
   LBONE     =     F  B-component reconstruction in AE one-centre
   LVGVCALC  =     T  calculate vGv susceptibility
   LVGVAPPL  =     F  apply vGv susceptibility instead of pGv for G=0

 Random number generation:
   RANDOM_GENERATOR = DEFAULT
   PCG_SEED         = not used


--------------------------------------------------------------------------------------------------------


 Static calculation
 charge density and potential will be updated during run
 non-spin polarized calculation
 Variant of blocked Davidson
 Davidson routine will perform the subspace rotation
 perform sub-space diagonalisation
    after iterative eigenvector-optimisation
 modified Broyden-mixing scheme, WC =      100.0
 initial mixing is a Kerker type mixing with AMIX =  0.4000 and BMIX =      1.0000
 Hartree-type preconditioning will be used
 using additional bands           52
 real space projection scheme for non local part
 use partial core corrections
 calculate Harris-corrections to forces 
   (improved forces if not selfconsistent)
 use gradient corrections 
 use of overlap-Matrix (Vanderbilt PP)
 Gauss-broadening in eV      SIGMA  =   0.05


--------------------------------------------------------------------------------------------------------


  energy-cutoff  :      520.00
  volume of cell :     1588.52
      direct lattice vectors                 reciprocal lattice vectors
     9.576713736  0.000000000  0.000000000     0.104419953 -0.060286888  0.000000000
     4.788356868  8.293677380  0.000000000     0.000000000  0.120573776  0.000000000
     0.000000000  0.000000000 20.000000000     0.000000000  0.000000000  0.050000000

  length of vectors
     9.576713736  9.576713736 20.000000000     0.120573776  0.120573776  0.050000000


 
 k-points in units of 2pi/SCALE and weight: Automatic mesh                          
   0.00000000  0.00000000  0.00000000       0.040
   0.02088399 -0.01205738  0.00000000       0.080
   0.02088399  0.01205738  0.00000000       0.080
   0.00000000  0.02411476  0.00000000       0.080
   0.04176798 -0.02411476  0.00000000       0.080
   0.04176798  0.02411476  0.00000000       0.080
   0.00000000  0.04822951  0.00000000       0.080
   0.04176798  0.00000000  0.00000000       0.080
   0.02088399  0.03617213  0.00000000       0.080
  -0.02088399  0.03617213  0.00000000       0.080
  -0.04176798  0.04822951  0.00000000       0.080
   0.04176798 -0.07234427  0.00000000       0.080
  -0.02088399  0.06028689  0.00000000       0.080
 
 k-points in reciprocal lattice and weights: Automatic mesh                          
   0.00000000  0.00000000  0.00000000       0.040
   0.20000000  0.00000000  0.00000000       0.080
   0.20000000  0.20000000  0.00000000       0.080
   0.00000000  0.20000000  0.00000000       0.080
   0.40000000  0.00000000  0.00000000       0.080
   0.40000000  0.40000000  0.00000000       0.080
   0.00000000  0.40000000  0.00000000       0.080
   0.40000000  0.20000000  0.00000000       0.080
   0.20000000  0.40000000  0.00000000       0.080
  -0.20000000  0.20000000  0.00000000       0.080
  -0.40000000  0.20000000  0.00000000       0.080
   0.40000000 -0.40000000  0.00000000       0.080
  -0.20000000  0.40000000  0.00000000       0.080
 
 position of ions in fractional coordinates (direct lattice) 
   0.00000000  0.00000000  0.51296834
   0.33333333  0.00000000  0.51296834
   0.66666667  0.00000000  0.51296834
   0.00000000  0.33333333  0.51296834
   0.33333333  0.33333333  0.51296834
   0.66666667  0.33333333  0.51296834
   0.00000000  0.66666667  0.51296834
   0.33333333  0.66666667  0.51296834
   0.66666667  0.66666667  0.51296834
   0.11111111  0.11111111  0.81206902
   0.44444444  0.11111111  0.81206902
   0.77777778  0.11111111  0.81206902
   0.11111111  0.44444444  0.81206902
   0.44444444  0.44444444  0.81206902
   0.77777778  0.44444444  0.81206902
   0.11111111  0.77777778  0.81206902
   0.44444444  0.77777778  0.81206902
   0.77777778  0.77777778  0.81206902
   0.11111111  0.11111111  0.43526293
   0.44444444  0.11111111  0.43526293
   0.77777778  0.11111111  0.43526293
   0.11111111  0.44444444  0.43526293
   0.44444444  0.44444444  0.43526293
   0.77777778  0.44444444  0.43526293
   0.11111111  0.77777778  0.43526293
   0.44444444  0.77777778  0.43526293
   0.77777778  0.77777778  0.43526293
   0.11111111  0.11111111  0.59047446
   0.44444444  0.11111111  0.59047446
   0.77777778  0.11111111  0.59047446
   0.11111111  0.44444444  0.59047446
   0.44444444  0.44444444  0.59047446
   0.77777778  0.44444444  0.59047446
   0.11111111  0.77777778  0.59047446
   0.44444444  0.77777778  0.59047446
   0.77777778  0.77777778  0.59047446
   0.22267319  0.22222222  0.73495018
   0.55555556  0.22222222  0.73449922
   0.88888889  0.22222222  0.73449922
   0.22222222  0.55555556  0.73449922
   0.55555556  0.55555556  0.73449922
   0.88888889  0.55555556  0.73449922
   0.22222222  0.88888889  0.73449922
   0.55555556  0.88888889  0.73449922
   0.88888889  0.88888889  0.73449922
   0.22222222  0.22222222  0.88972603
   0.55555556  0.22222222  0.88972603
   0.88888889  0.22222222  0.88972603
   0.22222222  0.55555556  0.88972603
   0.55555556  0.55555556  0.88972603
   0.88888889  0.55555556  0.88972603
   0.22222222  0.88888889  0.88972603
   0.55555556  0.88888889  0.88972603
   0.88888889  0.88888889  0.88972603
 
 position of ions in cartesian coordinates  (Angst):
   0.00000000  0.00000000 10.25936690
   3.19223791  0.00000000 10.25936690
   6.38447582  0.00000000 10.25936690
   1.59611896  2.76455913 10.25936690
   4.78835687  2.76455913 10.25936690
   7.98059478  2.76455913 10.25936690
   3.19223791  5.52911825 10.25936690
   6.38447582  5.52911825 10.25936690
   9.57671374  5.52911825 10.25936690
   1.59611896  0.92151971 16.24138043
   4.78835687  0.92151971 16.24138043
   7.98059478  0.92151971 16.24138043
   3.19223791  3.68607884 16.24138043
   6.38447582  3.68607884 16.24138043
   9.57671374  3.68607884 16.24138043
   4.78835687  6.45063796 16.24138043
   7.98059478  6.45063796 16.24138043
  11.17283269  6.45063796 16.24138043
   1.59611896  0.92151971  8.70525861
   4.78835687  0.92151971  8.70525861
   7.98059478  0.92151971  8.70525861
   3.19223791  3.68607884  8.70525861
   6.38447582  3.68607884  8.70525861
   9.57671374  3.68607884  8.70525861
   4.78835687  6.45063796  8.70525861
   7.98059478  6.45063796  8.70525861
  11.17283269  6.45063796  8.70525861
   1.59611896  0.92151971 11.80948917
   4.78835687  0.92151971 11.80948917
   7.98059478  0.92151971 11.80948917
   3.19223791  3.68607884 11.80948917
   6.38447582  3.68607884 11.80948917
   9.57671374  3.68607884 11.80948917
   4.78835687  6.45063796 11.80948917
   7.98059478  6.45063796 11.80948917
  11.17283269  6.45063796 11.80948917
   3.19655669  1.84303942 14.69900368
   6.38447582  1.84303942 14.68998436
   9.57671374  1.84303942 14.68998436
   4.78835687  4.60759854 14.68998436
   7.98059478  4.60759854 14.68998436
  11.17283269  4.60759854 14.68998436
   6.38447582  7.37215767 14.68998436
   9.57671374  7.37215767 14.68998436
  12.76895165  7.37215767 14.68998436
   3.19223791  1.84303942 17.79452053
   6.38447582  1.84303942 17.79452053
   9.57671374  1.84303942 17.79452053
   4.78835687  4.60759854 17.79452053
   7.98059478  4.60759854 17.79452053
  11.17283269  4.60759854 17.79452053
   6.38447582  7.37215767 17.79452053
   9.57671374  7.37215767 17.79452053
  12.76895165  7.37215767 17.79452053
 


--------------------------------------------------------------------------------------------------------


 k-point     1 :   0.0000 0.0000 0.0000  plane waves:   42765
 k-point     2 :   0.2000 0.0000 0.0000  plane waves:   42749
 k-point     3 :   0.2000 0.2000 0.0000  plane waves:   42749
 k-point     4 :   0.0000 0.2000 0.0000  plane waves:   42749
 k-point     5 :   0.4000 0.0000 0.0000  plane waves:   42789
 k-point     6 :   0.4000 0.4000 0.0000  plane waves:   42789
 k-point     7 :   0.0000 0.4000 0.0000  plane waves:   42789
 k-point     8 :   0.4000 0.2000 0.0000  plane waves:   42756
 k-point     9 :   0.2000 0.4000 0.0000  plane waves:   42756
 k-point    10 :  -0.2000 0.2000 0.0000  plane waves:   42756
 k-point    11 :  -0.4000 0.2000 0.0000  plane waves:   42772
 k-point    12 :   0.4000-0.4000 0.0000  plane waves:   42772
 k-point    13 :  -0.2000 0.4000 0.0000  plane waves:   42772

 maximum and minimum number of plane-waves per node :     10740    10644

 maximum number of plane-waves:     42789
 maximum index in each direction: 
   IXMAX=   18   IYMAX=   18   IZMAX=   37
   IXMIN=  -18   IYMIN=  -18   IZMIN=  -37


 real space projection operators:
  total allocation   :      26197.12 KBytes
  max/ min on nodes  :       6582.16       6517.09


 parallel 3D FFT for wavefunctions:
    minimum data exchange during FFTs selected (reduces bandwidth)
 parallel 3D FFT for charge:
    minimum data exchange during FFTs selected (reduces bandwidth)


 total amount of memory used by VASP MPI-rank0   132777. kBytes
=======================================================================

   base                                    :      30000. kBytes
   nonlr-proj                              :      14941. kBytes
   fftplans                                :      11326. kBytes
   grid                                    :      17519. kBytes
   one-center                              :        217. kBytes
   wavefun                                 :      58774. kBytes
 
     INWAV:  cpu time      0.0000: real time      0.0003
 Broyden mixing: mesh for mixing (old mesh)
   NGX = 35   NGY = 35   NGZ = 75
  (NGX  =144   NGY  =144   NGZ  =300)
  gives a total of  91875 points

 initial charge density was supplied:
 charge density of overlapping atoms calculated
 number of electron     468.0000000 magnetization 
 keeping initial charge density in first step


--------------------------------------------------------------------------------------------------------


 Maximum index for non-local projection operator         1809
 Maximum index for augmentation-charges         1326 (set IRDMAX)


--------------------------------------------------------------------------------------------------------


 First call to EWALD:  gamma=   0.152
 Maximum number of real-space cells   4x   4x   2
 Maximum number of reciprocal cells   2x   2x   4

    FEWALD:  cpu time      0.1682: real time      0.1682


--------------------------------------- Ionic step        1  -------------------------------------------




--------------------------------------- Iteration      1(   1)  ---------------------------------------


    POTLOK:  cpu time      0.1017: real time      0.1019
    SETDIJ:  cpu time      0.0197: real time      0.0197
     EDDAV:  cpu time      5.6977: real time      5.6982
       DOS:  cpu time      0.0026: real time      0.0079
    --------------------------------------------
      LOOP:  cpu time      5.8219: real time      5.8277

 eigenvalue-minimisations  :  9130
 total energy-change (2. order) : 0.4173470E+04  (-0.2538138E+05)
 number of electron     468.0000000 magnetization 
 augmentation part      468.0000000 magnetization 

 Free energy of the ion-electron system (eV)
  ---------------------------------------------------
  alpha Z        PSCENC =       964.87981809
  Ewald energy   TEWEN  =     52448.90221931
  -Hartree energ DENC   =    -92740.54686017
  -exchange      EXHF   =         0.00000000
  -V(xc)+E(xc)   XCENC  =      1646.92343299
  PAW double counting   =     34790.20238322   -34342.63393317
  entropy T*S    EENTRO =        -0.01962239
  eigenvalues    EBANDS =     -2080.84057816
  atomic energy  EATOM  =     43486.60354843
  Solvation  Ediel_sol  =         0.00000000
  ---------------------------------------------------
  free energy    TOTEN  =      4173.47040814 eV

  energy without entropy =     4173.49003053  energy(sigma->0) =     4173.48021934


--------------------------------------------------------------------------------------------------------




--------------------------------------- Iteration      1(   2)  ---------------------------------------


     EDDAV:  cpu time      5.6091: real time      5.6100
       DOS:  cpu time      0.0094: real time      0.0093
    --------------------------------------------
      LOOP:  cpu time      5.6184: real time      5.6193

 eigenvalue-minimisations  :  8976
 total energy-change (2. order) :-0.4249660E+04  (-0.4125616E+04)
 number of electron     468.0000000 magnetization 
 augmentation part      468.0000000 magnetization 

 Free energy of the ion-electron system (eV)
  ---------------------------------------------------
  alpha Z        PSCENC =       964.87981809
  Ewald energy   TEWEN  =     52448.90221931
  -Hartree energ DENC   =    -92740.54686017
  -exchange      EXHF   =         0.00000000
  -V(xc)+E(xc)   XCENC  =      1646.92343299
  PAW double counting   =     34790.20238322   -34342.63393317
  entropy T*S    EENTRO =        -0.00000000
  eigenvalues    EBANDS =     -6330.51977278
  atomic energy  EATOM  =     43486.60354843
  Solvation  Ediel_sol  =         0.00000000
  ---------------------------------------------------
  free energy    TOTEN  =       -76.18916409 eV

  energy without entropy =      -76.18916409  energy(sigma->0) =      -76.18916409


--------------------------------------------------------------------------------------------------------




--------------------------------------- Iteration      1(   3)  ---------------------------------------


     EDDAV:  cpu time      5.4931: real time      5.4954
       DOS:  cpu time      0.0018: real time      0.0018
    --------------------------------------------
      LOOP:  cpu time      5.4949: real time      5.4972

 eigenvalue-minimisations  :  8877
 total energy-change (2. order) :-0.3279601E+03  (-0.3215094E+03)
 number of electron     468.0000000 magnetization 
 augmentation part      468.0000000 magnetization 

 Free energy of the ion-electron system (eV)
  ---------------------------------------------------
  alpha Z        PSCENC =       964.87981809
  Ewald energy   TEWEN  =     52448.90221931
  -Hartree energ DENC   =    -92740.54686017
  -exchange      EXHF   =         0.00000000
  -V(xc)+E(xc)   XCENC  =      1646.92343299
  PAW double counting   =     34790.20238322   -34342.63393317
  entropy T*S    EENTRO =        -0.00000000
  eigenvalues    EBANDS =     -6658.47987221
  atomic energy  EATOM  =     43486.60354843
  Solvation  Ediel_sol  =         0.00000000
  ---------------------------------------------------
  free energy    TOTEN  =      -404.14926351 eV

  energy without entropy =     -404.14926351  energy(sigma->0) =     -404.14926351


--------------------------------------------------------------------------------------------------------




--------------------------------------- Iteration      1(   4)  ---------------------------------------


     EDDAV:  cpu time      6.0567: real time      6.0578
       DOS:  cpu time      0.0018: real time      0.0018
    --------------------------------------------
      LOOP:  cpu time      6.0585: real time      6.0596

 eigenvalue-minimisations  :  9867
 total energy-change (2. order) :-0.1528474E+02  (-0.1517619E+02)
 number of electron     468.0000000 magnetization 
 augmentation part      468.0000000 magnetization 

 Free energy of the ion-electron system (eV)
  ---------------------------------------------------
  alpha Z        PSCENC =       964.87981809
  Ewald energy   TEWEN  =     52448.90221931
  -Hartree energ DENC   =    -92740.54686017
  -exchange      EXHF   =         0.00000000
  -V(xc)+E(xc)   XCENC  =      1646.92343299
  PAW double counting   =     34790.20238322   -34342.63393317
  entropy T*S    EENTRO =        -0.00000000
  eigenvalues    EBANDS =     -6673.76461114
  atomic energy  EATOM  =     43486.60354843
  Solvation  Ediel_sol  =         0.00000000
  ---------------------------------------------------
  free energy    TOTEN  =      -419.43400245 eV

  energy without entropy =     -419.43400245  energy(sigma->0) =     -419.43400245


--------------------------------------------------------------------------------------------------------




--------------------------------------- Iteration      1(   5)  ---------------------------------------


     EDDAV:  cpu time      6.1193: real time      6.1204
       DOS:  cpu time      0.0166: real time      0.0166
    CHARGE:  cpu time      0.3452: real time      0.3452
    MIXING:  cpu time      0.0294: real time      0.0294
    --------------------------------------------
      LOOP:  cpu time      6.5106: real time      6.5117

 eigenvalue-minimisations  : 10186
 total energy-change (2. order) :-0.4936424E+00  (-0.4918547E+00)
 number of electron     468.0000002 magnetization 
 augmentation part        6.4688111 magnetization 

 Broyden mixing:
  rms(total) = 0.10057E+02    rms(broyden)= 0.10057E+02
  rms(prec ) = 0.10188E+02
  weight for this iteration     100.00

 Free energy of the ion-electron system (eV)
  ---------------------------------------------------
  alpha Z        PSCENC =       964.87981809
  Ewald energy   TEWEN  =     52448.90221931
  -Hartree energ DENC   =    -92740.54686017
  -exchange      EXHF   =         0.00000000
  -V(xc)+E(xc)   XCENC  =      1646.92343299
  PAW double counting   =     34790.20238322   -34342.63393317
  entropy T*S    EENTRO =        -0.00000000
  eigenvalues    EBANDS =     -6674.25825353
  atomic energy  EATOM  =     43486.60354843
  Solvation  Ediel_sol  =         0.00000000
  ---------------------------------------------------
  free energy    TOTEN  =      -419.92764483 eV

  energy without entropy =     -419.92764483  energy(sigma->0) =     -419.92764483


--------------------------------------------------------------------------------------------------------




--------------------------------------- Iteration      1(   6)  ---------------------------------------


    POTLOK:  cpu time      0.1001: real time      0.1009
    SETDIJ:  cpu time      0.0124: real time      0.0124
     EDDAV:  cpu time      5.3346: real time      5.3350
       DOS:  cpu time      0.0020: real time      0.0020
    CHARGE:  cpu time      0.3356: real time      0.3356
    MIXING:  cpu time      0.0294: real time      0.0294
    --------------------------------------------
      LOOP:  cpu time      5.8142: real time      5.8153

 eigenvalue-minimisations  :  8404
 total energy-change (2. order) : 0.2036619E+02  (-0.1783161E+02)
 number of electron     467.9999991 magnetization 
 augmentation part       17.6294906 magnetization 

 Broyden mixing:
  rms(total) = 0.39827E+01    rms(broyden)= 0.39827E+01
  rms(prec ) = 0.41167E+01
  weight for this iteration     100.00

 eigenvalues of (default mixing * dielectric matrix)
  average eigenvalue GAMMA=   1.0926
  1.0926

 Free energy of the ion-electron system (eV)
  ---------------------------------------------------
  alpha Z        PSCENC =       964.87981809
  Ewald energy   TEWEN  =     52448.90221931
  -Hartree energ DENC   =    -92216.74846527
  -exchange      EXHF   =         0.00000000
  -V(xc)+E(xc)   XCENC  =      1632.63057881
  PAW double counting   =     41135.36395473   -40749.14100707
  entropy T*S    EENTRO =        -0.00000000
  eigenvalues    EBANDS =     -7102.05210273
  atomic energy  EATOM  =     43486.60354843
  Solvation  Ediel_sol  =         0.00000000
  ---------------------------------------------------
  free energy    TOTEN  =      -399.56145571 eV

  energy without entropy =     -399.56145571  energy(sigma->0) =     -399.56145571


--------------------------------------------------------------------------------------------------------




--------------------------------------- Iteration      1(   7)  ---------------------------------------


    POTLOK:  cpu time      0.0959: real time      0.0964
    SETDIJ:  cpu time      0.0121: real time      0.0121
     EDDAV:  cpu time      5.1511: real time      5.1516
       DOS:  cpu time      0.0020: real time      0.0020
    CHARGE:  cpu time      0.3332: real time      0.3332
    MIXING:  cpu time      0.0260: real time      0.0260
    --------------------------------------------
      LOOP:  cpu time      5.6203: real time      5.6214

 eigenvalue-minimisations  :  8206
 total energy-change (2. order) : 0.3720885E+01  (-0.7143305E+01)
 number of electron     467.9999997 magnetization 
 augmentation part       11.7406445 magnetization 

 Broyden mixing:
  rms(total) = 0.23870E+01    rms(broyden)= 0.23870E+01
  rms(prec ) = 0.24713E+01
  weight for this iteration     100.00

 eigenvalues of (default mixing * dielectric matrix)
  average eigenvalue GAMMA=   1.2078
  1.7676  0.6479

 Free energy of the ion-electron system (eV)
  ---------------------------------------------------
  alpha Z        PSCENC =       964.87981809
  Ewald energy   TEWEN  =     52448.90221931
  -Hartree energ DENC   =    -92576.99686463
  -exchange      EXHF   =         0.00000000
  -V(xc)+E(xc)   XCENC  =      1638.43293132
  PAW double counting   =     46761.61927533   -46361.04038715
  entropy T*S    EENTRO =        -0.00000000
  eigenvalues    EBANDS =     -6758.24111153
  atomic energy  EATOM  =     43486.60354843
  Solvation  Ediel_sol  =         0.00000000
  ---------------------------------------------------
  free energy    TOTEN  =      -395.84057083 eV

  energy without entropy =     -395.84057083  energy(sigma->0) =     -395.84057083


--------------------------------------------------------------------------------------------------------




--------------------------------------- Iteration      1(   8)  ---------------------------------------


    POTLOK:  cpu time      0.0944: real time      0.0950
    SETDIJ:  cpu time      0.0115: real time      0.0115
     EDDAV:  cpu time      5.4776: real time      5.4794
       DOS:  cpu time      0.0019: real time      0.0019
    CHARGE:  cpu time      0.3266: real time      0.3266
    MIXING:  cpu time      0.0230: real time      0.0230
    --------------------------------------------
      LOOP:  cpu time      5.9351: real time      5.9374

 eigenvalue-minimisations  :  8767
 total energy-change (2. order) : 0.3202613E+01  (-0.1136848E+01)
 number of electron     467.9999995 magnetization 
 augmentation part       13.7854375 magnetization 

 Broyden mixing:
  rms(total) = 0.82060E+00    rms(broyden)= 0.82060E+00
  rms(prec ) = 0.82776E+00
  weight for this iteration     100.00

 eigenvalues of (default mixing * dielectric matrix)
  average eigenvalue GAMMA=   1.2481
  2.2793  0.8572  0.6079

 Free energy of the ion-electron system (eV)
  ---------------------------------------------------
  alpha Z        PSCENC =       964.87981809
  Ewald energy   TEWEN  =     52448.90221931
  -Hartree energ DENC   =    -92432.44126494
  -exchange      EXHF   =         0.00000000
  -V(xc)+E(xc)   XCENC  =      1634.95335691
  PAW double counting   =     51142.25128241   -50761.17612944
  entropy T*S    EENTRO =        -0.00000000
  eigenvalues    EBANDS =     -6876.61078849
  atomic energy  EATOM  =     43486.60354843
  Solvation  Ediel_sol  =         0.00000000
  ---------------------------------------------------
  free energy    TOTEN  =      -392.63795772 eV

  energy without entropy =     -392.63795772  energy(sigma->0) =     -392.63795772


--------------------------------------------------------------------------------------------------------




--------------------------------------- Iteration      1(   9)  ---------------------------------------


    POTLOK:  cpu time      0.0949: real time      0.0962
    SETDIJ:  cpu time      0.0107: real time      0.0107
     EDDAV:  cpu time      5.9328: real time      5.9332
       DOS:  cpu time      0.0020: real time      0.0020
    CHARGE:  cpu time      0.3315: real time      0.3315
    MIXING:  cpu time      0.0229: real time      0.0229
    --------------------------------------------
      LOOP:  cpu time      6.3948: real time      6.3965

 eigenvalue-minimisations  :  9823
 total energy-change (2. order) :-0.1233632E+00  (-0.2144349E+00)
 number of electron     467.9999994 magnetization 
 augmentation part       14.6524536 magnetization 

 Broyden mixing:
  rms(total) = 0.39970E+00    rms(broyden)= 0.39970E+00
  rms(prec ) = 0.42376E+00
  weight for this iteration     100.00

 eigenvalues of (default mixing * dielectric matrix)
  average eigenvalue GAMMA=   1.1999
  2.1544  1.2735  0.6859  0.6859

 Free energy of the ion-electron system (eV)
  ---------------------------------------------------
  alpha Z        PSCENC =       964.87981809
  Ewald energy   TEWEN  =     52448.90221931
  -Hartree energ DENC   =    -92422.29271299
  -exchange      EXHF   =         0.00000000
  -V(xc)+E(xc)   XCENC  =      1634.65715236
  PAW double counting   =     53125.73917299   -52749.87734253
  entropy T*S    EENTRO =        -0.00000000
  eigenvalues    EBANDS =     -6881.37317658
  atomic energy  EATOM  =     43486.60354843
  Solvation  Ediel_sol  =         0.00000000
  ---------------------------------------------------
  free energy    TOTEN  =      -392.76132092 eV

  energy without entropy =     -392.76132092  energy(sigma->0) =     -392.76132092


--------------------------------------------------------------------------------------------------------




--------------------------------------- Iteration      1(  10)  ---------------------------------------


    POTLOK:  cpu time      0.0946: real time      0.0951
    SETDIJ:  cpu time      0.0115: real time      0.0115
     EDDAV:  cpu time      5.4862: real time      5.4866
       DOS:  cpu time      0.0021: real time      0.0021
    CHARGE:  cpu time      0.3256: real time      0.3256
    MIXING:  cpu time      0.0231: real time      0.0231
    --------------------------------------------
      LOOP:  cpu time      5.9431: real time      5.9440

 eigenvalue-minimisations  :  8833
 total energy-change (2. order) : 0.1179545E+00  (-0.5101935E-01)
 number of electron     467.9999994 magnetization 
 augmentation part       14.0793756 magnetization 

 Broyden mixing:
  rms(total) = 0.11738E+00    rms(broyden)= 0.11738E+00
  rms(prec ) = 0.12851E+00
  weight for this iteration     100.00

 eigenvalues of (default mixing * dielectric matrix)
  average eigenvalue GAMMA=   1.3077
  2.3948  1.8512  0.9670  0.6627  0.6627

 Free energy of the ion-electron system (eV)
  ---------------------------------------------------
  alpha Z        PSCENC =       964.87981809
  Ewald energy   TEWEN  =     52448.90221931
  -Hartree energ DENC   =    -92462.43656328
  -exchange      EXHF   =         0.00000000
  -V(xc)+E(xc)   XCENC  =      1635.63090122
  PAW double counting   =     52963.40395187   -52584.77490319
  entropy T*S    EENTRO =        -0.00000000
  eigenvalues    EBANDS =     -6844.85233890
  atomic energy  EATOM  =     43486.60354843
  Solvation  Ediel_sol  =         0.00000000
  ---------------------------------------------------
  free energy    TOTEN  =      -392.64336646 eV

  energy without entropy =     -392.64336646  energy(sigma->0) =     -392.64336646


--------------------------------------------------------------------------------------------------------




--------------------------------------- Iteration      1(  11)  ---------------------------------------


    POTLOK:  cpu time      0.0949: real time      0.0957
    SETDIJ:  cpu time      0.0124: real time      0.0124
     EDDAV:  cpu time      6.0348: real time      6.0352
       DOS:  cpu time      0.0021: real time      0.0021
    CHARGE:  cpu time      0.3298: real time      0.3299
    MIXING:  cpu time      0.0230: real time      0.0230
    --------------------------------------------
      LOOP:  cpu time      6.4970: real time      6.4983

 eigenvalue-minimisations  :  9911
 total energy-change (2. order) : 0.1059748E-01  (-0.5328604E-02)
 number of electron     467.9999995 magnetization 
 augmentation part       14.0608283 magnetization 

 Broyden mixing:
  rms(total) = 0.68069E-01    rms(broyden)= 0.68068E-01
  rms(prec ) = 0.84521E-01
  weight for this iteration     100.00

 eigenvalues of (default mixing * dielectric matrix)
  average eigenvalue GAMMA=   1.2764
  2.6733  2.0419  1.0908  0.6471  0.6471  0.5584

 Free energy of the ion-electron system (eV)
  ---------------------------------------------------
  alpha Z        PSCENC =       964.87981809
  Ewald energy   TEWEN  =     52448.90221931
  -Hartree energ DENC   =    -92477.26605229
  -exchange      EXHF   =         0.00000000
  -V(xc)+E(xc)   XCENC  =      1635.91208801
  PAW double counting   =     53127.41719616   -52748.75536237
  entropy T*S    EENTRO =        -0.00000000
  eigenvalues    EBANDS =     -6830.32622432
  atomic energy  EATOM  =     43486.60354843
  Solvation  Ediel_sol  =         0.00000000
  ---------------------------------------------------
  free energy    TOTEN  =      -392.63276898 eV

  energy without entropy =     -392.63276898  energy(sigma->0) =     -392.63276898


--------------------------------------------------------------------------------------------------------




--------------------------------------- Iteration      1(  12)  ---------------------------------------


    POTLOK:  cpu time      0.0956: real time      0.0965
    SETDIJ:  cpu time      0.0734: real time      0.0734
     EDDAV:  cpu time      5.6805: real time      5.6810
       DOS:  cpu time      0.0019: real time      0.0019
    CHARGE:  cpu time      0.3267: real time      0.3267
    MIXING:  cpu time      0.0232: real time      0.0232
    --------------------------------------------
      LOOP:  cpu time      6.2013: real time      6.2027

 eigenvalue-minimisations  :  9185
 total energy-change (2. order) : 0.1151827E-01  (-0.1821669E-02)
 number of electron     467.9999994 magnetization 
 augmentation part       14.0804390 magnetization 

 Broyden mixing:
  rms(total) = 0.33650E-01    rms(broyden)= 0.33649E-01
  rms(prec ) = 0.51131E-01
  weight for this iteration     100.00

 eigenvalues of (default mixing * dielectric matrix)
  average eigenvalue GAMMA=   1.1981
  2.2801  2.2801  1.2171  0.7765  0.6983  0.6983  0.4364

 Free energy of the ion-electron system (eV)
  ---------------------------------------------------
  alpha Z        PSCENC =       964.87981809
  Ewald energy   TEWEN  =     52448.90221931
  -Hartree energ DENC   =    -92486.27003104
  -exchange      EXHF   =         0.00000000
  -V(xc)+E(xc)   XCENC  =      1636.01680719
  PAW double counting   =     53146.06273430   -52767.41613538
  entropy T*S    EENTRO =        -0.00000000
  eigenvalues    EBANDS =     -6821.40021162
  atomic energy  EATOM  =     43486.60354843
  Solvation  Ediel_sol  =         0.00000000
  ---------------------------------------------------
  free energy    TOTEN  =      -392.62125071 eV

  energy without entropy =     -392.62125071  energy(sigma->0) =     -392.62125071


--------------------------------------------------------------------------------------------------------




--------------------------------------- Iteration      1(  13)  ---------------------------------------


    POTLOK:  cpu time      0.0947: real time      0.0952
    SETDIJ:  cpu time      0.0109: real time      0.0109
     EDDAV:  cpu time      5.7183: real time      5.7201
       DOS:  cpu time      0.0019: real time      0.0019
    CHARGE:  cpu time      0.3311: real time      0.3311
    MIXING:  cpu time      0.0232: real time      0.0232
    --------------------------------------------
      LOOP:  cpu time      6.1801: real time      6.1824

 eigenvalue-minimisations  :  9339
 total energy-change (2. order) : 0.2896047E-02  (-0.3284300E-03)
 number of electron     467.9999994 magnetization 
 augmentation part       14.0895103 magnetization 

 Broyden mixing:
  rms(total) = 0.19936E-01    rms(broyden)= 0.19936E-01
  rms(prec ) = 0.39634E-01
  weight for this iteration     100.00

 eigenvalues of (default mixing * dielectric matrix)
  average eigenvalue GAMMA=   1.1637
  2.3243  2.3243  1.2712  0.8354  0.8354  0.6445  0.6445  0.4298

 Free energy of the ion-electron system (eV)
  ---------------------------------------------------
  alpha Z        PSCENC =       964.87981809
  Ewald energy   TEWEN  =     52448.90221931
  -Hartree energ DENC   =    -92490.25891512
  -exchange      EXHF   =         0.00000000
  -V(xc)+E(xc)   XCENC  =      1636.00089475
  PAW double counting   =     53078.21651313   -52699.55294806
  entropy T*S    EENTRO =        -0.00000000
  eigenvalues    EBANDS =     -6817.40948520
  atomic energy  EATOM  =     43486.60354843
  Solvation  Ediel_sol  =         0.00000000
  ---------------------------------------------------
  free energy    TOTEN  =      -392.61835467 eV

  energy without entropy =     -392.61835467  energy(sigma->0) =     -392.61835467


--------------------------------------------------------------------------------------------------------




--------------------------------------- Iteration      1(  14)  ---------------------------------------


    POTLOK:  cpu time      0.0942: real time      0.0988
    SETDIJ:  cpu time      0.0115: real time      0.0115
     EDDAV:  cpu time      5.4618: real time      5.4623
       DOS:  cpu time      0.0018: real time      0.0018
    CHARGE:  cpu time      0.3267: real time      0.3267
    MIXING:  cpu time      0.0232: real time      0.0232
    --------------------------------------------
      LOOP:  cpu time      5.9193: real time      5.9244

 eigenvalue-minimisations  :  8701
 total energy-change (2. order) : 0.5138005E-02  (-0.3869143E-03)
 number of electron     467.9999994 magnetization 
 augmentation part       14.1093383 magnetization 

 Broyden mixing:
  rms(total) = 0.15170E-01    rms(broyden)= 0.15170E-01
  rms(prec ) = 0.33687E-01
  weight for this iteration     100.00

 eigenvalues of (default mixing * dielectric matrix)
  average eigenvalue GAMMA=   1.1862
  2.4404  2.4404  1.4474  1.0521  1.0521  0.6648  0.6648  0.4809  0.4329

 Free energy of the ion-electron system (eV)
  ---------------------------------------------------
  alpha Z        PSCENC =       964.87981809
  Ewald energy   TEWEN  =     52448.90221931
  -Hartree energ DENC   =    -92499.79838596
  -exchange      EXHF   =         0.00000000
  -V(xc)+E(xc)   XCENC  =      1636.04125830
  PAW double counting   =     53045.45849481   -52666.82841964
  entropy T*S    EENTRO =        -0.00000000
  eigenvalues    EBANDS =     -6807.87175000
  atomic energy  EATOM  =     43486.60354843
  Solvation  Ediel_sol  =         0.00000000
  ---------------------------------------------------
  free energy    TOTEN  =      -392.61321666 eV

  energy without entropy =     -392.61321666  energy(sigma->0) =     -392.61321666


--------------------------------------------------------------------------------------------------------




--------------------------------------- Iteration      1(  15)  ---------------------------------------


    POTLOK:  cpu time      0.0947: real time      0.0956
    SETDIJ:  cpu time      0.0111: real time      0.0111
     EDDAV:  cpu time      5.4110: real time      5.4115
       DOS:  cpu time      0.0020: real time      0.0020
    CHARGE:  cpu time      0.3295: real time      0.3295
    MIXING:  cpu time      0.0235: real time      0.0235
    --------------------------------------------
      LOOP:  cpu time      5.8720: real time      5.8733

 eigenvalue-minimisations  :  8558
 total energy-change (2. order) : 0.6805438E-02  (-0.7480071E-03)
 number of electron     467.9999994 magnetization 
 augmentation part       14.1336458 magnetization 

 Broyden mixing:
  rms(total) = 0.23491E-01    rms(broyden)= 0.23491E-01
  rms(prec ) = 0.31630E-01
  weight for this iteration     100.00

 eigenvalues of (default mixing * dielectric matrix)
  average eigenvalue GAMMA=   1.2732
  3.2570  2.4381  2.0458  1.2598  0.7725  0.7725  0.6603  0.6603  0.4525  0.4134

 Free energy of the ion-electron system (eV)
  ---------------------------------------------------
  alpha Z        PSCENC =       964.87981809
  Ewald energy   TEWEN  =     52448.90221931
  -Hartree energ DENC   =    -92518.16672664
  -exchange      EXHF   =         0.00000000
  -V(xc)+E(xc)   XCENC  =      1636.13031737
  PAW double counting   =     53013.52741671   -52634.94949515
  entropy T*S    EENTRO =        -0.00000000
  eigenvalues    EBANDS =     -6789.53350935
  atomic energy  EATOM  =     43486.60354843
  Solvation  Ediel_sol  =         0.00000000
  ---------------------------------------------------
  free energy    TOTEN  =      -392.60641122 eV

  energy without entropy =     -392.60641122  energy(sigma->0) =     -392.60641122


--------------------------------------------------------------------------------------------------------




--------------------------------------- Iteration      1(  16)  ---------------------------------------


    POTLOK:  cpu time      0.0947: real time      0.0953
    SETDIJ:  cpu time      0.0109: real time      0.0108
     EDDAV:  cpu time      5.5965: real time      5.5970
       DOS:  cpu time      0.0018: real time      0.0018
    CHARGE:  cpu time      0.3266: real time      0.3266
    MIXING:  cpu time      0.0234: real time      0.0234
    --------------------------------------------
      LOOP:  cpu time      6.0538: real time      6.0548

 eigenvalue-minimisations  :  9097
 total energy-change (2. order) : 0.1802665E-02  (-0.3756689E-03)
 number of electron     467.9999994 magnetization 
 augmentation part       14.1393275 magnetization 

 Broyden mixing:
  rms(total) = 0.27283E-01    rms(broyden)= 0.27283E-01
  rms(prec ) = 0.30573E-01
  weight for this iteration     100.00

 eigenvalues of (default mixing * dielectric matrix)
  average eigenvalue GAMMA=   1.3441
  3.8720  2.3907  2.2402  1.3200  0.9832  0.9832  0.7915  0.6719  0.6719  0.4460
  0.4144

 Free energy of the ion-electron system (eV)
  ---------------------------------------------------
  alpha Z        PSCENC =       964.87981809
  Ewald energy   TEWEN  =     52448.90221931
  -Hartree energ DENC   =    -92534.54685967
  -exchange      EXHF   =         0.00000000
  -V(xc)+E(xc)   XCENC  =      1636.20170977
  PAW double counting   =     52998.92702601   -52620.36666970
  entropy T*S    EENTRO =        -0.00000000
  eigenvalues    EBANDS =     -6773.20540080
  atomic energy  EATOM  =     43486.60354843
  Solvation  Ediel_sol  =         0.00000000
  ---------------------------------------------------
  free energy    TOTEN  =      -392.60460856 eV

  energy without entropy =     -392.60460856  energy(sigma->0) =     -392.60460856


--------------------------------------------------------------------------------------------------------




--------------------------------------- Iteration      1(  17)  ---------------------------------------


    POTLOK:  cpu time      0.0952: real time      0.0957
    SETDIJ:  cpu time      0.0104: real time      0.0104
     EDDAV:  cpu time      5.6258: real time      5.6262
       DOS:  cpu time      0.0019: real time      0.0019
    CHARGE:  cpu time      0.3308: real time      0.3308
    MIXING:  cpu time      0.0235: real time      0.0235
    --------------------------------------------
      LOOP:  cpu time      6.0876: real time      6.0886

 eigenvalue-minimisations  :  9141
 total energy-change (2. order) :-0.1857531E-02  (-0.1594365E-03)
 number of electron     467.9999994 magnetization 
 augmentation part       14.1224881 magnetization 

 Broyden mixing:
  rms(total) = 0.12988E-01    rms(broyden)= 0.12988E-01
  rms(prec ) = 0.15228E-01
  weight for this iteration     100.00

 eigenvalues of (default mixing * dielectric matrix)
  average eigenvalue GAMMA=   1.4592
  5.0707  2.5891  2.2573  1.4508  1.4508  1.0088  0.6738  0.6738  0.7366  0.7366
  0.4487  0.4129

 Free energy of the ion-electron system (eV)
  ---------------------------------------------------
  alpha Z        PSCENC =       964.87981809
  Ewald energy   TEWEN  =     52448.90221931
  -Hartree energ DENC   =    -92546.20789608
  -exchange      EXHF   =         0.00000000
  -V(xc)+E(xc)   XCENC  =      1636.25205820
  PAW double counting   =     53021.23819066   -52642.66354784
  entropy T*S    EENTRO =        -0.00000000
  eigenvalues    EBANDS =     -6761.61085685
  atomic energy  EATOM  =     43486.60354843
  Solvation  Ediel_sol  =         0.00000000
  ---------------------------------------------------
  free energy    TOTEN  =      -392.60646609 eV

  energy without entropy =     -392.60646609  energy(sigma->0) =     -392.60646609


--------------------------------------------------------------------------------------------------------




--------------------------------------- Iteration      1(  18)  ---------------------------------------


    POTLOK:  cpu time      0.0953: real time      0.0963
    SETDIJ:  cpu time      0.0106: real time      0.0106
     EDDAV:  cpu time      5.9033: real time      5.9051
       DOS:  cpu time      0.0020: real time      0.0020
    CHARGE:  cpu time      0.3249: real time      0.3249
    MIXING:  cpu time      0.0235: real time      0.0235
    --------------------------------------------
      LOOP:  cpu time      6.3597: real time      6.3624

 eigenvalue-minimisations  :  9680
 total energy-change (2. order) :-0.2710121E-02  (-0.6471625E-04)
 number of electron     467.9999994 magnetization 
 augmentation part       14.1127756 magnetization 

 Broyden mixing:
  rms(total) = 0.75192E-02    rms(broyden)= 0.75191E-02
  rms(prec ) = 0.89651E-02
  weight for this iteration     100.00

 eigenvalues of (default mixing * dielectric matrix)
  average eigenvalue GAMMA=   1.4688
  6.0113  2.6753  2.1828  1.5179  1.5179  0.9959  0.7446  0.7446  0.6632  0.6632
  0.4127  0.4475  0.5180

 Free energy of the ion-electron system (eV)
  ---------------------------------------------------
  alpha Z        PSCENC =       964.87981809
  Ewald energy   TEWEN  =     52448.90221931
  -Hartree energ DENC   =    -92553.12991632
  -exchange      EXHF   =         0.00000000
  -V(xc)+E(xc)   XCENC  =      1636.27379816
  PAW double counting   =     53032.28881226   -52653.71218621
  entropy T*S    EENTRO =        -0.00000000
  eigenvalues    EBANDS =     -6754.71526993
  atomic energy  EATOM  =     43486.60354843
  Solvation  Ediel_sol  =         0.00000000
  ---------------------------------------------------
  free energy    TOTEN  =      -392.60917621 eV

  energy without entropy =     -392.60917621  energy(sigma->0) =     -392.60917621


--------------------------------------------------------------------------------------------------------




--------------------------------------- Iteration      1(  19)  ---------------------------------------


    POTLOK:  cpu time      0.0948: real time      0.0954
    SETDIJ:  cpu time      0.0108: real time      0.0108
     EDDAV:  cpu time      5.8148: real time      5.8153
       DOS:  cpu time      0.0020: real time      0.0020
    CHARGE:  cpu time      0.3329: real time      0.3330
    MIXING:  cpu time      0.0235: real time      0.0235
    --------------------------------------------
      LOOP:  cpu time      6.2788: real time      6.2799

 eigenvalue-minimisations  :  9339
 total energy-change (2. order) :-0.1310905E-02  (-0.1619850E-04)
 number of electron     467.9999994 magnetization 
 augmentation part       14.1125225 magnetization 

 Broyden mixing:
  rms(total) = 0.57371E-02    rms(broyden)= 0.57370E-02
  rms(prec ) = 0.67812E-02
  weight for this iteration     100.00

 eigenvalues of (default mixing * dielectric matrix)
  average eigenvalue GAMMA=   1.4909
  6.7644  2.6930  2.1400  1.5130  1.5130  1.0425  0.9255  0.9255  0.6670  0.6670
  0.7098  0.4135  0.4529  0.4448

 Free energy of the ion-electron system (eV)
  ---------------------------------------------------
  alpha Z        PSCENC =       964.87981809
  Ewald energy   TEWEN  =     52448.90221931
  -Hartree energ DENC   =    -92555.61954132
  -exchange      EXHF   =         0.00000000
  -V(xc)+E(xc)   XCENC  =      1636.27767776
  PAW double counting   =     53028.75193135   -52650.17917757
  entropy T*S    EENTRO =        -0.00000000
  eigenvalues    EBANDS =     -6752.22696317
  atomic energy  EATOM  =     43486.60354843
  Solvation  Ediel_sol  =         0.00000000
  ---------------------------------------------------
  free energy    TOTEN  =      -392.61048712 eV

  energy without entropy =     -392.61048712  energy(sigma->0) =     -392.61048712


--------------------------------------------------------------------------------------------------------




--------------------------------------- Iteration      1(  20)  ---------------------------------------


    POTLOK:  cpu time      0.0953: real time      0.0959
    SETDIJ:  cpu time      0.0108: real time      0.0108
     EDDAV:  cpu time      5.5680: real time      5.5684
       DOS:  cpu time      0.0020: real time      0.0020
    CHARGE:  cpu time      0.3268: real time      0.3269
    MIXING:  cpu time      0.0237: real time      0.0237
    --------------------------------------------
      LOOP:  cpu time      6.0267: real time      6.0277

 eigenvalue-minimisations  :  9097
 total energy-change (2. order) :-0.1834993E-02  (-0.9040390E-05)
 number of electron     467.9999994 magnetization 
 augmentation part       14.1133288 magnetization 

 Broyden mixing:
  rms(total) = 0.35238E-02    rms(broyden)= 0.35237E-02
  rms(prec ) = 0.43298E-02
  weight for this iteration     100.00

 eigenvalues of (default mixing * dielectric matrix)
  average eigenvalue GAMMA=   1.8366
 10.7416  2.8242  2.3812  2.3812  1.7814  1.4603  0.8985  0.8985  0.6695  0.6695
  0.7859  0.7859  0.4482  0.4113  0.4113

 Free energy of the ion-electron system (eV)
  ---------------------------------------------------
  alpha Z        PSCENC =       964.87981809
  Ewald energy   TEWEN  =     52448.90221931
  -Hartree energ DENC   =    -92557.76596836
  -exchange      EXHF   =         0.00000000
  -V(xc)+E(xc)   XCENC  =      1636.27838924
  PAW double counting   =     53023.91494795   -52645.34782483
  entropy T*S    EENTRO =        -0.00000000
  eigenvalues    EBANDS =     -6750.07745195
  atomic energy  EATOM  =     43486.60354843
  Solvation  Ediel_sol  =         0.00000000
  ---------------------------------------------------
  free energy    TOTEN  =      -392.61232211 eV

  energy without entropy =     -392.61232211  energy(sigma->0) =     -392.61232211


--------------------------------------------------------------------------------------------------------




--------------------------------------- Iteration      1(  21)  ---------------------------------------


    POTLOK:  cpu time      0.0945: real time      0.0951
    SETDIJ:  cpu time      0.0113: real time      0.0113
     EDDAV:  cpu time      5.4110: real time      5.4114
       DOS:  cpu time      0.0020: real time      0.0020
    CHARGE:  cpu time      0.3320: real time      0.3321
    MIXING:  cpu time      0.0237: real time      0.0237
    --------------------------------------------
      LOOP:  cpu time      5.8746: real time      5.8756

 eigenvalue-minimisations  :  8492
 total energy-change (2. order) :-0.2394227E-02  (-0.9509632E-05)
 number of electron     467.9999994 magnetization 
 augmentation part       14.1116214 magnetization 

 Broyden mixing:
  rms(total) = 0.21082E-02    rms(broyden)= 0.21082E-02
  rms(prec ) = 0.23494E-02
  weight for this iteration     100.00

 eigenvalues of (default mixing * dielectric matrix)
  average eigenvalue GAMMA=   1.8920
 12.3734  3.2981  2.6121  2.1598  1.5843  1.5843  0.9884  0.8302  0.8302  0.8381
  0.6696  0.6696  0.5643  0.4485  0.4125  0.4090

 Free energy of the ion-electron system (eV)
  ---------------------------------------------------
  alpha Z        PSCENC =       964.87981809
  Ewald energy   TEWEN  =     52448.90221931
  -Hartree energ DENC   =    -92559.88446933
  -exchange      EXHF   =         0.00000000
  -V(xc)+E(xc)   XCENC  =      1636.27817753
  PAW double counting   =     53026.26260631   -52647.69883286
  entropy T*S    EENTRO =        -0.00000000
  eigenvalues    EBANDS =     -6747.95778381
  atomic energy  EATOM  =     43486.60354843
  Solvation  Ediel_sol  =         0.00000000
  ---------------------------------------------------
  free energy    TOTEN  =      -392.61471634 eV

  energy without entropy =     -392.61471634  energy(sigma->0) =     -392.61471634


--------------------------------------------------------------------------------------------------------




--------------------------------------- Iteration      1(  22)  ---------------------------------------


    POTLOK:  cpu time      0.0948: real time      0.0954
    SETDIJ:  cpu time      0.0113: real time      0.0113
     EDDAV:  cpu time      5.5893: real time      5.5896
       DOS:  cpu time      0.0011: real time      0.0017
    CHARGE:  cpu time      0.3255: real time      0.3257
    MIXING:  cpu time      0.0237: real time      0.0239
    --------------------------------------------
      LOOP:  cpu time      6.0455: real time      6.0479

 eigenvalue-minimisations  :  9042
 total energy-change (2. order) :-0.2840220E-03  (-0.2293484E-05)
 number of electron     467.9999994 magnetization 
 augmentation part       14.1102864 magnetization 

 Broyden mixing:
  rms(total) = 0.23293E-02    rms(broyden)= 0.23293E-02
  rms(prec ) = 0.24450E-02
  weight for this iteration     100.00

 eigenvalues of (default mixing * dielectric matrix)
  average eigenvalue GAMMA=   1.8132
 12.3301  3.3321  2.6037  2.1612  1.5502  1.5502  1.1045  0.8900  0.8900  0.7975
  0.6723  0.6723  0.6156  0.4488  0.4135  0.3960  0.3960

 Free energy of the ion-electron system (eV)
  ---------------------------------------------------
  alpha Z        PSCENC =       964.87981809
  Ewald energy   TEWEN  =     52448.90221931
  -Hartree energ DENC   =    -92560.07885371
  -exchange      EXHF   =         0.00000000
  -V(xc)+E(xc)   XCENC  =      1636.27795726
  PAW double counting   =     53028.09235073   -52649.52646757
  entropy T*S    EENTRO =        -0.00000000
  eigenvalues    EBANDS =     -6747.76557289
  atomic energy  EATOM  =     43486.60354843
  Solvation  Ediel_sol  =         0.00000000
  ---------------------------------------------------
  free energy    TOTEN  =      -392.61500036 eV

  energy without entropy =     -392.61500036  energy(sigma->0) =     -392.61500036


--------------------------------------------------------------------------------------------------------




--------------------------------------- Iteration      1(  23)  ---------------------------------------


    POTLOK:  cpu time      0.1056: real time      0.1110
    SETDIJ:  cpu time      0.0034: real time      0.0037
     EDDAV:  cpu time      4.7245: real time      4.7261
       DOS:  cpu time      0.0011: real time      0.0019
    CHARGE:  cpu time      0.3330: real time      0.3332
    MIXING:  cpu time      0.0238: real time      0.0241
    --------------------------------------------
      LOOP:  cpu time      5.1915: real time      5.1999

 eigenvalue-minimisations  :  7172
 total energy-change (2. order) :-0.8165675E-04  (-0.2958043E-06)
 number of electron     467.9999994 magnetization 
 augmentation part       14.1100877 magnetization 

 Broyden mixing:
  rms(total) = 0.20371E-02    rms(broyden)= 0.20371E-02
  rms(prec ) = 0.21332E-02
  weight for this iteration     100.00

 eigenvalues of (default mixing * dielectric matrix)
  average eigenvalue GAMMA=   1.7971
 12.5322  3.3467  2.5609  2.2176  1.6108  1.6108  1.2640  1.0145  1.0145  0.7266
  0.7266  0.6601  0.6601  0.6695  0.4498  0.4601  0.4121  0.4105

 Free energy of the ion-electron system (eV)
  ---------------------------------------------------
  alpha Z        PSCENC =       964.87981809
  Ewald energy   TEWEN  =     52448.90221931
  -Hartree energ DENC   =    -92560.06285382
  -exchange      EXHF   =         0.00000000
  -V(xc)+E(xc)   XCENC  =      1636.27761005
  PAW double counting   =     53028.65942431   -52650.09233884
  entropy T*S    EENTRO =        -0.00000000
  eigenvalues    EBANDS =     -6747.78250954
  atomic energy  EATOM  =     43486.60354843
  Solvation  Ediel_sol  =         0.00000000
  ---------------------------------------------------
  free energy    TOTEN  =      -392.61508201 eV

  energy without entropy =     -392.61508201  energy(sigma->0) =     -392.61508201


--------------------------------------------------------------------------------------------------------




--------------------------------------- Iteration      1(  24)  ---------------------------------------


    POTLOK:  cpu time      0.1059: real time      0.1113
    SETDIJ:  cpu time      0.0034: real time      0.0036
     EDDAV:  cpu time      4.2624: real time      4.2629
       DOS:  cpu time      0.0012: real time      0.0018
    CHARGE:  cpu time      0.3271: real time      0.3272
    MIXING:  cpu time      0.0243: real time      0.0245
    --------------------------------------------
      LOOP:  cpu time      4.7243: real time      4.7314

 eigenvalue-minimisations  :  6083
 total energy-change (2. order) :-0.1271839E-03  (-0.3000728E-06)
 number of electron     467.9999994 magnetization 
 augmentation part       14.1107672 magnetization 

 Broyden mixing:
  rms(total) = 0.11906E-02    rms(broyden)= 0.11906E-02
  rms(prec ) = 0.12694E-02
  weight for this iteration     100.00

 eigenvalues of (default mixing * dielectric matrix)
  average eigenvalue GAMMA=   1.9771
 14.7972  4.2861  2.5793  2.4593  1.9623  1.6857  1.6857  1.0190  1.0190  0.8156
  0.8156  0.6695  0.6695  0.6864  0.6864  0.4490  0.4568  0.4117  0.4096

 Free energy of the ion-electron system (eV)
  ---------------------------------------------------
  alpha Z        PSCENC =       964.87981809
  Ewald energy   TEWEN  =     52448.90221931
  -Hartree energ DENC   =    -92560.06612447
  -exchange      EXHF   =         0.00000000
  -V(xc)+E(xc)   XCENC  =      1636.27611370
  PAW double counting   =     53027.80088268   -52649.23394885
  entropy T*S    EENTRO =        -0.00000000
  eigenvalues    EBANDS =     -6747.77771809
  atomic energy  EATOM  =     43486.60354843
  Solvation  Ediel_sol  =         0.00000000
  ---------------------------------------------------
  free energy    TOTEN  =      -392.61520920 eV

  energy without entropy =     -392.61520920  energy(sigma->0) =     -392.61520920


--------------------------------------------------------------------------------------------------------




--------------------------------------- Iteration      1(  25)  ---------------------------------------


    POTLOK:  cpu time      0.1055: real time      0.1108
    SETDIJ:  cpu time      0.0035: real time      0.0037
     EDDAV:  cpu time      4.3220: real time      4.3224
       DOS:  cpu time      0.0010: real time      0.0017
    CHARGE:  cpu time      0.3297: real time      0.3298
    MIXING:  cpu time      0.0242: real time      0.0244
    --------------------------------------------
      LOOP:  cpu time      4.7861: real time      4.7930

 eigenvalue-minimisations  :  6413
 total energy-change (2. order) :-0.1505914E-03  (-0.9493820E-06)
 number of electron     467.9999994 magnetization 
 augmentation part       14.1115714 magnetization 

 Broyden mixing:
  rms(total) = 0.50554E-03    rms(broyden)= 0.50554E-03
  rms(prec ) = 0.55759E-03
  weight for this iteration     100.00

 eigenvalues of (default mixing * dielectric matrix)
  average eigenvalue GAMMA=   1.9194
 14.9750  4.2603  2.6104  2.2193  2.2193  1.5252  1.5252  1.0251  1.0251  0.8901
  0.8901  0.7739  0.7739  0.6691  0.6691  0.6192  0.4485  0.4485  0.4115  0.4099

 Free energy of the ion-electron system (eV)
  ---------------------------------------------------
  alpha Z        PSCENC =       964.87981809
  Ewald energy   TEWEN  =     52448.90221931
  -Hartree energ DENC   =    -92560.11446242
  -exchange      EXHF   =         0.00000000
  -V(xc)+E(xc)   XCENC  =      1636.27405311
  PAW double counting   =     53026.53537208   -52647.96892234
  entropy T*S    EENTRO =        -0.00000000
  eigenvalues    EBANDS =     -6747.72698604
  atomic energy  EATOM  =     43486.60354843
  Solvation  Ediel_sol  =         0.00000000
  ---------------------------------------------------
  free energy    TOTEN  =      -392.61535979 eV

  energy without entropy =     -392.61535979  energy(sigma->0) =     -392.61535979


--------------------------------------------------------------------------------------------------------




--------------------------------------- Iteration      1(  26)  ---------------------------------------


    POTLOK:  cpu time      0.1052: real time      0.1105
    SETDIJ:  cpu time      0.0035: real time      0.0037
     EDDAV:  cpu time      4.1263: real time      4.1268
       DOS:  cpu time      0.0012: real time      0.0017
    CHARGE:  cpu time      0.3265: real time      0.3266
    MIXING:  cpu time      0.0241: real time      0.0244
    --------------------------------------------
      LOOP:  cpu time      4.5868: real time      4.5937

 eigenvalue-minimisations  :  6072
 total energy-change (2. order) :-0.1101842E-05  (-0.1541117E-06)
 number of electron     467.9999994 magnetization 
 augmentation part       14.1116569 magnetization 

 Broyden mixing:
  rms(total) = 0.30352E-03    rms(broyden)= 0.30352E-03
  rms(prec ) = 0.36945E-03
  weight for this iteration     100.00

 eigenvalues of (default mixing * dielectric matrix)
  average eigenvalue GAMMA=   1.8750
 15.0753  4.2421  2.4776  2.4776  2.2622  1.4956  1.4956  1.1094  1.1094  0.9471
  0.9471  0.7882  0.7882  0.6683  0.6683  0.6208  0.4095  0.4117  0.4657  0.4657
  0.4491

 Free energy of the ion-electron system (eV)
  ---------------------------------------------------
  alpha Z        PSCENC =       964.87981809
  Ewald energy   TEWEN  =     52448.90221931
  -Hartree energ DENC   =    -92560.13763449
  -exchange      EXHF   =         0.00000000
  -V(xc)+E(xc)   XCENC  =      1636.27432213
  PAW double counting   =     53026.37224163   -52647.80570280
  entropy T*S    EENTRO =        -0.00000000
  eigenvalues    EBANDS =     -6747.70417319
  atomic energy  EATOM  =     43486.60354843
  Solvation  Ediel_sol  =         0.00000000
  ---------------------------------------------------
  free energy    TOTEN  =      -392.61536089 eV

  energy without entropy =     -392.61536089  energy(sigma->0) =     -392.61536089


--------------------------------------------------------------------------------------------------------




--------------------------------------- Iteration      1(  27)  ---------------------------------------


    POTLOK:  cpu time      0.1049: real time      0.1121
    SETDIJ:  cpu time      0.0035: real time      0.0037
     EDDAV:  cpu time      3.6643: real time      3.6648
       DOS:  cpu time      0.0013: real time      0.0019
    CHARGE:  cpu time      0.3300: real time      0.3302
    MIXING:  cpu time      0.0243: real time      0.0246
    --------------------------------------------
      LOOP:  cpu time      4.1283: real time      4.1373

 eigenvalue-minimisations  :  5060
 total energy-change (2. order) :-0.3107751E-05  (-0.1850825E-07)
 number of electron     467.9999994 magnetization 
 augmentation part       14.1116061 magnetization 

 Broyden mixing:
  rms(total) = 0.20986E-03    rms(broyden)= 0.20986E-03
  rms(prec ) = 0.27897E-03
  weight for this iteration     100.00

 eigenvalues of (default mixing * dielectric matrix)
  average eigenvalue GAMMA=   1.9223
 15.0333  4.4779  2.7504  2.7504  2.2520  1.7961  1.6022  1.6022  1.3727  1.0435
  0.8329  0.8329  0.7970  0.7970  0.6707  0.6707  0.7062  0.5797  0.4097  0.4116
  0.4498  0.4521

 Free energy of the ion-electron system (eV)
  ---------------------------------------------------
  alpha Z        PSCENC =       964.87981809
  Ewald energy   TEWEN  =     52448.90221931
  -Hartree energ DENC   =    -92560.14556864
  -exchange      EXHF   =         0.00000000
  -V(xc)+E(xc)   XCENC  =      1636.27444211
  PAW double counting   =     53026.30661826   -52647.73974874
  entropy T*S    EENTRO =        -0.00000000
  eigenvalues    EBANDS =     -6747.69669281
  atomic energy  EATOM  =     43486.60354843
  Solvation  Ediel_sol  =         0.00000000
  ---------------------------------------------------
  free energy    TOTEN  =      -392.61536400 eV

  energy without entropy =     -392.61536400  energy(sigma->0) =     -392.61536400


--------------------------------------------------------------------------------------------------------




--------------------------------------- Iteration      1(  28)  ---------------------------------------


    POTLOK:  cpu time      0.1062: real time      0.1122
    SETDIJ:  cpu time      0.0035: real time      0.0036
     EDDAV:  cpu time      3.9804: real time      3.9807
       DOS:  cpu time      0.0008: real time      0.0022
    CHARGE:  cpu time      0.3364: real time      0.3377
    MIXING:  cpu time      0.0248: real time      0.0251
    --------------------------------------------
      LOOP:  cpu time      4.4521: real time      4.4618

 eigenvalue-minimisations  :  5665
 total energy-change (2. order) : 0.3797853E-05  (-0.3141842E-06)
 number of electron     467.9999994 magnetization 
 augmentation part       14.1117251 magnetization 

 Broyden mixing:
  rms(total) = 0.25694E-03    rms(broyden)= 0.25694E-03
  rms(prec ) = 0.27838E-03
  weight for this iteration     100.00

 eigenvalues of (default mixing * dielectric matrix)
  average eigenvalue GAMMA=   1.8756
 15.0295  4.5832  2.8701  2.8701  2.2553  2.0276  1.5220  1.5220  1.2434  1.1198
  0.8606  0.8606  0.7913  0.7913  0.6701  0.6701  0.7021  0.4116  0.4098  0.4494
  0.4539  0.5131  0.5131

 Free energy of the ion-electron system (eV)
  ---------------------------------------------------
  alpha Z        PSCENC =       964.87981809
  Ewald energy   TEWEN  =     52448.90221931
  -Hartree energ DENC   =    -92560.20518022
  -exchange      EXHF   =         0.00000000
  -V(xc)+E(xc)   XCENC  =      1636.27491303
  PAW double counting   =     53026.18497543   -52647.61829783
  entropy T*S    EENTRO =        -0.00000000
  eigenvalues    EBANDS =     -6747.63735643
  atomic energy  EATOM  =     43486.60354843
  Solvation  Ediel_sol  =         0.00000000
  ---------------------------------------------------
  free energy    TOTEN  =      -392.61536020 eV

  energy without entropy =     -392.61536020  energy(sigma->0) =     -392.61536020


--------------------------------------------------------------------------------------------------------




--------------------------------------- Iteration      1(  29)  ---------------------------------------


    POTLOK:  cpu time      0.1055: real time      0.1112
    SETDIJ:  cpu time      0.0035: real time      0.0037
     EDDAV:  cpu time      3.9926: real time      3.9940
       DOS:  cpu time      0.0009: real time      0.0014
    --------------------------------------------
      LOOP:  cpu time      4.1024: real time      4.1102

 eigenvalue-minimisations  :  5588
 total energy-change (2. order) : 0.4458052E-06  (-0.6683369E-07)
 number of electron     467.9999994 magnetization 
 augmentation part       14.1117251 magnetization 

 Free energy of the ion-electron system (eV)
  ---------------------------------------------------
  alpha Z        PSCENC =       964.87981809
  Ewald energy   TEWEN  =     52448.90221931
  -Hartree energ DENC   =    -92560.21510577
  -exchange      EXHF   =         0.00000000
  -V(xc)+E(xc)   XCENC  =      1636.27497674
  PAW double counting   =     53026.17930620   -52647.61292059
  entropy T*S    EENTRO =        -0.00000000
  eigenvalues    EBANDS =     -6747.62720217
  atomic energy  EATOM  =     43486.60354843
  Solvation  Ediel_sol  =         0.00000000
  ---------------------------------------------------
  free energy    TOTEN  =      -392.61535976 eV

  energy without entropy =     -392.61535976  energy(sigma->0) =     -392.61535976


--------------------------------------------------------------------------------------------------------




 average (electrostatic) potential at core
  the test charge radii are     1.0818  0.9698
  (the norm of the test charge is              1.0000)
       1 -79.7639       2 -79.7637       3 -79.7639       4 -79.7637       5 -79.7638
       6 -79.7638       7 -79.7639       8 -79.7638       9 -79.7638      10 -79.8357
      11 -79.8348      12 -79.8369      13 -79.8353      14 -79.8372      15 -79.8371
      16 -79.8369      17 -79.8372      18 -79.8369      19 -89.4241      20 -89.4241
      21 -89.4242      22 -89.4241      23 -89.4241      24 -89.4241      25 -89.4242
      26 -89.4241      27 -89.4242      28 -89.4537      29 -89.4539      30 -89.4542
      31 -89.4538      32 -89.4542      33 -89.4541      34 -89.4543      35 -89.4541
      36 -89.4542      37 -89.5325      38 -89.5279      39 -89.5271      40 -89.5278
      41 -89.5282      42 -89.5272      43 -89.5274      44 -89.5277      45 -89.5283
      46 -89.5012      47 -89.5007      48 -89.5011      49 -89.5010      50 -89.5013
      51 -89.5007      52 -89.5012      53 -89.5006      54 -89.5009
 
 
 
 E-fermi :   2.8080     XC(G=0):  -7.0500     alpha+bet : -8.1787

 val. band max:        2.4634960035   @ k =   0.0000   0.0000   0.0000
 cond. band min:       3.3895172251   @ k =   0.0000   0.0000   0.0000
 fundamental gap:      0.9260212216
 Fermi energy:         2.8079620465

 k-point     1 :       0.0000    0.0000    0.0000
  band No.  band energies     occupation 
      1     -59.0899      2.00000
      2     -59.0633      2.00000
      3     -59.0633      2.00000
      4     -59.0632      2.00000
      5     -59.0626      2.00000
      6     -59.0625      2.00000
      7     -59.0624      2.00000
      8     -59.0493      2.00000
      9     -59.0492      2.00000
     10     -59.0172      2.00000
     11     -58.9902      2.00000
     12     -58.9902      2.00000
     13     -58.9902      2.00000
     14     -58.9901      2.00000
     15     -58.9901      2.00000
     16     -58.9901      2.00000
     17     -58.9766      2.00000
     18     -58.9766      2.00000
     19     -33.3082      2.00000
     20     -33.3070      2.00000
     21     -33.3068      2.00000
     22     -33.3068      2.00000
     23     -33.3067      2.00000
     24     -33.3063      2.00000
     25     -33.3062      2.00000
     26     -33.3062      2.00000
     27     -33.2641      2.00000
     28     -33.2640      2.00000
     29     -33.2338      2.00000
     30     -33.2337      2.00000
     31     -33.2337      2.00000
     32     -33.2337      2.00000
     33     -33.2337      2.00000
     34     -33.2337      2.00000
     35     -33.2336      2.00000
     36     -33.2336      2.00000
     37     -33.2272      2.00000
     38     -33.1910      2.00000
     39     -33.1910      2.00000
     40     -33.1729      2.00000
     41     -33.1729      2.00000
     42     -33.1728      2.00000
     43     -33.1726      2.00000
     44     -33.1724      2.00000
     45     -33.1721      2.00000
     46     -33.1547      2.00000
     47     -33.1453      2.00000
     48     -33.1451      2.00000
     49     -33.1002      2.00000
     50     -33.1002      2.00000
     51     -33.1002      2.00000
     52     -33.1001      2.00000
     53     -33.1001      2.00000
     54     -33.1001      2.00000
     55     -33.0972      2.00000
     56     -33.0972      2.00000
     57     -33.0968      2.00000
     58     -33.0967      2.00000
     59     -33.0967      2.00000
     60     -33.0960      2.00000
     61     -33.0728      2.00000
     62     -33.0727      2.00000
     63     -33.0338      2.00000
     64     -33.0338      2.00000
     65     -33.0238      2.00000
     66     -33.0238      2.00000
     67     -33.0238      2.00000
     68     -33.0237      2.00000
     69     -33.0237      2.00000
     70     -33.0237      2.00000
     71     -32.9608      2.00000
     72     -32.9608      2.00000
     73     -12.3919      2.00000
     74     -12.1884      2.00000
     75     -11.0927      2.00000
     76     -11.0915      2.00000
     77     -11.0851      2.00000
     78     -11.0850      2.00000
     79     -11.0849      2.00000
     80     -11.0847      2.00000
     81     -11.0845      2.00000
     82     -10.9209      2.00000
     83     -10.9184      2.00000
     84     -10.9183      2.00000
     85     -10.9183      2.00000
     86     -10.9183      2.00000
     87     -10.9182      2.00000
     88     -10.7995      2.00000
     89     -10.5163      2.00000
     90     -10.5153      2.00000
     91     -10.5152      2.00000
     92     -10.5152      2.00000
     93     -10.5151      2.00000
     94     -10.5149      2.00000
     95     -10.3494      2.00000
     96     -10.3471      2.00000
     97     -10.3471      2.00000
     98     -10.3470      2.00000
     99     -10.3469      2.00000
    100     -10.3469      2.00000
    101     -10.2233      2.00000
    102     -10.2192      2.00000
    103     -10.1491      2.00000
    104     -10.1490      2.00000
    105     -10.1135      2.00000
    106     -10.1125      2.00000
    107     -10.0382      2.00000
    108     -10.0382      2.00000
    109      -4.1576      2.00000
    110      -3.6362      2.00000
    111      -3.6348      2.00000
    112      -3.6019      2.00000
    113      -3.5989      2.00000
    114      -3.5984      2.00000
    115      -3.5974      2.00000
    116      -3.5972      2.00000
    117      -3.5971      2.00000
    118      -3.5723      2.00000
    119      -3.5721      2.00000
    120      -3.5174      2.00000
    121      -3.3569      2.00000
    122      -3.3565      2.00000
    123      -3.3559      2.00000
    124      -3.3550      2.00000
    125      -3.3550      2.00000
    126      -3.3549      2.00000
    127      -2.8583      2.00000
    128      -2.8558      2.00000
    129      -2.7496      2.00000
    130      -2.7495      2.00000
    131      -2.5441      2.00000
    132      -2.5434      2.00000
    133      -2.5432      2.00000
    134      -2.5429      2.00000
    135      -2.5420      2.00000
    136      -2.5413      2.00000
    137      -2.3210      2.00000
    138      -2.3210      2.00000
    139      -2.3197      2.00000
    140      -2.3195      2.00000
    141      -2.3193      2.00000
    142      -2.3188      2.00000
    143      -2.3041      2.00000
    144      -2.3038      2.00000
    145      -2.2827      2.00000
    146      -2.2805      2.00000
    147      -2.1502      2.00000
    148      -2.1495      2.00000
    149      -2.1492      2.00000
    150      -2.1482      2.00000
    151      -2.1481      2.00000
    152      -2.1481      2.00000
    153      -1.9333      2.00000
    154      -1.9320      2.00000
    155      -1.9317      2.00000
    156      -1.9312      2.00000
    157      -1.9311      2.00000
    158      -1.9306      2.00000
    159      -1.8010      2.00000
    160      -1.8009      2.00000
    161      -1.7574      2.00000
    162      -1.7552      2.00000
    163      -1.1251      2.00000
    164      -1.1221      2.00000
    165      -1.1181      2.00000
    166      -1.1177      2.00000
    167      -1.1176      2.00000
    168      -1.1174      2.00000
    169      -1.0841      2.00000
    170      -1.0826      2.00000
    171      -1.0280      2.00000
    172      -1.0277      2.00000
    173      -1.0273      2.00000
    174      -1.0273      2.00000
    175      -1.0272      2.00000
    176      -1.0272      2.00000
    177      -1.0116      2.00000
    178      -1.0116      2.00000
    179      -0.8908      2.00000
    180      -0.8903      2.00000
    181      -0.8149      2.00000
    182      -0.8149      2.00000
    183      -0.4803      2.00000
    184      -0.3764      2.00000
    185      -0.3746      2.00000
    186      -0.2116      2.00000
    187      -0.2112      2.00000
    188       0.0165      2.00000
    189       0.0167      2.00000
    190       0.0169      2.00000
    191       0.0172      2.00000
    192       0.0173      2.00000
    193       0.0231      2.00000
    194       0.2155      2.00000
    195       0.2177      2.00000
    196       0.2943      2.00000
    197       0.2943      2.00000
    198       0.3244      2.00000
    199       0.3246      2.00000
    200       0.3290      2.00000
    201       0.3291      2.00000
    202       0.3291      2.00000
    203       0.3293      2.00000
    204       0.4192      2.00000
    205       0.4197      2.00000
    206       0.4199      2.00000
    207       0.4200      2.00000
    208       0.4203      2.00000
    209       0.4206      2.00000
    210       0.4354      2.00000
    211       0.4354      2.00000
    212       0.4365      2.00000
    213       0.4366      2.00000
    214       0.4366      2.00000
    215       0.4367      2.00000
    216       0.6863      2.00000
    217       0.8095      2.00000
    218       0.8108      2.00000
    219       0.8111      2.00000
    220       0.8111      2.00000
    221       0.8114      2.00000
    222       0.8137      2.00000
    223       0.9384      2.00000
    224       0.9386      2.00000
    225       0.9386      2.00000
    226       0.9387      2.00000
    227       0.9389      2.00000
    228       0.9392      2.00000
    229       1.6907      2.00000
    230       1.7458      2.00000
    231       1.7464      2.00000
    232       1.8303      2.00000
    233       1.8303      2.00000
    234       2.4635      2.00000
    235       3.3895      0.00000
    236       3.3898      0.00000
    237       3.4621      0.00000
    238       3.4621      0.00000
    239       3.9397      0.00000
    240       3.9398      0.00000
    241       3.9402      0.00000
    242       3.9406      0.00000
    243       3.9425      0.00000
    244       3.9429      0.00000
    245       4.0060      0.00000
    246       4.0060      0.00000
    247       4.0062      0.00000
    248       4.0077      0.00000
    249       4.0083      0.00000
    250       4.0089      0.00000
    251       4.0692      0.00000
    252       4.0692      0.00000
    253       4.0694      0.00000
    254       4.0695      0.00000
    255       4.0698      0.00000
    256       4.0699      0.00000
    257       4.3865      0.00000
    258       4.3868      0.00000
    259       4.3868      0.00000
    260       4.3872      0.00000
    261       4.3874      0.00000
    262       4.3875      0.00000
    263       4.4867      0.00000
    264       4.4888      0.00000
    265       4.5813      0.00000
    266       4.5816      0.00000
    267       4.7701      0.00000
    268       4.7709      0.00000
    269       4.8343      0.00000
    270       4.8359      0.00000
    271       4.8461      0.00000
    272       4.8475      0.00000
    273       4.8764      0.00000
    274       4.8764      0.00000
    275       5.1222      0.00000
    276       5.1227      0.00000
    277       5.1232      0.00000
    278       5.1238      0.00000
    279       5.1243      0.00000
    280       5.1259      0.00000
    281       5.3683      0.00000
    282       5.3693      0.00000
    283       5.4566      0.00000
    284       5.4637      0.00000
    285       5.4676      0.00000
    286       5.4683      0.00000

 k-point     2 :       0.2000    0.0000    0.0000
  band No.  band energies     occupation 
      1     -59.0884      2.00000
      2     -59.0701      2.00000
      3     -59.0657      2.00000
      4     -59.0656      2.00000
      5     -59.0593      2.00000
      6     -59.0593      2.00000
      7     -59.0572      2.00000
      8     -59.0501      2.00000
      9     -59.0500      2.00000
     10     -59.0157      2.00000
     11     -58.9973      2.00000
     12     -58.9930      2.00000
     13     -58.9929      2.00000
     14     -58.9866      2.00000
     15     -58.9866      2.00000
     16     -58.9846      2.00000
     17     -58.9774      2.00000
     18     -58.9774      2.00000
     19     -33.3616      2.00000
     20     -33.3350      2.00000
     21     -33.3344      2.00000
     22     -33.3277      2.00000
     23     -33.3270      2.00000
     24     -33.2885      2.00000
     25     -33.2738      2.00000
     26     -33.2733      2.00000
     27     -33.2616      2.00000
     28     -33.2616      2.00000
     29     -33.2543      2.00000
     30     -33.2543      2.00000
     31     -33.2360      2.00000
     32     -33.2338      2.00000
     33     -33.2336      2.00000
     34     -33.2240      2.00000
     35     -33.2005      2.00000
     36     -33.2005      2.00000
     37     -33.1870      2.00000
     38     -33.1783      2.00000
     39     -33.1782      2.00000
     40     -33.1655      2.00000
     41     -33.1653      2.00000
     42     -33.1629      2.00000
     43     -33.1613      2.00000
     44     -33.1606      2.00000
     45     -33.1606      2.00000
     46     -33.1515      2.00000
     47     -33.1468      2.00000
     48     -33.1467      2.00000
     49     -33.1146      2.00000
     50     -33.1127      2.00000
     51     -33.1123      2.00000
     52     -33.1096      2.00000
     53     -33.1058      2.00000
     54     -33.1058      2.00000
     55     -33.0963      2.00000
     56     -33.0959      2.00000
     57     -33.0929      2.00000
     58     -33.0929      2.00000
     59     -33.0888      2.00000
     60     -33.0802      2.00000
     61     -33.0743      2.00000
     62     -33.0743      2.00000
     63     -33.0499      2.00000
     64     -33.0395      2.00000
     65     -33.0395      2.00000
     66     -33.0374      2.00000
     67     -33.0366      2.00000
     68     -33.0231      2.00000
     69     -33.0231      2.00000
     70     -33.0072      2.00000
     71     -32.9769      2.00000
     72     -32.9645      2.00000
     73     -12.3266      2.00000
     74     -12.1236      2.00000
     75     -11.4754      2.00000
     76     -11.2900      2.00000
     77     -11.2459      2.00000
     78     -11.2437      2.00000
     79     -11.0693      2.00000
     80     -11.0682      2.00000
     81     -11.0635      2.00000
     82     -10.8758      2.00000
     83     -10.8733      2.00000
     84     -10.7759      2.00000
     85     -10.7431      2.00000
     86     -10.7217      2.00000
     87     -10.7209      2.00000
     88     -10.6853      2.00000
     89     -10.6027      2.00000
     90     -10.5828      2.00000
     91     -10.5826      2.00000
     92     -10.4755      2.00000
     93     -10.4220      2.00000
     94     -10.4216      2.00000
     95     -10.3969      2.00000
     96     -10.3961      2.00000
     97     -10.3696      2.00000
     98     -10.2813      2.00000
     99     -10.2781      2.00000
    100     -10.2779      2.00000
    101     -10.2767      2.00000
    102     -10.2441      2.00000
    103     -10.1941      2.00000
    104     -10.1940      2.00000
    105     -10.1372      2.00000
    106     -10.1361      2.00000
    107     -10.0615      2.00000
    108     -10.0614      2.00000
    109      -4.0841      2.00000
    110      -3.8412      2.00000
    111      -3.6891      2.00000
    112      -3.6806      2.00000
    113      -3.6802      2.00000
    114      -3.5460      2.00000
    115      -3.5448      2.00000
    116      -3.4911      2.00000
    117      -3.4909      2.00000
    118      -3.4846      2.00000
    119      -3.4827      2.00000
    120      -3.4819      2.00000
    121      -3.4818      2.00000
    122      -3.4815      2.00000
    123      -3.4448      2.00000
    124      -3.1610      2.00000
    125      -3.1599      2.00000
    126      -3.1584      2.00000
    127      -3.1583      2.00000
    128      -3.0458      2.00000
    129      -3.0280      2.00000
    130      -3.0277      2.00000
    131      -2.8601      2.00000
    132      -2.7219      2.00000
    133      -2.7217      2.00000
    134      -2.6648      2.00000
    135      -2.5425      2.00000
    136      -2.5419      2.00000
    137      -2.3525      2.00000
    138      -2.3517      2.00000
    139      -2.2706      2.00000
    140      -2.2001      2.00000
    141      -2.1949      2.00000
    142      -2.1944      2.00000
    143      -2.1806      2.00000
    144      -2.1798      2.00000
    145      -2.1669      2.00000
    146      -2.1662      2.00000
    147      -2.0785      2.00000
    148      -2.0370      2.00000
    149      -2.0367      2.00000
    150      -2.0312      2.00000
    151      -1.9826      2.00000
    152      -1.9820      2.00000
    153      -1.9637      2.00000
    154      -1.9630      2.00000
    155      -1.9248      2.00000
    156      -1.8723      2.00000
    157      -1.8719      2.00000
    158      -1.6871      2.00000
    159      -1.6866      2.00000
    160      -1.6750      2.00000
    161      -1.4833      2.00000
    162      -1.4826      2.00000
    163      -1.3268      2.00000
    164      -1.3248      2.00000
    165      -1.3181      2.00000
    166      -1.2251      2.00000
    167      -1.2223      2.00000
    168      -1.2214      2.00000
    169      -1.2162      2.00000
    170      -1.2155      2.00000
    171      -1.1595      2.00000
    172      -1.1575      2.00000
    173      -1.0641      2.00000
    174      -1.0635      2.00000
    175      -1.0429      2.00000
    176      -1.0423      2.00000
    177      -1.0382      2.00000
    178      -0.9625      2.00000
    179      -0.8390      2.00000
    180      -0.8228      2.00000
    181      -0.7489      2.00000
    182      -0.7468      2.00000
    183      -0.6997      2.00000
    184      -0.2471      2.00000
    185      -0.2458      2.00000
    186      -0.1347      2.00000
    187      -0.0959      2.00000
    188      -0.0957      2.00000
    189      -0.0808      2.00000
    190       0.0068      2.00000
    191       0.0338      2.00000
    192       0.0355      2.00000
    193       0.0416      2.00000
    194       0.0431      2.00000
    195       0.0970      2.00000
    196       0.1111      2.00000
    197       0.1334      2.00000
    198       0.1340      2.00000
    199       0.1894      2.00000
    200       0.1987      2.00000
    201       0.2001      2.00000
    202       0.2425      2.00000
    203       0.2440      2.00000
    204       0.2916      2.00000
    205       0.2920      2.00000
    206       0.2966      2.00000
    207       0.2980      2.00000
    208       0.3896      2.00000
    209       0.3898      2.00000
    210       0.4012      2.00000
    211       0.5645      2.00000
    212       0.6202      2.00000
    213       0.6203      2.00000
    214       0.6739      2.00000
    215       0.6973      2.00000
    216       0.8966      2.00000
    217       0.9059      2.00000
    218       0.9067      2.00000
    219       0.9087      2.00000
    220       0.9612      2.00000
    221       0.9625      2.00000
    222       0.9869      2.00000
    223       1.0037      2.00000
    224       1.0038      2.00000
    225       1.0525      2.00000
    226       1.0540      2.00000
    227       1.0541      2.00000
    228       1.1091      2.00000
    229       1.6092      2.00000
    230       1.6096      2.00000
    231       1.6731      2.00000
    232       1.6968      2.00000
    233       1.6968      2.00000
    234       2.3498      2.00000
    235       3.5593      0.00000
    236       3.5598      0.00000
    237       3.6382      0.00000
    238       3.6382      0.00000
    239       3.7796      0.00000
    240       3.7800      0.00000
    241       3.8652      0.00000
    242       3.8836      0.00000
    243       3.8853      0.00000
    244       3.9402      0.00000
    245       3.9832      0.00000
    246       3.9835      0.00000
    247       4.0205      0.00000
    248       4.0205      0.00000
    249       4.0362      0.00000
    250       4.0386      0.00000
    251       4.1699      0.00000
    252       4.1708      0.00000
    253       4.1908      0.00000
    254       4.2263      0.00000
    255       4.2270      0.00000
    256       4.2396      0.00000
    257       4.2806      0.00000
    258       4.3522      0.00000
    259       4.3524      0.00000
    260       4.4217      0.00000
    261       4.4422      0.00000
    262       4.4423      0.00000
    263       4.4971      0.00000
    264       4.5091      0.00000
    265       4.5830      0.00000
    266       4.6283      0.00000
    267       4.6624      0.00000
    268       4.7117      0.00000
    269       4.7411      0.00000
    270       4.7441      0.00000
    271       4.8098      0.00000
    272       4.8100      0.00000
    273       4.8149      0.00000
    274       4.8436      0.00000
    275       4.8454      0.00000
    276       4.9059      0.00000
    277       4.9075      0.00000
    278       5.1191      0.00000
    279       5.1417      0.00000
    280       5.1420      0.00000
    281       5.1758      0.00000
    282       5.1759      0.00000
    283       5.1834      0.00000
    284       5.1846      0.00000
    285       5.3375      0.00000
    286       5.3949      0.00000

 k-point     3 :       0.2000    0.2000    0.0000
  band No.  band energies     occupation 
      1     -59.0884      2.00000
      2     -59.0701      2.00000
      3     -59.0657      2.00000
      4     -59.0657      2.00000
      5     -59.0594      2.00000
      6     -59.0592      2.00000
      7     -59.0573      2.00000
      8     -59.0501      2.00000
      9     -59.0500      2.00000
     10     -59.0157      2.00000
     11     -58.9973      2.00000
     12     -58.9930      2.00000
     13     -58.9929      2.00000
     14     -58.9866      2.00000
     15     -58.9866      2.00000
     16     -58.9846      2.00000
     17     -58.9774      2.00000
     18     -58.9774      2.00000
     19     -33.3615      2.00000
     20     -33.3350      2.00000
     21     -33.3344      2.00000
     22     -33.3277      2.00000
     23     -33.3270      2.00000
     24     -33.2885      2.00000
     25     -33.2739      2.00000
     26     -33.2734      2.00000
     27     -33.2616      2.00000
     28     -33.2616      2.00000
     29     -33.2543      2.00000
     30     -33.2543      2.00000
     31     -33.2359      2.00000
     32     -33.2338      2.00000
     33     -33.2335      2.00000
     34     -33.2240      2.00000
     35     -33.2005      2.00000
     36     -33.2005      2.00000
     37     -33.1870      2.00000
     38     -33.1783      2.00000
     39     -33.1782      2.00000
     40     -33.1654      2.00000
     41     -33.1653      2.00000
     42     -33.1629      2.00000
     43     -33.1613      2.00000
     44     -33.1606      2.00000
     45     -33.1606      2.00000
     46     -33.1515      2.00000
     47     -33.1468      2.00000
     48     -33.1467      2.00000
     49     -33.1146      2.00000
     50     -33.1127      2.00000
     51     -33.1123      2.00000
     52     -33.1096      2.00000
     53     -33.1058      2.00000
     54     -33.1058      2.00000
     55     -33.0963      2.00000
     56     -33.0959      2.00000
     57     -33.0929      2.00000
     58     -33.0929      2.00000
     59     -33.0888      2.00000
     60     -33.0803      2.00000
     61     -33.0743      2.00000
     62     -33.0743      2.00000
     63     -33.0499      2.00000
     64     -33.0395      2.00000
     65     -33.0395      2.00000
     66     -33.0375      2.00000
     67     -33.0366      2.00000
     68     -33.0231      2.00000
     69     -33.0231      2.00000
     70     -33.0072      2.00000
     71     -32.9769      2.00000
     72     -32.9645      2.00000
     73     -12.3266      2.00000
     74     -12.1236      2.00000
     75     -11.4755      2.00000
     76     -11.2901      2.00000
     77     -11.2457      2.00000
     78     -11.2437      2.00000
     79     -11.0692      2.00000
     80     -11.0682      2.00000
     81     -11.0635      2.00000
     82     -10.8756      2.00000
     83     -10.8733      2.00000
     84     -10.7759      2.00000
     85     -10.7433      2.00000
     86     -10.7217      2.00000
     87     -10.7209      2.00000
     88     -10.6852      2.00000
     89     -10.6027      2.00000
     90     -10.5830      2.00000
     91     -10.5826      2.00000
     92     -10.4754      2.00000
     93     -10.4222      2.00000
     94     -10.4215      2.00000
     95     -10.3971      2.00000
     96     -10.3961      2.00000
     97     -10.3694      2.00000
     98     -10.2814      2.00000
     99     -10.2781      2.00000
    100     -10.2779      2.00000
    101     -10.2767      2.00000
    102     -10.2440      2.00000
    103     -10.1941      2.00000
    104     -10.1940      2.00000
    105     -10.1372      2.00000
    106     -10.1361      2.00000
    107     -10.0615      2.00000
    108     -10.0614      2.00000
    109      -4.0841      2.00000
    110      -3.8412      2.00000
    111      -3.6890      2.00000
    112      -3.6808      2.00000
    113      -3.6800      2.00000
    114      -3.5460      2.00000
    115      -3.5448      2.00000
    116      -3.4912      2.00000
    117      -3.4909      2.00000
    118      -3.4847      2.00000
    119      -3.4828      2.00000
    120      -3.4819      2.00000
    121      -3.4818      2.00000
    122      -3.4815      2.00000
    123      -3.4448      2.00000
    124      -3.1611      2.00000
    125      -3.1601      2.00000
    126      -3.1583      2.00000
    127      -3.1581      2.00000
    128      -3.0459      2.00000
    129      -3.0280      2.00000
    130      -3.0277      2.00000
    131      -2.8604      2.00000
    132      -2.7220      2.00000
    133      -2.7217      2.00000
    134      -2.6648      2.00000
    135      -2.5426      2.00000
    136      -2.5419      2.00000
    137      -2.3525      2.00000
    138      -2.3515      2.00000
    139      -2.2711      2.00000
    140      -2.2002      2.00000
    141      -2.1946      2.00000
    142      -2.1942      2.00000
    143      -2.1806      2.00000
    144      -2.1796      2.00000
    145      -2.1667      2.00000
    146      -2.1661      2.00000
    147      -2.0785      2.00000
    148      -2.0369      2.00000
    149      -2.0367      2.00000
    150      -2.0313      2.00000
    151      -1.9824      2.00000
    152      -1.9819      2.00000
    153      -1.9635      2.00000
    154      -1.9632      2.00000
    155      -1.9246      2.00000
    156      -1.8721      2.00000
    157      -1.8718      2.00000
    158      -1.6876      2.00000
    159      -1.6867      2.00000
    160      -1.6749      2.00000
    161      -1.4833      2.00000
    162      -1.4823      2.00000
    163      -1.3256      2.00000
    164      -1.3250      2.00000
    165      -1.3187      2.00000
    166      -1.2253      2.00000
    167      -1.2222      2.00000
    168      -1.2212      2.00000
    169      -1.2159      2.00000
    170      -1.2156      2.00000
    171      -1.1591      2.00000
    172      -1.1578      2.00000
    173      -1.0640      2.00000
    174      -1.0636      2.00000
    175      -1.0429      2.00000
    176      -1.0425      2.00000
    177      -1.0385      2.00000
    178      -0.9625      2.00000
    179      -0.8400      2.00000
    180      -0.8223      2.00000
    181      -0.7490      2.00000
    182      -0.7467      2.00000
    183      -0.6995      2.00000
    184      -0.2473      2.00000
    185      -0.2457      2.00000
    186      -0.1346      2.00000
    187      -0.0960      2.00000
    188      -0.0957      2.00000
    189      -0.0800      2.00000
    190       0.0070      2.00000
    191       0.0337      2.00000
    192       0.0350      2.00000
    193       0.0416      2.00000
    194       0.0432      2.00000
    195       0.0970      2.00000
    196       0.1095      2.00000
    197       0.1337      2.00000
    198       0.1339      2.00000
    199       0.1894      2.00000
    200       0.1982      2.00000
    201       0.1999      2.00000
    202       0.2422      2.00000
    203       0.2445      2.00000
    204       0.2916      2.00000
    205       0.2920      2.00000
    206       0.2965      2.00000
    207       0.2985      2.00000
    208       0.3894      2.00000
    209       0.3898      2.00000
    210       0.4018      2.00000
    211       0.5644      2.00000
    212       0.6200      2.00000
    213       0.6204      2.00000
    214       0.6740      2.00000
    215       0.6972      2.00000
    216       0.8967      2.00000
    217       0.9054      2.00000
    218       0.9059      2.00000
    219       0.9091      2.00000
    220       0.9610      2.00000
    221       0.9631      2.00000
    222       0.9877      2.00000
    223       1.0036      2.00000
    224       1.0037      2.00000
    225       1.0529      2.00000
    226       1.0540      2.00000
    227       1.0540      2.00000
    228       1.1095      2.00000
    229       1.6091      2.00000
    230       1.6097      2.00000
    231       1.6731      2.00000
    232       1.6967      2.00000
    233       1.6968      2.00000
    234       2.3499      2.00000
    235       3.5594      0.00000
    236       3.5596      0.00000
    237       3.6382      0.00000
    238       3.6382      0.00000
    239       3.7798      0.00000
    240       3.7804      0.00000
    241       3.8651      0.00000
    242       3.8836      0.00000
    243       3.8850      0.00000
    244       3.9404      0.00000
    245       3.9832      0.00000
    246       3.9837      0.00000
    247       4.0205      0.00000
    248       4.0205      0.00000
    249       4.0361      0.00000
    250       4.0386      0.00000
    251       4.1696      0.00000
    252       4.1706      0.00000
    253       4.1907      0.00000
    254       4.2265      0.00000
    255       4.2272      0.00000
    256       4.2395      0.00000
    257       4.2807      0.00000
    258       4.3520      0.00000
    259       4.3523      0.00000
    260       4.4199      0.00000
    261       4.4423      0.00000
    262       4.4424      0.00000
    263       4.4971      0.00000
    264       4.5091      0.00000
    265       4.5842      0.00000
    266       4.6288      0.00000
    267       4.6624      0.00000
    268       4.7117      0.00000
    269       4.7410      0.00000
    270       4.7437      0.00000
    271       4.8097      0.00000
    272       4.8100      0.00000
    273       4.8150      0.00000
    274       4.8438      0.00000
    275       4.8457      0.00000
    276       4.9062      0.00000
    277       4.9071      0.00000
    278       5.1184      0.00000
    279       5.1412      0.00000
    280       5.1424      0.00000
    281       5.1757      0.00000
    282       5.1759      0.00000
    283       5.1834      0.00000
    284       5.1859      0.00000
    285       5.3416      0.00000
    286       5.3725      0.00000

 k-point     4 :       0.0000    0.2000    0.0000
  band No.  band energies     occupation 
      1     -59.0884      2.00000
      2     -59.0701      2.00000
      3     -59.0657      2.00000
      4     -59.0656      2.00000
      5     -59.0594      2.00000
      6     -59.0593      2.00000
      7     -59.0573      2.00000
      8     -59.0501      2.00000
      9     -59.0500      2.00000
     10     -59.0157      2.00000
     11     -58.9973      2.00000
     12     -58.9930      2.00000
     13     -58.9929      2.00000
     14     -58.9866      2.00000
     15     -58.9866      2.00000
     16     -58.9846      2.00000
     17     -58.9774      2.00000
     18     -58.9774      2.00000
     19     -33.3616      2.00000
     20     -33.3350      2.00000
     21     -33.3344      2.00000
     22     -33.3277      2.00000
     23     -33.3270      2.00000
     24     -33.2885      2.00000
     25     -33.2738      2.00000
     26     -33.2734      2.00000
     27     -33.2616      2.00000
     28     -33.2616      2.00000
     29     -33.2543      2.00000
     30     -33.2543      2.00000
     31     -33.2360      2.00000
     32     -33.2338      2.00000
     33     -33.2336      2.00000
     34     -33.2240      2.00000
     35     -33.2005      2.00000
     36     -33.2005      2.00000
     37     -33.1870      2.00000
     38     -33.1783      2.00000
     39     -33.1782      2.00000
     40     -33.1654      2.00000
     41     -33.1653      2.00000
     42     -33.1629      2.00000
     43     -33.1613      2.00000
     44     -33.1606      2.00000
     45     -33.1606      2.00000
     46     -33.1515      2.00000
     47     -33.1468      2.00000
     48     -33.1467      2.00000
     49     -33.1146      2.00000
     50     -33.1127      2.00000
     51     -33.1123      2.00000
     52     -33.1096      2.00000
     53     -33.1058      2.00000
     54     -33.1058      2.00000
     55     -33.0963      2.00000
     56     -33.0959      2.00000
     57     -33.0929      2.00000
     58     -33.0929      2.00000
     59     -33.0888      2.00000
     60     -33.0803      2.00000
     61     -33.0743      2.00000
     62     -33.0743      2.00000
     63     -33.0499      2.00000
     64     -33.0395      2.00000
     65     -33.0395      2.00000
     66     -33.0375      2.00000
     67     -33.0366      2.00000
     68     -33.0231      2.00000
     69     -33.0231      2.00000
     70     -33.0072      2.00000
     71     -32.9769      2.00000
     72     -32.9645      2.00000
     73     -12.3266      2.00000
     74     -12.1236      2.00000
     75     -11.4755      2.00000
     76     -11.2901      2.00000
     77     -11.2460      2.00000
     78     -11.2436      2.00000
     79     -11.0692      2.00000
     80     -11.0682      2.00000
     81     -11.0635      2.00000
     82     -10.8758      2.00000
     83     -10.8732      2.00000
     84     -10.7759      2.00000
     85     -10.7432      2.00000
     86     -10.7217      2.00000
     87     -10.7209      2.00000
     88     -10.6852      2.00000
     89     -10.6027      2.00000
     90     -10.5830      2.00000
     91     -10.5825      2.00000
     92     -10.4754      2.00000
     93     -10.4222      2.00000
     94     -10.4215      2.00000
     95     -10.3970      2.00000
     96     -10.3961      2.00000
     97     -10.3695      2.00000
     98     -10.2813      2.00000
     99     -10.2781      2.00000
    100     -10.2779      2.00000
    101     -10.2767      2.00000
    102     -10.2440      2.00000
    103     -10.1941      2.00000
    104     -10.1940      2.00000
    105     -10.1372      2.00000
    106     -10.1361      2.00000
    107     -10.0615      2.00000
    108     -10.0614      2.00000
    109      -4.0841      2.00000
    110      -3.8412      2.00000
    111      -3.6890      2.00000
    112      -3.6808      2.00000
    113      -3.6800      2.00000
    114      -3.5460      2.00000
    115      -3.5448      2.00000
    116      -3.4912      2.00000
    117      -3.4908      2.00000
    118      -3.4847      2.00000
    119      -3.4827      2.00000
    120      -3.4819      2.00000
    121      -3.4818      2.00000
    122      -3.4815      2.00000
    123      -3.4448      2.00000
    124      -3.1614      2.00000
    125      -3.1596      2.00000
    126      -3.1584      2.00000
    127      -3.1582      2.00000
    128      -3.0458      2.00000
    129      -3.0281      2.00000
    130      -3.0276      2.00000
    131      -2.8602      2.00000
    132      -2.7220      2.00000
    133      -2.7216      2.00000
    134      -2.6648      2.00000
    135      -2.5425      2.00000
    136      -2.5419      2.00000
    137      -2.3525      2.00000
    138      -2.3515      2.00000
    139      -2.2709      2.00000
    140      -2.2001      2.00000
    141      -2.1948      2.00000
    142      -2.1942      2.00000
    143      -2.1806      2.00000
    144      -2.1797      2.00000
    145      -2.1669      2.00000
    146      -2.1661      2.00000
    147      -2.0785      2.00000
    148      -2.0369      2.00000
    149      -2.0367      2.00000
    150      -2.0312      2.00000
    151      -1.9826      2.00000
    152      -1.9818      2.00000
    153      -1.9636      2.00000
    154      -1.9631      2.00000
    155      -1.9247      2.00000
    156      -1.8723      2.00000
    157      -1.8718      2.00000
    158      -1.6875      2.00000
    159      -1.6865      2.00000
    160      -1.6749      2.00000
    161      -1.4834      2.00000
    162      -1.4824      2.00000
    163      -1.3263      2.00000
    164      -1.3248      2.00000
    165      -1.3184      2.00000
    166      -1.2252      2.00000
    167      -1.2223      2.00000
    168      -1.2213      2.00000
    169      -1.2161      2.00000
    170      -1.2155      2.00000
    171      -1.1594      2.00000
    172      -1.1576      2.00000
    173      -1.0641      2.00000
    174      -1.0635      2.00000
    175      -1.0429      2.00000
    176      -1.0424      2.00000
    177      -1.0384      2.00000
    178      -0.9625      2.00000
    179      -0.8395      2.00000
    180      -0.8226      2.00000
    181      -0.7490      2.00000
    182      -0.7467      2.00000
    183      -0.6996      2.00000
    184      -0.2472      2.00000
    185      -0.2457      2.00000
    186      -0.1347      2.00000
    187      -0.0960      2.00000
    188      -0.0957      2.00000
    189      -0.0804      2.00000
    190       0.0069      2.00000
    191       0.0338      2.00000
    192       0.0353      2.00000
    193       0.0415      2.00000
    194       0.0432      2.00000
    195       0.0970      2.00000
    196       0.1103      2.00000
    197       0.1335      2.00000
    198       0.1340      2.00000
    199       0.1894      2.00000
    200       0.1982      2.00000
    201       0.2002      2.00000
    202       0.2423      2.00000
    203       0.2442      2.00000
    204       0.2916      2.00000
    205       0.2920      2.00000
    206       0.2965      2.00000
    207       0.2983      2.00000
    208       0.3895      2.00000
    209       0.3898      2.00000
    210       0.4015      2.00000
    211       0.5645      2.00000
    212       0.6201      2.00000
    213       0.6204      2.00000
    214       0.6740      2.00000
    215       0.6972      2.00000
    216       0.8967      2.00000
    217       0.9054      2.00000
    218       0.9065      2.00000
    219       0.9089      2.00000
    220       0.9610      2.00000
    221       0.9629      2.00000
    222       0.9873      2.00000
    223       1.0036      2.00000
    224       1.0038      2.00000
    225       1.0527      2.00000
    226       1.0540      2.00000
    227       1.0541      2.00000
    228       1.1093      2.00000
    229       1.6091      2.00000
    230       1.6097      2.00000
    231       1.6731      2.00000
    232       1.6967      2.00000
    233       1.6968      2.00000
    234       2.3499      2.00000
    235       3.5593      0.00000
    236       3.5598      0.00000
    237       3.6382      0.00000
    238       3.6382      0.00000
    239       3.7796      0.00000
    240       3.7803      0.00000
    241       3.8652      0.00000
    242       3.8836      0.00000
    243       3.8851      0.00000
    244       3.9403      0.00000
    245       3.9832      0.00000
    246       3.9836      0.00000
    247       4.0205      0.00000
    248       4.0206      0.00000
    249       4.0362      0.00000
    250       4.0386      0.00000
    251       4.1697      0.00000
    252       4.1707      0.00000
    253       4.1908      0.00000
    254       4.2263      0.00000
    255       4.2271      0.00000
    256       4.2395      0.00000
    257       4.2806      0.00000
    258       4.3521      0.00000
    259       4.3524      0.00000
    260       4.4208      0.00000
    261       4.4423      0.00000
    262       4.4423      0.00000
    263       4.4971      0.00000
    264       4.5091      0.00000
    265       4.5836      0.00000
    266       4.6286      0.00000
    267       4.6624      0.00000
    268       4.7117      0.00000
    269       4.7410      0.00000
    270       4.7439      0.00000
    271       4.8097      0.00000
    272       4.8101      0.00000
    273       4.8149      0.00000
    274       4.8437      0.00000
    275       4.8456      0.00000
    276       4.9060      0.00000
    277       4.9073      0.00000
    278       5.1187      0.00000
    279       5.1414      0.00000
    280       5.1422      0.00000
    281       5.1757      0.00000
    282       5.1759      0.00000
    283       5.1834      0.00000
    284       5.1853      0.00000
    285       5.3393      0.00000
    286       5.3838      0.00000

 k-point     5 :       0.4000    0.0000    0.0000
  band No.  band energies     occupation 
      1     -59.0840      2.00000
      2     -59.0775      2.00000
      3     -59.0673      2.00000
      4     -59.0672      2.00000
      5     -59.0556      2.00000
      6     -59.0556      2.00000
      7     -59.0542      2.00000
      8     -59.0523      2.00000
      9     -59.0522      2.00000
     10     -59.0113      2.00000
     11     -59.0048      2.00000
     12     -58.9945      2.00000
     13     -58.9945      2.00000
     14     -58.9828      2.00000
     15     -58.9828      2.00000
     16     -58.9815      2.00000
     17     -58.9796      2.00000
     18     -58.9796      2.00000
     19     -33.3914      2.00000
     20     -33.3496      2.00000
     21     -33.3490      2.00000
     22     -33.3469      2.00000
     23     -33.3463      2.00000
     24     -33.3183      2.00000
     25     -33.2762      2.00000
     26     -33.2762      2.00000
     27     -33.2735      2.00000
     28     -33.2735      2.00000
     29     -33.2490      2.00000
     30     -33.2486      2.00000
     31     -33.2152      2.00000
     32     -33.2021      2.00000
     33     -33.1871      2.00000
     34     -33.1868      2.00000
     35     -33.1814      2.00000
     36     -33.1813      2.00000
     37     -33.1758      2.00000
     38     -33.1757      2.00000
     39     -33.1611      2.00000
     40     -33.1579      2.00000
     41     -33.1578      2.00000
     42     -33.1551      2.00000
     43     -33.1513      2.00000
     44     -33.1512      2.00000
     45     -33.1441      2.00000
     46     -33.1438      2.00000
     47     -33.1427      2.00000
     48     -33.1296      2.00000
     49     -33.1167      2.00000
     50     -33.1139      2.00000
     51     -33.1139      2.00000
     52     -33.1089      2.00000
     53     -33.1089      2.00000
     54     -33.1027      2.00000
     55     -33.1023      2.00000
     56     -33.0951      2.00000
     57     -33.0880      2.00000
     58     -33.0854      2.00000
     59     -33.0853      2.00000
     60     -33.0826      2.00000
     61     -33.0788      2.00000
     62     -33.0788      2.00000
     63     -33.0709      2.00000
     64     -33.0709      2.00000
     65     -33.0629      2.00000
     66     -33.0478      2.00000
     67     -33.0436      2.00000
     68     -33.0294      2.00000
     69     -33.0294      2.00000
     70     -33.0220      2.00000
     71     -32.9899      2.00000
     72     -32.9748      2.00000
     73     -12.1370      2.00000
     74     -11.9362      2.00000
     75     -11.8423      2.00000
     76     -11.6465      2.00000
     77     -11.3306      2.00000
     78     -11.3284      2.00000
     79     -11.1497      2.00000
     80     -11.1486      2.00000
     81     -10.9789      2.00000
     82     -10.8476      2.00000
     83     -10.7075      2.00000
     84     -10.6443      2.00000
     85     -10.6415      2.00000
     86     -10.6178      2.00000
     87     -10.6176      2.00000
     88     -10.6025      2.00000
     89     -10.5332      2.00000
     90     -10.5095      2.00000
     91     -10.5088      2.00000
     92     -10.4326      2.00000
     93     -10.4293      2.00000
     94     -10.4220      2.00000
     95     -10.4215      2.00000
     96     -10.4190      2.00000
     97     -10.3216      2.00000
     98     -10.3211      2.00000
     99     -10.3140      2.00000
    100     -10.3134      2.00000
    101     -10.2846      2.00000
    102     -10.2105      2.00000
    103     -10.2095      2.00000
    104     -10.1985      2.00000
    105     -10.1979      2.00000
    106     -10.1874      2.00000
    107     -10.1207      2.00000
    108     -10.1202      2.00000
    109      -4.0136      2.00000
    110      -3.8890      2.00000
    111      -3.8831      2.00000
    112      -3.6661      2.00000
    113      -3.6656      2.00000
    114      -3.6275      2.00000
    115      -3.5146      2.00000
    116      -3.5138      2.00000
    117      -3.4997      2.00000
    118      -3.4994      2.00000
    119      -3.4030      2.00000
    120      -3.4012      2.00000
    121      -3.3498      2.00000
    122      -3.3495      2.00000
    123      -3.2781      2.00000
    124      -3.2772      2.00000
    125      -3.2506      2.00000
    126      -3.2029      2.00000
    127      -3.2029      2.00000
    128      -3.0435      2.00000
    129      -3.0340      2.00000
    130      -3.0036      2.00000
    131      -3.0032      2.00000
    132      -2.9696      2.00000
    133      -2.9690      2.00000
    134      -2.8697      2.00000
    135      -2.8660      2.00000
    136      -2.8656      2.00000
    137      -2.3618      2.00000
    138      -2.1909      2.00000
    139      -2.1903      2.00000
    140      -2.1884      2.00000
    141      -2.1879      2.00000
    142      -2.1590      2.00000
    143      -2.1578      2.00000
    144      -2.1234      2.00000
    145      -2.0731      2.00000
    146      -2.0715      2.00000
    147      -1.9601      2.00000
    148      -1.9590      2.00000
    149      -1.9342      2.00000
    150      -1.9332      2.00000
    151      -1.9195      2.00000
    152      -1.9183      2.00000
    153      -1.8513      2.00000
    154      -1.7903      2.00000
    155      -1.7892      2.00000
    156      -1.7768      2.00000
    157      -1.5523      2.00000
    158      -1.4934      2.00000
    159      -1.4924      2.00000
    160      -1.4512      2.00000
    161      -1.4505      2.00000
    162      -1.4210      2.00000
    163      -1.4134      2.00000
    164      -1.4064      2.00000
    165      -1.4057      2.00000
    166      -1.3359      2.00000
    167      -1.3272      2.00000
    168      -1.2929      2.00000
    169      -1.2918      2.00000
    170      -1.2313      2.00000
    171      -1.2303      2.00000
    172      -1.1570      2.00000
    173      -1.1559      2.00000
    174      -1.1505      2.00000
    175      -1.1123      2.00000
    176      -1.0166      2.00000
    177      -1.0158      2.00000
    178      -0.8067      2.00000
    179      -0.8060      2.00000
    180      -0.6291      2.00000
    181      -0.5990      2.00000
    182      -0.5513      2.00000
    183      -0.5069      2.00000
    184      -0.4195      2.00000
    185      -0.3354      2.00000
    186      -0.3346      2.00000
    187      -0.3293      2.00000
    188      -0.2515      2.00000
    189      -0.2117      2.00000
    190      -0.2091      2.00000
    191      -0.2043      2.00000
    192      -0.1696      2.00000
    193      -0.1691      2.00000
    194      -0.1591      2.00000
    195      -0.1170      2.00000
    196      -0.1166      2.00000
    197      -0.0779      2.00000
    198      -0.0328      2.00000
    199      -0.0317      2.00000
    200       0.0872      2.00000
    201       0.0885      2.00000
    202       0.1185      2.00000
    203       0.1186      2.00000
    204       0.1567      2.00000
    205       0.2924      2.00000
    206       0.2925      2.00000
    207       0.4582      2.00000
    208       0.5285      2.00000
    209       0.6202      2.00000
    210       0.6212      2.00000
    211       0.6848      2.00000
    212       0.8351      2.00000
    213       0.8498      2.00000
    214       0.8499      2.00000
    215       0.9258      2.00000
    216       0.9784      2.00000
    217       0.9790      2.00000
    218       1.0334      2.00000
    219       1.0599      2.00000
    220       1.0599      2.00000
    221       1.0965      2.00000
    222       1.1609      2.00000
    223       1.1616      2.00000
    224       1.2165      2.00000
    225       1.2502      2.00000
    226       1.2503      2.00000
    227       1.3340      2.00000
    228       1.3655      2.00000
    229       1.3657      2.00000
    230       1.4570      2.00000
    231       1.4571      2.00000
    232       1.5222      2.00000
    233       1.5795      2.00000
    234       2.0064      2.00000
    235       3.6354      0.00000
    236       3.6359      0.00000
    237       3.8286      0.00000
    238       3.8298      0.00000
    239       3.9029      0.00000
    240       3.9048      0.00000
    241       3.9264      0.00000
    242       3.9305      0.00000
    243       3.9308      0.00000
    244       3.9673      0.00000
    245       3.9674      0.00000
    246       3.9732      0.00000
    247       4.0550      0.00000
    248       4.1386      0.00000
    249       4.1390      0.00000
    250       4.2265      0.00000
    251       4.2319      0.00000
    252       4.2322      0.00000
    253       4.2373      0.00000
    254       4.2428      0.00000
    255       4.3057      0.00000
    256       4.3151      0.00000
    257       4.3163      0.00000
    258       4.3765      0.00000
    259       4.3894      0.00000
    260       4.3900      0.00000
    261       4.3915      0.00000
    262       4.4397      0.00000
    263       4.4439      0.00000
    264       4.4594      0.00000
    265       4.4997      0.00000
    266       4.5000      0.00000
    267       4.5159      0.00000
    268       4.5161      0.00000
    269       4.5905      0.00000
    270       4.6002      0.00000
    271       4.6175      0.00000
    272       4.6551      0.00000
    273       4.6562      0.00000
    274       4.7792      0.00000
    275       4.8522      0.00000
    276       4.8525      0.00000
    277       4.8586      0.00000
    278       4.8589      0.00000
    279       4.9087      0.00000
    280       5.0266      0.00000
    281       5.0350      0.00000
    282       5.0366      0.00000
    283       5.1276      0.00000
    284       5.1295      0.00000
    285       5.2273      0.00000
    286       5.2375      0.00000

 k-point     6 :       0.4000    0.4000    0.0000
  band No.  band energies     occupation 
      1     -59.0840      2.00000
      2     -59.0775      2.00000
      3     -59.0673      2.00000
      4     -59.0672      2.00000
      5     -59.0557      2.00000
      6     -59.0555      2.00000
      7     -59.0542      2.00000
      8     -59.0523      2.00000
      9     -59.0522      2.00000
     10     -59.0113      2.00000
     11     -59.0048      2.00000
     12     -58.9945      2.00000
     13     -58.9945      2.00000
     14     -58.9828      2.00000
     15     -58.9828      2.00000
     16     -58.9815      2.00000
     17     -58.9796      2.00000
     18     -58.9796      2.00000
     19     -33.3913      2.00000
     20     -33.3496      2.00000
     21     -33.3490      2.00000
     22     -33.3469      2.00000
     23     -33.3463      2.00000
     24     -33.3183      2.00000
     25     -33.2762      2.00000
     26     -33.2762      2.00000
     27     -33.2735      2.00000
     28     -33.2735      2.00000
     29     -33.2491      2.00000
     30     -33.2486      2.00000
     31     -33.2152      2.00000
     32     -33.2021      2.00000
     33     -33.1871      2.00000
     34     -33.1867      2.00000
     35     -33.1814      2.00000
     36     -33.1813      2.00000
     37     -33.1758      2.00000
     38     -33.1757      2.00000
     39     -33.1610      2.00000
     40     -33.1579      2.00000
     41     -33.1578      2.00000
     42     -33.1551      2.00000
     43     -33.1513      2.00000
     44     -33.1512      2.00000
     45     -33.1441      2.00000
     46     -33.1437      2.00000
     47     -33.1427      2.00000
     48     -33.1296      2.00000
     49     -33.1167      2.00000
     50     -33.1139      2.00000
     51     -33.1139      2.00000
     52     -33.1089      2.00000
     53     -33.1089      2.00000
     54     -33.1026      2.00000
     55     -33.1022      2.00000
     56     -33.0950      2.00000
     57     -33.0880      2.00000
     58     -33.0854      2.00000
     59     -33.0853      2.00000
     60     -33.0826      2.00000
     61     -33.0788      2.00000
     62     -33.0788      2.00000
     63     -33.0709      2.00000
     64     -33.0709      2.00000
     65     -33.0629      2.00000
     66     -33.0478      2.00000
     67     -33.0436      2.00000
     68     -33.0294      2.00000
     69     -33.0294      2.00000
     70     -33.0220      2.00000
     71     -32.9899      2.00000
     72     -32.9748      2.00000
     73     -12.1371      2.00000
     74     -11.9362      2.00000
     75     -11.8424      2.00000
     76     -11.6466      2.00000
     77     -11.3304      2.00000
     78     -11.3285      2.00000
     79     -11.1496      2.00000
     80     -11.1487      2.00000
     81     -10.9789      2.00000
     82     -10.8476      2.00000
     83     -10.7075      2.00000
     84     -10.6442      2.00000
     85     -10.6415      2.00000
     86     -10.6180      2.00000
     87     -10.6176      2.00000
     88     -10.6025      2.00000
     89     -10.5335      2.00000
     90     -10.5095      2.00000
     91     -10.5089      2.00000
     92     -10.4325      2.00000
     93     -10.4293      2.00000
     94     -10.4222      2.00000
     95     -10.4214      2.00000
     96     -10.4190      2.00000
     97     -10.3216      2.00000
     98     -10.3211      2.00000
     99     -10.3142      2.00000
    100     -10.3134      2.00000
    101     -10.2842      2.00000
    102     -10.2106      2.00000
    103     -10.2095      2.00000
    104     -10.1986      2.00000
    105     -10.1979      2.00000
    106     -10.1873      2.00000
    107     -10.1207      2.00000
    108     -10.1202      2.00000
    109      -4.0135      2.00000
    110      -3.8888      2.00000
    111      -3.8832      2.00000
    112      -3.6663      2.00000
    113      -3.6655      2.00000
    114      -3.6276      2.00000
    115      -3.5147      2.00000
    116      -3.5139      2.00000
    117      -3.4997      2.00000
    118      -3.4995      2.00000
    119      -3.4029      2.00000
    120      -3.4013      2.00000
    121      -3.3498      2.00000
    122      -3.3496      2.00000
    123      -3.2779      2.00000
    124      -3.2775      2.00000
    125      -3.2507      2.00000
    126      -3.2029      2.00000
    127      -3.2029      2.00000
    128      -3.0440      2.00000
    129      -3.0341      2.00000
    130      -3.0036      2.00000
    131      -3.0031      2.00000
    132      -2.9696      2.00000
    133      -2.9692      2.00000
    134      -2.8697      2.00000
    135      -2.8660      2.00000
    136      -2.8656      2.00000
    137      -2.3624      2.00000
    138      -2.1902      2.00000
    139      -2.1898      2.00000
    140      -2.1887      2.00000
    141      -2.1875      2.00000
    142      -2.1582      2.00000
    143      -2.1579      2.00000
    144      -2.1234      2.00000
    145      -2.0731      2.00000
    146      -2.0714      2.00000
    147      -1.9598      2.00000
    148      -1.9592      2.00000
    149      -1.9340      2.00000
    150      -1.9333      2.00000
    151      -1.9192      2.00000
    152      -1.9181      2.00000
    153      -1.8516      2.00000
    154      -1.7900      2.00000
    155      -1.7892      2.00000
    156      -1.7768      2.00000
    157      -1.5518      2.00000
    158      -1.4928      2.00000
    159      -1.4922      2.00000
    160      -1.4511      2.00000
    161      -1.4500      2.00000
    162      -1.4217      2.00000
    163      -1.4139      2.00000
    164      -1.4063      2.00000
    165      -1.4058      2.00000
    166      -1.3359      2.00000
    167      -1.3273      2.00000
    168      -1.2924      2.00000
    169      -1.2921      2.00000
    170      -1.2310      2.00000
    171      -1.2306      2.00000
    172      -1.1568      2.00000
    173      -1.1563      2.00000
    174      -1.1502      2.00000
    175      -1.1118      2.00000
    176      -1.0168      2.00000
    177      -1.0160      2.00000
    178      -0.8068      2.00000
    179      -0.8060      2.00000
    180      -0.6288      2.00000
    181      -0.5985      2.00000
    182      -0.5513      2.00000
    183      -0.5081      2.00000
    184      -0.4196      2.00000
    185      -0.3358      2.00000
    186      -0.3349      2.00000
    187      -0.3291      2.00000
    188      -0.2515      2.00000
    189      -0.2118      2.00000
    190      -0.2091      2.00000
    191      -0.2041      2.00000
    192      -0.1698      2.00000
    193      -0.1692      2.00000
    194      -0.1605      2.00000
    195      -0.1169      2.00000
    196      -0.1166      2.00000
    197      -0.0780      2.00000
    198      -0.0332      2.00000
    199      -0.0318      2.00000
    200       0.0869      2.00000
    201       0.0882      2.00000
    202       0.1184      2.00000
    203       0.1185      2.00000
    204       0.1572      2.00000
    205       0.2922      2.00000
    206       0.2925      2.00000
    207       0.4581      2.00000
    208       0.5287      2.00000
    209       0.6197      2.00000
    210       0.6222      2.00000
    211       0.6847      2.00000
    212       0.8350      2.00000
    213       0.8497      2.00000
    214       0.8499      2.00000
    215       0.9258      2.00000
    216       0.9777      2.00000
    217       0.9780      2.00000
    218       1.0335      2.00000
    219       1.0598      2.00000
    220       1.0599      2.00000
    221       1.0971      2.00000
    222       1.1607      2.00000
    223       1.1621      2.00000
    224       1.2168      2.00000
    225       1.2502      2.00000
    226       1.2502      2.00000
    227       1.3344      2.00000
    228       1.3652      2.00000
    229       1.3660      2.00000
    230       1.4570      2.00000
    231       1.4570      2.00000
    232       1.5226      2.00000
    233       1.5796      2.00000
    234       2.0068      2.00000
    235       3.6356      0.00000
    236       3.6364      0.00000
    237       3.8287      0.00000
    238       3.8297      0.00000
    239       3.9029      0.00000
    240       3.9047      0.00000
    241       3.9264      0.00000
    242       3.9305      0.00000
    243       3.9310      0.00000
    244       3.9673      0.00000
    245       3.9674      0.00000
    246       3.9735      0.00000
    247       4.0551      0.00000
    248       4.1386      0.00000
    249       4.1389      0.00000
    250       4.2263      0.00000
    251       4.2314      0.00000
    252       4.2323      0.00000
    253       4.2376      0.00000
    254       4.2430      0.00000
    255       4.3050      0.00000
    256       4.3150      0.00000
    257       4.3153      0.00000
    258       4.3764      0.00000
    259       4.3895      0.00000
    260       4.3902      0.00000
    261       4.3914      0.00000
    262       4.4392      0.00000
    263       4.4439      0.00000
    264       4.4590      0.00000
    265       4.4994      0.00000
    266       4.5002      0.00000
    267       4.5160      0.00000
    268       4.5161      0.00000
    269       4.5905      0.00000
    270       4.5999      0.00000
    271       4.6173      0.00000
    272       4.6553      0.00000
    273       4.6564      0.00000
    274       4.7785      0.00000
    275       4.8523      0.00000
    276       4.8525      0.00000
    277       4.8580      0.00000
    278       4.8593      0.00000
    279       4.9099      0.00000
    280       5.0270      0.00000
    281       5.0356      0.00000
    282       5.0363      0.00000
    283       5.1280      0.00000
    284       5.1304      0.00000
    285       5.2274      0.00000
    286       5.2359      0.00000

 k-point     7 :       0.0000    0.4000    0.0000
  band No.  band energies     occupation 
      1     -59.0840      2.00000
      2     -59.0775      2.00000
      3     -59.0673      2.00000
      4     -59.0672      2.00000
      5     -59.0557      2.00000
      6     -59.0556      2.00000
      7     -59.0542      2.00000
      8     -59.0523      2.00000
      9     -59.0522      2.00000
     10     -59.0113      2.00000
     11     -59.0048      2.00000
     12     -58.9945      2.00000
     13     -58.9945      2.00000
     14     -58.9828      2.00000
     15     -58.9828      2.00000
     16     -58.9815      2.00000
     17     -58.9796      2.00000
     18     -58.9796      2.00000
     19     -33.3914      2.00000
     20     -33.3496      2.00000
     21     -33.3490      2.00000
     22     -33.3469      2.00000
     23     -33.3463      2.00000
     24     -33.3183      2.00000
     25     -33.2762      2.00000
     26     -33.2762      2.00000
     27     -33.2735      2.00000
     28     -33.2735      2.00000
     29     -33.2491      2.00000
     30     -33.2486      2.00000
     31     -33.2152      2.00000
     32     -33.2021      2.00000
     33     -33.1871      2.00000
     34     -33.1868      2.00000
     35     -33.1814      2.00000
     36     -33.1813      2.00000
     37     -33.1758      2.00000
     38     -33.1757      2.00000
     39     -33.1610      2.00000
     40     -33.1579      2.00000
     41     -33.1578      2.00000
     42     -33.1551      2.00000
     43     -33.1513      2.00000
     44     -33.1512      2.00000
     45     -33.1441      2.00000
     46     -33.1437      2.00000
     47     -33.1427      2.00000
     48     -33.1296      2.00000
     49     -33.1167      2.00000
     50     -33.1139      2.00000
     51     -33.1139      2.00000
     52     -33.1089      2.00000
     53     -33.1089      2.00000
     54     -33.1027      2.00000
     55     -33.1022      2.00000
     56     -33.0951      2.00000
     57     -33.0880      2.00000
     58     -33.0854      2.00000
     59     -33.0853      2.00000
     60     -33.0826      2.00000
     61     -33.0788      2.00000
     62     -33.0788      2.00000
     63     -33.0709      2.00000
     64     -33.0709      2.00000
     65     -33.0629      2.00000
     66     -33.0478      2.00000
     67     -33.0436      2.00000
     68     -33.0294      2.00000
     69     -33.0294      2.00000
     70     -33.0220      2.00000
     71     -32.9899      2.00000
     72     -32.9748      2.00000
     73     -12.1371      2.00000
     74     -11.9362      2.00000
     75     -11.8423      2.00000
     76     -11.6465      2.00000
     77     -11.3307      2.00000
     78     -11.3283      2.00000
     79     -11.1497      2.00000
     80     -11.1486      2.00000
     81     -10.9789      2.00000
     82     -10.8476      2.00000
     83     -10.7075      2.00000
     84     -10.6443      2.00000
     85     -10.6415      2.00000
     86     -10.6180      2.00000
     87     -10.6175      2.00000
     88     -10.6025      2.00000
     89     -10.5334      2.00000
     90     -10.5095      2.00000
     91     -10.5088      2.00000
     92     -10.4326      2.00000
     93     -10.4293      2.00000
     94     -10.4221      2.00000
     95     -10.4214      2.00000
     96     -10.4190      2.00000
     97     -10.3216      2.00000
     98     -10.3211      2.00000
     99     -10.3141      2.00000
    100     -10.3134      2.00000
    101     -10.2844      2.00000
    102     -10.2106      2.00000
    103     -10.2095      2.00000
    104     -10.1985      2.00000
    105     -10.1979      2.00000
    106     -10.1874      2.00000
    107     -10.1207      2.00000
    108     -10.1202      2.00000
    109      -4.0135      2.00000
    110      -3.8889      2.00000
    111      -3.8831      2.00000
    112      -3.6664      2.00000
    113      -3.6653      2.00000
    114      -3.6276      2.00000
    115      -3.5150      2.00000
    116      -3.5135      2.00000
    117      -3.4998      2.00000
    118      -3.4993      2.00000
    119      -3.4030      2.00000
    120      -3.4012      2.00000
    121      -3.3499      2.00000
    122      -3.3494      2.00000
    123      -3.2781      2.00000
    124      -3.2773      2.00000
    125      -3.2507      2.00000
    126      -3.2030      2.00000
    127      -3.2029      2.00000
    128      -3.0437      2.00000
    129      -3.0341      2.00000
    130      -3.0036      2.00000
    131      -3.0031      2.00000
    132      -2.9697      2.00000
    133      -2.9690      2.00000
    134      -2.8697      2.00000
    135      -2.8660      2.00000
    136      -2.8656      2.00000
    137      -2.3621      2.00000
    138      -2.1907      2.00000
    139      -2.1899      2.00000
    140      -2.1886      2.00000
    141      -2.1876      2.00000
    142      -2.1587      2.00000
    143      -2.1577      2.00000
    144      -2.1234      2.00000
    145      -2.0731      2.00000
    146      -2.0715      2.00000
    147      -1.9600      2.00000
    148      -1.9591      2.00000
    149      -1.9341      2.00000
    150      -1.9333      2.00000
    151      -1.9194      2.00000
    152      -1.9182      2.00000
    153      -1.8514      2.00000
    154      -1.7902      2.00000
    155      -1.7892      2.00000
    156      -1.7768      2.00000
    157      -1.5521      2.00000
    158      -1.4932      2.00000
    159      -1.4923      2.00000
    160      -1.4512      2.00000
    161      -1.4501      2.00000
    162      -1.4214      2.00000
    163      -1.4137      2.00000
    164      -1.4064      2.00000
    165      -1.4057      2.00000
    166      -1.3359      2.00000
    167      -1.3273      2.00000
    168      -1.2927      2.00000
    169      -1.2919      2.00000
    170      -1.2313      2.00000
    171      -1.2303      2.00000
    172      -1.1569      2.00000
    173      -1.1561      2.00000
    174      -1.1504      2.00000
    175      -1.1121      2.00000
    176      -1.0169      2.00000
    177      -1.0157      2.00000
    178      -0.8069      2.00000
    179      -0.8058      2.00000
    180      -0.6289      2.00000
    181      -0.5987      2.00000
    182      -0.5513      2.00000
    183      -0.5075      2.00000
    184      -0.4195      2.00000
    185      -0.3360      2.00000
    186      -0.3344      2.00000
    187      -0.3292      2.00000
    188      -0.2515      2.00000
    189      -0.2118      2.00000
    190      -0.2090      2.00000
    191      -0.2042      2.00000
    192      -0.1699      2.00000
    193      -0.1690      2.00000
    194      -0.1598      2.00000
    195      -0.1170      2.00000
    196      -0.1166      2.00000
    197      -0.0779      2.00000
    198      -0.0330      2.00000
    199      -0.0317      2.00000
    200       0.0871      2.00000
    201       0.0884      2.00000
    202       0.1184      2.00000
    203       0.1186      2.00000
    204       0.1570      2.00000
    205       0.2923      2.00000
    206       0.2925      2.00000
    207       0.4581      2.00000
    208       0.5286      2.00000
    209       0.6200      2.00000
    210       0.6217      2.00000
    211       0.6847      2.00000
    212       0.8351      2.00000
    213       0.8497      2.00000
    214       0.8499      2.00000
    215       0.9258      2.00000
    216       0.9779      2.00000
    217       0.9787      2.00000
    218       1.0334      2.00000
    219       1.0598      2.00000
    220       1.0599      2.00000
    221       1.0968      2.00000
    222       1.1607      2.00000
    223       1.1619      2.00000
    224       1.2167      2.00000
    225       1.2502      2.00000
    226       1.2503      2.00000
    227       1.3342      2.00000
    228       1.3653      2.00000
    229       1.3660      2.00000
    230       1.4570      2.00000
    231       1.4571      2.00000
    232       1.5224      2.00000
    233       1.5796      2.00000
    234       2.0066      2.00000
    235       3.6354      0.00000
    236       3.6362      0.00000
    237       3.8287      0.00000
    238       3.8297      0.00000
    239       3.9029      0.00000
    240       3.9047      0.00000
    241       3.9264      0.00000
    242       3.9305      0.00000
    243       3.9309      0.00000
    244       3.9672      0.00000
    245       3.9674      0.00000
    246       3.9733      0.00000
    247       4.0551      0.00000
    248       4.1386      0.00000
    249       4.1390      0.00000
    250       4.2264      0.00000
    251       4.2316      0.00000
    252       4.2323      0.00000
    253       4.2375      0.00000
    254       4.2429      0.00000
    255       4.3054      0.00000
    256       4.3151      0.00000
    257       4.3158      0.00000
    258       4.3764      0.00000
    259       4.3894      0.00000
    260       4.3901      0.00000
    261       4.3914      0.00000
    262       4.4394      0.00000
    263       4.4439      0.00000
    264       4.4592      0.00000
    265       4.4996      0.00000
    266       4.4999      0.00000
    267       4.5159      0.00000
    268       4.5161      0.00000
    269       4.5905      0.00000
    270       4.6001      0.00000
    271       4.6174      0.00000
    272       4.6552      0.00000
    273       4.6564      0.00000
    274       4.7788      0.00000
    275       4.8522      0.00000
    276       4.8525      0.00000
    277       4.8582      0.00000
    278       4.8592      0.00000
    279       4.9093      0.00000
    280       5.0268      0.00000
    281       5.0351      0.00000
    282       5.0366      0.00000
    283       5.1277      0.00000
    284       5.1299      0.00000
    285       5.2273      0.00000
    286       5.2374      0.00000

 k-point     8 :       0.4000    0.2000    0.0000
  band No.  band energies     occupation 
      1     -59.0854      2.00000
      2     -59.0732      2.00000
      3     -59.0728      2.00000
      4     -59.0609      2.00000
      5     -59.0605      2.00000
      6     -59.0552      2.00000
      7     -59.0548      2.00000
      8     -59.0521      2.00000
      9     -59.0510      2.00000
     10     -59.0127      2.00000
     11     -59.0003      2.00000
     12     -59.0002      2.00000
     13     -58.9880      2.00000
     14     -58.9879      2.00000
     15     -58.9823      2.00000
     16     -58.9822      2.00000
     17     -58.9794      2.00000
     18     -58.9783      2.00000
     19     -33.3761      2.00000
     20     -33.3756      2.00000
     21     -33.3538      2.00000
     22     -33.3311      2.00000
     23     -33.3057      2.00000
     24     -33.3053      2.00000
     25     -33.3027      2.00000
     26     -33.3027      2.00000
     27     -33.2807      2.00000
     28     -33.2580      2.00000
     29     -33.2324      2.00000
     30     -33.2324      2.00000
     31     -33.2180      2.00000
     32     -33.2048      2.00000
     33     -33.2029      2.00000
     34     -33.2025      2.00000
     35     -33.1951      2.00000
     36     -33.1931      2.00000
     37     -33.1929      2.00000
     38     -33.1683      2.00000
     39     -33.1680      2.00000
     40     -33.1568      2.00000
     41     -33.1565      2.00000
     42     -33.1509      2.00000
     43     -33.1487      2.00000
     44     -33.1455      2.00000
     45     -33.1318      2.00000
     46     -33.1297      2.00000
     47     -33.1296      2.00000
     48     -33.1258      2.00000
     49     -33.1256      2.00000
     50     -33.1238      2.00000
     51     -33.1233      2.00000
     52     -33.1221      2.00000
     53     -33.1205      2.00000
     54     -33.1205      2.00000
     55     -33.0957      2.00000
     56     -33.0956      2.00000
     57     -33.0842      2.00000
     58     -33.0841      2.00000
     59     -33.0800      2.00000
     60     -33.0785      2.00000
     61     -33.0774      2.00000
     62     -33.0770      2.00000
     63     -33.0762      2.00000
     64     -33.0526      2.00000
     65     -33.0526      2.00000
     66     -33.0506      2.00000
     67     -33.0505      2.00000
     68     -33.0450      2.00000
     69     -33.0069      2.00000
     70     -33.0042      2.00000
     71     -33.0042      2.00000
     72     -32.9720      2.00000
     73     -12.1992      2.00000
     74     -11.9975      2.00000
     75     -11.6260      2.00000
     76     -11.6242      2.00000
     77     -11.4353      2.00000
     78     -11.4342      2.00000
     79     -11.0066      2.00000
     80     -10.9639      2.00000
     81     -10.9618      2.00000
     82     -10.8023      2.00000
     83     -10.8014      2.00000
     84     -10.7508      2.00000
     85     -10.7506      2.00000
     86     -10.7298      2.00000
     87     -10.5933      2.00000
     88     -10.5906      2.00000
     89     -10.5262      2.00000
     90     -10.5256      2.00000
     91     -10.4679      2.00000
     92     -10.4673      2.00000
     93     -10.4546      2.00000
     94     -10.4543      2.00000
     95     -10.4259      2.00000
     96     -10.3377      2.00000
     97     -10.3150      2.00000
     98     -10.3033      2.00000
     99     -10.3024      2.00000
    100     -10.2988      2.00000
    101     -10.2982      2.00000
    102     -10.2451      2.00000
    103     -10.2017      2.00000
    104     -10.1970      2.00000
    105     -10.1965      2.00000
    106     -10.1716      2.00000
    107     -10.1117      2.00000
    108     -10.0923      2.00000
    109      -3.9462      2.00000
    110      -3.8892      2.00000
    111      -3.8878      2.00000
    112      -3.7533      2.00000
    113      -3.7529      2.00000
    114      -3.5217      2.00000
    115      -3.5012      2.00000
    116      -3.4997      2.00000
    117      -3.4956      2.00000
    118      -3.4945      2.00000
    119      -3.4022      2.00000
    120      -3.3941      2.00000
    121      -3.3712      2.00000
    122      -3.3104      2.00000
    123      -3.3069      2.00000
    124      -3.3031      2.00000
    125      -3.2557      2.00000
    126      -3.2554      2.00000
    127      -3.2550      2.00000
    128      -3.1657      2.00000
    129      -3.0051      2.00000
    130      -3.0040      2.00000
    131      -2.9683      2.00000
    132      -2.9667      2.00000
    133      -2.8488      2.00000
    134      -2.8483      2.00000
    135      -2.5614      2.00000
    136      -2.5605      2.00000
    137      -2.4539      2.00000
    138      -2.4528      2.00000
    139      -2.3074      2.00000
    140      -2.3057      2.00000
    141      -2.2571      2.00000
    142      -2.0958      2.00000
    143      -2.0946      2.00000
    144      -2.0673      2.00000
    145      -2.0668      2.00000
    146      -2.0525      2.00000
    147      -2.0519      2.00000
    148      -2.0187      2.00000
    149      -1.9751      2.00000
    150      -1.9747      2.00000
    151      -1.9418      2.00000
    152      -1.9019      2.00000
    153      -1.9012      2.00000
    154      -1.8833      2.00000
    155      -1.7501      2.00000
    156      -1.7496      2.00000
    157      -1.5062      2.00000
    158      -1.5046      2.00000
    159      -1.4486      2.00000
    160      -1.4306      2.00000
    161      -1.4295      2.00000
    162      -1.4097      2.00000
    163      -1.4077      2.00000
    164      -1.3618      2.00000
    165      -1.3574      2.00000
    166      -1.3168      2.00000
    167      -1.3167      2.00000
    168      -1.2965      2.00000
    169      -1.2741      2.00000
    170      -1.2508      2.00000
    171      -1.2499      2.00000
    172      -1.2234      2.00000
    173      -1.2204      2.00000
    174      -1.1526      2.00000
    175      -1.0442      2.00000
    176      -0.9850      2.00000
    177      -0.8829      2.00000
    178      -0.8815      2.00000
    179      -0.8145      2.00000
    180      -0.7876      2.00000
    181      -0.7873      2.00000
    182      -0.6940      2.00000
    183      -0.6180      2.00000
    184      -0.4262      2.00000
    185      -0.2908      2.00000
    186      -0.2889      2.00000
    187      -0.1864      2.00000
    188      -0.1856      2.00000
    189      -0.1763      2.00000
    190      -0.1757      2.00000
    191      -0.1447      2.00000
    192      -0.1252      2.00000
    193      -0.1242      2.00000
    194      -0.1229      2.00000
    195      -0.1009      2.00000
    196      -0.1008      2.00000
    197      -0.0454      2.00000
    198      -0.0199      2.00000
    199      -0.0049      2.00000
    200       0.1302      2.00000
    201       0.1938      2.00000
    202       0.1943      2.00000
    203       0.3132      2.00000
    204       0.3141      2.00000
    205       0.3629      2.00000
    206       0.3651      2.00000
    207       0.4635      2.00000
    208       0.4639      2.00000
    209       0.5247      2.00000
    210       0.5274      2.00000
    211       0.5554      2.00000
    212       0.5594      2.00000
    213       0.5599      2.00000
    214       0.8935      2.00000
    215       0.8939      2.00000
    216       0.9805      2.00000
    217       0.9819      2.00000
    218       1.0454      2.00000
    219       1.0711      2.00000
    220       1.0713      2.00000
    221       1.1420      2.00000
    222       1.1433      2.00000
    223       1.1513      2.00000
    224       1.1533      2.00000
    225       1.2544      2.00000
    226       1.2545      2.00000
    227       1.2547      2.00000
    228       1.2551      2.00000
    229       1.3677      2.00000
    230       1.4547      2.00000
    231       1.4943      2.00000
    232       1.5932      2.00000
    233       1.6182      2.00000
    234       2.1213      2.00000
    235       3.7213      0.00000
    236       3.7220      0.00000
    237       3.7576      0.00000
    238       3.7701      0.00000
    239       3.7901      0.00000
    240       3.7919      0.00000
    241       3.8307      0.00000
    242       3.9297      0.00000
    243       3.9803      0.00000
    244       3.9812      0.00000
    245       4.0510      0.00000
    246       4.0517      0.00000
    247       4.0547      0.00000
    248       4.0552      0.00000
    249       4.0615      0.00000
    250       4.0616      0.00000
    251       4.2254      0.00000
    252       4.2263      0.00000
    253       4.2881      0.00000
    254       4.2888      0.00000
    255       4.2940      0.00000
    256       4.2945      0.00000
    257       4.2984      0.00000
    258       4.3441      0.00000
    259       4.3815      0.00000
    260       4.3818      0.00000
    261       4.3824      0.00000
    262       4.3876      0.00000
    263       4.3888      0.00000
    264       4.4770      0.00000
    265       4.4774      0.00000
    266       4.5346      0.00000
    267       4.5619      0.00000
    268       4.5621      0.00000
    269       4.5669      0.00000
    270       4.6614      0.00000
    271       4.6776      0.00000
    272       4.8014      0.00000
    273       4.8019      0.00000
    274       4.8282      0.00000
    275       4.8289      0.00000
    276       4.8384      0.00000
    277       4.8512      0.00000
    278       4.8621      0.00000
    279       4.9293      0.00000
    280       4.9553      0.00000
    281       5.0143      0.00000
    282       5.0868      0.00000
    283       5.1021      0.00000
    284       5.1032      0.00000
    285       5.1379      0.00000
    286       5.3019      0.00000

 k-point     9 :       0.2000    0.4000    0.0000
  band No.  band energies     occupation 
      1     -59.0854      2.00000
      2     -59.0732      2.00000
      3     -59.0728      2.00000
      4     -59.0609      2.00000
      5     -59.0605      2.00000
      6     -59.0552      2.00000
      7     -59.0548      2.00000
      8     -59.0521      2.00000
      9     -59.0510      2.00000
     10     -59.0127      2.00000
     11     -59.0003      2.00000
     12     -59.0002      2.00000
     13     -58.9880      2.00000
     14     -58.9879      2.00000
     15     -58.9823      2.00000
     16     -58.9822      2.00000
     17     -58.9794      2.00000
     18     -58.9783      2.00000
     19     -33.3760      2.00000
     20     -33.3756      2.00000
     21     -33.3538      2.00000
     22     -33.3311      2.00000
     23     -33.3058      2.00000
     24     -33.3053      2.00000
     25     -33.3027      2.00000
     26     -33.3027      2.00000
     27     -33.2807      2.00000
     28     -33.2580      2.00000
     29     -33.2324      2.00000
     30     -33.2324      2.00000
     31     -33.2180      2.00000
     32     -33.2049      2.00000
     33     -33.2028      2.00000
     34     -33.2025      2.00000
     35     -33.1951      2.00000
     36     -33.1932      2.00000
     37     -33.1928      2.00000
     38     -33.1684      2.00000
     39     -33.1679      2.00000
     40     -33.1568      2.00000
     41     -33.1564      2.00000
     42     -33.1509      2.00000
     43     -33.1487      2.00000
     44     -33.1455      2.00000
     45     -33.1318      2.00000
     46     -33.1297      2.00000
     47     -33.1296      2.00000
     48     -33.1258      2.00000
     49     -33.1256      2.00000
     50     -33.1238      2.00000
     51     -33.1233      2.00000
     52     -33.1221      2.00000
     53     -33.1205      2.00000
     54     -33.1205      2.00000
     55     -33.0957      2.00000
     56     -33.0957      2.00000
     57     -33.0842      2.00000
     58     -33.0841      2.00000
     59     -33.0799      2.00000
     60     -33.0785      2.00000
     61     -33.0774      2.00000
     62     -33.0771      2.00000
     63     -33.0762      2.00000
     64     -33.0526      2.00000
     65     -33.0526      2.00000
     66     -33.0506      2.00000
     67     -33.0505      2.00000
     68     -33.0450      2.00000
     69     -33.0069      2.00000
     70     -33.0042      2.00000
     71     -33.0042      2.00000
     72     -32.9720      2.00000
     73     -12.1992      2.00000
     74     -11.9975      2.00000
     75     -11.6261      2.00000
     76     -11.6241      2.00000
     77     -11.4353      2.00000
     78     -11.4342      2.00000
     79     -11.0066      2.00000
     80     -10.9639      2.00000
     81     -10.9617      2.00000
     82     -10.8022      2.00000
     83     -10.8014      2.00000
     84     -10.7509      2.00000
     85     -10.7505      2.00000
     86     -10.7298      2.00000
     87     -10.5934      2.00000
     88     -10.5905      2.00000
     89     -10.5263      2.00000
     90     -10.5255      2.00000
     91     -10.4679      2.00000
     92     -10.4673      2.00000
     93     -10.4548      2.00000
     94     -10.4542      2.00000
     95     -10.4259      2.00000
     96     -10.3376      2.00000
     97     -10.3150      2.00000
     98     -10.3031      2.00000
     99     -10.3024      2.00000
    100     -10.2989      2.00000
    101     -10.2982      2.00000
    102     -10.2451      2.00000
    103     -10.2016      2.00000
    104     -10.1970      2.00000
    105     -10.1965      2.00000
    106     -10.1717      2.00000
    107     -10.1116      2.00000
    108     -10.0923      2.00000
    109      -3.9462      2.00000
    110      -3.8894      2.00000
    111      -3.8876      2.00000
    112      -3.7533      2.00000
    113      -3.7528      2.00000
    114      -3.5217      2.00000
    115      -3.5012      2.00000
    116      -3.4996      2.00000
    117      -3.4957      2.00000
    118      -3.4945      2.00000
    119      -3.4023      2.00000
    120      -3.3939      2.00000
    121      -3.3712      2.00000
    122      -3.3104      2.00000
    123      -3.3069      2.00000
    124      -3.3033      2.00000
    125      -3.2559      2.00000
    126      -3.2554      2.00000
    127      -3.2549      2.00000
    128      -3.1657      2.00000
    129      -3.0054      2.00000
    130      -3.0040      2.00000
    131      -2.9683      2.00000
    132      -2.9667      2.00000
    133      -2.8488      2.00000
    134      -2.8483      2.00000
    135      -2.5613      2.00000
    136      -2.5604      2.00000
    137      -2.4538      2.00000
    138      -2.4529      2.00000
    139      -2.3077      2.00000
    140      -2.3057      2.00000
    141      -2.2568      2.00000
    142      -2.0956      2.00000
    143      -2.0943      2.00000
    144      -2.0674      2.00000
    145      -2.0667      2.00000
    146      -2.0524      2.00000
    147      -2.0520      2.00000
    148      -2.0187      2.00000
    149      -1.9750      2.00000
    150      -1.9747      2.00000
    151      -1.9420      2.00000
    152      -1.9017      2.00000
    153      -1.9012      2.00000
    154      -1.8831      2.00000
    155      -1.7501      2.00000
    156      -1.7495      2.00000
    157      -1.5060      2.00000
    158      -1.5046      2.00000
    159      -1.4486      2.00000
    160      -1.4303      2.00000
    161      -1.4296      2.00000
    162      -1.4099      2.00000
    163      -1.4076      2.00000
    164      -1.3618      2.00000
    165      -1.3574      2.00000
    166      -1.3168      2.00000
    167      -1.3167      2.00000
    168      -1.2967      2.00000
    169      -1.2742      2.00000
    170      -1.2507      2.00000
    171      -1.2500      2.00000
    172      -1.2234      2.00000
    173      -1.2204      2.00000
    174      -1.1526      2.00000
    175      -1.0442      2.00000
    176      -0.9847      2.00000
    177      -0.8834      2.00000
    178      -0.8814      2.00000
    179      -0.8145      2.00000
    180      -0.7877      2.00000
    181      -0.7873      2.00000
    182      -0.6938      2.00000
    183      -0.6180      2.00000
    184      -0.4259      2.00000
    185      -0.2911      2.00000
    186      -0.2888      2.00000
    187      -0.1864      2.00000
    188      -0.1856      2.00000
    189      -0.1764      2.00000
    190      -0.1757      2.00000
    191      -0.1449      2.00000
    192      -0.1259      2.00000
    193      -0.1244      2.00000
    194      -0.1227      2.00000
    195      -0.1009      2.00000
    196      -0.1008      2.00000
    197      -0.0454      2.00000
    198      -0.0198      2.00000
    199      -0.0050      2.00000
    200       0.1301      2.00000
    201       0.1940      2.00000
    202       0.1944      2.00000
    203       0.3132      2.00000
    204       0.3140      2.00000
    205       0.3628      2.00000
    206       0.3652      2.00000
    207       0.4634      2.00000
    208       0.4639      2.00000
    209       0.5245      2.00000
    210       0.5275      2.00000
    211       0.5555      2.00000
    212       0.5594      2.00000
    213       0.5597      2.00000
    214       0.8936      2.00000
    215       0.8939      2.00000
    216       0.9802      2.00000
    217       0.9818      2.00000
    218       1.0454      2.00000
    219       1.0711      2.00000
    220       1.0712      2.00000
    221       1.1419      2.00000
    222       1.1434      2.00000
    223       1.1516      2.00000
    224       1.1536      2.00000
    225       1.2545      2.00000
    226       1.2546      2.00000
    227       1.2547      2.00000
    228       1.2551      2.00000
    229       1.3677      2.00000
    230       1.4547      2.00000
    231       1.4943      2.00000
    232       1.5932      2.00000
    233       1.6183      2.00000
    234       2.1214      2.00000
    235       3.7215      0.00000
    236       3.7218      0.00000
    237       3.7575      0.00000
    238       3.7701      0.00000
    239       3.7902      0.00000
    240       3.7920      0.00000
    241       3.8307      0.00000
    242       3.9297      0.00000
    243       3.9804      0.00000
    244       3.9812      0.00000
    245       4.0509      0.00000
    246       4.0517      0.00000
    247       4.0546      0.00000
    248       4.0553      0.00000
    249       4.0615      0.00000
    250       4.0616      0.00000
    251       4.2254      0.00000
    252       4.2262      0.00000
    253       4.2881      0.00000
    254       4.2888      0.00000
    255       4.2939      0.00000
    256       4.2943      0.00000
    257       4.2978      0.00000
    258       4.3442      0.00000
    259       4.3814      0.00000
    260       4.3818      0.00000
    261       4.3824      0.00000
    262       4.3878      0.00000
    263       4.3888      0.00000
    264       4.4771      0.00000
    265       4.4773      0.00000
    266       4.5345      0.00000
    267       4.5620      0.00000
    268       4.5621      0.00000
    269       4.5667      0.00000
    270       4.6616      0.00000
    271       4.6775      0.00000
    272       4.8013      0.00000
    273       4.8019      0.00000
    274       4.8282      0.00000
    275       4.8286      0.00000
    276       4.8384      0.00000
    277       4.8518      0.00000
    278       4.8622      0.00000
    279       4.9294      0.00000
    280       4.9555      0.00000
    281       5.0142      0.00000
    282       5.0866      0.00000
    283       5.1023      0.00000
    284       5.1030      0.00000
    285       5.1381      0.00000
    286       5.3017      0.00000

 k-point    10 :      -0.2000    0.2000    0.0000
  band No.  band energies     occupation 
      1     -59.0854      2.00000
      2     -59.0732      2.00000
      3     -59.0728      2.00000
      4     -59.0609      2.00000
      5     -59.0604      2.00000
      6     -59.0552      2.00000
      7     -59.0548      2.00000
      8     -59.0521      2.00000
      9     -59.0510      2.00000
     10     -59.0127      2.00000
     11     -59.0003      2.00000
     12     -59.0002      2.00000
     13     -58.9880      2.00000
     14     -58.9879      2.00000
     15     -58.9823      2.00000
     16     -58.9822      2.00000
     17     -58.9794      2.00000
     18     -58.9783      2.00000
     19     -33.3761      2.00000
     20     -33.3756      2.00000
     21     -33.3538      2.00000
     22     -33.3311      2.00000
     23     -33.3057      2.00000
     24     -33.3052      2.00000
     25     -33.3028      2.00000
     26     -33.3027      2.00000
     27     -33.2807      2.00000
     28     -33.2580      2.00000
     29     -33.2324      2.00000
     30     -33.2324      2.00000
     31     -33.2180      2.00000
     32     -33.2048      2.00000
     33     -33.2029      2.00000
     34     -33.2025      2.00000
     35     -33.1952      2.00000
     36     -33.1931      2.00000
     37     -33.1929      2.00000
     38     -33.1683      2.00000
     39     -33.1680      2.00000
     40     -33.1567      2.00000
     41     -33.1565      2.00000
     42     -33.1509      2.00000
     43     -33.1487      2.00000
     44     -33.1455      2.00000
     45     -33.1318      2.00000
     46     -33.1297      2.00000
     47     -33.1296      2.00000
     48     -33.1259      2.00000
     49     -33.1256      2.00000
     50     -33.1238      2.00000
     51     -33.1233      2.00000
     52     -33.1221      2.00000
     53     -33.1206      2.00000
     54     -33.1205      2.00000
     55     -33.0957      2.00000
     56     -33.0956      2.00000
     57     -33.0842      2.00000
     58     -33.0841      2.00000
     59     -33.0800      2.00000
     60     -33.0785      2.00000
     61     -33.0774      2.00000
     62     -33.0770      2.00000
     63     -33.0762      2.00000
     64     -33.0527      2.00000
     65     -33.0526      2.00000
     66     -33.0506      2.00000
     67     -33.0505      2.00000
     68     -33.0449      2.00000
     69     -33.0069      2.00000
     70     -33.0042      2.00000
     71     -33.0042      2.00000
     72     -32.9720      2.00000
     73     -12.1992      2.00000
     74     -11.9975      2.00000
     75     -11.6261      2.00000
     76     -11.6242      2.00000
     77     -11.4353      2.00000
     78     -11.4342      2.00000
     79     -11.0066      2.00000
     80     -10.9641      2.00000
     81     -10.9617      2.00000
     82     -10.8023      2.00000
     83     -10.8014      2.00000
     84     -10.7510      2.00000
     85     -10.7505      2.00000
     86     -10.7298      2.00000
     87     -10.5931      2.00000
     88     -10.5906      2.00000
     89     -10.5263      2.00000
     90     -10.5256      2.00000
     91     -10.4678      2.00000
     92     -10.4673      2.00000
     93     -10.4545      2.00000
     94     -10.4542      2.00000
     95     -10.4258      2.00000
     96     -10.3378      2.00000
     97     -10.3150      2.00000
     98     -10.3034      2.00000
     99     -10.3024      2.00000
    100     -10.2987      2.00000
    101     -10.2982      2.00000
    102     -10.2451      2.00000
    103     -10.2018      2.00000
    104     -10.1971      2.00000
    105     -10.1965      2.00000
    106     -10.1715      2.00000
    107     -10.1117      2.00000
    108     -10.0923      2.00000
    109      -3.9462      2.00000
    110      -3.8890      2.00000
    111      -3.8880      2.00000
    112      -3.7533      2.00000
    113      -3.7530      2.00000
    114      -3.5217      2.00000
    115      -3.5012      2.00000
    116      -3.4997      2.00000
    117      -3.4955      2.00000
    118      -3.4945      2.00000
    119      -3.4020      2.00000
    120      -3.3944      2.00000
    121      -3.3711      2.00000
    122      -3.3104      2.00000
    123      -3.3069      2.00000
    124      -3.3030      2.00000
    125      -3.2556      2.00000
    126      -3.2555      2.00000
    127      -3.2551      2.00000
    128      -3.1657      2.00000
    129      -3.0048      2.00000
    130      -3.0039      2.00000
    131      -2.9683      2.00000
    132      -2.9667      2.00000
    133      -2.8487      2.00000
    134      -2.8483      2.00000
    135      -2.5616      2.00000
    136      -2.5604      2.00000
    137      -2.4540      2.00000
    138      -2.4527      2.00000
    139      -2.3070      2.00000
    140      -2.3058      2.00000
    141      -2.2573      2.00000
    142      -2.0962      2.00000
    143      -2.0947      2.00000
    144      -2.0671      2.00000
    145      -2.0670      2.00000
    146      -2.0529      2.00000
    147      -2.0516      2.00000
    148      -2.0186      2.00000
    149      -1.9752      2.00000
    150      -1.9746      2.00000
    151      -1.9417      2.00000
    152      -1.9020      2.00000
    153      -1.9012      2.00000
    154      -1.8836      2.00000
    155      -1.7503      2.00000
    156      -1.7496      2.00000
    157      -1.5064      2.00000
    158      -1.5045      2.00000
    159      -1.4487      2.00000
    160      -1.4309      2.00000
    161      -1.4293      2.00000
    162      -1.4095      2.00000
    163      -1.4078      2.00000
    164      -1.3620      2.00000
    165      -1.3573      2.00000
    166      -1.3168      2.00000
    167      -1.3167      2.00000
    168      -1.2963      2.00000
    169      -1.2741      2.00000
    170      -1.2510      2.00000
    171      -1.2498      2.00000
    172      -1.2234      2.00000
    173      -1.2204      2.00000
    174      -1.1526      2.00000
    175      -1.0442      2.00000
    176      -0.9852      2.00000
    177      -0.8828      2.00000
    178      -0.8812      2.00000
    179      -0.8145      2.00000
    180      -0.7874      2.00000
    181      -0.7874      2.00000
    182      -0.6942      2.00000
    183      -0.6180      2.00000
    184      -0.4265      2.00000
    185      -0.2905      2.00000
    186      -0.2889      2.00000
    187      -0.1865      2.00000
    188      -0.1856      2.00000
    189      -0.1762      2.00000
    190      -0.1757      2.00000
    191      -0.1445      2.00000
    192      -0.1249      2.00000
    193      -0.1236      2.00000
    194      -0.1229      2.00000
    195      -0.1009      2.00000
    196      -0.1008      2.00000
    197      -0.0454      2.00000
    198      -0.0200      2.00000
    199      -0.0048      2.00000
    200       0.1302      2.00000
    201       0.1938      2.00000
    202       0.1942      2.00000
    203       0.3132      2.00000
    204       0.3143      2.00000
    205       0.3630      2.00000
    206       0.3649      2.00000
    207       0.4635      2.00000
    208       0.4640      2.00000
    209       0.5248      2.00000
    210       0.5272      2.00000
    211       0.5552      2.00000
    212       0.5594      2.00000
    213       0.5601      2.00000
    214       0.8935      2.00000
    215       0.8938      2.00000
    216       0.9808      2.00000
    217       0.9820      2.00000
    218       1.0454      2.00000
    219       1.0712      2.00000
    220       1.0713      2.00000
    221       1.1421      2.00000
    222       1.1433      2.00000
    223       1.1511      2.00000
    224       1.1531      2.00000
    225       1.2544      2.00000
    226       1.2546      2.00000
    227       1.2547      2.00000
    228       1.2549      2.00000
    229       1.3676      2.00000
    230       1.4547      2.00000
    231       1.4944      2.00000
    232       1.5932      2.00000
    233       1.6182      2.00000
    234       2.1212      2.00000
    235       3.7210      0.00000
    236       3.7221      0.00000
    237       3.7577      0.00000
    238       3.7700      0.00000
    239       3.7900      0.00000
    240       3.7918      0.00000
    241       3.8307      0.00000
    242       3.9296      0.00000
    243       3.9802      0.00000
    244       3.9812      0.00000
    245       4.0511      0.00000
    246       4.0517      0.00000
    247       4.0547      0.00000
    248       4.0551      0.00000
    249       4.0615      0.00000
    250       4.0616      0.00000
    251       4.2254      0.00000
    252       4.2265      0.00000
    253       4.2882      0.00000
    254       4.2887      0.00000
    255       4.2941      0.00000
    256       4.2947      0.00000
    257       4.2990      0.00000
    258       4.3440      0.00000
    259       4.3815      0.00000
    260       4.3817      0.00000
    261       4.3824      0.00000
    262       4.3875      0.00000
    263       4.3889      0.00000
    264       4.4768      0.00000
    265       4.4776      0.00000
    266       4.5347      0.00000
    267       4.5619      0.00000
    268       4.5621      0.00000
    269       4.5671      0.00000
    270       4.6612      0.00000
    271       4.6776      0.00000
    272       4.8014      0.00000
    273       4.8019      0.00000
    274       4.8279      0.00000
    275       4.8293      0.00000
    276       4.8385      0.00000
    277       4.8505      0.00000
    278       4.8620      0.00000
    279       4.9292      0.00000
    280       4.9552      0.00000
    281       5.0144      0.00000
    282       5.0870      0.00000
    283       5.1020      0.00000
    284       5.1033      0.00000
    285       5.1377      0.00000
    286       5.3018      0.00000

 k-point    11 :      -0.4000    0.2000    0.0000
  band No.  band energies     occupation 
      1     -59.0802      2.00000
      2     -59.0798      2.00000
      3     -59.0740      2.00000
      4     -59.0612      2.00000
      5     -59.0561      2.00000
      6     -59.0557      2.00000
      7     -59.0535      2.00000
      8     -59.0529      2.00000
      9     -59.0525      2.00000
     10     -59.0073      2.00000
     11     -59.0072      2.00000
     12     -59.0013      2.00000
     13     -58.9884      2.00000
     14     -58.9832      2.00000
     15     -58.9831      2.00000
     16     -58.9807      2.00000
     17     -58.9801      2.00000
     18     -58.9800      2.00000
     19     -33.3904      2.00000
     20     -33.3732      2.00000
     21     -33.3728      2.00000
     22     -33.3256      2.00000
     23     -33.3252      2.00000
     24     -33.3172      2.00000
     25     -33.2999      2.00000
     26     -33.2999      2.00000
     27     -33.2916      2.00000
     28     -33.2523      2.00000
     29     -33.2523      2.00000
     30     -33.2185      2.00000
     31     -33.2073      2.00000
     32     -33.2069      2.00000
     33     -33.1951      2.00000
     34     -33.1884      2.00000
     35     -33.1691      2.00000
     36     -33.1647      2.00000
     37     -33.1645      2.00000
     38     -33.1587      2.00000
     39     -33.1583      2.00000
     40     -33.1542      2.00000
     41     -33.1538      2.00000
     42     -33.1535      2.00000
     43     -33.1524      2.00000
     44     -33.1519      2.00000
     45     -33.1346      2.00000
     46     -33.1346      2.00000
     47     -33.1344      2.00000
     48     -33.1340      2.00000
     49     -33.1339      2.00000
     50     -33.1275      2.00000
     51     -33.1226      2.00000
     52     -33.1154      2.00000
     53     -33.0967      2.00000
     54     -33.0916      2.00000
     55     -33.0915      2.00000
     56     -33.0860      2.00000
     57     -33.0860      2.00000
     58     -33.0811      2.00000
     59     -33.0809      2.00000
     60     -33.0809      2.00000
     61     -33.0797      2.00000
     62     -33.0797      2.00000
     63     -33.0787      2.00000
     64     -33.0611      2.00000
     65     -33.0611      2.00000
     66     -33.0609      2.00000
     67     -33.0592      2.00000
     68     -33.0590      2.00000
     69     -33.0545      2.00000
     70     -33.0056      2.00000
     71     -32.9861      2.00000
     72     -32.9861      2.00000
     73     -11.9578      2.00000
     74     -11.9558      2.00000
     75     -11.7593      2.00000
     76     -11.7581      2.00000
     77     -11.6769      2.00000
     78     -11.4849      2.00000
     79     -10.9940      2.00000
     80     -10.8987      2.00000
     81     -10.8981      2.00000
     82     -10.8303      2.00000
     83     -10.7731      2.00000
     84     -10.6737      2.00000
     85     -10.6710      2.00000
     86     -10.6432      2.00000
     87     -10.6425      2.00000
     88     -10.5432      2.00000
     89     -10.5336      2.00000
     90     -10.5328      2.00000
     91     -10.4822      2.00000
     92     -10.4654      2.00000
     93     -10.4496      2.00000
     94     -10.4466      2.00000
     95     -10.3744      2.00000
     96     -10.3413      2.00000
     97     -10.3408      2.00000
     98     -10.3189      2.00000
     99     -10.3182      2.00000
    100     -10.3051      2.00000
    101     -10.2596      2.00000
    102     -10.2322      2.00000
    103     -10.2315      2.00000
    104     -10.1973      2.00000
    105     -10.1965      2.00000
    106     -10.1679      2.00000
    107     -10.1427      2.00000
    108     -10.1422      2.00000
    109      -3.9734      2.00000
    110      -3.8510      2.00000
    111      -3.7739      2.00000
    112      -3.7726      2.00000
    113      -3.7127      2.00000
    114      -3.7114      2.00000
    115      -3.6439      2.00000
    116      -3.6435      2.00000
    117      -3.5025      2.00000
    118      -3.4840      2.00000
    119      -3.4829      2.00000
    120      -3.4193      2.00000
    121      -3.2749      2.00000
    122      -3.2748      2.00000
    123      -3.1994      2.00000
    124      -3.1975      2.00000
    125      -3.1432      2.00000
    126      -3.1074      2.00000
    127      -3.0949      2.00000
    128      -3.0932      2.00000
    129      -3.0926      2.00000
    130      -3.0921      2.00000
    131      -2.9583      2.00000
    132      -2.9438      2.00000
    133      -2.9409      2.00000
    134      -2.9407      2.00000
    135      -2.8823      2.00000
    136      -2.8821      2.00000
    137      -2.4641      2.00000
    138      -2.4149      2.00000
    139      -2.3609      2.00000
    140      -2.3015      2.00000
    141      -2.2993      2.00000
    142      -2.1217      2.00000
    143      -2.0601      2.00000
    144      -2.0591      2.00000
    145      -2.0479      2.00000
    146      -2.0253      2.00000
    147      -2.0240      2.00000
    148      -1.9887      2.00000
    149      -1.9236      2.00000
    150      -1.8880      2.00000
    151      -1.8554      2.00000
    152      -1.8539      2.00000
    153      -1.6951      2.00000
    154      -1.6914      2.00000
    155      -1.6190      2.00000
    156      -1.6189      2.00000
    157      -1.6110      2.00000
    158      -1.5985      2.00000
    159      -1.5529      2.00000
    160      -1.5524      2.00000
    161      -1.4354      2.00000
    162      -1.4348      2.00000
    163      -1.4319      2.00000
    164      -1.3590      2.00000
    165      -1.3574      2.00000
    166      -1.3496      2.00000
    167      -1.3107      2.00000
    168      -1.3101      2.00000
    169      -1.2663      2.00000
    170      -1.2587      2.00000
    171      -1.2581      2.00000
    172      -1.2529      2.00000
    173      -1.0338      2.00000
    174      -0.9250      2.00000
    175      -0.8904      2.00000
    176      -0.8895      2.00000
    177      -0.8480      2.00000
    178      -0.8470      2.00000
    179      -0.7127      2.00000
    180      -0.7122      2.00000
    181      -0.5196      2.00000
    182      -0.5160      2.00000
    183      -0.5041      2.00000
    184      -0.4600      2.00000
    185      -0.4577      2.00000
    186      -0.4338      2.00000
    187      -0.4332      2.00000
    188      -0.4031      2.00000
    189      -0.3782      2.00000
    190      -0.3781      2.00000
    191      -0.3278      2.00000
    192      -0.3262      2.00000
    193      -0.2783      2.00000
    194      -0.1956      2.00000
    195      -0.1815      2.00000
    196      -0.1470      2.00000
    197      -0.1463      2.00000
    198      -0.0620      2.00000
    199      -0.0605      2.00000
    200       0.1286      2.00000
    201       0.1289      2.00000
    202       0.1393      2.00000
    203       0.2428      2.00000
    204       0.2447      2.00000
    205       0.3610      2.00000
    206       0.3800      2.00000
    207       0.3803      2.00000
    208       0.5156      2.00000
    209       0.5228      2.00000
    210       0.6352      2.00000
    211       0.6386      2.00000
    212       0.6531      2.00000
    213       0.7232      2.00000
    214       0.9738      2.00000
    215       1.0413      2.00000
    216       1.0697      2.00000
    217       1.0700      2.00000
    218       1.0765      2.00000
    219       1.1274      2.00000
    220       1.1283      2.00000
    221       1.2140      2.00000
    222       1.2250      2.00000
    223       1.2251      2.00000
    224       1.2555      2.00000
    225       1.3142      2.00000
    226       1.3423      2.00000
    227       1.3438      2.00000
    228       1.3611      2.00000
    229       1.4462      2.00000
    230       1.4463      2.00000
    231       1.4477      2.00000
    232       1.4493      2.00000
    233       1.7029      2.00000
    234       1.7038      2.00000
    235       3.6505      0.00000
    236       3.7497      0.00000
    237       3.8164      0.00000
    238       3.8172      0.00000
    239       3.9519      0.00000
    240       3.9522      0.00000
    241       3.9914      0.00000
    242       3.9928      0.00000
    243       4.0021      0.00000
    244       4.0167      0.00000
    245       4.0389      0.00000
    246       4.0390      0.00000
    247       4.0544      0.00000
    248       4.0670      0.00000
    249       4.1940      0.00000
    250       4.1946      0.00000
    251       4.2024      0.00000
    252       4.2032      0.00000
    253       4.2159      0.00000
    254       4.2568      0.00000
    255       4.2692      0.00000
    256       4.2703      0.00000
    257       4.3112      0.00000
    258       4.3342      0.00000
    259       4.3357      0.00000
    260       4.3481      0.00000
    261       4.3548      0.00000
    262       4.4005      0.00000
    263       4.4007      0.00000
    264       4.4375      0.00000
    265       4.4381      0.00000
    266       4.4897      0.00000
    267       4.4898      0.00000
    268       4.5075      0.00000
    269       4.5905      0.00000
    270       4.5912      0.00000
    271       4.6233      0.00000
    272       4.6307      0.00000
    273       4.6333      0.00000
    274       4.6352      0.00000
    275       4.7019      0.00000
    276       4.7324      0.00000
    277       4.7327      0.00000
    278       4.8476      0.00000
    279       4.8493      0.00000
    280       4.9452      0.00000
    281       5.0821      0.00000
    282       5.0834      0.00000
    283       5.2199      0.00000
    284       5.2204      0.00000
    285       5.3210      0.00000
    286       5.3266      0.00000

 k-point    12 :       0.4000   -0.4000    0.0000
  band No.  band energies     occupation 
      1     -59.0802      2.00000
      2     -59.0797      2.00000
      3     -59.0740      2.00000
      4     -59.0612      2.00000
      5     -59.0561      2.00000
      6     -59.0557      2.00000
      7     -59.0535      2.00000
      8     -59.0529      2.00000
      9     -59.0524      2.00000
     10     -59.0073      2.00000
     11     -59.0072      2.00000
     12     -59.0013      2.00000
     13     -58.9884      2.00000
     14     -58.9832      2.00000
     15     -58.9831      2.00000
     16     -58.9807      2.00000
     17     -58.9801      2.00000
     18     -58.9800      2.00000
     19     -33.3903      2.00000
     20     -33.3733      2.00000
     21     -33.3728      2.00000
     22     -33.3256      2.00000
     23     -33.3251      2.00000
     24     -33.3172      2.00000
     25     -33.2999      2.00000
     26     -33.2999      2.00000
     27     -33.2917      2.00000
     28     -33.2523      2.00000
     29     -33.2523      2.00000
     30     -33.2185      2.00000
     31     -33.2072      2.00000
     32     -33.2070      2.00000
     33     -33.1951      2.00000
     34     -33.1885      2.00000
     35     -33.1691      2.00000
     36     -33.1648      2.00000
     37     -33.1644      2.00000
     38     -33.1586      2.00000
     39     -33.1584      2.00000
     40     -33.1542      2.00000
     41     -33.1537      2.00000
     42     -33.1535      2.00000
     43     -33.1523      2.00000
     44     -33.1520      2.00000
     45     -33.1346      2.00000
     46     -33.1345      2.00000
     47     -33.1344      2.00000
     48     -33.1339      2.00000
     49     -33.1338      2.00000
     50     -33.1275      2.00000
     51     -33.1226      2.00000
     52     -33.1154      2.00000
     53     -33.0967      2.00000
     54     -33.0916      2.00000
     55     -33.0915      2.00000
     56     -33.0861      2.00000
     57     -33.0860      2.00000
     58     -33.0811      2.00000
     59     -33.0809      2.00000
     60     -33.0809      2.00000
     61     -33.0797      2.00000
     62     -33.0797      2.00000
     63     -33.0786      2.00000
     64     -33.0611      2.00000
     65     -33.0611      2.00000
     66     -33.0609      2.00000
     67     -33.0593      2.00000
     68     -33.0590      2.00000
     69     -33.0545      2.00000
     70     -33.0056      2.00000
     71     -32.9861      2.00000
     72     -32.9861      2.00000
     73     -11.9578      2.00000
     74     -11.9558      2.00000
     75     -11.7593      2.00000
     76     -11.7581      2.00000
     77     -11.6768      2.00000
     78     -11.4849      2.00000
     79     -10.9939      2.00000
     80     -10.8987      2.00000
     81     -10.8980      2.00000
     82     -10.8302      2.00000
     83     -10.7732      2.00000
     84     -10.6737      2.00000
     85     -10.6711      2.00000
     86     -10.6431      2.00000
     87     -10.6425      2.00000
     88     -10.5433      2.00000
     89     -10.5336      2.00000
     90     -10.5328      2.00000
     91     -10.4826      2.00000
     92     -10.4655      2.00000
     93     -10.4493      2.00000
     94     -10.4466      2.00000
     95     -10.3745      2.00000
     96     -10.3412      2.00000
     97     -10.3408      2.00000
     98     -10.3188      2.00000
     99     -10.3182      2.00000
    100     -10.3052      2.00000
    101     -10.2592      2.00000
    102     -10.2325      2.00000
    103     -10.2315      2.00000
    104     -10.1972      2.00000
    105     -10.1965      2.00000
    106     -10.1678      2.00000
    107     -10.1427      2.00000
    108     -10.1422      2.00000
    109      -3.9733      2.00000
    110      -3.8508      2.00000
    111      -3.7736      2.00000
    112      -3.7730      2.00000
    113      -3.7128      2.00000
    114      -3.7113      2.00000
    115      -3.6439      2.00000
    116      -3.6437      2.00000
    117      -3.5025      2.00000
    118      -3.4839      2.00000
    119      -3.4830      2.00000
    120      -3.4193      2.00000
    121      -3.2751      2.00000
    122      -3.2747      2.00000
    123      -3.1994      2.00000
    124      -3.1973      2.00000
    125      -3.1431      2.00000
    126      -3.1079      2.00000
    127      -3.0949      2.00000
    128      -3.0932      2.00000
    129      -3.0926      2.00000
    130      -3.0922      2.00000
    131      -2.9583      2.00000
    132      -2.9443      2.00000
    133      -2.9411      2.00000
    134      -2.9405      2.00000
    135      -2.8823      2.00000
    136      -2.8821      2.00000
    137      -2.4635      2.00000
    138      -2.4148      2.00000
    139      -2.3615      2.00000
    140      -2.3008      2.00000
    141      -2.2993      2.00000
    142      -2.1217      2.00000
    143      -2.0598      2.00000
    144      -2.0593      2.00000
    145      -2.0475      2.00000
    146      -2.0248      2.00000
    147      -2.0243      2.00000
    148      -1.9882      2.00000
    149      -1.9237      2.00000
    150      -1.8881      2.00000
    151      -1.8552      2.00000
    152      -1.8539      2.00000
    153      -1.6958      2.00000
    154      -1.6913      2.00000
    155      -1.6190      2.00000
    156      -1.6189      2.00000
    157      -1.6114      2.00000
    158      -1.5988      2.00000
    159      -1.5526      2.00000
    160      -1.5523      2.00000
    161      -1.4351      2.00000
    162      -1.4346      2.00000
    163      -1.4323      2.00000
    164      -1.3582      2.00000
    165      -1.3573      2.00000
    166      -1.3496      2.00000
    167      -1.3106      2.00000
    168      -1.3101      2.00000
    169      -1.2665      2.00000
    170      -1.2586      2.00000
    171      -1.2579      2.00000
    172      -1.2529      2.00000
    173      -1.0332      2.00000
    174      -0.9251      2.00000
    175      -0.8899      2.00000
    176      -0.8893      2.00000
    177      -0.8481      2.00000
    178      -0.8473      2.00000
    179      -0.7128      2.00000
    180      -0.7123      2.00000
    181      -0.5223      2.00000
    182      -0.5155      2.00000
    183      -0.5042      2.00000
    184      -0.4592      2.00000
    185      -0.4578      2.00000
    186      -0.4338      2.00000
    187      -0.4332      2.00000
    188      -0.4030      2.00000
    189      -0.3783      2.00000
    190      -0.3781      2.00000
    191      -0.3281      2.00000
    192      -0.3264      2.00000
    193      -0.2785      2.00000
    194      -0.1956      2.00000
    195      -0.1812      2.00000
    196      -0.1467      2.00000
    197      -0.1465      2.00000
    198      -0.0622      2.00000
    199      -0.0606      2.00000
    200       0.1284      2.00000
    201       0.1288      2.00000
    202       0.1397      2.00000
    203       0.2427      2.00000
    204       0.2444      2.00000
    205       0.3610      2.00000
    206       0.3801      2.00000
    207       0.3802      2.00000
    208       0.5159      2.00000
    209       0.5228      2.00000
    210       0.6355      2.00000
    211       0.6382      2.00000
    212       0.6529      2.00000
    213       0.7234      2.00000
    214       0.9734      2.00000
    215       1.0414      2.00000
    216       1.0696      2.00000
    217       1.0701      2.00000
    218       1.0764      2.00000
    219       1.1272      2.00000
    220       1.1287      2.00000
    221       1.2133      2.00000
    222       1.2250      2.00000
    223       1.2250      2.00000
    224       1.2558      2.00000
    225       1.3139      2.00000
    226       1.3424      2.00000
    227       1.3437      2.00000
    228       1.3613      2.00000
    229       1.4461      2.00000
    230       1.4463      2.00000
    231       1.4481      2.00000
    232       1.4492      2.00000
    233       1.7034      2.00000
    234       1.7040      2.00000
    235       3.6506      0.00000
    236       3.7501      0.00000
    237       3.8161      0.00000
    238       3.8175      0.00000
    239       3.9516      0.00000
    240       3.9524      0.00000
    241       3.9913      0.00000
    242       3.9927      0.00000
    243       4.0025      0.00000
    244       4.0171      0.00000
    245       4.0388      0.00000
    246       4.0390      0.00000
    247       4.0544      0.00000
    248       4.0670      0.00000
    249       4.1942      0.00000
    250       4.1944      0.00000
    251       4.2022      0.00000
    252       4.2030      0.00000
    253       4.2162      0.00000
    254       4.2561      0.00000
    255       4.2692      0.00000
    256       4.2701      0.00000
    257       4.3108      0.00000
    258       4.3343      0.00000
    259       4.3351      0.00000
    260       4.3481      0.00000
    261       4.3546      0.00000
    262       4.4007      0.00000
    263       4.4010      0.00000
    264       4.4376      0.00000
    265       4.4378      0.00000
    266       4.4897      0.00000
    267       4.4898      0.00000
    268       4.5076      0.00000
    269       4.5907      0.00000
    270       4.5911      0.00000
    271       4.6233      0.00000
    272       4.6308      0.00000
    273       4.6335      0.00000
    274       4.6341      0.00000
    275       4.7020      0.00000
    276       4.7324      0.00000
    277       4.7327      0.00000
    278       4.8478      0.00000
    279       4.8496      0.00000
    280       4.9449      0.00000
    281       5.0822      0.00000
    282       5.0837      0.00000
    283       5.2199      0.00000
    284       5.2221      0.00000
    285       5.3255      0.00000
    286       5.3417      0.00000

 k-point    13 :      -0.2000    0.4000    0.0000
  band No.  band energies     occupation 
      1     -59.0802      2.00000
      2     -59.0798      2.00000
      3     -59.0740      2.00000
      4     -59.0612      2.00000
      5     -59.0561      2.00000
      6     -59.0557      2.00000
      7     -59.0535      2.00000
      8     -59.0529      2.00000
      9     -59.0524      2.00000
     10     -59.0073      2.00000
     11     -59.0072      2.00000
     12     -59.0013      2.00000
     13     -58.9884      2.00000
     14     -58.9832      2.00000
     15     -58.9831      2.00000
     16     -58.9807      2.00000
     17     -58.9801      2.00000
     18     -58.9800      2.00000
     19     -33.3903      2.00000
     20     -33.3733      2.00000
     21     -33.3728      2.00000
     22     -33.3256      2.00000
     23     -33.3251      2.00000
     24     -33.3172      2.00000
     25     -33.2999      2.00000
     26     -33.2999      2.00000
     27     -33.2916      2.00000
     28     -33.2523      2.00000
     29     -33.2523      2.00000
     30     -33.2185      2.00000
     31     -33.2072      2.00000
     32     -33.2069      2.00000
     33     -33.1951      2.00000
     34     -33.1884      2.00000
     35     -33.1691      2.00000
     36     -33.1648      2.00000
     37     -33.1644      2.00000
     38     -33.1586      2.00000
     39     -33.1583      2.00000
     40     -33.1542      2.00000
     41     -33.1538      2.00000
     42     -33.1535      2.00000
     43     -33.1523      2.00000
     44     -33.1520      2.00000
     45     -33.1346      2.00000
     46     -33.1345      2.00000
     47     -33.1344      2.00000
     48     -33.1340      2.00000
     49     -33.1338      2.00000
     50     -33.1275      2.00000
     51     -33.1226      2.00000
     52     -33.1154      2.00000
     53     -33.0967      2.00000
     54     -33.0916      2.00000
     55     -33.0915      2.00000
     56     -33.0860      2.00000
     57     -33.0860      2.00000
     58     -33.0811      2.00000
     59     -33.0809      2.00000
     60     -33.0809      2.00000
     61     -33.0797      2.00000
     62     -33.0797      2.00000
     63     -33.0787      2.00000
     64     -33.0611      2.00000
     65     -33.0611      2.00000
     66     -33.0609      2.00000
     67     -33.0592      2.00000
     68     -33.0590      2.00000
     69     -33.0545      2.00000
     70     -33.0056      2.00000
     71     -32.9861      2.00000
     72     -32.9861      2.00000
     73     -11.9577      2.00000
     74     -11.9559      2.00000
     75     -11.7593      2.00000
     76     -11.7581      2.00000
     77     -11.6768      2.00000
     78     -11.4849      2.00000
     79     -10.9939      2.00000
     80     -10.8986      2.00000
     81     -10.8982      2.00000
     82     -10.8303      2.00000
     83     -10.7732      2.00000
     84     -10.6736      2.00000
     85     -10.6711      2.00000
     86     -10.6431      2.00000
     87     -10.6425      2.00000
     88     -10.5432      2.00000
     89     -10.5336      2.00000
     90     -10.5328      2.00000
     91     -10.4824      2.00000
     92     -10.4655      2.00000
     93     -10.4494      2.00000
     94     -10.4466      2.00000
     95     -10.3744      2.00000
     96     -10.3413      2.00000
     97     -10.3408      2.00000
     98     -10.3189      2.00000
     99     -10.3182      2.00000
    100     -10.3051      2.00000
    101     -10.2594      2.00000
    102     -10.2324      2.00000
    103     -10.2314      2.00000
    104     -10.1972      2.00000
    105     -10.1965      2.00000
    106     -10.1679      2.00000
    107     -10.1427      2.00000
    108     -10.1422      2.00000
    109      -3.9734      2.00000
    110      -3.8509      2.00000
    111      -3.7737      2.00000
    112      -3.7728      2.00000
    113      -3.7127      2.00000
    114      -3.7114      2.00000
    115      -3.6439      2.00000
    116      -3.6436      2.00000
    117      -3.5025      2.00000
    118      -3.4839      2.00000
    119      -3.4830      2.00000
    120      -3.4193      2.00000
    121      -3.2750      2.00000
    122      -3.2748      2.00000
    123      -3.1994      2.00000
    124      -3.1974      2.00000
    125      -3.1432      2.00000
    126      -3.1076      2.00000
    127      -3.0949      2.00000
    128      -3.0932      2.00000
    129      -3.0926      2.00000
    130      -3.0921      2.00000
    131      -2.9583      2.00000
    132      -2.9440      2.00000
    133      -2.9410      2.00000
    134      -2.9406      2.00000
    135      -2.8823      2.00000
    136      -2.8821      2.00000
    137      -2.4638      2.00000
    138      -2.4148      2.00000
    139      -2.3612      2.00000
    140      -2.3012      2.00000
    141      -2.2993      2.00000
    142      -2.1217      2.00000
    143      -2.0600      2.00000
    144      -2.0592      2.00000
    145      -2.0477      2.00000
    146      -2.0251      2.00000
    147      -2.0241      2.00000
    148      -1.9885      2.00000
    149      -1.9237      2.00000
    150      -1.8881      2.00000
    151      -1.8553      2.00000
    152      -1.8539      2.00000
    153      -1.6954      2.00000
    154      -1.6914      2.00000
    155      -1.6190      2.00000
    156      -1.6189      2.00000
    157      -1.6112      2.00000
    158      -1.5987      2.00000
    159      -1.5528      2.00000
    160      -1.5523      2.00000
    161      -1.4352      2.00000
    162      -1.4347      2.00000
    163      -1.4321      2.00000
    164      -1.3586      2.00000
    165      -1.3573      2.00000
    166      -1.3496      2.00000
    167      -1.3107      2.00000
    168      -1.3101      2.00000
    169      -1.2664      2.00000
    170      -1.2586      2.00000
    171      -1.2580      2.00000
    172      -1.2529      2.00000
    173      -1.0335      2.00000
    174      -0.9250      2.00000
    175      -0.8900      2.00000
    176      -0.8896      2.00000
    177      -0.8480      2.00000
    178      -0.8472      2.00000
    179      -0.7127      2.00000
    180      -0.7123      2.00000
    181      -0.5209      2.00000
    182      -0.5158      2.00000
    183      -0.5042      2.00000
    184      -0.4596      2.00000
    185      -0.4578      2.00000
    186      -0.4338      2.00000
    187      -0.4332      2.00000
    188      -0.4030      2.00000
    189      -0.3783      2.00000
    190      -0.3781      2.00000
    191      -0.3280      2.00000
    192      -0.3263      2.00000
    193      -0.2784      2.00000
    194      -0.1956      2.00000
    195      -0.1813      2.00000
    196      -0.1468      2.00000
    197      -0.1464      2.00000
    198      -0.0621      2.00000
    199      -0.0606      2.00000
    200       0.1285      2.00000
    201       0.1289      2.00000
    202       0.1395      2.00000
    203       0.2427      2.00000
    204       0.2446      2.00000
    205       0.3610      2.00000
    206       0.3801      2.00000
    207       0.3803      2.00000
    208       0.5157      2.00000
    209       0.5228      2.00000
    210       0.6354      2.00000
    211       0.6383      2.00000
    212       0.6530      2.00000
    213       0.7233      2.00000
    214       0.9736      2.00000
    215       1.0414      2.00000
    216       1.0697      2.00000
    217       1.0701      2.00000
    218       1.0764      2.00000
    219       1.1273      2.00000
    220       1.1285      2.00000
    221       1.2137      2.00000
    222       1.2250      2.00000
    223       1.2250      2.00000
    224       1.2557      2.00000
    225       1.3141      2.00000
    226       1.3424      2.00000
    227       1.3437      2.00000
    228       1.3612      2.00000
    229       1.4461      2.00000
    230       1.4463      2.00000
    231       1.4479      2.00000
    232       1.4492      2.00000
    233       1.7031      2.00000
    234       1.7039      2.00000
    235       3.6506      0.00000
    236       3.7499      0.00000
    237       3.8163      0.00000
    238       3.8173      0.00000
    239       3.9518      0.00000
    240       3.9523      0.00000
    241       3.9914      0.00000
    242       3.9927      0.00000
    243       4.0023      0.00000
    244       4.0169      0.00000
    245       4.0388      0.00000
    246       4.0390      0.00000
    247       4.0544      0.00000
    248       4.0670      0.00000
    249       4.1941      0.00000
    250       4.1945      0.00000
    251       4.2022      0.00000
    252       4.2032      0.00000
    253       4.2161      0.00000
    254       4.2565      0.00000
    255       4.2693      0.00000
    256       4.2701      0.00000
    257       4.3110      0.00000
    258       4.3342      0.00000
    259       4.3354      0.00000
    260       4.3481      0.00000
    261       4.3547      0.00000
    262       4.4005      0.00000
    263       4.4009      0.00000
    264       4.4375      0.00000
    265       4.4380      0.00000
    266       4.4897      0.00000
    267       4.4898      0.00000
    268       4.5076      0.00000
    269       4.5906      0.00000
    270       4.5912      0.00000
    271       4.6233      0.00000
    272       4.6308      0.00000
    273       4.6336      0.00000
    274       4.6344      0.00000
    275       4.7020      0.00000
    276       4.7324      0.00000
    277       4.7327      0.00000
    278       4.8477      0.00000
    279       4.8494      0.00000
    280       4.9450      0.00000
    281       5.0822      0.00000
    282       5.0835      0.00000
    283       5.2196      0.00000
    284       5.2224      0.00000
    285       5.3199      0.00000
    286       5.3374      0.00000


--------------------------------------------------------------------------------------------------------


 soft charge-density along one line, spin component           1
         0         1         2         3         4         5         6         7         8         9
 total charge-density along one line
 
 pseudopotential strength for first ion, spin component:           1
 -4.786  12.296   0.000  -0.000   0.000  -0.000   0.001  -0.000
 12.296   3.221  -0.000   0.001  -0.000   0.000  -0.000   0.000
  0.000  -0.000 -19.085  -0.000   0.000  10.013   0.000  -0.000
 -0.000   0.001  -0.000 -19.078  -0.000   0.000  10.006   0.000
  0.000  -0.000   0.000  -0.000 -19.085  -0.000   0.000  10.013
 -0.000   0.000  10.013   0.000  -0.000   5.129  -0.000   0.000
  0.001  -0.000   0.000  10.006   0.000  -0.000   5.131  -0.000
 -0.000   0.000  -0.000   0.000  10.013   0.000  -0.000   5.129
  0.000  -0.000   0.000   0.000  -0.007  -0.000  -0.000   0.004
 -0.000   0.000  -0.000   0.000   0.000   0.000  -0.000  -0.000
  0.006  -0.003  -0.000  -0.001  -0.000   0.000   0.000   0.000
 -0.000   0.000   0.000   0.000  -0.000  -0.000  -0.000   0.000
  0.000  -0.000  -0.007   0.000   0.000   0.004  -0.000  -0.000
  0.000  -0.000   0.000   0.000  -0.008  -0.000  -0.000   0.004
 -0.000   0.000  -0.001   0.000   0.000   0.000  -0.000  -0.000
  0.006  -0.004  -0.000  -0.001  -0.000   0.000   0.000   0.000
 -0.000   0.000   0.000   0.000  -0.001  -0.000  -0.000   0.000
  0.000  -0.000  -0.008   0.000   0.000   0.004  -0.000  -0.000
 total augmentation occupancy for first ion, spin component:           1
  1.995  -0.041  -0.000   0.000  -0.000  -0.000   0.000  -0.000  -0.000   0.000  -0.010   0.000  -0.000   0.000  -0.000   0.008
 -0.041   1.192  -0.000   0.000  -0.000   0.000   0.000   0.000  -0.000  -0.000  -0.015  -0.000  -0.000   0.000   0.000   0.121
 -0.000  -0.000   1.998   0.000   0.000  -0.044  -0.000  -0.000  -0.000   0.000   0.000   0.000  -0.010   0.000   0.000  -0.000
  0.000   0.000   0.000   1.998   0.000  -0.000  -0.050  -0.000   0.000   0.000   0.000   0.000   0.000  -0.000  -0.000  -0.000
 -0.000  -0.000   0.000   0.000   1.998  -0.000  -0.000  -0.044  -0.010   0.000   0.000   0.000  -0.000  -0.002  -0.000  -0.000
 -0.000   0.000  -0.044  -0.000  -0.000   0.100   0.000   0.000   0.000  -0.003  -0.000  -0.000  -0.194   0.000   0.003   0.000
  0.000   0.000  -0.000  -0.050  -0.000   0.000   0.122   0.000  -0.000  -0.000   0.000  -0.000  -0.000   0.000   0.000   0.000
 -0.000   0.000  -0.000  -0.000  -0.044   0.000   0.000   0.100  -0.194  -0.000  -0.000  -0.003  -0.000   0.222   0.000   0.000
 -0.000  -0.000  -0.000   0.000  -0.010   0.000  -0.000  -0.194   2.539  -0.000  -0.000   0.017  -0.000  -2.931   0.000   0.000
  0.000  -0.000   0.000   0.000   0.000  -0.003  -0.000  -0.000  -0.000   3.947  -0.000  -0.000   0.017   0.000  -4.907   0.000
 -0.010  -0.015   0.000   0.000   0.000  -0.000   0.000  -0.000  -0.000  -0.000   1.761  -0.000  -0.000   0.000   0.000  -1.851
  0.000  -0.000   0.000   0.000   0.000  -0.000  -0.000  -0.003   0.017  -0.000  -0.000   3.947  -0.000  -0.015   0.000   0.000
 -0.000  -0.000  -0.010   0.000  -0.000  -0.194  -0.000  -0.000  -0.000   0.017  -0.000  -0.000   2.539   0.000  -0.015   0.000
  0.000   0.000   0.000  -0.000  -0.002   0.000   0.000   0.222  -2.931   0.000   0.000  -0.015   0.000   4.094  -0.000  -0.000
 -0.000   0.000   0.000  -0.000  -0.000   0.003   0.000   0.000   0.000  -4.907   0.000   0.000  -0.015  -0.000   6.509  -0.000
  0.008   0.121  -0.000  -0.000  -0.000   0.000   0.000   0.000   0.000   0.000  -1.851   0.000   0.000  -0.000  -0.000   2.815
 -0.000   0.000  -0.000  -0.000   0.000   0.000   0.000   0.003  -0.015   0.000   0.000  -4.907   0.000   0.015   0.000  -0.000
  0.000   0.000  -0.002  -0.000   0.000   0.222   0.000   0.000   0.000  -0.015   0.000   0.000  -2.931  -0.000   0.015  -0.000


------------------------ aborting loop because EDIFF is reached ----------------------------------------


    CHARGE:  cpu time      0.3545: real time      0.3545
    FORLOC:  cpu time      0.0201: real time      0.0201
    FORNL :  cpu time      1.4884: real time      1.4886
    STRESS:  cpu time      4.4402: real time      4.4404
    FORCOR:  cpu time      0.1027: real time      0.1029
    FORHAR:  cpu time      0.0390: real time      0.0394
    MIXING:  cpu time      0.0296: real time      0.0296
    OFIELD:  cpu time      0.0001: real time      0.0002

 ---------------------------------------------------------------------------------------------

         DFTD3 V3.0 Rev 1        
 DF pbe       
 parameters
 k1-k3        =   16.0000    1.3333   -4.0000
 Edisp (eV)  -19.99224

 E6    (eV) :   -11.6639
 E8    (eV) :    -8.3284
 % E8        : 41.66
    FORVDW:  cpu time      0.1694: real time      0.1706

  FORCE on cell =-STRESS in cart. coord.  units (eV):
  Direction    XX          YY          ZZ          XY          YZ          ZX
  --------------------------------------------------------------------------------------
  Alpha Z   964.87982   964.87982   964.87982
  Ewald   77760.27041 77760.27211************    -0.64340    -0.00217     0.41549
  Hartree 88146.54194 88146.54299-83732.89181    -0.23469    -0.00056     0.11773
  E(xc)   -1975.13070 -1975.13071 -1977.24772    -0.00141    -0.00000     0.00079
  Local  ************************178105.98237     0.86461     0.00260    -0.54123
  n-local  2141.52415  2141.52390  2235.80420    -0.01889    -0.00012     0.03526
  augment   -10.17971   -10.17954   -30.33851    -0.00050     0.00002    -0.00149
  Kinetic  7450.17118  7450.17118  7519.69525     0.01892     0.00004     0.03288
  Fock        0.00000     0.00000     0.00000     0.00000     0.00000     0.00000
  vdW       -20.67022   -20.67022   -14.67742     0.00006     0.00000    -0.00014
  -------------------------------------------------------------------------------------
  Total     -20.19404   -20.19436    -0.56796    -0.01529    -0.00019     0.05930
  in kB     -20.36761   -20.36794    -0.57284    -0.01542    -0.00019     0.05981
  external pressure =      -13.77 kB  Pullay stress =        0.00 kB


 VOLUME and BASIS-vectors are now :
 -----------------------------------------------------------------------------
  energy-cutoff  :      520.00
  volume of cell :     1588.52
      direct lattice vectors                 reciprocal lattice vectors
     9.576713736  0.000000000  0.000000000     0.104419953 -0.060286888  0.000000000
     4.788356868  8.293677380  0.000000000     0.000000000  0.120573776  0.000000000
     0.000000000  0.000000000 20.000000000     0.000000000  0.000000000  0.050000000

  length of vectors
     9.576713736  9.576713736 20.000000000     0.120573776  0.120573776  0.050000000


 FORCES acting on ions
    electron-ion (+dipol)            ewald-force                    non-local-force                 convergence-correction
 -----------------------------------------------------------------------------------------------
   -.562E-01 -.360E-01 0.150E+04   0.564E-01 0.361E-01 -.150E+04   -.250E-03 -.160E-03 0.431E-01   0.158E-03 0.163E-03 -.254E-02
   0.276E-01 -.879E-01 0.150E+04   -.278E-01 0.881E-01 -.150E+04   0.158E-03 -.404E-03 0.426E-01   -.976E-05 -.562E-04 -.257E-02
   0.293E-01 -.135E-01 0.150E+04   -.295E-01 0.134E-01 -.150E+04   0.228E-03 -.104E-03 0.430E-01   -.144E-03 0.169E-03 -.256E-02
   -.633E-01 0.528E-01 0.150E+04   0.637E-01 -.527E-01 -.150E+04   -.349E-03 0.282E-03 0.425E-01   -.137E-03 -.234E-03 -.255E-02
   0.887E-01 0.355E-01 0.150E+04   -.891E-01 -.354E-01 -.150E+04   0.360E-03 0.101E-03 0.427E-01   0.149E-03 -.190E-03 -.257E-02
   -.268E-01 0.865E-02 0.150E+04   0.268E-01 -.847E-02 -.150E+04   -.200E-04 -.908E-04 0.431E-01   -.641E-05 0.574E-04 -.257E-02
   0.612E-02 0.491E-01 0.150E+04   -.614E-02 -.496E-01 -.150E+04   0.354E-04 0.283E-03 0.431E-01   0.225E-04 0.361E-04 -.252E-02
   0.423E-02 -.181E-01 0.150E+04   -.432E-02 0.180E-01 -.150E+04   -.729E-04 0.419E-04 0.431E-01   0.256E-03 0.169E-04 -.254E-02
   -.103E-01 0.933E-02 0.150E+04   0.104E-01 -.949E-02 -.150E+04   0.564E-04 0.530E-04 0.431E-01   -.284E-03 0.225E-04 -.255E-02
   0.832E+00 0.279E+00 -.150E+04   -.838E+00 -.286E+00 0.150E+04   -.168E-02 -.212E-02 -.464E-01   -.209E-03 0.180E-04 -.233E-02
   -.113E+01 0.853E+00 -.150E+04   0.114E+01 -.861E+00 0.150E+04   0.257E-01 -.137E-01 -.219E-01   0.935E-04 -.565E-04 -.232E-02
   -.132E+00 0.162E-01 -.150E+04   0.132E+00 -.168E-01 0.150E+04   0.479E-03 0.582E-03 -.578E-01   0.130E-03 0.491E-04 -.233E-02
   0.350E+00 -.113E+01 -.150E+04   -.345E+00 0.114E+01 0.150E+04   0.198E-02 0.158E-01 -.342E-01   -.123E-03 0.152E-03 -.231E-02
   -.239E+00 -.160E+00 -.150E+04   0.242E+00 0.163E+00 0.150E+04   -.174E-02 -.850E-03 -.570E-01   0.220E-03 0.867E-04 -.235E-02
   0.254E-01 0.710E-02 -.150E+04   -.263E-01 -.750E-02 0.150E+04   0.517E-03 -.465E-03 -.566E-01   -.992E-04 0.239E-04 -.235E-02
   -.374E-02 -.740E-01 -.150E+04   0.350E-02 0.741E-01 0.150E+04   0.516E-03 -.122E-04 -.577E-01   -.282E-04 0.439E-04 -.239E-02
   0.379E-01 0.153E+00 -.150E+04   -.395E-01 -.155E+00 0.150E+04   -.278E-03 0.131E-02 -.568E-01   0.653E-05 -.215E-03 -.237E-02
   -.318E-01 0.580E-01 -.150E+04   0.324E-01 -.576E-01 0.150E+04   -.500E-03 -.557E-03 -.579E-01   0.198E-04 -.103E-03 -.234E-02
   -.728E-02 -.601E-02 0.131E+04   0.716E-02 0.612E-02 -.131E+04   -.101E-03 -.729E-04 0.456E+01   0.206E-03 -.492E-04 -.304E-03
   0.111E-01 -.418E-02 0.131E+04   -.110E-01 0.435E-02 -.131E+04   0.930E-04 -.235E-04 0.456E+01   -.151E-03 -.140E-03 -.317E-03
   -.378E-02 -.158E-02 0.131E+04   0.385E-02 0.144E-02 -.131E+04   -.312E-05 -.354E-04 0.456E+01   -.583E-04 0.147E-03 -.396E-03
   0.348E-02 0.105E-01 0.131E+04   -.345E-02 -.105E-01 -.131E+04   0.345E-04 0.924E-04 0.456E+01   -.529E-04 -.136E-03 -.546E-03
   0.447E-02 0.231E-02 0.131E+04   -.465E-02 -.222E-02 -.131E+04   0.409E-04 0.121E-04 0.456E+01   0.146E-03 -.895E-04 -.425E-03
   -.794E-02 0.514E-02 0.131E+04   0.808E-02 -.512E-02 -.131E+04   -.600E-04 0.644E-04 0.456E+01   -.921E-04 -.782E-04 -.341E-03
   -.171E-02 -.134E-02 0.131E+04   0.165E-02 0.127E-02 -.131E+04   -.395E-04 0.363E-04 0.456E+01   0.887E-04 0.454E-04 -.610E-03
   0.726E-03 -.751E-02 0.131E+04   -.799E-03 0.735E-02 -.131E+04   0.310E-04 -.717E-04 0.456E+01   0.350E-04 0.216E-03 -.321E-03
   0.101E-02 0.263E-02 0.131E+04   -.851E-03 -.271E-02 -.131E+04   -.136E-04 0.218E-05 0.456E+01   -.122E-03 0.887E-04 -.536E-03
   -.120E+00 -.943E-01 -.233E+02   0.123E+00 0.965E-01 0.279E+02   -.145E-02 -.104E-02 -.466E+01   0.189E-03 -.480E-04 -.166E-02
   0.137E+00 -.535E-01 -.232E+02   -.139E+00 0.549E-01 0.278E+02   0.138E-02 -.564E-03 -.466E+01   -.139E-03 -.146E-03 -.167E-02
   -.302E-01 -.682E-02 -.231E+02   0.303E-01 0.683E-02 0.277E+02   -.472E-04 -.113E-03 -.466E+01   -.548E-04 0.137E-03 -.157E-02
   0.438E-01 0.148E+00 -.232E+02   -.443E-01 -.151E+00 0.279E+02   0.378E-03 0.161E-02 -.466E+01   -.572E-04 -.116E-03 -.143E-02
   0.241E-01 0.938E-02 -.231E+02   -.243E-01 -.940E-02 0.277E+02   0.114E-04 0.681E-04 -.466E+01   0.147E-03 -.761E-04 -.153E-02
   -.620E-01 0.405E-01 -.231E+02   0.625E-01 -.407E-01 0.278E+02   -.348E-03 0.167E-03 -.466E+01   -.916E-04 -.728E-04 -.162E-02
   -.969E-02 -.119E-01 -.231E+02   0.973E-02 0.119E-01 0.277E+02   -.730E-04 0.255E-04 -.466E+01   0.779E-04 0.432E-04 -.135E-02
   0.800E-02 -.500E-01 -.231E+02   -.796E-02 0.501E-01 0.278E+02   -.803E-04 -.232E-03 -.466E+01   0.340E-04 0.200E-03 -.164E-02
   0.211E-02 0.185E-01 -.231E+02   -.212E-02 -.187E-01 0.277E+02   0.989E-04 0.864E-04 -.466E+01   -.109E-03 0.848E-04 -.141E-02
   0.669E+00 -.143E-02 0.235E+02   -.670E+00 0.149E-02 -.281E+02   -.469E-01 0.183E-03 0.448E+01   -.826E-04 -.104E-03 -.103E-02
   -.156E+00 0.544E-03 0.236E+02   0.158E+00 0.934E-11 -.282E+02   0.464E-03 -.391E-03 0.458E+01   0.382E-04 0.587E-04 -.101E-02
   -.156E+00 -.170E-03 0.236E+02   0.159E+00 0.186E-10 -.282E+02   0.126E-02 0.678E-03 0.458E+01   0.418E-04 -.202E-04 -.965E-03
   0.286E-02 -.917E-01 0.236E+02   -.296E-02 0.925E-01 -.282E+02   0.280E-03 0.129E-04 0.458E+01   0.111E-03 0.709E-04 -.105E-02
   -.295E-01 -.434E-05 0.235E+02   0.295E-01 0.556E-04 -.281E+02   -.202E-03 0.403E-04 0.458E+01   -.294E-04 -.879E-04 -.102E-02
   0.216E-02 0.917E-01 0.236E+02   -.215E-02 -.934E-01 -.282E+02   0.470E-03 -.888E-03 0.458E+01   -.806E-04 0.146E-03 -.990E-03
   0.218E-02 -.919E-01 0.236E+02   -.215E-02 0.934E-01 -.282E+02   0.106E-02 0.190E-03 0.458E+01   -.862E-04 0.671E-04 -.104E-02
   0.218E-02 0.913E-01 0.236E+02   -.296E-02 -.925E-01 -.282E+02   0.327E-03 0.327E-03 0.458E+01   0.139E-03 -.563E-04 -.103E-02
   -.296E-01 0.126E-03 0.235E+02   0.295E-01 -.556E-04 -.281E+02   -.861E-04 0.387E-05 0.458E+01   -.518E-04 -.720E-04 -.956E-03
   0.636E-01 0.790E-04 -.131E+04   -.648E-01 0.579E-11 0.131E+04   -.497E-04 0.224E-04 -.456E+01   -.719E-04 -.952E-04 -.105E-02
   -.889E-01 -.145E-02 -.131E+04   0.904E-01 0.929E-11 0.131E+04   0.808E-03 0.310E-02 -.456E+01   0.268E-04 0.504E-04 -.109E-02
   0.365E-01 -.898E-03 -.131E+04   -.379E-01 0.176E-10 0.131E+04   0.551E-03 0.146E-02 -.456E+01   0.456E-04 -.292E-04 -.112E-02
   -.262E-01 -.715E-01 -.131E+04   0.267E-01 0.738E-01 0.131E+04   0.578E-03 -.141E-02 -.456E+01   0.993E-04 0.350E-04 -.105E-02
   -.120E-01 0.334E-04 -.131E+04   0.120E-01 0.205E-04 0.131E+04   0.864E-04 0.398E-04 -.457E+01   -.316E-04 -.886E-04 -.109E-02
   0.387E-01 -.361E-01 -.131E+04   -.374E-01 0.373E-01 0.131E+04   -.346E-02 -.704E-03 -.456E+01   -.698E-04 0.143E-03 -.110E-02
   0.360E-01 0.355E-01 -.131E+04   -.374E-01 -.373E-01 0.131E+04   0.118E-02 0.116E-02 -.457E+01   -.692E-04 0.867E-04 -.107E-02
   -.248E-01 0.743E-01 -.131E+04   0.267E-01 -.738E-01 0.131E+04   -.274E-02 -.369E-02 -.456E+01   0.151E-03 -.439E-04 -.108E-02
   -.119E-01 0.607E-04 -.131E+04   0.120E-01 -.205E-04 0.131E+04   0.279E-04 0.181E-04 -.457E+01   -.771E-04 -.540E-04 -.114E-02
 -----------------------------------------------------------------------------------------------
   0.223E-01 -.123E-03 0.949E+00   0.246E-13 0.235E-12 0.864E-11   -.214E-01 0.121E-03 -.911E+00   0.975E-05 0.606E-06 -.806E-01
 
 
 POSITION                                       TOTAL-FORCE (eV/Angst)
 -----------------------------------------------------------------------------------
      0.00000      0.00000     10.25937         0.000107      0.000047      0.000901
      3.19224      0.00000     10.25937         0.000006     -0.000207     -0.000143
      6.38448      0.00000     10.25937        -0.000073      0.000048      0.000757
      1.59612      2.76456     10.25937        -0.000209      0.000132     -0.000306
      4.78836      2.76456     10.25937         0.000142      0.000088      0.000017
      7.98059      2.76456     10.25937        -0.000042      0.000152      0.000450
      3.19224      5.52912     10.25937         0.000019     -0.000108      0.000832
      6.38448      5.52912     10.25937         0.000082     -0.000075      0.000418
      9.57671      5.52912     10.25937        -0.000165     -0.000077      0.000462
      1.59612      0.92152     16.24138        -0.007536     -0.008381      0.027624
      4.78836      0.92152     16.24138         0.044495     -0.021650      0.054097
      7.98059      0.92152     16.24138         0.000461      0.000039      0.001656
      3.19224      3.68608     16.24138         0.006988      0.029925      0.040755
      6.38448      3.68608     16.24138         0.000729      0.001527      0.002239
      9.57671      3.68608     16.24138        -0.000434     -0.000845      0.000648
      4.78836      6.45064     16.24138         0.000224      0.000134      0.001522
      7.98059      6.45064     16.24138        -0.001907     -0.000676      0.001441
     11.17283      6.45064     16.24138         0.000153     -0.000181      0.001784
      1.59612      0.92152      8.70526        -0.000032     -0.000012      0.000361
      4.78836      0.92152      8.70526        -0.000001      0.000003      0.000346
      7.98059      0.92152      8.70526        -0.000012     -0.000025      0.000268
      3.19224      3.68608      8.70526        -0.000003      0.000014      0.000355
      6.38448      3.68608      8.70526        -0.000006      0.000013      0.000316
      9.57671      3.68608      8.70526        -0.000029      0.000006      0.000316
      4.78836      6.45064      8.70526        -0.000031      0.000011      0.000277
      7.98059      6.45064      8.70526        -0.000024     -0.000020      0.000319
     11.17283      6.45064      8.70526         0.000007      0.000011      0.000265
      1.59612      0.92152     11.80949         0.001944      0.001201      0.002445
      4.78836      0.92152     11.80949        -0.001276      0.000666      0.001286
      7.98059      0.92152     11.80949         0.000014      0.000032      0.000102
      3.19224      3.68608     11.80949        -0.000130     -0.001864      0.001866
      6.38448      3.68608     11.80949        -0.000045     -0.000015     -0.000006
      9.57671      3.68608     11.80949         0.000032     -0.000022      0.000069
      4.78836      6.45064     11.80949         0.000026     -0.000007      0.000116
      7.98059      6.45064     11.80949        -0.000012      0.000036      0.000029
     11.17283      6.45064     11.80949        -0.000034     -0.000028      0.000081
      3.19656      1.84304     14.69900        -0.048347      0.000135     -0.133702
      6.38448      1.84304     14.68998         0.002273      0.000211     -0.003647
      9.57671      1.84304     14.68998         0.003636      0.000488     -0.004289
      4.78836      4.60760     14.68998         0.000292      0.000861     -0.003663
      7.98059      4.60760     14.68998        -0.000245      0.000004     -0.000307
     11.17283      4.60760     14.68998         0.000400     -0.002429     -0.004279
      6.38448      7.37216     14.68998         0.001004      0.001794     -0.003983
      9.57671      7.37216     14.68998        -0.000312     -0.000942     -0.003958
     12.76895      7.37216     14.68998        -0.000241      0.000003     -0.000307
      3.19224      1.84304     17.79452        -0.001256      0.000006      0.016577
      6.38448      1.84304     17.79452         0.002226      0.001696      0.000716
      9.57671      1.84304     17.79452        -0.000836      0.000530     -0.000733
      4.78836      4.60760     17.79452         0.001179      0.000904     -0.000165
      7.98059      4.60760     17.79452         0.000096      0.000005     -0.001148
     11.17283      4.60760     17.79452        -0.002269      0.000620      0.000141
      6.38448      7.37216     17.79452        -0.000343     -0.000596     -0.000885
      9.57671      7.37216     17.79452        -0.000762     -0.003184      0.000869
     12.76895      7.37216     17.79452         0.000076      0.000004     -0.001200
 -----------------------------------------------------------------------------------
    total drift:                                0.000931     -0.000001     -0.043265


--------------------------------------------------------------------------------------------------------



  FREE ENERGIE OF THE ION-ELECTRON SYSTEM (eV)
  ---------------------------------------------------
  free  energy   TOTEN  =      -412.60759984 eV

  energy  without entropy=     -412.60759984  energy(sigma->0) =     -412.60759984
 


--------------------------------------------------------------------------------------------------------


    POTLOK:  cpu time      0.1510: real time      0.1809


--------------------------------------------------------------------------------------------------------


     LOOP+:  cpu time    171.4501: real time    171.9671
    4ORBIT:  cpu time      0.0000: real time      0.0000

 total amount of memory used by VASP MPI-rank0   132777. kBytes
=======================================================================

   base                                    :      30000. kBytes
   nonlr-proj                              :      14941. kBytes
   fftplans                                :      11326. kBytes
   grid                                    :      17519. kBytes
   one-center                              :        217. kBytes
   wavefun                                 :      58774. kBytes
 
  
  
 General timing and accounting informations for this job:
 ========================================================
  
                  Total CPU time used (sec):      180.631
                            User time (sec):      175.624
                          System time (sec):        5.007
                         Elapsed time (sec):      183.142
  
                   Maximum memory used (kb):      434280.
                   Average memory used (kb):          N/A
  
                          Minor page faults:        46056
                          Major page faults:           67
                 Voluntary context switches:        14840
