<?xml version="1.0" encoding="ISO-8859-1"?>
<modeling>
 <generator>
  <i name="program" type="string">vasp </i>
  <i name="version" type="string">6.5.1  </i>
  <i name="subversion" type="string">10Mar25 (build Aug 29 2025 00:30:47) complex                          parallel </i>
  <i name="platform" type="string">LinuxIFC </i>
  <i name="date" type="string">2026 06 03 </i>
  <i name="time" type="string">20:27:33 </i>
 </generator>
 <incar>
  <i type="string" name="SYSTEM">MoS2_bilayer_3R phonon</i>
  <i type="string" name="PREC">Accurate</i>
  <i type="string" name="ALGO">Normal</i>
  <i name="AMIN">      0.01000000</i>
  <i type="int" name="NELM">   200</i>
  <i type="int" name="IBRION">    -1</i>
  <i name="EDIFF">      0.00000100</i>
  <i type="int" name="NSW">     0</i>
  <i name="ENCUT">    520.00000000</i>
  <i type="string" name="LREAL">Auto</i>
  <i type="int" name="ISMEAR">     0</i>
  <i name="SIGMA">      0.05000000</i>
  <i type="logical" name="LWAVE"> F  </i>
  <i type="logical" name="LCHARG"> F  </i>
  <i type="int" name="IVDW">    12</i>
 </incar>
 <primitive_cell>
  <structure name="primitive_cell" >
   <crystal>
    <varray name="basis" >
     <v>       9.57671374       0.00000000       0.00000000 </v>
     <v>       4.78835687       8.29367738       0.00000000 </v>
     <v>       0.00000000       0.00000000      20.00000000 </v>
    </varray>
    <i name="volume">   1588.52348190 </i>
    <varray name="rec_basis" >
     <v>       0.10441995      -0.06028689       0.00000000 </v>
     <v>       0.00000000       0.12057378       0.00000000 </v>
     <v>       0.00000000       0.00000000       0.05000000 </v>
    </varray>
   </crystal>
   <varray name="positions" >
    <v>       0.00000000       0.00000000       0.51296834 </v>
    <v>       0.33333333       0.00000000       0.51296834 </v>
    <v>       0.66666667       0.00000000       0.51296834 </v>
    <v>       1.00000000       0.33333333       0.51296834 </v>
    <v>       0.33333333       0.33333333       0.51296834 </v>
    <v>       0.66666667       0.33333333       0.51296834 </v>
    <v>       1.00000000       0.66666667       0.51296834 </v>
    <v>       0.33333333       0.66666667       0.51296834 </v>
    <v>       0.66666667       0.66666667       0.51296834 </v>
    <v>       0.11111111       0.11111111       0.81206902 </v>
    <v>       0.44444444       0.11111111       0.81206902 </v>
    <v>       0.77777778       0.11111111       0.81206902 </v>
    <v>       0.11111111       0.44444444       0.81206902 </v>
    <v>       0.44444444       0.44444444       0.81206902 </v>
    <v>       0.77777778       0.44444444       0.81206902 </v>
    <v>       0.11111111       0.77777778       0.81206902 </v>
    <v>       0.44444444       0.77777778       0.81206902 </v>
    <v>       0.77777778       0.77777778       0.81206902 </v>
    <v>       0.11111111       0.11111111       0.43526293 </v>
    <v>       0.44444444       0.11111111       0.43526293 </v>
    <v>       0.77777778       0.11111111       0.43526293 </v>
    <v>       0.11111111       0.44444444       0.43526293 </v>
    <v>       0.44444444       0.44444444       0.43526293 </v>
    <v>       0.77777778       0.44444444       0.43526293 </v>
    <v>       0.11111111       0.77777778       0.43526293 </v>
    <v>       0.44444444       0.77777778       0.43526293 </v>
    <v>       0.77777778       0.77777778       0.43526293 </v>
    <v>       0.11111111       0.11111111       0.59047446 </v>
    <v>       0.44444444       0.11111111       0.59047446 </v>
    <v>       0.77777778       0.11111111       0.59047446 </v>
    <v>       0.11111111       0.44444444       0.59047446 </v>
    <v>       0.44444444       0.44444444       0.59047446 </v>
    <v>       0.77777778       0.44444444       0.59047446 </v>
    <v>       0.11111111       0.77777778       0.59047446 </v>
    <v>       0.44444444       0.77777778       0.59047446 </v>
    <v>       0.77777778       0.77777778       0.59047446 </v>
    <v>       0.22267319       0.22222222       0.73495018 </v>
    <v>       0.55555556       0.22222222       0.73449922 </v>
    <v>       0.88888889       0.22222222       0.73449922 </v>
    <v>       0.22222222       0.55555556       0.73449922 </v>
    <v>       0.55555556       0.55555556       0.73449922 </v>
    <v>       0.88888889       0.55555556       0.73449922 </v>
    <v>       0.22222222       0.88888889       0.73449922 </v>
    <v>       0.55555556       0.88888889       0.73449922 </v>
    <v>       0.88888889       0.88888889       0.73449922 </v>
    <v>       0.22222222       0.22222222       0.88972603 </v>
    <v>       0.55555556       0.22222222       0.88972603 </v>
    <v>       0.88888889       0.22222222       0.88972603 </v>
    <v>       0.22222222       0.55555556       0.88972603 </v>
    <v>       0.55555556       0.55555556       0.88972603 </v>
    <v>       0.88888889       0.55555556       0.88972603 </v>
    <v>       0.22222222       0.88888889       0.88972603 </v>
    <v>       0.55555556       0.88888889       0.88972603 </v>
    <v>       0.88888889       0.88888889       0.88972603 </v>
   </varray>
  </structure>
  <varray name="primitive_index" >
   <v type="int" >        1 </v>
   <v type="int" >        2 </v>
   <v type="int" >        3 </v>
   <v type="int" >        4 </v>
   <v type="int" >        5 </v>
   <v type="int" >        6 </v>
   <v type="int" >        7 </v>
   <v type="int" >        8 </v>
   <v type="int" >        9 </v>
   <v type="int" >       10 </v>
   <v type="int" >       11 </v>
   <v type="int" >       12 </v>
   <v type="int" >       13 </v>
   <v type="int" >       14 </v>
   <v type="int" >       15 </v>
   <v type="int" >       16 </v>
   <v type="int" >       17 </v>
   <v type="int" >       18 </v>
   <v type="int" >       19 </v>
   <v type="int" >       20 </v>
   <v type="int" >       21 </v>
   <v type="int" >       22 </v>
   <v type="int" >       23 </v>
   <v type="int" >       24 </v>
   <v type="int" >       25 </v>
   <v type="int" >       26 </v>
   <v type="int" >       27 </v>
   <v type="int" >       28 </v>
   <v type="int" >       29 </v>
   <v type="int" >       30 </v>
   <v type="int" >       31 </v>
   <v type="int" >       32 </v>
   <v type="int" >       33 </v>
   <v type="int" >       34 </v>
   <v type="int" >       35 </v>
   <v type="int" >       36 </v>
   <v type="int" >       37 </v>
   <v type="int" >       38 </v>
   <v type="int" >       39 </v>
   <v type="int" >       40 </v>
   <v type="int" >       41 </v>
   <v type="int" >       42 </v>
   <v type="int" >       43 </v>
   <v type="int" >       44 </v>
   <v type="int" >       45 </v>
   <v type="int" >       46 </v>
   <v type="int" >       47 </v>
   <v type="int" >       48 </v>
   <v type="int" >       49 </v>
   <v type="int" >       50 </v>
   <v type="int" >       51 </v>
   <v type="int" >       52 </v>
   <v type="int" >       53 </v>
   <v type="int" >       54 </v>
  </varray>
 </primitive_cell>
 <kpoints>
  <generation param="Gamma">
   <v type="int" name="divisions">       5        5        1 </v>
   <v name="usershift">      0.00000000       0.00000000       0.00000000 </v>
   <v name="genvec1">      0.20000000       0.00000000       0.00000000 </v>
   <v name="genvec2">      0.00000000       0.20000000       0.00000000 </v>
   <v name="genvec3">      0.00000000       0.00000000       1.00000000 </v>
   <v name="shift">      0.00000000       0.00000000       0.00000000 </v>
  </generation>
  <varray name="kpointlist" >
   <v>       0.00000000       0.00000000       0.00000000 </v>
   <v>       0.20000000       0.00000000       0.00000000 </v>
   <v>       0.20000000       0.20000000       0.00000000 </v>
   <v>       0.00000000       0.20000000       0.00000000 </v>
   <v>       0.40000000       0.00000000       0.00000000 </v>
   <v>       0.40000000       0.40000000       0.00000000 </v>
   <v>       0.00000000       0.40000000       0.00000000 </v>
   <v>       0.40000000       0.20000000       0.00000000 </v>
   <v>       0.20000000       0.40000000       0.00000000 </v>
   <v>      -0.20000000       0.20000000       0.00000000 </v>
   <v>      -0.40000000       0.20000000       0.00000000 </v>
   <v>       0.40000000      -0.40000000       0.00000000 </v>
   <v>      -0.20000000       0.40000000       0.00000000 </v>
  </varray>
  <varray name="weights" >
   <v>       0.04000000 </v>
   <v>       0.08000000 </v>
   <v>       0.08000000 </v>
   <v>       0.08000000 </v>
   <v>       0.08000000 </v>
   <v>       0.08000000 </v>
   <v>       0.08000000 </v>
   <v>       0.08000000 </v>
   <v>       0.08000000 </v>
   <v>       0.08000000 </v>
   <v>       0.08000000 </v>
   <v>       0.08000000 </v>
   <v>       0.08000000 </v>
  </varray>
 </kpoints>
 <parameters>
  <separator name="general" >
   <i type="string" name="SYSTEM">MoS2_bilayer_3R phonon</i>
   <i type="logical" name="LCOMPAT"> F  </i>
  </separator>
  <separator name="electronic" >
   <i type="string" name="PREC">accura</i>
   <i name="ENMAX">    520.00000000</i>
   <i name="ENAUG">    446.01400000</i>
   <i name="EDIFF">      0.00000100</i>
   <i type="int" name="IALGO">    38</i>
   <i type="int" name="IWAVPR">    10</i>
   <i type="int" name="NBANDS">   286</i>
   <i type="int" name="NBANDSLOW">    -1</i>
   <i type="int" name="NBANDSHIGH">    -1</i>
   <i name="NELECT">    468.00000000</i>
   <i type="int" name="TURBO">     0</i>
   <i type="int" name="IRESTART">     0</i>
   <i type="int" name="NREBOOT">     0</i>
   <i type="int" name="NMIN">     0</i>
   <i name="EREF">      0.00000000</i>
   <separator name="electronic smearing" >
    <i type="int" name="ISMEAR">     0</i>
    <i name="SIGMA">      0.05000000</i>
    <i name="KSPACING">      0.50000000</i>
    <i type="logical" name="KGAMMA"> T  </i>
    <i type="logical" name="KBLOWUP"> T  </i>
   </separator>
   <separator name="electronic projectors" >
    <i type="logical" name="LREAL"> T  </i>
    <v name="ROPT">     -0.00025000     -0.00025000</v>
    <i type="int" name="LMAXPAW">  -100</i>
    <i type="int" name="LMAXMIX">     2</i>
    <i type="logical" name="NLSPLINE"> F  </i>
   </separator>
   <separator name="electronic startup" >
    <i type="int" name="ISTART">     0</i>
    <i type="int" name="ICHARG">     2</i>
    <i type="int" name="INIWAV">     1</i>
   </separator>
   <separator name="electronic spin" >
    <i type="int" name="ISPIN">     1</i>
    <i type="logical" name="LNONCOLLINEAR"> F  </i>
    <v name="MAGMOM">      1.00000000      1.00000000      1.00000000      1.00000000      1.00000000      1.00000000      1.00000000      1.00000000      1.00000000      1.00000000      1.00000000      1.00000000      1.00000000      1.00000000      1.00000000      1.00000000      1.00000000      1.00000000      1.00000000      1.00000000
      1.00000000      1.00000000      1.00000000      1.00000000      1.00000000      1.00000000      1.00000000      1.00000000      1.00000000      1.00000000      1.00000000      1.00000000      1.00000000      1.00000000      1.00000000      1.00000000      1.00000000      1.00000000      1.00000000      1.00000000
      1.00000000      1.00000000      1.00000000      1.00000000      1.00000000      1.00000000      1.00000000      1.00000000      1.00000000      1.00000000      1.00000000      1.00000000      1.00000000      1.00000000</v>
    <i name="NUPDOWN">     -1.00000000</i>
    <i type="logical" name="LSORBIT"> F  </i>
    <v name="SAXIS">      0.00000000      0.00000000      1.00000000</v>
    <i type="logical" name="LSPIRAL"> F  </i>
    <v name="QSPIRAL">      0.00000000      0.00000000      0.00000000</v>
    <i type="logical" name="LZEROZ"> F  </i>
   </separator>
   <separator name="electronic exchange-correlation" >
    <i type="logical" name="LASPH"> F  </i>
   </separator>
   <separator name="electronic convergence" >
    <i type="int" name="NELM">   200</i>
    <i type="int" name="NELMDL">    -5</i>
    <i type="int" name="NELMIN">     2</i>
    <i name="ENINI">    520.00000000</i>
    <separator name="electronic convergence detail" >
     <i type="logical" name="LDIAG"> T  </i>
     <i type="logical" name="LSUBROT"> F  </i>
     <i type="logical" name="LROBUST"> F  </i>
     <i type="int" name="ISEARCH">     0</i>
     <i name="WEIMIN">      0.00000000</i>
     <i name="EBREAK">      0.00000000</i>
     <i name="DEPER">      0.30000000</i>
     <i type="int" name="NRMM">     4</i>
     <i name="TIME">      0.40000000</i>
    </separator>
   </separator>
   <separator name="electronic mixer" >
    <i name="AMIX">      0.40000000</i>
    <i name="BMIX">      1.00000000</i>
    <i name="AMIN">      0.01000000</i>
    <i name="AMIX_MAG">      1.60000000</i>
    <i name="BMIX_MAG">      1.00000000</i>
    <separator name="electronic mixer details" >
     <i type="int" name="IMIX">     4</i>
     <i type="logical" name="MIXFIRST"> F  </i>
     <i type="int" name="MAXMIX">   -45</i>
     <i name="WC">    100.00000000</i>
     <i type="int" name="INIMIX">     1</i>
     <i type="int" name="MIXPRE">     1</i>
     <i type="int" name="MREMOVE">     5</i>
    </separator>
   </separator>
   <separator name="electronic dipolcorrection" >
    <i type="logical" name="LDIPOL"> F  </i>
    <i type="logical" name="LMONO"> F  </i>
    <i type="int" name="IDIPOL">     0</i>
    <i name="EPSILON">      1.00000000</i>
    <v name="DIPOL">   -100.00000000   -100.00000000   -100.00000000</v>
    <i name="EFIELD">      0.00000000</i>
    <i type="logical" name="LVACPOTAV"> F  </i>
   </separator>
  </separator>
  <separator name="grids" >
   <i type="int" name="NGX">    72</i>
   <i type="int" name="NGY">    72</i>
   <i type="int" name="NGZ">   150</i>
   <i type="int" name="NGXF">   144</i>
   <i type="int" name="NGYF">   144</i>
   <i type="int" name="NGZF">   300</i>
   <i type="logical" name="ADDGRID"> F  </i>
  </separator>
  <separator name="ionic" >
   <i type="int" name="NSW">     0</i>
   <i type="int" name="IBRION">    -1</i>
   <i type="int" name="MDALGO">     0</i>
   <i type="int" name="ISIF">     2</i>
   <i name="PSTRESS">      0.00000000</i>
   <i name="EDIFFG">      0.00001000</i>
   <i type="int" name="NFREE">     0</i>
   <i name="POTIM">      0.50000000</i>
   <i name="SMASS">     -3.00000000</i>
   <i name="SCALEE">      1.00000000</i>
  </separator>
  <separator name="ionic md" >
   <i name="TEBEG">      0.00010000</i>
   <i name="TEEND">      0.00010000</i>
   <i type="int" name="NBLOCK">     1</i>
   <i type="int" name="KBLOCK">     1</i>
   <i type="int" name="NPACO">   256</i>
   <i name="APACO">     10.00000000</i>
  </separator>
  <separator name="symmetry" >
   <i type="int" name="ISYM">     2</i>
   <i name="SYMPREC">      0.00001000</i>
  </separator>
  <separator name="dos" >
   <i type="int" name="LORBIT">     0</i>
   <v name="RWIGS">     -1.00000000     -1.00000000</v>
   <i type="int" name="NEDOS">   301</i>
   <i name="EMIN">     10.00000000</i>
   <i name="EMAX">    -10.00000000</i>
   <i name="EFERMI">      0.00000000</i>
  </separator>
  <separator name="writing" >
   <i type="int" name="NWRITE">     2</i>
   <i type="logical" name="LWAVE"> F  </i>
   <i type="logical" name="LDOWNSAMPLE"> F  </i>
   <i type="logical" name="LCHARG"> F  </i>
   <i type="logical" name="LPARD"> F  </i>
   <i type="logical" name="LVTOT"> F  </i>
   <i type="logical" name="LVHAR"> F  </i>
   <i type="logical" name="LELF"> F  </i>
   <i type="logical" name="LOPTICS"> F  </i>
   <v name="STM">      0.00000000      0.00000000      0.00000000      0.00000000      0.00000000      0.00000000      0.00000000</v>
  </separator>
  <separator name="performance" >
   <i type="int" name="NPAR">    11</i>
   <i type="int" name="NSIM">     4</i>
   <i type="int" name="NBLK">    -1</i>
   <i type="logical" name="LPLANE"> T  </i>
   <i type="logical" name="LSCALAPACK"> T  </i>
   <i type="logical" name="LSCAAWARE"> F  </i>
   <i type="logical" name="LSCALU"> F  </i>
   <i type="logical" name="LASYNC"> F  </i>
   <i type="logical" name="LORBITALREAL"> F  </i>
  </separator>
  <separator name="miscellaneous" >
   <i type="int" name="IDIOT">     3</i>
   <i type="int" name="PHON_NSTRUCT">    -1</i>
   <i type="logical" name="LMUSIC"> F  </i>
   <v name="POMASS">     95.94000000     32.06600000</v>
   <v name="DARWINR">      0.00000000      0.00000000</v>
   <v name="DARWINV">      1.00000000      1.00000000</v>
   <i type="logical" name="LCORR"> T  </i>
  </separator>
  <i type="logical" name="GGA_COMPAT"> T  </i>
  <i type="logical" name="LBERRY"> F  </i>
  <i type="int" name="ICORELEVEL">     0</i>
  <i type="logical" name="LDAU"> F  </i>
  <i type="int" name="I_CONSTRAINED_M">     0</i>
  <separator name="electronic exchange-correlation" >
   <i type="string" name="GGA    ">PE</i>
   <i type="string" name="XC_C">1</i>
   <i type="int" name="VOSKOWN">     0</i>
   <i type="logical" name="LHFCALC"> F  </i>
   <i type="string" name="PRECFOCK"></i>
   <i type="logical" name="LSYMGRAD"> F  </i>
   <i type="logical" name="LHFONE"> F  </i>
   <i type="logical" name="LRHFCALC"> F  </i>
   <i type="logical" name="LTHOMAS"> F  </i>
   <i type="logical" name="LMODELHF"> F  </i>
   <i type="logical" name="LFOCKACE"> F  </i>
   <i name="ENCUT4O">     -1.00000000</i>
   <i type="int" name="EXXOEP">     0</i>
   <i type="int" name="FOURORBIT">     0</i>
   <i name="AEXX">      0.00000000</i>
   <i name="HFALPHA">      0.00000000</i>
   <i name="MCALPHA">      0.00000000</i>
   <i name="ALDAX">      1.00000000</i>
   <i name="AGGAX">      1.00000000</i>
   <i name="AMGGAX">      1.00000000</i>
   <i name="ALDAC">      1.00000000</i>
   <i name="AGGAC">      1.00000000</i>
   <i name="AMGGAC">      1.00000000</i>
   <i type="int" name="NKREDX">     1</i>
   <i type="int" name="NKREDY">     1</i>
   <i type="int" name="NKREDZ">     1</i>
   <i type="logical" name="SHIFTRED"> F  </i>
   <i type="logical" name="ODDONLY"> F  </i>
   <i type="logical" name="EVENONLY"> F  </i>
   <i type="int" name="LMAXFOCK">     0</i>
   <i type="int" name="NMAXFOCKAE">     0</i>
   <i type="logical" name="LFOCKAEDFT"> F  </i>
   <i name="HFSCREEN">      0.00000000</i>
   <i name="HFSCREENC">      0.00000000</i>
   <i type="int" name="NBANDSGWLOW">     0</i>
  </separator>
  <separator name="vdW DFT" >
   <i type="logical" name="LUSE_VDW"> F  </i>
   <i type="int" name="IVDW_NL">    -1</i>
   <i type="logical" name="LSPIN_VDW"> F  </i>
   <i name="ZAB_VDW">     -0.84910000</i>
   <i name="GAMMA_VDW">      1.39626340</i>
   <i name="ALPHA_VDW">      0.00000000</i>
   <i name="PARAM1">      0.12340000</i>
   <i name="PARAM2">      1.00000000</i>
   <i name="BPARAM">      6.30000000</i>
   <i name="CPARAM">      0.00930000</i>
  </separator>
  <separator name="model GW" >
   <i type="int" name="MODEL_GW">     0</i>
   <i name="MODEL_EPS0">     17.65026091</i>
   <i name="MODEL_ALPHA">      1.00000000</i>
  </separator>
  <separator name="linear response parameters" >
   <i type="logical" name="LEPSILON"> F  </i>
   <i type="logical" name="LRPA"> F  </i>
   <i type="logical" name="LNABLA"> F  </i>
   <i type="logical" name="LVEL"> F  </i>
   <i name="CSHIFT">      0.10000000</i>
   <i name="OMEGAMAX">     -1.00000000</i>
   <i name="DEG_THRESHOLD">      0.00200000</i>
   <i name="RTIME">     -0.10000000</i>
   <i name="WPLASMAI">      0.00000000</i>
   <v name="DFIELD">      0.00000000      0.00000000      0.00000000</v>
   <v name="WPLASMA">      0.00000000      0.00000000      0.00000000      0.00000000      0.00000000      0.00000000      0.00000000      0.00000000      0.00000000</v>
  </separator>
  <separator name="orbital magnetization" >
   <i type="logical" name="NUCIND"> F  </i>
   <v name="MAGPOS">      0.00000000      0.00000000      0.00000000</v>
   <i type="logical" name="LNICSALL"> T  </i>
   <i type="logical" name="ORBITALMAG"> F  </i>
   <i type="logical" name="LMAGBLOCH"> F  </i>
   <i type="logical" name="LCHIMAG"> F  </i>
   <i type="logical" name="LGAUGE"> T  </i>
   <i type="int" name="MAGATOM">     0</i>
   <v name="MAGDIPOL">      0.00000000      0.00000000      0.00000000</v>
   <v name="AVECCONST">      0.00000000      0.00000000      0.00000000</v>
  </separator>
  <separator name="response functions" >
   <i type="logical" name="LALL_IN_ONE"> F  </i>
   <i type="int" name="IALL_IN_ONE">    -1</i>
   <i type="int" name="NBANDS_WAVE">    -1</i>
   <i type="logical" name="LFINITE_TEMPERATURE"> F  </i>
   <i type="logical" name="LADDER"> F  </i>
   <i type="logical" name="LRPAFORCE"> F  </i>
   <i type="logical" name="LFXC"> F  </i>
   <i type="logical" name="LHARTREE"> T  </i>
   <i type="int" name="IBSE">     2</i>
   <v type="int" name="KPOINT">    -1     0     0     0</v>
   <i type="logical" name="LTCTC"> F  </i>
   <i type="logical" name="LTCTE"> F  </i>
   <i type="logical" name="LTETE"> F  </i>
   <i type="logical" name="LTRIPLET"> F  </i>
   <i type="logical" name="LFXCEPS"> F  </i>
   <i type="logical" name="LFXHEG"> F  </i>
   <i type="int" name="NATURALO">     2</i>
   <i type="logical" name="LHOLEGF"> F  </i>
   <i type="logical" name="L2ORDER"> F  </i>
   <i type="logical" name="LDMP1"> F  </i>
   <i type="logical" name="LMP2LT"> F  </i>
   <i type="logical" name="LSMP2LT"> F  </i>
   <i type="logical" name="LGWLF"> F  </i>
   <i name="ENCUTGW">     -1.60000002</i>
   <i name="ENCUTGWSOFT">     -1.60000002</i>
   <i name="ENCUTLF">     -1.00000000</i>
   <i type="logical" name="ESF_SPLINES"> F  </i>
   <i name="ESF_CONV">      0.01000000</i>
   <i type="int" name="ESF_NINTER">    15</i>
   <i type="int" name="LMAXMP2">    -1</i>
   <i name="SCISSOR">      0.00000000</i>
   <i type="int" name="NOMEGA">     0</i>
   <i type="int" name="NOMEGAR">     0</i>
   <i type="int" name="NBANDSGW">    -1</i>
   <i type="int" name="NBANDSO">    -1</i>
   <i type="int" name="NBANDSV">    -1</i>
   <i type="int" name="NELMGW">     1</i>
   <i type="int" name="NELMHF">     1</i>
   <i type="int" name="DIM">     3</i>
   <i type="int" name="IESPILON">     4</i>
   <i type="int" name="ANTIRES">     0</i>
   <i name="OMEGAMAX">    -30.00000000</i>
   <i name="OMEGAMIN">    -30.00000000</i>
   <i name="OMEGATL">   -200.00000000</i>
   <i type="int" name="OMEGAGRID">     0</i>
   <i name="CSHIFT">     -0.10000000</i>
   <i type="logical" name="LSELFENERGY"> F  </i>
   <i type="logical" name="LSPECTRAL"> F  </i>
   <i type="logical" name="LSPECTRALGW"> F  </i>
   <i type="logical" name="LSINGLES"> F  </i>
   <i type="logical" name="LFERMIGW"> F  </i>
   <i type="logical" name="ODDONLYGW"> F  </i>
   <i type="logical" name="EVENONLYGW"> F  </i>
   <i type="int" name="NKREDLFX">     1</i>
   <i type="int" name="NKREDLFY">     1</i>
   <i type="int" name="NKREDLFZ">     1</i>
   <i type="int" name="MAXMEM">  2800</i>
   <i type="int" name="TELESCOPE">     0</i>
   <i type="int" name="NTAUPAR">    -1</i>
   <i type="int" name="NOMEGAPAR">    -1</i>
   <i name="DAMP_NEWTON">      0.80000001</i>
   <i name="LAMBDA">      1.00000000</i>
  </separator>
  <separator name="External order field" >
   <i name="OFIELD_KAPPA">      0.00000000</i>
   <v name="OFIELD_K">      0.00000000      0.00000000      0.00000000</v>
   <i name="OFIELD_Q6_NEAR">      0.00000000</i>
   <i name="OFIELD_Q6_FAR">      0.00000000</i>
   <i name="OFIELD_A">      0.00000000</i>
  </separator>
  <separator name="optional k-points parameters" >
   <i type="int" name="KPOINTS_OPT_MODE">     1</i>
   <i type="logical" name="LKPOINTS_OPT"> F  </i>
  </separator>
 </parameters>
 <atominfo>
  <atoms>      54 </atoms>
  <types>       2 </types>
  <array name="atoms" >
   <dimension dim="1">ion</dimension>
   <field type="string">element</field>
   <field type="int">atomtype</field>
   <set>
    <rc><c>Mo</c><c>   1</c></rc>
    <rc><c>Mo</c><c>   1</c></rc>
    <rc><c>Mo</c><c>   1</c></rc>
    <rc><c>Mo</c><c>   1</c></rc>
    <rc><c>Mo</c><c>   1</c></rc>
    <rc><c>Mo</c><c>   1</c></rc>
    <rc><c>Mo</c><c>   1</c></rc>
    <rc><c>Mo</c><c>   1</c></rc>
    <rc><c>Mo</c><c>   1</c></rc>
    <rc><c>Mo</c><c>   1</c></rc>
    <rc><c>Mo</c><c>   1</c></rc>
    <rc><c>Mo</c><c>   1</c></rc>
    <rc><c>Mo</c><c>   1</c></rc>
    <rc><c>Mo</c><c>   1</c></rc>
    <rc><c>Mo</c><c>   1</c></rc>
    <rc><c>Mo</c><c>   1</c></rc>
    <rc><c>Mo</c><c>   1</c></rc>
    <rc><c>Mo</c><c>   1</c></rc>
    <rc><c>S </c><c>   2</c></rc>
    <rc><c>S </c><c>   2</c></rc>
    <rc><c>S </c><c>   2</c></rc>
    <rc><c>S </c><c>   2</c></rc>
    <rc><c>S </c><c>   2</c></rc>
    <rc><c>S </c><c>   2</c></rc>
    <rc><c>S </c><c>   2</c></rc>
    <rc><c>S </c><c>   2</c></rc>
    <rc><c>S </c><c>   2</c></rc>
    <rc><c>S </c><c>   2</c></rc>
    <rc><c>S </c><c>   2</c></rc>
    <rc><c>S </c><c>   2</c></rc>
    <rc><c>S </c><c>   2</c></rc>
    <rc><c>S </c><c>   2</c></rc>
    <rc><c>S </c><c>   2</c></rc>
    <rc><c>S </c><c>   2</c></rc>
    <rc><c>S </c><c>   2</c></rc>
    <rc><c>S </c><c>   2</c></rc>
    <rc><c>S </c><c>   2</c></rc>
    <rc><c>S </c><c>   2</c></rc>
    <rc><c>S </c><c>   2</c></rc>
    <rc><c>S </c><c>   2</c></rc>
    <rc><c>S </c><c>   2</c></rc>
    <rc><c>S </c><c>   2</c></rc>
    <rc><c>S </c><c>   2</c></rc>
    <rc><c>S </c><c>   2</c></rc>
    <rc><c>S </c><c>   2</c></rc>
    <rc><c>S </c><c>   2</c></rc>
    <rc><c>S </c><c>   2</c></rc>
    <rc><c>S </c><c>   2</c></rc>
    <rc><c>S </c><c>   2</c></rc>
    <rc><c>S </c><c>   2</c></rc>
    <rc><c>S </c><c>   2</c></rc>
    <rc><c>S </c><c>   2</c></rc>
    <rc><c>S </c><c>   2</c></rc>
    <rc><c>S </c><c>   2</c></rc>
   </set>
  </array>
  <array name="atomtypes" >
   <dimension dim="1">type</dimension>
   <field type="int">atomspertype</field>
   <field type="string">element</field>
   <field>mass</field>
   <field>valence</field>
   <field type="string">pseudopotential</field>
   <set>
    <rc><c>  18</c><c>Mo</c><c>     95.94000000</c><c>     14.00000000</c><c>  PAW_PBE Mo_sv 02Feb2006               </c></rc>
    <rc><c>  36</c><c>S </c><c>     32.06600000</c><c>      6.00000000</c><c>  PAW_PBE S 06Sep2000                   </c></rc>
   </set>
  </array>
 </atominfo>
 <structure name="initialpos" >
  <crystal>
   <varray name="basis" >
    <v>       9.57671374       0.00000000       0.00000000 </v>
    <v>       4.78835687       8.29367738       0.00000000 </v>
    <v>       0.00000000       0.00000000      20.00000000 </v>
   </varray>
   <i name="volume">   1588.52348190 </i>
   <varray name="rec_basis" >
    <v>       0.10441995      -0.06028689       0.00000000 </v>
    <v>       0.00000000       0.12057378       0.00000000 </v>
    <v>       0.00000000       0.00000000       0.05000000 </v>
   </varray>
  </crystal>
  <varray name="positions" >
   <v>       0.00000000       0.00000000       0.51296834 </v>
   <v>       0.33333333       0.00000000       0.51296834 </v>
   <v>       0.66666667       0.00000000       0.51296834 </v>
   <v>       0.00000000       0.33333333       0.51296834 </v>
   <v>       0.33333333       0.33333333       0.51296834 </v>
   <v>       0.66666667       0.33333333       0.51296834 </v>
   <v>       0.00000000       0.66666667       0.51296834 </v>
   <v>       0.33333333       0.66666667       0.51296834 </v>
   <v>       0.66666667       0.66666667       0.51296834 </v>
   <v>       0.11111111       0.11111111       0.81206902 </v>
   <v>       0.44444444       0.11111111       0.81206902 </v>
   <v>       0.77777778       0.11111111       0.81206902 </v>
   <v>       0.11111111       0.44444444       0.81206902 </v>
   <v>       0.44444444       0.44444444       0.81206902 </v>
   <v>       0.77777778       0.44444444       0.81206902 </v>
   <v>       0.11111111       0.77777778       0.81206902 </v>
   <v>       0.44444444       0.77777778       0.81206902 </v>
   <v>       0.77777778       0.77777778       0.81206902 </v>
   <v>       0.11111111       0.11111111       0.43526293 </v>
   <v>       0.44444444       0.11111111       0.43526293 </v>
   <v>       0.77777778       0.11111111       0.43526293 </v>
   <v>       0.11111111       0.44444444       0.43526293 </v>
   <v>       0.44444444       0.44444444       0.43526293 </v>
   <v>       0.77777778       0.44444444       0.43526293 </v>
   <v>       0.11111111       0.77777778       0.43526293 </v>
   <v>       0.44444444       0.77777778       0.43526293 </v>
   <v>       0.77777778       0.77777778       0.43526293 </v>
   <v>       0.11111111       0.11111111       0.59047446 </v>
   <v>       0.44444444       0.11111111       0.59047446 </v>
   <v>       0.77777778       0.11111111       0.59047446 </v>
   <v>       0.11111111       0.44444444       0.59047446 </v>
   <v>       0.44444444       0.44444444       0.59047446 </v>
   <v>       0.77777778       0.44444444       0.59047446 </v>
   <v>       0.11111111       0.77777778       0.59047446 </v>
   <v>       0.44444444       0.77777778       0.59047446 </v>
   <v>       0.77777778       0.77777778       0.59047446 </v>
   <v>       0.22267319       0.22222222       0.73495018 </v>
   <v>       0.55555556       0.22222222       0.73449922 </v>
   <v>       0.88888889       0.22222222       0.73449922 </v>
   <v>       0.22222222       0.55555556       0.73449922 </v>
   <v>       0.55555556       0.55555556       0.73449922 </v>
   <v>       0.88888889       0.55555556       0.73449922 </v>
   <v>       0.22222222       0.88888889       0.73449922 </v>
   <v>       0.55555556       0.88888889       0.73449922 </v>
   <v>       0.88888889       0.88888889       0.73449922 </v>
   <v>       0.22222222       0.22222222       0.88972603 </v>
   <v>       0.55555556       0.22222222       0.88972603 </v>
   <v>       0.88888889       0.22222222       0.88972603 </v>
   <v>       0.22222222       0.55555556       0.88972603 </v>
   <v>       0.55555556       0.55555556       0.88972603 </v>
   <v>       0.88888889       0.55555556       0.88972603 </v>
   <v>       0.22222222       0.88888889       0.88972603 </v>
   <v>       0.55555556       0.88888889       0.88972603 </v>
   <v>       0.88888889       0.88888889       0.88972603 </v>
  </varray>
 </structure>
 <calculation>
  <scstep>
   <time name="dav">    5.70    5.70</time>
   <time name="total">    5.82    5.83</time>
   <energy>
    <i name="alphaZ">    964.87981809 </i>
    <i name="ewald">  52448.90221931 </i>
    <i name="hartreedc"> -92740.54686017 </i>
    <i name="XCdc">   1646.92343299 </i>
    <i name="pawpsdc">  34790.20238322 </i>
    <i name="pawaedc"> -34342.63393317 </i>
    <i name="eentropy">     -0.01962239 </i>
    <i name="bandstr">  -2080.84057816 </i>
    <i name="atom">  43486.60354843 </i>
    <i name="e_fr_energy">   4173.47040814 </i>
    <i name="e_wo_entrp">   4173.49003053 </i>
    <i name="e_0_energy">   4173.48021934 </i>
   </energy>
  </scstep>
  <scstep>
   <time name="dav">    5.61    5.61</time>
   <time name="total">    5.62    5.62</time>
   <energy>
    <i name="e_fr_energy">    -76.18916409 </i>
    <i name="e_wo_entrp">    -76.18916409 </i>
    <i name="e_0_energy">    -76.18916409 </i>
   </energy>
  </scstep>
  <scstep>
   <time name="dav">    5.49    5.50</time>
   <time name="total">    5.49    5.50</time>
   <energy>
    <i name="e_fr_energy">   -404.14926351 </i>
    <i name="e_wo_entrp">   -404.14926351 </i>
    <i name="e_0_energy">   -404.14926351 </i>
   </energy>
  </scstep>
  <scstep>
   <time name="dav">    6.06    6.06</time>
   <time name="total">    6.06    6.06</time>
   <energy>
    <i name="e_fr_energy">   -419.43400245 </i>
    <i name="e_wo_entrp">   -419.43400245 </i>
    <i name="e_0_energy">   -419.43400245 </i>
   </energy>
  </scstep>
  <scstep>
   <time name="dav">    6.12    6.12</time>
   <time name="total">    6.51    6.51</time>
   <energy>
    <i name="e_fr_energy">   -419.92764483 </i>
    <i name="e_wo_entrp">   -419.92764483 </i>
    <i name="e_0_energy">   -419.92764483 </i>
   </energy>
  </scstep>
  <scstep>
   <time name="dav">    5.33    5.34</time>
   <time name="total">    5.81    5.82</time>
   <energy>
    <i name="e_fr_energy">   -399.56145571 </i>
    <i name="e_wo_entrp">   -399.56145571 </i>
    <i name="e_0_energy">   -399.56145571 </i>
   </energy>
  </scstep>
  <scstep>
   <time name="dav">    5.15    5.15</time>
   <time name="total">    5.62    5.62</time>
   <energy>
    <i name="e_fr_energy">   -395.84057083 </i>
    <i name="e_wo_entrp">   -395.84057083 </i>
    <i name="e_0_energy">   -395.84057083 </i>
   </energy>
  </scstep>
  <scstep>
   <time name="dav">    5.48    5.48</time>
   <time name="total">    5.94    5.94</time>
   <energy>
    <i name="e_fr_energy">   -392.63795772 </i>
    <i name="e_wo_entrp">   -392.63795772 </i>
    <i name="e_0_energy">   -392.63795772 </i>
   </energy>
  </scstep>
  <scstep>
   <time name="dav">    5.93    5.93</time>
   <time name="total">    6.39    6.40</time>
   <energy>
    <i name="e_fr_energy">   -392.76132092 </i>
    <i name="e_wo_entrp">   -392.76132092 </i>
    <i name="e_0_energy">   -392.76132092 </i>
   </energy>
  </scstep>
  <scstep>
   <time name="dav">    5.49    5.49</time>
   <time name="total">    5.94    5.94</time>
   <energy>
    <i name="e_fr_energy">   -392.64336646 </i>
    <i name="e_wo_entrp">   -392.64336646 </i>
    <i name="e_0_energy">   -392.64336646 </i>
   </energy>
  </scstep>
  <scstep>
   <time name="dav">    6.03    6.04</time>
   <time name="total">    6.50    6.50</time>
   <energy>
    <i name="e_fr_energy">   -392.63276898 </i>
    <i name="e_wo_entrp">   -392.63276898 </i>
    <i name="e_0_energy">   -392.63276898 </i>
   </energy>
  </scstep>
  <scstep>
   <time name="dav">    5.68    5.68</time>
   <time name="total">    6.20    6.20</time>
   <energy>
    <i name="e_fr_energy">   -392.62125071 </i>
    <i name="e_wo_entrp">   -392.62125071 </i>
    <i name="e_0_energy">   -392.62125071 </i>
   </energy>
  </scstep>
  <scstep>
   <time name="dav">    5.72    5.72</time>
   <time name="total">    6.18    6.18</time>
   <energy>
    <i name="e_fr_energy">   -392.61835467 </i>
    <i name="e_wo_entrp">   -392.61835467 </i>
    <i name="e_0_energy">   -392.61835467 </i>
   </energy>
  </scstep>
  <scstep>
   <time name="dav">    5.46    5.46</time>
   <time name="total">    5.92    5.92</time>
   <energy>
    <i name="e_fr_energy">   -392.61321666 </i>
    <i name="e_wo_entrp">   -392.61321666 </i>
    <i name="e_0_energy">   -392.61321666 </i>
   </energy>
  </scstep>
  <scstep>
   <time name="dav">    5.41    5.41</time>
   <time name="total">    5.87    5.87</time>
   <energy>
    <i name="e_fr_energy">   -392.60641122 </i>
    <i name="e_wo_entrp">   -392.60641122 </i>
    <i name="e_0_energy">   -392.60641122 </i>
   </energy>
  </scstep>
  <scstep>
   <time name="dav">    5.60    5.60</time>
   <time name="total">    6.05    6.05</time>
   <energy>
    <i name="e_fr_energy">   -392.60460856 </i>
    <i name="e_wo_entrp">   -392.60460856 </i>
    <i name="e_0_energy">   -392.60460856 </i>
   </energy>
  </scstep>
  <scstep>
   <time name="dav">    5.63    5.63</time>
   <time name="total">    6.09    6.09</time>
   <energy>
    <i name="e_fr_energy">   -392.60646609 </i>
    <i name="e_wo_entrp">   -392.60646609 </i>
    <i name="e_0_energy">   -392.60646609 </i>
   </energy>
  </scstep>
  <scstep>
   <time name="dav">    5.90    5.91</time>
   <time name="total">    6.36    6.36</time>
   <energy>
    <i name="e_fr_energy">   -392.60917621 </i>
    <i name="e_wo_entrp">   -392.60917621 </i>
    <i name="e_0_energy">   -392.60917621 </i>
   </energy>
  </scstep>
  <scstep>
   <time name="dav">    5.81    5.82</time>
   <time name="total">    6.28    6.28</time>
   <energy>
    <i name="e_fr_energy">   -392.61048712 </i>
    <i name="e_wo_entrp">   -392.61048712 </i>
    <i name="e_0_energy">   -392.61048712 </i>
   </energy>
  </scstep>
  <scstep>
   <time name="dav">    5.57    5.57</time>
   <time name="total">    6.03    6.03</time>
   <energy>
    <i name="e_fr_energy">   -392.61232211 </i>
    <i name="e_wo_entrp">   -392.61232211 </i>
    <i name="e_0_energy">   -392.61232211 </i>
   </energy>
  </scstep>
  <scstep>
   <time name="dav">    5.41    5.41</time>
   <time name="total">    5.87    5.88</time>
   <energy>
    <i name="e_fr_energy">   -392.61471634 </i>
    <i name="e_wo_entrp">   -392.61471634 </i>
    <i name="e_0_energy">   -392.61471634 </i>
   </energy>
  </scstep>
  <scstep>
   <time name="dav">    5.59    5.59</time>
   <time name="total">    6.05    6.05</time>
   <energy>
    <i name="e_fr_energy">   -392.61500036 </i>
    <i name="e_wo_entrp">   -392.61500036 </i>
    <i name="e_0_energy">   -392.61500036 </i>
   </energy>
  </scstep>
  <scstep>
   <time name="dav">    4.72    4.73</time>
   <time name="total">    5.19    5.20</time>
   <energy>
    <i name="e_fr_energy">   -392.61508201 </i>
    <i name="e_wo_entrp">   -392.61508201 </i>
    <i name="e_0_energy">   -392.61508201 </i>
   </energy>
  </scstep>
  <scstep>
   <time name="dav">    4.26    4.26</time>
   <time name="total">    4.72    4.73</time>
   <energy>
    <i name="e_fr_energy">   -392.61520920 </i>
    <i name="e_wo_entrp">   -392.61520920 </i>
    <i name="e_0_energy">   -392.61520920 </i>
   </energy>
  </scstep>
  <scstep>
   <time name="dav">    4.32    4.32</time>
   <time name="total">    4.79    4.79</time>
   <energy>
    <i name="e_fr_energy">   -392.61535979 </i>
    <i name="e_wo_entrp">   -392.61535979 </i>
    <i name="e_0_energy">   -392.61535979 </i>
   </energy>
  </scstep>
  <scstep>
   <time name="dav">    4.13    4.13</time>
   <time name="total">    4.59    4.59</time>
   <energy>
    <i name="e_fr_energy">   -392.61536089 </i>
    <i name="e_wo_entrp">   -392.61536089 </i>
    <i name="e_0_energy">   -392.61536089 </i>
   </energy>
  </scstep>
  <scstep>
   <time name="dav">    3.66    3.66</time>
   <time name="total">    4.13    4.14</time>
   <energy>
    <i name="e_fr_energy">   -392.61536400 </i>
    <i name="e_wo_entrp">   -392.61536400 </i>
    <i name="e_0_energy">   -392.61536400 </i>
   </energy>
  </scstep>
  <scstep>
   <time name="dav">    3.98    3.98</time>
   <time name="total">    4.45    4.46</time>
   <energy>
    <i name="e_fr_energy">   -392.61536020 </i>
    <i name="e_wo_entrp">   -392.61536020 </i>
    <i name="e_0_energy">   -392.61536020 </i>
   </energy>
  </scstep>
  <scstep>
   <time name="dav">    3.99    3.99</time>
   <time name="total">    4.10    4.11</time>
   <energy>
    <i name="alphaZ">    964.87981809 </i>
    <i name="ewald">  52448.90221931 </i>
    <i name="hartreedc"> -92560.21510577 </i>
    <i name="XCdc">   1636.27497674 </i>
    <i name="pawpsdc">  53026.17930620 </i>
    <i name="pawaedc"> -52647.61292059 </i>
    <i name="eentropy">     -0.00000000 </i>
    <i name="bandstr">  -6747.62720217 </i>
    <i name="atom">  43486.60354843 </i>
    <i name="e_fr_energy">   -392.61535976 </i>
    <i name="e_wo_entrp">   -392.61535976 </i>
    <i name="e_0_energy">   -392.61535976 </i>
   </energy>
  </scstep>
  <structure>
   <crystal>
    <varray name="basis" >
     <v>       9.57671374       0.00000000       0.00000000 </v>
     <v>       4.78835687       8.29367738       0.00000000 </v>
     <v>       0.00000000       0.00000000      20.00000000 </v>
    </varray>
    <i name="volume">   1588.52348190 </i>
    <varray name="rec_basis" >
     <v>       0.10441995      -0.06028689       0.00000000 </v>
     <v>       0.00000000       0.12057378       0.00000000 </v>
     <v>       0.00000000       0.00000000       0.05000000 </v>
    </varray>
   </crystal>
   <varray name="positions" >
    <v>       0.00000000       0.00000000       0.51296834 </v>
    <v>       0.33333333       0.00000000       0.51296834 </v>
    <v>       0.66666667       0.00000000       0.51296834 </v>
    <v>       0.00000000       0.33333333       0.51296834 </v>
    <v>       0.33333333       0.33333333       0.51296834 </v>
    <v>       0.66666667       0.33333333       0.51296834 </v>
    <v>       0.00000000       0.66666667       0.51296834 </v>
    <v>       0.33333333       0.66666667       0.51296834 </v>
    <v>       0.66666667       0.66666667       0.51296834 </v>
    <v>       0.11111111       0.11111111       0.81206902 </v>
    <v>       0.44444444       0.11111111       0.81206902 </v>
    <v>       0.77777778       0.11111111       0.81206902 </v>
    <v>       0.11111111       0.44444444       0.81206902 </v>
    <v>       0.44444444       0.44444444       0.81206902 </v>
    <v>       0.77777778       0.44444444       0.81206902 </v>
    <v>       0.11111111       0.77777778       0.81206902 </v>
    <v>       0.44444444       0.77777778       0.81206902 </v>
    <v>       0.77777778       0.77777778       0.81206902 </v>
    <v>       0.11111111       0.11111111       0.43526293 </v>
    <v>       0.44444444       0.11111111       0.43526293 </v>
    <v>       0.77777778       0.11111111       0.43526293 </v>
    <v>       0.11111111       0.44444444       0.43526293 </v>
    <v>       0.44444444       0.44444444       0.43526293 </v>
    <v>       0.77777778       0.44444444       0.43526293 </v>
    <v>       0.11111111       0.77777778       0.43526293 </v>
    <v>       0.44444444       0.77777778       0.43526293 </v>
    <v>       0.77777778       0.77777778       0.43526293 </v>
    <v>       0.11111111       0.11111111       0.59047446 </v>
    <v>       0.44444444       0.11111111       0.59047446 </v>
    <v>       0.77777778       0.11111111       0.59047446 </v>
    <v>       0.11111111       0.44444444       0.59047446 </v>
    <v>       0.44444444       0.44444444       0.59047446 </v>
    <v>       0.77777778       0.44444444       0.59047446 </v>
    <v>       0.11111111       0.77777778       0.59047446 </v>
    <v>       0.44444444       0.77777778       0.59047446 </v>
    <v>       0.77777778       0.77777778       0.59047446 </v>
    <v>       0.22267319       0.22222222       0.73495018 </v>
    <v>       0.55555556       0.22222222       0.73449922 </v>
    <v>       0.88888889       0.22222222       0.73449922 </v>
    <v>       0.22222222       0.55555556       0.73449922 </v>
    <v>       0.55555556       0.55555556       0.73449922 </v>
    <v>       0.88888889       0.55555556       0.73449922 </v>
    <v>       0.22222222       0.88888889       0.73449922 </v>
    <v>       0.55555556       0.88888889       0.73449922 </v>
    <v>       0.88888889       0.88888889       0.73449922 </v>
    <v>       0.22222222       0.22222222       0.88972603 </v>
    <v>       0.55555556       0.22222222       0.88972603 </v>
    <v>       0.88888889       0.22222222       0.88972603 </v>
    <v>       0.22222222       0.55555556       0.88972603 </v>
    <v>       0.55555556       0.55555556       0.88972603 </v>
    <v>       0.88888889       0.55555556       0.88972603 </v>
    <v>       0.22222222       0.88888889       0.88972603 </v>
    <v>       0.55555556       0.88888889       0.88972603 </v>
    <v>       0.88888889       0.88888889       0.88972603 </v>
   </varray>
  </structure>
  <varray name="forces" >
   <v>       0.00010705       0.00004670       0.00090098 </v>
   <v>       0.00000588      -0.00020704      -0.00014303 </v>
   <v>      -0.00007266       0.00004784       0.00075697 </v>
   <v>      -0.00020916       0.00013182      -0.00030585 </v>
   <v>       0.00014181       0.00008772       0.00001690 </v>
   <v>      -0.00004153       0.00015224       0.00045005 </v>
   <v>       0.00001939      -0.00010785       0.00083163 </v>
   <v>       0.00008167      -0.00007548       0.00041760 </v>
   <v>      -0.00016501      -0.00007685       0.00046226 </v>
   <v>      -0.00753617      -0.00838123       0.02762430 </v>
   <v>       0.04449515      -0.02165031       0.05409696 </v>
   <v>       0.00046083       0.00003913       0.00165650 </v>
   <v>       0.00698809       0.02992544       0.04075482 </v>
   <v>       0.00072948       0.00152699       0.00223928 </v>
   <v>      -0.00043369      -0.00084534       0.00064789 </v>
   <v>       0.00022358       0.00013358       0.00152169 </v>
   <v>      -0.00190736      -0.00067626       0.00144106 </v>
   <v>       0.00015259      -0.00018068       0.00178387 </v>
   <v>      -0.00003181      -0.00001225       0.00036146 </v>
   <v>      -0.00000129       0.00000268       0.00034643 </v>
   <v>      -0.00001215      -0.00002508       0.00026821 </v>
   <v>      -0.00000336       0.00001379       0.00035467 </v>
   <v>      -0.00000563       0.00001303       0.00031585 </v>
   <v>      -0.00002901       0.00000589       0.00031589 </v>
   <v>      -0.00003140       0.00001128       0.00027743 </v>
   <v>      -0.00002399      -0.00001993       0.00031918 </v>
   <v>       0.00000726       0.00001062       0.00026521 </v>
   <v>       0.00194391       0.00120088       0.00244537 </v>
   <v>      -0.00127585       0.00066628       0.00128623 </v>
   <v>       0.00001367       0.00003225       0.00010193 </v>
   <v>      -0.00012964      -0.00186409       0.00186568 </v>
   <v>      -0.00004469      -0.00001479      -0.00000603 </v>
   <v>       0.00003226      -0.00002213       0.00006910 </v>
   <v>       0.00002587      -0.00000673       0.00011590 </v>
   <v>      -0.00001215       0.00003641       0.00002892 </v>
   <v>      -0.00003413      -0.00002842       0.00008051 </v>
   <v>      -0.04834696       0.00013509      -0.13370185 </v>
   <v>       0.00227335       0.00021145      -0.00364725 </v>
   <v>       0.00363644       0.00048788      -0.00428917 </v>
   <v>       0.00029233       0.00086067      -0.00366335 </v>
   <v>      -0.00024547       0.00000366      -0.00030729 </v>
   <v>       0.00039985      -0.00242890      -0.00427945 </v>
   <v>       0.00100411       0.00179372      -0.00398293 </v>
   <v>      -0.00031243      -0.00094220      -0.00395825 </v>
   <v>      -0.00024108       0.00000282      -0.00030729 </v>
   <v>      -0.00125597       0.00000619       0.01657658 </v>
   <v>       0.00222579       0.00169598       0.00071579 </v>
   <v>      -0.00083586       0.00053005      -0.00073276 </v>
   <v>       0.00117906       0.00090431      -0.00016519 </v>
   <v>       0.00009615       0.00000502      -0.00114795 </v>
   <v>      -0.00226879       0.00061972       0.00014057 </v>
   <v>      -0.00034285      -0.00059576      -0.00088516 </v>
   <v>      -0.00076172      -0.00318423       0.00086937 </v>
   <v>       0.00007625       0.00000440      -0.00120024 </v>
  </varray>
  <varray name="stress" >
   <v>     -20.36761201      -0.01542351       0.05980661 </v>
   <v>      -0.01542347     -20.36793629      -0.00018911 </v>
   <v>       0.05980652      -0.00018913      -0.57284026 </v>
  </varray>
  <energy>
   <i name="e_fr_energy">   -412.60759984 </i>
   <i name="e_wo_entrp">   -412.60759984 </i>
   <i name="e_0_energy">   -412.60759984 </i>
  </energy>
  <time name="totalsc">  171.45  171.97</time>
  <eigenvalues>
   <array>
    <dimension dim="1">band</dimension>
    <dimension dim="2">kpoint</dimension>
    <dimension dim="3">spin</dimension>
    <field>eigene</field>
    <field>occ</field>
    <set>
     <set comment="spin 1">
      <set comment="kpoint 1">
       <r>  -59.0899    1.0000 </r>
       <r>  -59.0633    1.0000 </r>
       <r>  -59.0633    1.0000 </r>
       <r>  -59.0632    1.0000 </r>
       <r>  -59.0626    1.0000 </r>
       <r>  -59.0625    1.0000 </r>
       <r>  -59.0624    1.0000 </r>
       <r>  -59.0493    1.0000 </r>
       <r>  -59.0492    1.0000 </r>
       <r>  -59.0172    1.0000 </r>
       <r>  -58.9902    1.0000 </r>
       <r>  -58.9902    1.0000 </r>
       <r>  -58.9902    1.0000 </r>
       <r>  -58.9901    1.0000 </r>
       <r>  -58.9901    1.0000 </r>
       <r>  -58.9901    1.0000 </r>
       <r>  -58.9766    1.0000 </r>
       <r>  -58.9766    1.0000 </r>
       <r>  -33.3082    1.0000 </r>
       <r>  -33.3070    1.0000 </r>
       <r>  -33.3068    1.0000 </r>
       <r>  -33.3068    1.0000 </r>
       <r>  -33.3067    1.0000 </r>
       <r>  -33.3063    1.0000 </r>
       <r>  -33.3062    1.0000 </r>
       <r>  -33.3062    1.0000 </r>
       <r>  -33.2641    1.0000 </r>
       <r>  -33.2640    1.0000 </r>
       <r>  -33.2338    1.0000 </r>
       <r>  -33.2337    1.0000 </r>
       <r>  -33.2337    1.0000 </r>
       <r>  -33.2337    1.0000 </r>
       <r>  -33.2337    1.0000 </r>
       <r>  -33.2337    1.0000 </r>
       <r>  -33.2336    1.0000 </r>
       <r>  -33.2336    1.0000 </r>
       <r>  -33.2272    1.0000 </r>
       <r>  -33.1910    1.0000 </r>
       <r>  -33.1910    1.0000 </r>
       <r>  -33.1729    1.0000 </r>
       <r>  -33.1729    1.0000 </r>
       <r>  -33.1728    1.0000 </r>
       <r>  -33.1726    1.0000 </r>
       <r>  -33.1724    1.0000 </r>
       <r>  -33.1721    1.0000 </r>
       <r>  -33.1547    1.0000 </r>
       <r>  -33.1453    1.0000 </r>
       <r>  -33.1451    1.0000 </r>
       <r>  -33.1002    1.0000 </r>
       <r>  -33.1002    1.0000 </r>
       <r>  -33.1002    1.0000 </r>
       <r>  -33.1001    1.0000 </r>
       <r>  -33.1001    1.0000 </r>
       <r>  -33.1001    1.0000 </r>
       <r>  -33.0972    1.0000 </r>
       <r>  -33.0972    1.0000 </r>
       <r>  -33.0968    1.0000 </r>
       <r>  -33.0967    1.0000 </r>
       <r>  -33.0967    1.0000 </r>
       <r>  -33.0960    1.0000 </r>
       <r>  -33.0728    1.0000 </r>
       <r>  -33.0727    1.0000 </r>
       <r>  -33.0338    1.0000 </r>
       <r>  -33.0338    1.0000 </r>
       <r>  -33.0238    1.0000 </r>
       <r>  -33.0238    1.0000 </r>
       <r>  -33.0238    1.0000 </r>
       <r>  -33.0237    1.0000 </r>
       <r>  -33.0237    1.0000 </r>
       <r>  -33.0237    1.0000 </r>
       <r>  -32.9608    1.0000 </r>
       <r>  -32.9608    1.0000 </r>
       <r>  -12.3919    1.0000 </r>
       <r>  -12.1884    1.0000 </r>
       <r>  -11.0927    1.0000 </r>
       <r>  -11.0915    1.0000 </r>
       <r>  -11.0851    1.0000 </r>
       <r>  -11.0850    1.0000 </r>
       <r>  -11.0849    1.0000 </r>
       <r>  -11.0847    1.0000 </r>
       <r>  -11.0845    1.0000 </r>
       <r>  -10.9209    1.0000 </r>
       <r>  -10.9184    1.0000 </r>
       <r>  -10.9183    1.0000 </r>
       <r>  -10.9183    1.0000 </r>
       <r>  -10.9183    1.0000 </r>
       <r>  -10.9182    1.0000 </r>
       <r>  -10.7995    1.0000 </r>
       <r>  -10.5163    1.0000 </r>
       <r>  -10.5153    1.0000 </r>
       <r>  -10.5152    1.0000 </r>
       <r>  -10.5152    1.0000 </r>
       <r>  -10.5151    1.0000 </r>
       <r>  -10.5149    1.0000 </r>
       <r>  -10.3494    1.0000 </r>
       <r>  -10.3471    1.0000 </r>
       <r>  -10.3471    1.0000 </r>
       <r>  -10.3470    1.0000 </r>
       <r>  -10.3469    1.0000 </r>
       <r>  -10.3469    1.0000 </r>
       <r>  -10.2233    1.0000 </r>
       <r>  -10.2192    1.0000 </r>
       <r>  -10.1491    1.0000 </r>
       <r>  -10.1490    1.0000 </r>
       <r>  -10.1135    1.0000 </r>
       <r>  -10.1125    1.0000 </r>
       <r>  -10.0382    1.0000 </r>
       <r>  -10.0382    1.0000 </r>
       <r>   -4.1576    1.0000 </r>
       <r>   -3.6362    1.0000 </r>
       <r>   -3.6348    1.0000 </r>
       <r>   -3.6019    1.0000 </r>
       <r>   -3.5989    1.0000 </r>
       <r>   -3.5984    1.0000 </r>
       <r>   -3.5974    1.0000 </r>
       <r>   -3.5972    1.0000 </r>
       <r>   -3.5971    1.0000 </r>
       <r>   -3.5723    1.0000 </r>
       <r>   -3.5721    1.0000 </r>
       <r>   -3.5174    1.0000 </r>
       <r>   -3.3569    1.0000 </r>
       <r>   -3.3565    1.0000 </r>
       <r>   -3.3559    1.0000 </r>
       <r>   -3.3550    1.0000 </r>
       <r>   -3.3550    1.0000 </r>
       <r>   -3.3549    1.0000 </r>
       <r>   -2.8583    1.0000 </r>
       <r>   -2.8558    1.0000 </r>
       <r>   -2.7496    1.0000 </r>
       <r>   -2.7495    1.0000 </r>
       <r>   -2.5441    1.0000 </r>
       <r>   -2.5434    1.0000 </r>
       <r>   -2.5432    1.0000 </r>
       <r>   -2.5429    1.0000 </r>
       <r>   -2.5420    1.0000 </r>
       <r>   -2.5413    1.0000 </r>
       <r>   -2.3210    1.0000 </r>
       <r>   -2.3210    1.0000 </r>
       <r>   -2.3197    1.0000 </r>
       <r>   -2.3195    1.0000 </r>
       <r>   -2.3193    1.0000 </r>
       <r>   -2.3188    1.0000 </r>
       <r>   -2.3041    1.0000 </r>
       <r>   -2.3038    1.0000 </r>
       <r>   -2.2827    1.0000 </r>
       <r>   -2.2805    1.0000 </r>
       <r>   -2.1502    1.0000 </r>
       <r>   -2.1495    1.0000 </r>
       <r>   -2.1492    1.0000 </r>
       <r>   -2.1482    1.0000 </r>
       <r>   -2.1481    1.0000 </r>
       <r>   -2.1481    1.0000 </r>
       <r>   -1.9333    1.0000 </r>
       <r>   -1.9320    1.0000 </r>
       <r>   -1.9317    1.0000 </r>
       <r>   -1.9312    1.0000 </r>
       <r>   -1.9311    1.0000 </r>
       <r>   -1.9306    1.0000 </r>
       <r>   -1.8010    1.0000 </r>
       <r>   -1.8009    1.0000 </r>
       <r>   -1.7574    1.0000 </r>
       <r>   -1.7552    1.0000 </r>
       <r>   -1.1251    1.0000 </r>
       <r>   -1.1221    1.0000 </r>
       <r>   -1.1181    1.0000 </r>
       <r>   -1.1177    1.0000 </r>
       <r>   -1.1176    1.0000 </r>
       <r>   -1.1174    1.0000 </r>
       <r>   -1.0841    1.0000 </r>
       <r>   -1.0826    1.0000 </r>
       <r>   -1.0280    1.0000 </r>
       <r>   -1.0277    1.0000 </r>
       <r>   -1.0273    1.0000 </r>
       <r>   -1.0273    1.0000 </r>
       <r>   -1.0272    1.0000 </r>
       <r>   -1.0272    1.0000 </r>
       <r>   -1.0116    1.0000 </r>
       <r>   -1.0116    1.0000 </r>
       <r>   -0.8908    1.0000 </r>
       <r>   -0.8903    1.0000 </r>
       <r>   -0.8149    1.0000 </r>
       <r>   -0.8149    1.0000 </r>
       <r>   -0.4803    1.0000 </r>
       <r>   -0.3764    1.0000 </r>
       <r>   -0.3746    1.0000 </r>
       <r>   -0.2116    1.0000 </r>
       <r>   -0.2112    1.0000 </r>
       <r>    0.0165    1.0000 </r>
       <r>    0.0167    1.0000 </r>
       <r>    0.0169    1.0000 </r>
       <r>    0.0172    1.0000 </r>
       <r>    0.0173    1.0000 </r>
       <r>    0.0231    1.0000 </r>
       <r>    0.2155    1.0000 </r>
       <r>    0.2177    1.0000 </r>
       <r>    0.2943    1.0000 </r>
       <r>    0.2943    1.0000 </r>
       <r>    0.3244    1.0000 </r>
       <r>    0.3246    1.0000 </r>
       <r>    0.3290    1.0000 </r>
       <r>    0.3291    1.0000 </r>
       <r>    0.3291    1.0000 </r>
       <r>    0.3293    1.0000 </r>
       <r>    0.4192    1.0000 </r>
       <r>    0.4197    1.0000 </r>
       <r>    0.4199    1.0000 </r>
       <r>    0.4200    1.0000 </r>
       <r>    0.4203    1.0000 </r>
       <r>    0.4206    1.0000 </r>
       <r>    0.4354    1.0000 </r>
       <r>    0.4354    1.0000 </r>
       <r>    0.4365    1.0000 </r>
       <r>    0.4366    1.0000 </r>
       <r>    0.4366    1.0000 </r>
       <r>    0.4367    1.0000 </r>
       <r>    0.6863    1.0000 </r>
       <r>    0.8095    1.0000 </r>
       <r>    0.8108    1.0000 </r>
       <r>    0.8111    1.0000 </r>
       <r>    0.8111    1.0000 </r>
       <r>    0.8114    1.0000 </r>
       <r>    0.8137    1.0000 </r>
       <r>    0.9384    1.0000 </r>
       <r>    0.9386    1.0000 </r>
       <r>    0.9386    1.0000 </r>
       <r>    0.9387    1.0000 </r>
       <r>    0.9389    1.0000 </r>
       <r>    0.9392    1.0000 </r>
       <r>    1.6907    1.0000 </r>
       <r>    1.7458    1.0000 </r>
       <r>    1.7464    1.0000 </r>
       <r>    1.8303    1.0000 </r>
       <r>    1.8303    1.0000 </r>
       <r>    2.4635    1.0000 </r>
       <r>    3.3895    0.0000 </r>
       <r>    3.3898    0.0000 </r>
       <r>    3.4621    0.0000 </r>
       <r>    3.4621    0.0000 </r>
       <r>    3.9397    0.0000 </r>
       <r>    3.9398    0.0000 </r>
       <r>    3.9402    0.0000 </r>
       <r>    3.9406    0.0000 </r>
       <r>    3.9425    0.0000 </r>
       <r>    3.9429    0.0000 </r>
       <r>    4.0060    0.0000 </r>
       <r>    4.0060    0.0000 </r>
       <r>    4.0062    0.0000 </r>
       <r>    4.0077    0.0000 </r>
       <r>    4.0083    0.0000 </r>
       <r>    4.0089    0.0000 </r>
       <r>    4.0692    0.0000 </r>
       <r>    4.0692    0.0000 </r>
       <r>    4.0694    0.0000 </r>
       <r>    4.0695    0.0000 </r>
       <r>    4.0698    0.0000 </r>
       <r>    4.0699    0.0000 </r>
       <r>    4.3865    0.0000 </r>
       <r>    4.3868    0.0000 </r>
       <r>    4.3868    0.0000 </r>
       <r>    4.3872    0.0000 </r>
       <r>    4.3874    0.0000 </r>
       <r>    4.3875    0.0000 </r>
       <r>    4.4867    0.0000 </r>
       <r>    4.4888    0.0000 </r>
       <r>    4.5813    0.0000 </r>
       <r>    4.5816    0.0000 </r>
       <r>    4.7701    0.0000 </r>
       <r>    4.7709    0.0000 </r>
       <r>    4.8343    0.0000 </r>
       <r>    4.8359    0.0000 </r>
       <r>    4.8461    0.0000 </r>
       <r>    4.8475    0.0000 </r>
       <r>    4.8764    0.0000 </r>
       <r>    4.8764    0.0000 </r>
       <r>    5.1222    0.0000 </r>
       <r>    5.1227    0.0000 </r>
       <r>    5.1232    0.0000 </r>
       <r>    5.1238    0.0000 </r>
       <r>    5.1243    0.0000 </r>
       <r>    5.1259    0.0000 </r>
       <r>    5.3683    0.0000 </r>
       <r>    5.3693    0.0000 </r>
       <r>    5.4566    0.0000 </r>
       <r>    5.4637    0.0000 </r>
       <r>    5.4676    0.0000 </r>
       <r>    5.4683    0.0000 </r>
      </set>
      <set comment="kpoint 2">
       <r>  -59.0884    1.0000 </r>
       <r>  -59.0701    1.0000 </r>
       <r>  -59.0657    1.0000 </r>
       <r>  -59.0656    1.0000 </r>
       <r>  -59.0593    1.0000 </r>
       <r>  -59.0593    1.0000 </r>
       <r>  -59.0572    1.0000 </r>
       <r>  -59.0501    1.0000 </r>
       <r>  -59.0500    1.0000 </r>
       <r>  -59.0157    1.0000 </r>
       <r>  -58.9973    1.0000 </r>
       <r>  -58.9930    1.0000 </r>
       <r>  -58.9929    1.0000 </r>
       <r>  -58.9866    1.0000 </r>
       <r>  -58.9866    1.0000 </r>
       <r>  -58.9846    1.0000 </r>
       <r>  -58.9774    1.0000 </r>
       <r>  -58.9774    1.0000 </r>
       <r>  -33.3616    1.0000 </r>
       <r>  -33.3350    1.0000 </r>
       <r>  -33.3344    1.0000 </r>
       <r>  -33.3277    1.0000 </r>
       <r>  -33.3270    1.0000 </r>
       <r>  -33.2885    1.0000 </r>
       <r>  -33.2738    1.0000 </r>
       <r>  -33.2733    1.0000 </r>
       <r>  -33.2616    1.0000 </r>
       <r>  -33.2616    1.0000 </r>
       <r>  -33.2543    1.0000 </r>
       <r>  -33.2543    1.0000 </r>
       <r>  -33.2360    1.0000 </r>
       <r>  -33.2338    1.0000 </r>
       <r>  -33.2336    1.0000 </r>
       <r>  -33.2240    1.0000 </r>
       <r>  -33.2005    1.0000 </r>
       <r>  -33.2005    1.0000 </r>
       <r>  -33.1870    1.0000 </r>
       <r>  -33.1783    1.0000 </r>
       <r>  -33.1782    1.0000 </r>
       <r>  -33.1655    1.0000 </r>
       <r>  -33.1653    1.0000 </r>
       <r>  -33.1629    1.0000 </r>
       <r>  -33.1613    1.0000 </r>
       <r>  -33.1606    1.0000 </r>
       <r>  -33.1606    1.0000 </r>
       <r>  -33.1515    1.0000 </r>
       <r>  -33.1468    1.0000 </r>
       <r>  -33.1467    1.0000 </r>
       <r>  -33.1146    1.0000 </r>
       <r>  -33.1127    1.0000 </r>
       <r>  -33.1123    1.0000 </r>
       <r>  -33.1096    1.0000 </r>
       <r>  -33.1058    1.0000 </r>
       <r>  -33.1058    1.0000 </r>
       <r>  -33.0963    1.0000 </r>
       <r>  -33.0959    1.0000 </r>
       <r>  -33.0929    1.0000 </r>
       <r>  -33.0929    1.0000 </r>
       <r>  -33.0888    1.0000 </r>
       <r>  -33.0802    1.0000 </r>
       <r>  -33.0743    1.0000 </r>
       <r>  -33.0743    1.0000 </r>
       <r>  -33.0499    1.0000 </r>
       <r>  -33.0395    1.0000 </r>
       <r>  -33.0395    1.0000 </r>
       <r>  -33.0374    1.0000 </r>
       <r>  -33.0366    1.0000 </r>
       <r>  -33.0231    1.0000 </r>
       <r>  -33.0231    1.0000 </r>
       <r>  -33.0072    1.0000 </r>
       <r>  -32.9769    1.0000 </r>
       <r>  -32.9645    1.0000 </r>
       <r>  -12.3266    1.0000 </r>
       <r>  -12.1236    1.0000 </r>
       <r>  -11.4754    1.0000 </r>
       <r>  -11.2900    1.0000 </r>
       <r>  -11.2459    1.0000 </r>
       <r>  -11.2437    1.0000 </r>
       <r>  -11.0693    1.0000 </r>
       <r>  -11.0682    1.0000 </r>
       <r>  -11.0635    1.0000 </r>
       <r>  -10.8758    1.0000 </r>
       <r>  -10.8733    1.0000 </r>
       <r>  -10.7759    1.0000 </r>
       <r>  -10.7431    1.0000 </r>
       <r>  -10.7217    1.0000 </r>
       <r>  -10.7209    1.0000 </r>
       <r>  -10.6853    1.0000 </r>
       <r>  -10.6027    1.0000 </r>
       <r>  -10.5828    1.0000 </r>
       <r>  -10.5826    1.0000 </r>
       <r>  -10.4755    1.0000 </r>
       <r>  -10.4220    1.0000 </r>
       <r>  -10.4216    1.0000 </r>
       <r>  -10.3969    1.0000 </r>
       <r>  -10.3961    1.0000 </r>
       <r>  -10.3696    1.0000 </r>
       <r>  -10.2813    1.0000 </r>
       <r>  -10.2781    1.0000 </r>
       <r>  -10.2779    1.0000 </r>
       <r>  -10.2767    1.0000 </r>
       <r>  -10.2441    1.0000 </r>
       <r>  -10.1941    1.0000 </r>
       <r>  -10.1940    1.0000 </r>
       <r>  -10.1372    1.0000 </r>
       <r>  -10.1361    1.0000 </r>
       <r>  -10.0615    1.0000 </r>
       <r>  -10.0614    1.0000 </r>
       <r>   -4.0841    1.0000 </r>
       <r>   -3.8412    1.0000 </r>
       <r>   -3.6891    1.0000 </r>
       <r>   -3.6806    1.0000 </r>
       <r>   -3.6802    1.0000 </r>
       <r>   -3.5460    1.0000 </r>
       <r>   -3.5448    1.0000 </r>
       <r>   -3.4911    1.0000 </r>
       <r>   -3.4909    1.0000 </r>
       <r>   -3.4846    1.0000 </r>
       <r>   -3.4827    1.0000 </r>
       <r>   -3.4819    1.0000 </r>
       <r>   -3.4818    1.0000 </r>
       <r>   -3.4815    1.0000 </r>
       <r>   -3.4448    1.0000 </r>
       <r>   -3.1610    1.0000 </r>
       <r>   -3.1599    1.0000 </r>
       <r>   -3.1584    1.0000 </r>
       <r>   -3.1583    1.0000 </r>
       <r>   -3.0458    1.0000 </r>
       <r>   -3.0280    1.0000 </r>
       <r>   -3.0277    1.0000 </r>
       <r>   -2.8601    1.0000 </r>
       <r>   -2.7219    1.0000 </r>
       <r>   -2.7217    1.0000 </r>
       <r>   -2.6648    1.0000 </r>
       <r>   -2.5425    1.0000 </r>
       <r>   -2.5419    1.0000 </r>
       <r>   -2.3525    1.0000 </r>
       <r>   -2.3517    1.0000 </r>
       <r>   -2.2706    1.0000 </r>
       <r>   -2.2001    1.0000 </r>
       <r>   -2.1949    1.0000 </r>
       <r>   -2.1944    1.0000 </r>
       <r>   -2.1806    1.0000 </r>
       <r>   -2.1798    1.0000 </r>
       <r>   -2.1669    1.0000 </r>
       <r>   -2.1662    1.0000 </r>
       <r>   -2.0785    1.0000 </r>
       <r>   -2.0370    1.0000 </r>
       <r>   -2.0367    1.0000 </r>
       <r>   -2.0312    1.0000 </r>
       <r>   -1.9826    1.0000 </r>
       <r>   -1.9820    1.0000 </r>
       <r>   -1.9637    1.0000 </r>
       <r>   -1.9630    1.0000 </r>
       <r>   -1.9248    1.0000 </r>
       <r>   -1.8723    1.0000 </r>
       <r>   -1.8719    1.0000 </r>
       <r>   -1.6871    1.0000 </r>
       <r>   -1.6866    1.0000 </r>
       <r>   -1.6750    1.0000 </r>
       <r>   -1.4833    1.0000 </r>
       <r>   -1.4826    1.0000 </r>
       <r>   -1.3268    1.0000 </r>
       <r>   -1.3248    1.0000 </r>
       <r>   -1.3181    1.0000 </r>
       <r>   -1.2251    1.0000 </r>
       <r>   -1.2223    1.0000 </r>
       <r>   -1.2214    1.0000 </r>
       <r>   -1.2162    1.0000 </r>
       <r>   -1.2155    1.0000 </r>
       <r>   -1.1595    1.0000 </r>
       <r>   -1.1575    1.0000 </r>
       <r>   -1.0641    1.0000 </r>
       <r>   -1.0635    1.0000 </r>
       <r>   -1.0429    1.0000 </r>
       <r>   -1.0423    1.0000 </r>
       <r>   -1.0382    1.0000 </r>
       <r>   -0.9625    1.0000 </r>
       <r>   -0.8390    1.0000 </r>
       <r>   -0.8228    1.0000 </r>
       <r>   -0.7489    1.0000 </r>
       <r>   -0.7468    1.0000 </r>
       <r>   -0.6997    1.0000 </r>
       <r>   -0.2471    1.0000 </r>
       <r>   -0.2458    1.0000 </r>
       <r>   -0.1347    1.0000 </r>
       <r>   -0.0959    1.0000 </r>
       <r>   -0.0957    1.0000 </r>
       <r>   -0.0808    1.0000 </r>
       <r>    0.0068    1.0000 </r>
       <r>    0.0338    1.0000 </r>
       <r>    0.0355    1.0000 </r>
       <r>    0.0416    1.0000 </r>
       <r>    0.0431    1.0000 </r>
       <r>    0.0970    1.0000 </r>
       <r>    0.1111    1.0000 </r>
       <r>    0.1334    1.0000 </r>
       <r>    0.1340    1.0000 </r>
       <r>    0.1894    1.0000 </r>
       <r>    0.1987    1.0000 </r>
       <r>    0.2001    1.0000 </r>
       <r>    0.2425    1.0000 </r>
       <r>    0.2440    1.0000 </r>
       <r>    0.2916    1.0000 </r>
       <r>    0.2920    1.0000 </r>
       <r>    0.2966    1.0000 </r>
       <r>    0.2980    1.0000 </r>
       <r>    0.3896    1.0000 </r>
       <r>    0.3898    1.0000 </r>
       <r>    0.4012    1.0000 </r>
       <r>    0.5645    1.0000 </r>
       <r>    0.6202    1.0000 </r>
       <r>    0.6203    1.0000 </r>
       <r>    0.6739    1.0000 </r>
       <r>    0.6973    1.0000 </r>
       <r>    0.8966    1.0000 </r>
       <r>    0.9059    1.0000 </r>
       <r>    0.9067    1.0000 </r>
       <r>    0.9087    1.0000 </r>
       <r>    0.9612    1.0000 </r>
       <r>    0.9625    1.0000 </r>
       <r>    0.9869    1.0000 </r>
       <r>    1.0037    1.0000 </r>
       <r>    1.0038    1.0000 </r>
       <r>    1.0525    1.0000 </r>
       <r>    1.0540    1.0000 </r>
       <r>    1.0541    1.0000 </r>
       <r>    1.1091    1.0000 </r>
       <r>    1.6092    1.0000 </r>
       <r>    1.6096    1.0000 </r>
       <r>    1.6731    1.0000 </r>
       <r>    1.6968    1.0000 </r>
       <r>    1.6968    1.0000 </r>
       <r>    2.3498    1.0000 </r>
       <r>    3.5593    0.0000 </r>
       <r>    3.5598    0.0000 </r>
       <r>    3.6382    0.0000 </r>
       <r>    3.6382    0.0000 </r>
       <r>    3.7796    0.0000 </r>
       <r>    3.7800    0.0000 </r>
       <r>    3.8652    0.0000 </r>
       <r>    3.8836    0.0000 </r>
       <r>    3.8853    0.0000 </r>
       <r>    3.9402    0.0000 </r>
       <r>    3.9832    0.0000 </r>
       <r>    3.9835    0.0000 </r>
       <r>    4.0205    0.0000 </r>
       <r>    4.0205    0.0000 </r>
       <r>    4.0362    0.0000 </r>
       <r>    4.0386    0.0000 </r>
       <r>    4.1699    0.0000 </r>
       <r>    4.1708    0.0000 </r>
       <r>    4.1908    0.0000 </r>
       <r>    4.2263    0.0000 </r>
       <r>    4.2270    0.0000 </r>
       <r>    4.2396    0.0000 </r>
       <r>    4.2806    0.0000 </r>
       <r>    4.3522    0.0000 </r>
       <r>    4.3524    0.0000 </r>
       <r>    4.4217    0.0000 </r>
       <r>    4.4422    0.0000 </r>
       <r>    4.4423    0.0000 </r>
       <r>    4.4971    0.0000 </r>
       <r>    4.5091    0.0000 </r>
       <r>    4.5830    0.0000 </r>
       <r>    4.6283    0.0000 </r>
       <r>    4.6624    0.0000 </r>
       <r>    4.7117    0.0000 </r>
       <r>    4.7411    0.0000 </r>
       <r>    4.7441    0.0000 </r>
       <r>    4.8098    0.0000 </r>
       <r>    4.8100    0.0000 </r>
       <r>    4.8149    0.0000 </r>
       <r>    4.8436    0.0000 </r>
       <r>    4.8454    0.0000 </r>
       <r>    4.9059    0.0000 </r>
       <r>    4.9075    0.0000 </r>
       <r>    5.1191    0.0000 </r>
       <r>    5.1417    0.0000 </r>
       <r>    5.1420    0.0000 </r>
       <r>    5.1758    0.0000 </r>
       <r>    5.1759    0.0000 </r>
       <r>    5.1834    0.0000 </r>
       <r>    5.1846    0.0000 </r>
       <r>    5.3375    0.0000 </r>
       <r>    5.3949    0.0000 </r>
      </set>
      <set comment="kpoint 3">
       <r>  -59.0884    1.0000 </r>
       <r>  -59.0701    1.0000 </r>
       <r>  -59.0657    1.0000 </r>
       <r>  -59.0657    1.0000 </r>
       <r>  -59.0594    1.0000 </r>
       <r>  -59.0592    1.0000 </r>
       <r>  -59.0573    1.0000 </r>
       <r>  -59.0501    1.0000 </r>
       <r>  -59.0500    1.0000 </r>
       <r>  -59.0157    1.0000 </r>
       <r>  -58.9973    1.0000 </r>
       <r>  -58.9930    1.0000 </r>
       <r>  -58.9929    1.0000 </r>
       <r>  -58.9866    1.0000 </r>
       <r>  -58.9866    1.0000 </r>
       <r>  -58.9846    1.0000 </r>
       <r>  -58.9774    1.0000 </r>
       <r>  -58.9774    1.0000 </r>
       <r>  -33.3615    1.0000 </r>
       <r>  -33.3350    1.0000 </r>
       <r>  -33.3344    1.0000 </r>
       <r>  -33.3277    1.0000 </r>
       <r>  -33.3270    1.0000 </r>
       <r>  -33.2885    1.0000 </r>
       <r>  -33.2739    1.0000 </r>
       <r>  -33.2734    1.0000 </r>
       <r>  -33.2616    1.0000 </r>
       <r>  -33.2616    1.0000 </r>
       <r>  -33.2543    1.0000 </r>
       <r>  -33.2543    1.0000 </r>
       <r>  -33.2359    1.0000 </r>
       <r>  -33.2338    1.0000 </r>
       <r>  -33.2335    1.0000 </r>
       <r>  -33.2240    1.0000 </r>
       <r>  -33.2005    1.0000 </r>
       <r>  -33.2005    1.0000 </r>
       <r>  -33.1870    1.0000 </r>
       <r>  -33.1783    1.0000 </r>
       <r>  -33.1782    1.0000 </r>
       <r>  -33.1654    1.0000 </r>
       <r>  -33.1653    1.0000 </r>
       <r>  -33.1629    1.0000 </r>
       <r>  -33.1613    1.0000 </r>
       <r>  -33.1606    1.0000 </r>
       <r>  -33.1606    1.0000 </r>
       <r>  -33.1515    1.0000 </r>
       <r>  -33.1468    1.0000 </r>
       <r>  -33.1467    1.0000 </r>
       <r>  -33.1146    1.0000 </r>
       <r>  -33.1127    1.0000 </r>
       <r>  -33.1123    1.0000 </r>
       <r>  -33.1096    1.0000 </r>
       <r>  -33.1058    1.0000 </r>
       <r>  -33.1058    1.0000 </r>
       <r>  -33.0963    1.0000 </r>
       <r>  -33.0959    1.0000 </r>
       <r>  -33.0929    1.0000 </r>
       <r>  -33.0929    1.0000 </r>
       <r>  -33.0888    1.0000 </r>
       <r>  -33.0803    1.0000 </r>
       <r>  -33.0743    1.0000 </r>
       <r>  -33.0743    1.0000 </r>
       <r>  -33.0499    1.0000 </r>
       <r>  -33.0395    1.0000 </r>
       <r>  -33.0395    1.0000 </r>
       <r>  -33.0375    1.0000 </r>
       <r>  -33.0366    1.0000 </r>
       <r>  -33.0231    1.0000 </r>
       <r>  -33.0231    1.0000 </r>
       <r>  -33.0072    1.0000 </r>
       <r>  -32.9769    1.0000 </r>
       <r>  -32.9645    1.0000 </r>
       <r>  -12.3266    1.0000 </r>
       <r>  -12.1236    1.0000 </r>
       <r>  -11.4755    1.0000 </r>
       <r>  -11.2901    1.0000 </r>
       <r>  -11.2457    1.0000 </r>
       <r>  -11.2437    1.0000 </r>
       <r>  -11.0692    1.0000 </r>
       <r>  -11.0682    1.0000 </r>
       <r>  -11.0635    1.0000 </r>
       <r>  -10.8756    1.0000 </r>
       <r>  -10.8733    1.0000 </r>
       <r>  -10.7759    1.0000 </r>
       <r>  -10.7433    1.0000 </r>
       <r>  -10.7217    1.0000 </r>
       <r>  -10.7209    1.0000 </r>
       <r>  -10.6852    1.0000 </r>
       <r>  -10.6027    1.0000 </r>
       <r>  -10.5830    1.0000 </r>
       <r>  -10.5826    1.0000 </r>
       <r>  -10.4754    1.0000 </r>
       <r>  -10.4222    1.0000 </r>
       <r>  -10.4215    1.0000 </r>
       <r>  -10.3971    1.0000 </r>
       <r>  -10.3961    1.0000 </r>
       <r>  -10.3694    1.0000 </r>
       <r>  -10.2814    1.0000 </r>
       <r>  -10.2781    1.0000 </r>
       <r>  -10.2779    1.0000 </r>
       <r>  -10.2767    1.0000 </r>
       <r>  -10.2440    1.0000 </r>
       <r>  -10.1941    1.0000 </r>
       <r>  -10.1940    1.0000 </r>
       <r>  -10.1372    1.0000 </r>
       <r>  -10.1361    1.0000 </r>
       <r>  -10.0615    1.0000 </r>
       <r>  -10.0614    1.0000 </r>
       <r>   -4.0841    1.0000 </r>
       <r>   -3.8412    1.0000 </r>
       <r>   -3.6890    1.0000 </r>
       <r>   -3.6808    1.0000 </r>
       <r>   -3.6800    1.0000 </r>
       <r>   -3.5460    1.0000 </r>
       <r>   -3.5448    1.0000 </r>
       <r>   -3.4912    1.0000 </r>
       <r>   -3.4909    1.0000 </r>
       <r>   -3.4847    1.0000 </r>
       <r>   -3.4828    1.0000 </r>
       <r>   -3.4819    1.0000 </r>
       <r>   -3.4818    1.0000 </r>
       <r>   -3.4815    1.0000 </r>
       <r>   -3.4448    1.0000 </r>
       <r>   -3.1611    1.0000 </r>
       <r>   -3.1601    1.0000 </r>
       <r>   -3.1583    1.0000 </r>
       <r>   -3.1581    1.0000 </r>
       <r>   -3.0459    1.0000 </r>
       <r>   -3.0280    1.0000 </r>
       <r>   -3.0277    1.0000 </r>
       <r>   -2.8604    1.0000 </r>
       <r>   -2.7220    1.0000 </r>
       <r>   -2.7217    1.0000 </r>
       <r>   -2.6648    1.0000 </r>
       <r>   -2.5426    1.0000 </r>
       <r>   -2.5419    1.0000 </r>
       <r>   -2.3525    1.0000 </r>
       <r>   -2.3515    1.0000 </r>
       <r>   -2.2711    1.0000 </r>
       <r>   -2.2002    1.0000 </r>
       <r>   -2.1946    1.0000 </r>
       <r>   -2.1942    1.0000 </r>
       <r>   -2.1806    1.0000 </r>
       <r>   -2.1796    1.0000 </r>
       <r>   -2.1667    1.0000 </r>
       <r>   -2.1661    1.0000 </r>
       <r>   -2.0785    1.0000 </r>
       <r>   -2.0369    1.0000 </r>
       <r>   -2.0367    1.0000 </r>
       <r>   -2.0313    1.0000 </r>
       <r>   -1.9824    1.0000 </r>
       <r>   -1.9819    1.0000 </r>
       <r>   -1.9635    1.0000 </r>
       <r>   -1.9632    1.0000 </r>
       <r>   -1.9246    1.0000 </r>
       <r>   -1.8721    1.0000 </r>
       <r>   -1.8718    1.0000 </r>
       <r>   -1.6876    1.0000 </r>
       <r>   -1.6867    1.0000 </r>
       <r>   -1.6749    1.0000 </r>
       <r>   -1.4833    1.0000 </r>
       <r>   -1.4823    1.0000 </r>
       <r>   -1.3256    1.0000 </r>
       <r>   -1.3250    1.0000 </r>
       <r>   -1.3187    1.0000 </r>
       <r>   -1.2253    1.0000 </r>
       <r>   -1.2222    1.0000 </r>
       <r>   -1.2212    1.0000 </r>
       <r>   -1.2159    1.0000 </r>
       <r>   -1.2156    1.0000 </r>
       <r>   -1.1591    1.0000 </r>
       <r>   -1.1578    1.0000 </r>
       <r>   -1.0640    1.0000 </r>
       <r>   -1.0636    1.0000 </r>
       <r>   -1.0429    1.0000 </r>
       <r>   -1.0425    1.0000 </r>
       <r>   -1.0385    1.0000 </r>
       <r>   -0.9625    1.0000 </r>
       <r>   -0.8400    1.0000 </r>
       <r>   -0.8223    1.0000 </r>
       <r>   -0.7490    1.0000 </r>
       <r>   -0.7467    1.0000 </r>
       <r>   -0.6995    1.0000 </r>
       <r>   -0.2473    1.0000 </r>
       <r>   -0.2457    1.0000 </r>
       <r>   -0.1346    1.0000 </r>
       <r>   -0.0960    1.0000 </r>
       <r>   -0.0957    1.0000 </r>
       <r>   -0.0800    1.0000 </r>
       <r>    0.0070    1.0000 </r>
       <r>    0.0337    1.0000 </r>
       <r>    0.0350    1.0000 </r>
       <r>    0.0416    1.0000 </r>
       <r>    0.0432    1.0000 </r>
       <r>    0.0970    1.0000 </r>
       <r>    0.1095    1.0000 </r>
       <r>    0.1337    1.0000 </r>
       <r>    0.1339    1.0000 </r>
       <r>    0.1894    1.0000 </r>
       <r>    0.1982    1.0000 </r>
       <r>    0.1999    1.0000 </r>
       <r>    0.2422    1.0000 </r>
       <r>    0.2445    1.0000 </r>
       <r>    0.2916    1.0000 </r>
       <r>    0.2920    1.0000 </r>
       <r>    0.2965    1.0000 </r>
       <r>    0.2985    1.0000 </r>
       <r>    0.3894    1.0000 </r>
       <r>    0.3898    1.0000 </r>
       <r>    0.4018    1.0000 </r>
       <r>    0.5644    1.0000 </r>
       <r>    0.6200    1.0000 </r>
       <r>    0.6204    1.0000 </r>
       <r>    0.6740    1.0000 </r>
       <r>    0.6972    1.0000 </r>
       <r>    0.8967    1.0000 </r>
       <r>    0.9054    1.0000 </r>
       <r>    0.9059    1.0000 </r>
       <r>    0.9091    1.0000 </r>
       <r>    0.9610    1.0000 </r>
       <r>    0.9631    1.0000 </r>
       <r>    0.9877    1.0000 </r>
       <r>    1.0036    1.0000 </r>
       <r>    1.0037    1.0000 </r>
       <r>    1.0529    1.0000 </r>
       <r>    1.0540    1.0000 </r>
       <r>    1.0540    1.0000 </r>
       <r>    1.1095    1.0000 </r>
       <r>    1.6091    1.0000 </r>
       <r>    1.6097    1.0000 </r>
       <r>    1.6731    1.0000 </r>
       <r>    1.6967    1.0000 </r>
       <r>    1.6968    1.0000 </r>
       <r>    2.3499    1.0000 </r>
       <r>    3.5594    0.0000 </r>
       <r>    3.5596    0.0000 </r>
       <r>    3.6382    0.0000 </r>
       <r>    3.6382    0.0000 </r>
       <r>    3.7798    0.0000 </r>
       <r>    3.7804    0.0000 </r>
       <r>    3.8651    0.0000 </r>
       <r>    3.8836    0.0000 </r>
       <r>    3.8850    0.0000 </r>
       <r>    3.9404    0.0000 </r>
       <r>    3.9832    0.0000 </r>
       <r>    3.9837    0.0000 </r>
       <r>    4.0205    0.0000 </r>
       <r>    4.0205    0.0000 </r>
       <r>    4.0361    0.0000 </r>
       <r>    4.0386    0.0000 </r>
       <r>    4.1696    0.0000 </r>
       <r>    4.1706    0.0000 </r>
       <r>    4.1907    0.0000 </r>
       <r>    4.2265    0.0000 </r>
       <r>    4.2272    0.0000 </r>
       <r>    4.2395    0.0000 </r>
       <r>    4.2807    0.0000 </r>
       <r>    4.3520    0.0000 </r>
       <r>    4.3523    0.0000 </r>
       <r>    4.4199    0.0000 </r>
       <r>    4.4423    0.0000 </r>
       <r>    4.4424    0.0000 </r>
       <r>    4.4971    0.0000 </r>
       <r>    4.5091    0.0000 </r>
       <r>    4.5842    0.0000 </r>
       <r>    4.6288    0.0000 </r>
       <r>    4.6624    0.0000 </r>
       <r>    4.7117    0.0000 </r>
       <r>    4.7410    0.0000 </r>
       <r>    4.7437    0.0000 </r>
       <r>    4.8097    0.0000 </r>
       <r>    4.8100    0.0000 </r>
       <r>    4.8150    0.0000 </r>
       <r>    4.8438    0.0000 </r>
       <r>    4.8457    0.0000 </r>
       <r>    4.9062    0.0000 </r>
       <r>    4.9071    0.0000 </r>
       <r>    5.1184    0.0000 </r>
       <r>    5.1412    0.0000 </r>
       <r>    5.1424    0.0000 </r>
       <r>    5.1757    0.0000 </r>
       <r>    5.1759    0.0000 </r>
       <r>    5.1834    0.0000 </r>
       <r>    5.1859    0.0000 </r>
       <r>    5.3416    0.0000 </r>
       <r>    5.3725    0.0000 </r>
      </set>
      <set comment="kpoint 4">
       <r>  -59.0884    1.0000 </r>
       <r>  -59.0701    1.0000 </r>
       <r>  -59.0657    1.0000 </r>
       <r>  -59.0656    1.0000 </r>
       <r>  -59.0594    1.0000 </r>
       <r>  -59.0593    1.0000 </r>
       <r>  -59.0573    1.0000 </r>
       <r>  -59.0501    1.0000 </r>
       <r>  -59.0500    1.0000 </r>
       <r>  -59.0157    1.0000 </r>
       <r>  -58.9973    1.0000 </r>
       <r>  -58.9930    1.0000 </r>
       <r>  -58.9929    1.0000 </r>
       <r>  -58.9866    1.0000 </r>
       <r>  -58.9866    1.0000 </r>
       <r>  -58.9846    1.0000 </r>
       <r>  -58.9774    1.0000 </r>
       <r>  -58.9774    1.0000 </r>
       <r>  -33.3616    1.0000 </r>
       <r>  -33.3350    1.0000 </r>
       <r>  -33.3344    1.0000 </r>
       <r>  -33.3277    1.0000 </r>
       <r>  -33.3270    1.0000 </r>
       <r>  -33.2885    1.0000 </r>
       <r>  -33.2738    1.0000 </r>
       <r>  -33.2734    1.0000 </r>
       <r>  -33.2616    1.0000 </r>
       <r>  -33.2616    1.0000 </r>
       <r>  -33.2543    1.0000 </r>
       <r>  -33.2543    1.0000 </r>
       <r>  -33.2360    1.0000 </r>
       <r>  -33.2338    1.0000 </r>
       <r>  -33.2336    1.0000 </r>
       <r>  -33.2240    1.0000 </r>
       <r>  -33.2005    1.0000 </r>
       <r>  -33.2005    1.0000 </r>
       <r>  -33.1870    1.0000 </r>
       <r>  -33.1783    1.0000 </r>
       <r>  -33.1782    1.0000 </r>
       <r>  -33.1654    1.0000 </r>
       <r>  -33.1653    1.0000 </r>
       <r>  -33.1629    1.0000 </r>
       <r>  -33.1613    1.0000 </r>
       <r>  -33.1606    1.0000 </r>
       <r>  -33.1606    1.0000 </r>
       <r>  -33.1515    1.0000 </r>
       <r>  -33.1468    1.0000 </r>
       <r>  -33.1467    1.0000 </r>
       <r>  -33.1146    1.0000 </r>
       <r>  -33.1127    1.0000 </r>
       <r>  -33.1123    1.0000 </r>
       <r>  -33.1096    1.0000 </r>
       <r>  -33.1058    1.0000 </r>
       <r>  -33.1058    1.0000 </r>
       <r>  -33.0963    1.0000 </r>
       <r>  -33.0959    1.0000 </r>
       <r>  -33.0929    1.0000 </r>
       <r>  -33.0929    1.0000 </r>
       <r>  -33.0888    1.0000 </r>
       <r>  -33.0803    1.0000 </r>
       <r>  -33.0743    1.0000 </r>
       <r>  -33.0743    1.0000 </r>
       <r>  -33.0499    1.0000 </r>
       <r>  -33.0395    1.0000 </r>
       <r>  -33.0395    1.0000 </r>
       <r>  -33.0375    1.0000 </r>
       <r>  -33.0366    1.0000 </r>
       <r>  -33.0231    1.0000 </r>
       <r>  -33.0231    1.0000 </r>
       <r>  -33.0072    1.0000 </r>
       <r>  -32.9769    1.0000 </r>
       <r>  -32.9645    1.0000 </r>
       <r>  -12.3266    1.0000 </r>
       <r>  -12.1236    1.0000 </r>
       <r>  -11.4755    1.0000 </r>
       <r>  -11.2901    1.0000 </r>
       <r>  -11.2460    1.0000 </r>
       <r>  -11.2436    1.0000 </r>
       <r>  -11.0692    1.0000 </r>
       <r>  -11.0682    1.0000 </r>
       <r>  -11.0635    1.0000 </r>
       <r>  -10.8758    1.0000 </r>
       <r>  -10.8732    1.0000 </r>
       <r>  -10.7759    1.0000 </r>
       <r>  -10.7432    1.0000 </r>
       <r>  -10.7217    1.0000 </r>
       <r>  -10.7209    1.0000 </r>
       <r>  -10.6852    1.0000 </r>
       <r>  -10.6027    1.0000 </r>
       <r>  -10.5830    1.0000 </r>
       <r>  -10.5825    1.0000 </r>
       <r>  -10.4754    1.0000 </r>
       <r>  -10.4222    1.0000 </r>
       <r>  -10.4215    1.0000 </r>
       <r>  -10.3970    1.0000 </r>
       <r>  -10.3961    1.0000 </r>
       <r>  -10.3695    1.0000 </r>
       <r>  -10.2813    1.0000 </r>
       <r>  -10.2781    1.0000 </r>
       <r>  -10.2779    1.0000 </r>
       <r>  -10.2767    1.0000 </r>
       <r>  -10.2440    1.0000 </r>
       <r>  -10.1941    1.0000 </r>
       <r>  -10.1940    1.0000 </r>
       <r>  -10.1372    1.0000 </r>
       <r>  -10.1361    1.0000 </r>
       <r>  -10.0615    1.0000 </r>
       <r>  -10.0614    1.0000 </r>
       <r>   -4.0841    1.0000 </r>
       <r>   -3.8412    1.0000 </r>
       <r>   -3.6890    1.0000 </r>
       <r>   -3.6808    1.0000 </r>
       <r>   -3.6800    1.0000 </r>
       <r>   -3.5460    1.0000 </r>
       <r>   -3.5448    1.0000 </r>
       <r>   -3.4912    1.0000 </r>
       <r>   -3.4908    1.0000 </r>
       <r>   -3.4847    1.0000 </r>
       <r>   -3.4827    1.0000 </r>
       <r>   -3.4819    1.0000 </r>
       <r>   -3.4818    1.0000 </r>
       <r>   -3.4815    1.0000 </r>
       <r>   -3.4448    1.0000 </r>
       <r>   -3.1614    1.0000 </r>
       <r>   -3.1596    1.0000 </r>
       <r>   -3.1584    1.0000 </r>
       <r>   -3.1582    1.0000 </r>
       <r>   -3.0458    1.0000 </r>
       <r>   -3.0281    1.0000 </r>
       <r>   -3.0276    1.0000 </r>
       <r>   -2.8602    1.0000 </r>
       <r>   -2.7220    1.0000 </r>
       <r>   -2.7216    1.0000 </r>
       <r>   -2.6648    1.0000 </r>
       <r>   -2.5425    1.0000 </r>
       <r>   -2.5419    1.0000 </r>
       <r>   -2.3525    1.0000 </r>
       <r>   -2.3515    1.0000 </r>
       <r>   -2.2709    1.0000 </r>
       <r>   -2.2001    1.0000 </r>
       <r>   -2.1948    1.0000 </r>
       <r>   -2.1942    1.0000 </r>
       <r>   -2.1806    1.0000 </r>
       <r>   -2.1797    1.0000 </r>
       <r>   -2.1669    1.0000 </r>
       <r>   -2.1661    1.0000 </r>
       <r>   -2.0785    1.0000 </r>
       <r>   -2.0369    1.0000 </r>
       <r>   -2.0367    1.0000 </r>
       <r>   -2.0312    1.0000 </r>
       <r>   -1.9826    1.0000 </r>
       <r>   -1.9818    1.0000 </r>
       <r>   -1.9636    1.0000 </r>
       <r>   -1.9631    1.0000 </r>
       <r>   -1.9247    1.0000 </r>
       <r>   -1.8723    1.0000 </r>
       <r>   -1.8718    1.0000 </r>
       <r>   -1.6875    1.0000 </r>
       <r>   -1.6865    1.0000 </r>
       <r>   -1.6749    1.0000 </r>
       <r>   -1.4834    1.0000 </r>
       <r>   -1.4824    1.0000 </r>
       <r>   -1.3263    1.0000 </r>
       <r>   -1.3248    1.0000 </r>
       <r>   -1.3184    1.0000 </r>
       <r>   -1.2252    1.0000 </r>
       <r>   -1.2223    1.0000 </r>
       <r>   -1.2213    1.0000 </r>
       <r>   -1.2161    1.0000 </r>
       <r>   -1.2155    1.0000 </r>
       <r>   -1.1594    1.0000 </r>
       <r>   -1.1576    1.0000 </r>
       <r>   -1.0641    1.0000 </r>
       <r>   -1.0635    1.0000 </r>
       <r>   -1.0429    1.0000 </r>
       <r>   -1.0424    1.0000 </r>
       <r>   -1.0384    1.0000 </r>
       <r>   -0.9625    1.0000 </r>
       <r>   -0.8395    1.0000 </r>
       <r>   -0.8226    1.0000 </r>
       <r>   -0.7490    1.0000 </r>
       <r>   -0.7467    1.0000 </r>
       <r>   -0.6996    1.0000 </r>
       <r>   -0.2472    1.0000 </r>
       <r>   -0.2457    1.0000 </r>
       <r>   -0.1347    1.0000 </r>
       <r>   -0.0960    1.0000 </r>
       <r>   -0.0957    1.0000 </r>
       <r>   -0.0804    1.0000 </r>
       <r>    0.0069    1.0000 </r>
       <r>    0.0338    1.0000 </r>
       <r>    0.0353    1.0000 </r>
       <r>    0.0415    1.0000 </r>
       <r>    0.0432    1.0000 </r>
       <r>    0.0970    1.0000 </r>
       <r>    0.1103    1.0000 </r>
       <r>    0.1335    1.0000 </r>
       <r>    0.1340    1.0000 </r>
       <r>    0.1894    1.0000 </r>
       <r>    0.1982    1.0000 </r>
       <r>    0.2002    1.0000 </r>
       <r>    0.2423    1.0000 </r>
       <r>    0.2442    1.0000 </r>
       <r>    0.2916    1.0000 </r>
       <r>    0.2920    1.0000 </r>
       <r>    0.2965    1.0000 </r>
       <r>    0.2983    1.0000 </r>
       <r>    0.3895    1.0000 </r>
       <r>    0.3898    1.0000 </r>
       <r>    0.4015    1.0000 </r>
       <r>    0.5645    1.0000 </r>
       <r>    0.6201    1.0000 </r>
       <r>    0.6204    1.0000 </r>
       <r>    0.6740    1.0000 </r>
       <r>    0.6972    1.0000 </r>
       <r>    0.8967    1.0000 </r>
       <r>    0.9054    1.0000 </r>
       <r>    0.9065    1.0000 </r>
       <r>    0.9089    1.0000 </r>
       <r>    0.9610    1.0000 </r>
       <r>    0.9629    1.0000 </r>
       <r>    0.9873    1.0000 </r>
       <r>    1.0036    1.0000 </r>
       <r>    1.0038    1.0000 </r>
       <r>    1.0527    1.0000 </r>
       <r>    1.0540    1.0000 </r>
       <r>    1.0541    1.0000 </r>
       <r>    1.1093    1.0000 </r>
       <r>    1.6091    1.0000 </r>
       <r>    1.6097    1.0000 </r>
       <r>    1.6731    1.0000 </r>
       <r>    1.6967    1.0000 </r>
       <r>    1.6968    1.0000 </r>
       <r>    2.3499    1.0000 </r>
       <r>    3.5593    0.0000 </r>
       <r>    3.5598    0.0000 </r>
       <r>    3.6382    0.0000 </r>
       <r>    3.6382    0.0000 </r>
       <r>    3.7796    0.0000 </r>
       <r>    3.7803    0.0000 </r>
       <r>    3.8652    0.0000 </r>
       <r>    3.8836    0.0000 </r>
       <r>    3.8851    0.0000 </r>
       <r>    3.9403    0.0000 </r>
       <r>    3.9832    0.0000 </r>
       <r>    3.9836    0.0000 </r>
       <r>    4.0205    0.0000 </r>
       <r>    4.0206    0.0000 </r>
       <r>    4.0362    0.0000 </r>
       <r>    4.0386    0.0000 </r>
       <r>    4.1697    0.0000 </r>
       <r>    4.1707    0.0000 </r>
       <r>    4.1908    0.0000 </r>
       <r>    4.2263    0.0000 </r>
       <r>    4.2271    0.0000 </r>
       <r>    4.2395    0.0000 </r>
       <r>    4.2806    0.0000 </r>
       <r>    4.3521    0.0000 </r>
       <r>    4.3524    0.0000 </r>
       <r>    4.4208    0.0000 </r>
       <r>    4.4423    0.0000 </r>
       <r>    4.4423    0.0000 </r>
       <r>    4.4971    0.0000 </r>
       <r>    4.5091    0.0000 </r>
       <r>    4.5836    0.0000 </r>
       <r>    4.6286    0.0000 </r>
       <r>    4.6624    0.0000 </r>
       <r>    4.7117    0.0000 </r>
       <r>    4.7410    0.0000 </r>
       <r>    4.7439    0.0000 </r>
       <r>    4.8097    0.0000 </r>
       <r>    4.8101    0.0000 </r>
       <r>    4.8149    0.0000 </r>
       <r>    4.8437    0.0000 </r>
       <r>    4.8456    0.0000 </r>
       <r>    4.9060    0.0000 </r>
       <r>    4.9073    0.0000 </r>
       <r>    5.1187    0.0000 </r>
       <r>    5.1414    0.0000 </r>
       <r>    5.1422    0.0000 </r>
       <r>    5.1757    0.0000 </r>
       <r>    5.1759    0.0000 </r>
       <r>    5.1834    0.0000 </r>
       <r>    5.1853    0.0000 </r>
       <r>    5.3393    0.0000 </r>
       <r>    5.3838    0.0000 </r>
      </set>
      <set comment="kpoint 5">
       <r>  -59.0840    1.0000 </r>
       <r>  -59.0775    1.0000 </r>
       <r>  -59.0673    1.0000 </r>
       <r>  -59.0672    1.0000 </r>
       <r>  -59.0556    1.0000 </r>
       <r>  -59.0556    1.0000 </r>
       <r>  -59.0542    1.0000 </r>
       <r>  -59.0523    1.0000 </r>
       <r>  -59.0522    1.0000 </r>
       <r>  -59.0113    1.0000 </r>
       <r>  -59.0048    1.0000 </r>
       <r>  -58.9945    1.0000 </r>
       <r>  -58.9945    1.0000 </r>
       <r>  -58.9828    1.0000 </r>
       <r>  -58.9828    1.0000 </r>
       <r>  -58.9815    1.0000 </r>
       <r>  -58.9796    1.0000 </r>
       <r>  -58.9796    1.0000 </r>
       <r>  -33.3914    1.0000 </r>
       <r>  -33.3496    1.0000 </r>
       <r>  -33.3490    1.0000 </r>
       <r>  -33.3469    1.0000 </r>
       <r>  -33.3463    1.0000 </r>
       <r>  -33.3183    1.0000 </r>
       <r>  -33.2762    1.0000 </r>
       <r>  -33.2762    1.0000 </r>
       <r>  -33.2735    1.0000 </r>
       <r>  -33.2735    1.0000 </r>
       <r>  -33.2490    1.0000 </r>
       <r>  -33.2486    1.0000 </r>
       <r>  -33.2152    1.0000 </r>
       <r>  -33.2021    1.0000 </r>
       <r>  -33.1871    1.0000 </r>
       <r>  -33.1868    1.0000 </r>
       <r>  -33.1814    1.0000 </r>
       <r>  -33.1813    1.0000 </r>
       <r>  -33.1758    1.0000 </r>
       <r>  -33.1757    1.0000 </r>
       <r>  -33.1611    1.0000 </r>
       <r>  -33.1579    1.0000 </r>
       <r>  -33.1578    1.0000 </r>
       <r>  -33.1551    1.0000 </r>
       <r>  -33.1513    1.0000 </r>
       <r>  -33.1512    1.0000 </r>
       <r>  -33.1441    1.0000 </r>
       <r>  -33.1438    1.0000 </r>
       <r>  -33.1427    1.0000 </r>
       <r>  -33.1296    1.0000 </r>
       <r>  -33.1167    1.0000 </r>
       <r>  -33.1139    1.0000 </r>
       <r>  -33.1139    1.0000 </r>
       <r>  -33.1089    1.0000 </r>
       <r>  -33.1089    1.0000 </r>
       <r>  -33.1027    1.0000 </r>
       <r>  -33.1023    1.0000 </r>
       <r>  -33.0951    1.0000 </r>
       <r>  -33.0880    1.0000 </r>
       <r>  -33.0854    1.0000 </r>
       <r>  -33.0853    1.0000 </r>
       <r>  -33.0826    1.0000 </r>
       <r>  -33.0788    1.0000 </r>
       <r>  -33.0788    1.0000 </r>
       <r>  -33.0709    1.0000 </r>
       <r>  -33.0709    1.0000 </r>
       <r>  -33.0629    1.0000 </r>
       <r>  -33.0478    1.0000 </r>
       <r>  -33.0436    1.0000 </r>
       <r>  -33.0294    1.0000 </r>
       <r>  -33.0294    1.0000 </r>
       <r>  -33.0220    1.0000 </r>
       <r>  -32.9899    1.0000 </r>
       <r>  -32.9748    1.0000 </r>
       <r>  -12.1370    1.0000 </r>
       <r>  -11.9362    1.0000 </r>
       <r>  -11.8423    1.0000 </r>
       <r>  -11.6465    1.0000 </r>
       <r>  -11.3306    1.0000 </r>
       <r>  -11.3284    1.0000 </r>
       <r>  -11.1497    1.0000 </r>
       <r>  -11.1486    1.0000 </r>
       <r>  -10.9789    1.0000 </r>
       <r>  -10.8476    1.0000 </r>
       <r>  -10.7075    1.0000 </r>
       <r>  -10.6443    1.0000 </r>
       <r>  -10.6415    1.0000 </r>
       <r>  -10.6178    1.0000 </r>
       <r>  -10.6176    1.0000 </r>
       <r>  -10.6025    1.0000 </r>
       <r>  -10.5332    1.0000 </r>
       <r>  -10.5095    1.0000 </r>
       <r>  -10.5088    1.0000 </r>
       <r>  -10.4326    1.0000 </r>
       <r>  -10.4293    1.0000 </r>
       <r>  -10.4220    1.0000 </r>
       <r>  -10.4215    1.0000 </r>
       <r>  -10.4190    1.0000 </r>
       <r>  -10.3216    1.0000 </r>
       <r>  -10.3211    1.0000 </r>
       <r>  -10.3140    1.0000 </r>
       <r>  -10.3134    1.0000 </r>
       <r>  -10.2846    1.0000 </r>
       <r>  -10.2105    1.0000 </r>
       <r>  -10.2095    1.0000 </r>
       <r>  -10.1985    1.0000 </r>
       <r>  -10.1979    1.0000 </r>
       <r>  -10.1874    1.0000 </r>
       <r>  -10.1207    1.0000 </r>
       <r>  -10.1202    1.0000 </r>
       <r>   -4.0136    1.0000 </r>
       <r>   -3.8890    1.0000 </r>
       <r>   -3.8831    1.0000 </r>
       <r>   -3.6661    1.0000 </r>
       <r>   -3.6656    1.0000 </r>
       <r>   -3.6275    1.0000 </r>
       <r>   -3.5146    1.0000 </r>
       <r>   -3.5138    1.0000 </r>
       <r>   -3.4997    1.0000 </r>
       <r>   -3.4994    1.0000 </r>
       <r>   -3.4030    1.0000 </r>
       <r>   -3.4012    1.0000 </r>
       <r>   -3.3498    1.0000 </r>
       <r>   -3.3495    1.0000 </r>
       <r>   -3.2781    1.0000 </r>
       <r>   -3.2772    1.0000 </r>
       <r>   -3.2506    1.0000 </r>
       <r>   -3.2029    1.0000 </r>
       <r>   -3.2029    1.0000 </r>
       <r>   -3.0435    1.0000 </r>
       <r>   -3.0340    1.0000 </r>
       <r>   -3.0036    1.0000 </r>
       <r>   -3.0032    1.0000 </r>
       <r>   -2.9696    1.0000 </r>
       <r>   -2.9690    1.0000 </r>
       <r>   -2.8697    1.0000 </r>
       <r>   -2.8660    1.0000 </r>
       <r>   -2.8656    1.0000 </r>
       <r>   -2.3618    1.0000 </r>
       <r>   -2.1909    1.0000 </r>
       <r>   -2.1903    1.0000 </r>
       <r>   -2.1884    1.0000 </r>
       <r>   -2.1879    1.0000 </r>
       <r>   -2.1590    1.0000 </r>
       <r>   -2.1578    1.0000 </r>
       <r>   -2.1234    1.0000 </r>
       <r>   -2.0731    1.0000 </r>
       <r>   -2.0715    1.0000 </r>
       <r>   -1.9601    1.0000 </r>
       <r>   -1.9590    1.0000 </r>
       <r>   -1.9342    1.0000 </r>
       <r>   -1.9332    1.0000 </r>
       <r>   -1.9195    1.0000 </r>
       <r>   -1.9183    1.0000 </r>
       <r>   -1.8513    1.0000 </r>
       <r>   -1.7903    1.0000 </r>
       <r>   -1.7892    1.0000 </r>
       <r>   -1.7768    1.0000 </r>
       <r>   -1.5523    1.0000 </r>
       <r>   -1.4934    1.0000 </r>
       <r>   -1.4924    1.0000 </r>
       <r>   -1.4512    1.0000 </r>
       <r>   -1.4505    1.0000 </r>
       <r>   -1.4210    1.0000 </r>
       <r>   -1.4134    1.0000 </r>
       <r>   -1.4064    1.0000 </r>
       <r>   -1.4057    1.0000 </r>
       <r>   -1.3359    1.0000 </r>
       <r>   -1.3272    1.0000 </r>
       <r>   -1.2929    1.0000 </r>
       <r>   -1.2918    1.0000 </r>
       <r>   -1.2313    1.0000 </r>
       <r>   -1.2303    1.0000 </r>
       <r>   -1.1570    1.0000 </r>
       <r>   -1.1559    1.0000 </r>
       <r>   -1.1505    1.0000 </r>
       <r>   -1.1123    1.0000 </r>
       <r>   -1.0166    1.0000 </r>
       <r>   -1.0158    1.0000 </r>
       <r>   -0.8067    1.0000 </r>
       <r>   -0.8060    1.0000 </r>
       <r>   -0.6291    1.0000 </r>
       <r>   -0.5990    1.0000 </r>
       <r>   -0.5513    1.0000 </r>
       <r>   -0.5069    1.0000 </r>
       <r>   -0.4195    1.0000 </r>
       <r>   -0.3354    1.0000 </r>
       <r>   -0.3346    1.0000 </r>
       <r>   -0.3293    1.0000 </r>
       <r>   -0.2515    1.0000 </r>
       <r>   -0.2117    1.0000 </r>
       <r>   -0.2091    1.0000 </r>
       <r>   -0.2043    1.0000 </r>
       <r>   -0.1696    1.0000 </r>
       <r>   -0.1691    1.0000 </r>
       <r>   -0.1591    1.0000 </r>
       <r>   -0.1170    1.0000 </r>
       <r>   -0.1166    1.0000 </r>
       <r>   -0.0779    1.0000 </r>
       <r>   -0.0328    1.0000 </r>
       <r>   -0.0317    1.0000 </r>
       <r>    0.0872    1.0000 </r>
       <r>    0.0885    1.0000 </r>
       <r>    0.1185    1.0000 </r>
       <r>    0.1186    1.0000 </r>
       <r>    0.1567    1.0000 </r>
       <r>    0.2924    1.0000 </r>
       <r>    0.2925    1.0000 </r>
       <r>    0.4582    1.0000 </r>
       <r>    0.5285    1.0000 </r>
       <r>    0.6202    1.0000 </r>
       <r>    0.6212    1.0000 </r>
       <r>    0.6848    1.0000 </r>
       <r>    0.8351    1.0000 </r>
       <r>    0.8498    1.0000 </r>
       <r>    0.8499    1.0000 </r>
       <r>    0.9258    1.0000 </r>
       <r>    0.9784    1.0000 </r>
       <r>    0.9790    1.0000 </r>
       <r>    1.0334    1.0000 </r>
       <r>    1.0599    1.0000 </r>
       <r>    1.0599    1.0000 </r>
       <r>    1.0965    1.0000 </r>
       <r>    1.1609    1.0000 </r>
       <r>    1.1616    1.0000 </r>
       <r>    1.2165    1.0000 </r>
       <r>    1.2502    1.0000 </r>
       <r>    1.2503    1.0000 </r>
       <r>    1.3340    1.0000 </r>
       <r>    1.3655    1.0000 </r>
       <r>    1.3657    1.0000 </r>
       <r>    1.4570    1.0000 </r>
       <r>    1.4571    1.0000 </r>
       <r>    1.5222    1.0000 </r>
       <r>    1.5795    1.0000 </r>
       <r>    2.0064    1.0000 </r>
       <r>    3.6354    0.0000 </r>
       <r>    3.6359    0.0000 </r>
       <r>    3.8286    0.0000 </r>
       <r>    3.8298    0.0000 </r>
       <r>    3.9029    0.0000 </r>
       <r>    3.9048    0.0000 </r>
       <r>    3.9264    0.0000 </r>
       <r>    3.9305    0.0000 </r>
       <r>    3.9308    0.0000 </r>
       <r>    3.9673    0.0000 </r>
       <r>    3.9674    0.0000 </r>
       <r>    3.9732    0.0000 </r>
       <r>    4.0550    0.0000 </r>
       <r>    4.1386    0.0000 </r>
       <r>    4.1390    0.0000 </r>
       <r>    4.2265    0.0000 </r>
       <r>    4.2319    0.0000 </r>
       <r>    4.2322    0.0000 </r>
       <r>    4.2373    0.0000 </r>
       <r>    4.2428    0.0000 </r>
       <r>    4.3057    0.0000 </r>
       <r>    4.3151    0.0000 </r>
       <r>    4.3163    0.0000 </r>
       <r>    4.3765    0.0000 </r>
       <r>    4.3894    0.0000 </r>
       <r>    4.3900    0.0000 </r>
       <r>    4.3915    0.0000 </r>
       <r>    4.4397    0.0000 </r>
       <r>    4.4439    0.0000 </r>
       <r>    4.4594    0.0000 </r>
       <r>    4.4997    0.0000 </r>
       <r>    4.5000    0.0000 </r>
       <r>    4.5159    0.0000 </r>
       <r>    4.5161    0.0000 </r>
       <r>    4.5905    0.0000 </r>
       <r>    4.6002    0.0000 </r>
       <r>    4.6175    0.0000 </r>
       <r>    4.6551    0.0000 </r>
       <r>    4.6562    0.0000 </r>
       <r>    4.7792    0.0000 </r>
       <r>    4.8522    0.0000 </r>
       <r>    4.8525    0.0000 </r>
       <r>    4.8586    0.0000 </r>
       <r>    4.8589    0.0000 </r>
       <r>    4.9087    0.0000 </r>
       <r>    5.0266    0.0000 </r>
       <r>    5.0350    0.0000 </r>
       <r>    5.0366    0.0000 </r>
       <r>    5.1276    0.0000 </r>
       <r>    5.1295    0.0000 </r>
       <r>    5.2273    0.0000 </r>
       <r>    5.2375    0.0000 </r>
      </set>
      <set comment="kpoint 6">
       <r>  -59.0840    1.0000 </r>
       <r>  -59.0775    1.0000 </r>
       <r>  -59.0673    1.0000 </r>
       <r>  -59.0672    1.0000 </r>
       <r>  -59.0557    1.0000 </r>
       <r>  -59.0555    1.0000 </r>
       <r>  -59.0542    1.0000 </r>
       <r>  -59.0523    1.0000 </r>
       <r>  -59.0522    1.0000 </r>
       <r>  -59.0113    1.0000 </r>
       <r>  -59.0048    1.0000 </r>
       <r>  -58.9945    1.0000 </r>
       <r>  -58.9945    1.0000 </r>
       <r>  -58.9828    1.0000 </r>
       <r>  -58.9828    1.0000 </r>
       <r>  -58.9815    1.0000 </r>
       <r>  -58.9796    1.0000 </r>
       <r>  -58.9796    1.0000 </r>
       <r>  -33.3913    1.0000 </r>
       <r>  -33.3496    1.0000 </r>
       <r>  -33.3490    1.0000 </r>
       <r>  -33.3469    1.0000 </r>
       <r>  -33.3463    1.0000 </r>
       <r>  -33.3183    1.0000 </r>
       <r>  -33.2762    1.0000 </r>
       <r>  -33.2762    1.0000 </r>
       <r>  -33.2735    1.0000 </r>
       <r>  -33.2735    1.0000 </r>
       <r>  -33.2491    1.0000 </r>
       <r>  -33.2486    1.0000 </r>
       <r>  -33.2152    1.0000 </r>
       <r>  -33.2021    1.0000 </r>
       <r>  -33.1871    1.0000 </r>
       <r>  -33.1867    1.0000 </r>
       <r>  -33.1814    1.0000 </r>
       <r>  -33.1813    1.0000 </r>
       <r>  -33.1758    1.0000 </r>
       <r>  -33.1757    1.0000 </r>
       <r>  -33.1610    1.0000 </r>
       <r>  -33.1579    1.0000 </r>
       <r>  -33.1578    1.0000 </r>
       <r>  -33.1551    1.0000 </r>
       <r>  -33.1513    1.0000 </r>
       <r>  -33.1512    1.0000 </r>
       <r>  -33.1441    1.0000 </r>
       <r>  -33.1437    1.0000 </r>
       <r>  -33.1427    1.0000 </r>
       <r>  -33.1296    1.0000 </r>
       <r>  -33.1167    1.0000 </r>
       <r>  -33.1139    1.0000 </r>
       <r>  -33.1139    1.0000 </r>
       <r>  -33.1089    1.0000 </r>
       <r>  -33.1089    1.0000 </r>
       <r>  -33.1026    1.0000 </r>
       <r>  -33.1022    1.0000 </r>
       <r>  -33.0950    1.0000 </r>
       <r>  -33.0880    1.0000 </r>
       <r>  -33.0854    1.0000 </r>
       <r>  -33.0853    1.0000 </r>
       <r>  -33.0826    1.0000 </r>
       <r>  -33.0788    1.0000 </r>
       <r>  -33.0788    1.0000 </r>
       <r>  -33.0709    1.0000 </r>
       <r>  -33.0709    1.0000 </r>
       <r>  -33.0629    1.0000 </r>
       <r>  -33.0478    1.0000 </r>
       <r>  -33.0436    1.0000 </r>
       <r>  -33.0294    1.0000 </r>
       <r>  -33.0294    1.0000 </r>
       <r>  -33.0220    1.0000 </r>
       <r>  -32.9899    1.0000 </r>
       <r>  -32.9748    1.0000 </r>
       <r>  -12.1371    1.0000 </r>
       <r>  -11.9362    1.0000 </r>
       <r>  -11.8424    1.0000 </r>
       <r>  -11.6466    1.0000 </r>
       <r>  -11.3304    1.0000 </r>
       <r>  -11.3285    1.0000 </r>
       <r>  -11.1496    1.0000 </r>
       <r>  -11.1487    1.0000 </r>
       <r>  -10.9789    1.0000 </r>
       <r>  -10.8476    1.0000 </r>
       <r>  -10.7075    1.0000 </r>
       <r>  -10.6442    1.0000 </r>
       <r>  -10.6415    1.0000 </r>
       <r>  -10.6180    1.0000 </r>
       <r>  -10.6176    1.0000 </r>
       <r>  -10.6025    1.0000 </r>
       <r>  -10.5335    1.0000 </r>
       <r>  -10.5095    1.0000 </r>
       <r>  -10.5089    1.0000 </r>
       <r>  -10.4325    1.0000 </r>
       <r>  -10.4293    1.0000 </r>
       <r>  -10.4222    1.0000 </r>
       <r>  -10.4214    1.0000 </r>
       <r>  -10.4190    1.0000 </r>
       <r>  -10.3216    1.0000 </r>
       <r>  -10.3211    1.0000 </r>
       <r>  -10.3142    1.0000 </r>
       <r>  -10.3134    1.0000 </r>
       <r>  -10.2842    1.0000 </r>
       <r>  -10.2106    1.0000 </r>
       <r>  -10.2095    1.0000 </r>
       <r>  -10.1986    1.0000 </r>
       <r>  -10.1979    1.0000 </r>
       <r>  -10.1873    1.0000 </r>
       <r>  -10.1207    1.0000 </r>
       <r>  -10.1202    1.0000 </r>
       <r>   -4.0135    1.0000 </r>
       <r>   -3.8888    1.0000 </r>
       <r>   -3.8832    1.0000 </r>
       <r>   -3.6663    1.0000 </r>
       <r>   -3.6655    1.0000 </r>
       <r>   -3.6276    1.0000 </r>
       <r>   -3.5147    1.0000 </r>
       <r>   -3.5139    1.0000 </r>
       <r>   -3.4997    1.0000 </r>
       <r>   -3.4995    1.0000 </r>
       <r>   -3.4029    1.0000 </r>
       <r>   -3.4013    1.0000 </r>
       <r>   -3.3498    1.0000 </r>
       <r>   -3.3496    1.0000 </r>
       <r>   -3.2779    1.0000 </r>
       <r>   -3.2775    1.0000 </r>
       <r>   -3.2507    1.0000 </r>
       <r>   -3.2029    1.0000 </r>
       <r>   -3.2029    1.0000 </r>
       <r>   -3.0440    1.0000 </r>
       <r>   -3.0341    1.0000 </r>
       <r>   -3.0036    1.0000 </r>
       <r>   -3.0031    1.0000 </r>
       <r>   -2.9696    1.0000 </r>
       <r>   -2.9692    1.0000 </r>
       <r>   -2.8697    1.0000 </r>
       <r>   -2.8660    1.0000 </r>
       <r>   -2.8656    1.0000 </r>
       <r>   -2.3624    1.0000 </r>
       <r>   -2.1902    1.0000 </r>
       <r>   -2.1898    1.0000 </r>
       <r>   -2.1887    1.0000 </r>
       <r>   -2.1875    1.0000 </r>
       <r>   -2.1582    1.0000 </r>
       <r>   -2.1579    1.0000 </r>
       <r>   -2.1234    1.0000 </r>
       <r>   -2.0731    1.0000 </r>
       <r>   -2.0714    1.0000 </r>
       <r>   -1.9598    1.0000 </r>
       <r>   -1.9592    1.0000 </r>
       <r>   -1.9340    1.0000 </r>
       <r>   -1.9333    1.0000 </r>
       <r>   -1.9192    1.0000 </r>
       <r>   -1.9181    1.0000 </r>
       <r>   -1.8516    1.0000 </r>
       <r>   -1.7900    1.0000 </r>
       <r>   -1.7892    1.0000 </r>
       <r>   -1.7768    1.0000 </r>
       <r>   -1.5518    1.0000 </r>
       <r>   -1.4928    1.0000 </r>
       <r>   -1.4922    1.0000 </r>
       <r>   -1.4511    1.0000 </r>
       <r>   -1.4500    1.0000 </r>
       <r>   -1.4217    1.0000 </r>
       <r>   -1.4139    1.0000 </r>
       <r>   -1.4063    1.0000 </r>
       <r>   -1.4058    1.0000 </r>
       <r>   -1.3359    1.0000 </r>
       <r>   -1.3273    1.0000 </r>
       <r>   -1.2924    1.0000 </r>
       <r>   -1.2921    1.0000 </r>
       <r>   -1.2310    1.0000 </r>
       <r>   -1.2306    1.0000 </r>
       <r>   -1.1568    1.0000 </r>
       <r>   -1.1563    1.0000 </r>
       <r>   -1.1502    1.0000 </r>
       <r>   -1.1118    1.0000 </r>
       <r>   -1.0168    1.0000 </r>
       <r>   -1.0160    1.0000 </r>
       <r>   -0.8068    1.0000 </r>
       <r>   -0.8060    1.0000 </r>
       <r>   -0.6288    1.0000 </r>
       <r>   -0.5985    1.0000 </r>
       <r>   -0.5513    1.0000 </r>
       <r>   -0.5081    1.0000 </r>
       <r>   -0.4196    1.0000 </r>
       <r>   -0.3358    1.0000 </r>
       <r>   -0.3349    1.0000 </r>
       <r>   -0.3291    1.0000 </r>
       <r>   -0.2515    1.0000 </r>
       <r>   -0.2118    1.0000 </r>
       <r>   -0.2091    1.0000 </r>
       <r>   -0.2041    1.0000 </r>
       <r>   -0.1698    1.0000 </r>
       <r>   -0.1692    1.0000 </r>
       <r>   -0.1605    1.0000 </r>
       <r>   -0.1169    1.0000 </r>
       <r>   -0.1166    1.0000 </r>
       <r>   -0.0780    1.0000 </r>
       <r>   -0.0332    1.0000 </r>
       <r>   -0.0318    1.0000 </r>
       <r>    0.0869    1.0000 </r>
       <r>    0.0882    1.0000 </r>
       <r>    0.1184    1.0000 </r>
       <r>    0.1185    1.0000 </r>
       <r>    0.1572    1.0000 </r>
       <r>    0.2922    1.0000 </r>
       <r>    0.2925    1.0000 </r>
       <r>    0.4581    1.0000 </r>
       <r>    0.5287    1.0000 </r>
       <r>    0.6197    1.0000 </r>
       <r>    0.6222    1.0000 </r>
       <r>    0.6847    1.0000 </r>
       <r>    0.8350    1.0000 </r>
       <r>    0.8497    1.0000 </r>
       <r>    0.8499    1.0000 </r>
       <r>    0.9258    1.0000 </r>
       <r>    0.9777    1.0000 </r>
       <r>    0.9780    1.0000 </r>
       <r>    1.0335    1.0000 </r>
       <r>    1.0598    1.0000 </r>
       <r>    1.0599    1.0000 </r>
       <r>    1.0971    1.0000 </r>
       <r>    1.1607    1.0000 </r>
       <r>    1.1621    1.0000 </r>
       <r>    1.2168    1.0000 </r>
       <r>    1.2502    1.0000 </r>
       <r>    1.2502    1.0000 </r>
       <r>    1.3344    1.0000 </r>
       <r>    1.3652    1.0000 </r>
       <r>    1.3660    1.0000 </r>
       <r>    1.4570    1.0000 </r>
       <r>    1.4570    1.0000 </r>
       <r>    1.5226    1.0000 </r>
       <r>    1.5796    1.0000 </r>
       <r>    2.0068    1.0000 </r>
       <r>    3.6356    0.0000 </r>
       <r>    3.6364    0.0000 </r>
       <r>    3.8287    0.0000 </r>
       <r>    3.8297    0.0000 </r>
       <r>    3.9029    0.0000 </r>
       <r>    3.9047    0.0000 </r>
       <r>    3.9264    0.0000 </r>
       <r>    3.9305    0.0000 </r>
       <r>    3.9310    0.0000 </r>
       <r>    3.9673    0.0000 </r>
       <r>    3.9674    0.0000 </r>
       <r>    3.9735    0.0000 </r>
       <r>    4.0551    0.0000 </r>
       <r>    4.1386    0.0000 </r>
       <r>    4.1389    0.0000 </r>
       <r>    4.2263    0.0000 </r>
       <r>    4.2314    0.0000 </r>
       <r>    4.2323    0.0000 </r>
       <r>    4.2376    0.0000 </r>
       <r>    4.2430    0.0000 </r>
       <r>    4.3050    0.0000 </r>
       <r>    4.3150    0.0000 </r>
       <r>    4.3153    0.0000 </r>
       <r>    4.3764    0.0000 </r>
       <r>    4.3895    0.0000 </r>
       <r>    4.3902    0.0000 </r>
       <r>    4.3914    0.0000 </r>
       <r>    4.4392    0.0000 </r>
       <r>    4.4439    0.0000 </r>
       <r>    4.4590    0.0000 </r>
       <r>    4.4994    0.0000 </r>
       <r>    4.5002    0.0000 </r>
       <r>    4.5160    0.0000 </r>
       <r>    4.5161    0.0000 </r>
       <r>    4.5905    0.0000 </r>
       <r>    4.5999    0.0000 </r>
       <r>    4.6173    0.0000 </r>
       <r>    4.6553    0.0000 </r>
       <r>    4.6564    0.0000 </r>
       <r>    4.7785    0.0000 </r>
       <r>    4.8523    0.0000 </r>
       <r>    4.8525    0.0000 </r>
       <r>    4.8580    0.0000 </r>
       <r>    4.8593    0.0000 </r>
       <r>    4.9099    0.0000 </r>
       <r>    5.0270    0.0000 </r>
       <r>    5.0356    0.0000 </r>
       <r>    5.0363    0.0000 </r>
       <r>    5.1280    0.0000 </r>
       <r>    5.1304    0.0000 </r>
       <r>    5.2274    0.0000 </r>
       <r>    5.2359    0.0000 </r>
      </set>
      <set comment="kpoint 7">
       <r>  -59.0840    1.0000 </r>
       <r>  -59.0775    1.0000 </r>
       <r>  -59.0673    1.0000 </r>
       <r>  -59.0672    1.0000 </r>
       <r>  -59.0557    1.0000 </r>
       <r>  -59.0556    1.0000 </r>
       <r>  -59.0542    1.0000 </r>
       <r>  -59.0523    1.0000 </r>
       <r>  -59.0522    1.0000 </r>
       <r>  -59.0113    1.0000 </r>
       <r>  -59.0048    1.0000 </r>
       <r>  -58.9945    1.0000 </r>
       <r>  -58.9945    1.0000 </r>
       <r>  -58.9828    1.0000 </r>
       <r>  -58.9828    1.0000 </r>
       <r>  -58.9815    1.0000 </r>
       <r>  -58.9796    1.0000 </r>
       <r>  -58.9796    1.0000 </r>
       <r>  -33.3914    1.0000 </r>
       <r>  -33.3496    1.0000 </r>
       <r>  -33.3490    1.0000 </r>
       <r>  -33.3469    1.0000 </r>
       <r>  -33.3463    1.0000 </r>
       <r>  -33.3183    1.0000 </r>
       <r>  -33.2762    1.0000 </r>
       <r>  -33.2762    1.0000 </r>
       <r>  -33.2735    1.0000 </r>
       <r>  -33.2735    1.0000 </r>
       <r>  -33.2491    1.0000 </r>
       <r>  -33.2486    1.0000 </r>
       <r>  -33.2152    1.0000 </r>
       <r>  -33.2021    1.0000 </r>
       <r>  -33.1871    1.0000 </r>
       <r>  -33.1868    1.0000 </r>
       <r>  -33.1814    1.0000 </r>
       <r>  -33.1813    1.0000 </r>
       <r>  -33.1758    1.0000 </r>
       <r>  -33.1757    1.0000 </r>
       <r>  -33.1610    1.0000 </r>
       <r>  -33.1579    1.0000 </r>
       <r>  -33.1578    1.0000 </r>
       <r>  -33.1551    1.0000 </r>
       <r>  -33.1513    1.0000 </r>
       <r>  -33.1512    1.0000 </r>
       <r>  -33.1441    1.0000 </r>
       <r>  -33.1437    1.0000 </r>
       <r>  -33.1427    1.0000 </r>
       <r>  -33.1296    1.0000 </r>
       <r>  -33.1167    1.0000 </r>
       <r>  -33.1139    1.0000 </r>
       <r>  -33.1139    1.0000 </r>
       <r>  -33.1089    1.0000 </r>
       <r>  -33.1089    1.0000 </r>
       <r>  -33.1027    1.0000 </r>
       <r>  -33.1022    1.0000 </r>
       <r>  -33.0951    1.0000 </r>
       <r>  -33.0880    1.0000 </r>
       <r>  -33.0854    1.0000 </r>
       <r>  -33.0853    1.0000 </r>
       <r>  -33.0826    1.0000 </r>
       <r>  -33.0788    1.0000 </r>
       <r>  -33.0788    1.0000 </r>
       <r>  -33.0709    1.0000 </r>
       <r>  -33.0709    1.0000 </r>
       <r>  -33.0629    1.0000 </r>
       <r>  -33.0478    1.0000 </r>
       <r>  -33.0436    1.0000 </r>
       <r>  -33.0294    1.0000 </r>
       <r>  -33.0294    1.0000 </r>
       <r>  -33.0220    1.0000 </r>
       <r>  -32.9899    1.0000 </r>
       <r>  -32.9748    1.0000 </r>
       <r>  -12.1371    1.0000 </r>
       <r>  -11.9362    1.0000 </r>
       <r>  -11.8423    1.0000 </r>
       <r>  -11.6465    1.0000 </r>
       <r>  -11.3307    1.0000 </r>
       <r>  -11.3283    1.0000 </r>
       <r>  -11.1497    1.0000 </r>
       <r>  -11.1486    1.0000 </r>
       <r>  -10.9789    1.0000 </r>
       <r>  -10.8476    1.0000 </r>
       <r>  -10.7075    1.0000 </r>
       <r>  -10.6443    1.0000 </r>
       <r>  -10.6415    1.0000 </r>
       <r>  -10.6180    1.0000 </r>
       <r>  -10.6175    1.0000 </r>
       <r>  -10.6025    1.0000 </r>
       <r>  -10.5334    1.0000 </r>
       <r>  -10.5095    1.0000 </r>
       <r>  -10.5088    1.0000 </r>
       <r>  -10.4326    1.0000 </r>
       <r>  -10.4293    1.0000 </r>
       <r>  -10.4221    1.0000 </r>
       <r>  -10.4214    1.0000 </r>
       <r>  -10.4190    1.0000 </r>
       <r>  -10.3216    1.0000 </r>
       <r>  -10.3211    1.0000 </r>
       <r>  -10.3141    1.0000 </r>
       <r>  -10.3134    1.0000 </r>
       <r>  -10.2844    1.0000 </r>
       <r>  -10.2106    1.0000 </r>
       <r>  -10.2095    1.0000 </r>
       <r>  -10.1985    1.0000 </r>
       <r>  -10.1979    1.0000 </r>
       <r>  -10.1874    1.0000 </r>
       <r>  -10.1207    1.0000 </r>
       <r>  -10.1202    1.0000 </r>
       <r>   -4.0135    1.0000 </r>
       <r>   -3.8889    1.0000 </r>
       <r>   -3.8831    1.0000 </r>
       <r>   -3.6664    1.0000 </r>
       <r>   -3.6653    1.0000 </r>
       <r>   -3.6276    1.0000 </r>
       <r>   -3.5150    1.0000 </r>
       <r>   -3.5135    1.0000 </r>
       <r>   -3.4998    1.0000 </r>
       <r>   -3.4993    1.0000 </r>
       <r>   -3.4030    1.0000 </r>
       <r>   -3.4012    1.0000 </r>
       <r>   -3.3499    1.0000 </r>
       <r>   -3.3494    1.0000 </r>
       <r>   -3.2781    1.0000 </r>
       <r>   -3.2773    1.0000 </r>
       <r>   -3.2507    1.0000 </r>
       <r>   -3.2030    1.0000 </r>
       <r>   -3.2029    1.0000 </r>
       <r>   -3.0437    1.0000 </r>
       <r>   -3.0341    1.0000 </r>
       <r>   -3.0036    1.0000 </r>
       <r>   -3.0031    1.0000 </r>
       <r>   -2.9697    1.0000 </r>
       <r>   -2.9690    1.0000 </r>
       <r>   -2.8697    1.0000 </r>
       <r>   -2.8660    1.0000 </r>
       <r>   -2.8656    1.0000 </r>
       <r>   -2.3621    1.0000 </r>
       <r>   -2.1907    1.0000 </r>
       <r>   -2.1899    1.0000 </r>
       <r>   -2.1886    1.0000 </r>
       <r>   -2.1876    1.0000 </r>
       <r>   -2.1587    1.0000 </r>
       <r>   -2.1577    1.0000 </r>
       <r>   -2.1234    1.0000 </r>
       <r>   -2.0731    1.0000 </r>
       <r>   -2.0715    1.0000 </r>
       <r>   -1.9600    1.0000 </r>
       <r>   -1.9591    1.0000 </r>
       <r>   -1.9341    1.0000 </r>
       <r>   -1.9333    1.0000 </r>
       <r>   -1.9194    1.0000 </r>
       <r>   -1.9182    1.0000 </r>
       <r>   -1.8514    1.0000 </r>
       <r>   -1.7902    1.0000 </r>
       <r>   -1.7892    1.0000 </r>
       <r>   -1.7768    1.0000 </r>
       <r>   -1.5521    1.0000 </r>
       <r>   -1.4932    1.0000 </r>
       <r>   -1.4923    1.0000 </r>
       <r>   -1.4512    1.0000 </r>
       <r>   -1.4501    1.0000 </r>
       <r>   -1.4214    1.0000 </r>
       <r>   -1.4137    1.0000 </r>
       <r>   -1.4064    1.0000 </r>
       <r>   -1.4057    1.0000 </r>
       <r>   -1.3359    1.0000 </r>
       <r>   -1.3273    1.0000 </r>
       <r>   -1.2927    1.0000 </r>
       <r>   -1.2919    1.0000 </r>
       <r>   -1.2313    1.0000 </r>
       <r>   -1.2303    1.0000 </r>
       <r>   -1.1569    1.0000 </r>
       <r>   -1.1561    1.0000 </r>
       <r>   -1.1504    1.0000 </r>
       <r>   -1.1121    1.0000 </r>
       <r>   -1.0169    1.0000 </r>
       <r>   -1.0157    1.0000 </r>
       <r>   -0.8069    1.0000 </r>
       <r>   -0.8058    1.0000 </r>
       <r>   -0.6289    1.0000 </r>
       <r>   -0.5987    1.0000 </r>
       <r>   -0.5513    1.0000 </r>
       <r>   -0.5075    1.0000 </r>
       <r>   -0.4195    1.0000 </r>
       <r>   -0.3360    1.0000 </r>
       <r>   -0.3344    1.0000 </r>
       <r>   -0.3292    1.0000 </r>
       <r>   -0.2515    1.0000 </r>
       <r>   -0.2118    1.0000 </r>
       <r>   -0.2090    1.0000 </r>
       <r>   -0.2042    1.0000 </r>
       <r>   -0.1699    1.0000 </r>
       <r>   -0.1690    1.0000 </r>
       <r>   -0.1598    1.0000 </r>
       <r>   -0.1170    1.0000 </r>
       <r>   -0.1166    1.0000 </r>
       <r>   -0.0779    1.0000 </r>
       <r>   -0.0330    1.0000 </r>
       <r>   -0.0317    1.0000 </r>
       <r>    0.0871    1.0000 </r>
       <r>    0.0884    1.0000 </r>
       <r>    0.1184    1.0000 </r>
       <r>    0.1186    1.0000 </r>
       <r>    0.1570    1.0000 </r>
       <r>    0.2923    1.0000 </r>
       <r>    0.2925    1.0000 </r>
       <r>    0.4581    1.0000 </r>
       <r>    0.5286    1.0000 </r>
       <r>    0.6200    1.0000 </r>
       <r>    0.6217    1.0000 </r>
       <r>    0.6847    1.0000 </r>
       <r>    0.8351    1.0000 </r>
       <r>    0.8497    1.0000 </r>
       <r>    0.8499    1.0000 </r>
       <r>    0.9258    1.0000 </r>
       <r>    0.9779    1.0000 </r>
       <r>    0.9787    1.0000 </r>
       <r>    1.0334    1.0000 </r>
       <r>    1.0598    1.0000 </r>
       <r>    1.0599    1.0000 </r>
       <r>    1.0968    1.0000 </r>
       <r>    1.1607    1.0000 </r>
       <r>    1.1619    1.0000 </r>
       <r>    1.2167    1.0000 </r>
       <r>    1.2502    1.0000 </r>
       <r>    1.2503    1.0000 </r>
       <r>    1.3342    1.0000 </r>
       <r>    1.3653    1.0000 </r>
       <r>    1.3660    1.0000 </r>
       <r>    1.4570    1.0000 </r>
       <r>    1.4571    1.0000 </r>
       <r>    1.5224    1.0000 </r>
       <r>    1.5796    1.0000 </r>
       <r>    2.0066    1.0000 </r>
       <r>    3.6354    0.0000 </r>
       <r>    3.6362    0.0000 </r>
       <r>    3.8287    0.0000 </r>
       <r>    3.8297    0.0000 </r>
       <r>    3.9029    0.0000 </r>
       <r>    3.9047    0.0000 </r>
       <r>    3.9264    0.0000 </r>
       <r>    3.9305    0.0000 </r>
       <r>    3.9309    0.0000 </r>
       <r>    3.9672    0.0000 </r>
       <r>    3.9674    0.0000 </r>
       <r>    3.9733    0.0000 </r>
       <r>    4.0551    0.0000 </r>
       <r>    4.1386    0.0000 </r>
       <r>    4.1390    0.0000 </r>
       <r>    4.2264    0.0000 </r>
       <r>    4.2316    0.0000 </r>
       <r>    4.2323    0.0000 </r>
       <r>    4.2375    0.0000 </r>
       <r>    4.2429    0.0000 </r>
       <r>    4.3054    0.0000 </r>
       <r>    4.3151    0.0000 </r>
       <r>    4.3158    0.0000 </r>
       <r>    4.3764    0.0000 </r>
       <r>    4.3894    0.0000 </r>
       <r>    4.3901    0.0000 </r>
       <r>    4.3914    0.0000 </r>
       <r>    4.4394    0.0000 </r>
       <r>    4.4439    0.0000 </r>
       <r>    4.4592    0.0000 </r>
       <r>    4.4996    0.0000 </r>
       <r>    4.4999    0.0000 </r>
       <r>    4.5159    0.0000 </r>
       <r>    4.5161    0.0000 </r>
       <r>    4.5905    0.0000 </r>
       <r>    4.6001    0.0000 </r>
       <r>    4.6174    0.0000 </r>
       <r>    4.6552    0.0000 </r>
       <r>    4.6564    0.0000 </r>
       <r>    4.7788    0.0000 </r>
       <r>    4.8522    0.0000 </r>
       <r>    4.8525    0.0000 </r>
       <r>    4.8582    0.0000 </r>
       <r>    4.8592    0.0000 </r>
       <r>    4.9093    0.0000 </r>
       <r>    5.0268    0.0000 </r>
       <r>    5.0351    0.0000 </r>
       <r>    5.0366    0.0000 </r>
       <r>    5.1277    0.0000 </r>
       <r>    5.1299    0.0000 </r>
       <r>    5.2273    0.0000 </r>
       <r>    5.2374    0.0000 </r>
      </set>
      <set comment="kpoint 8">
       <r>  -59.0854    1.0000 </r>
       <r>  -59.0732    1.0000 </r>
       <r>  -59.0728    1.0000 </r>
       <r>  -59.0609    1.0000 </r>
       <r>  -59.0605    1.0000 </r>
       <r>  -59.0552    1.0000 </r>
       <r>  -59.0548    1.0000 </r>
       <r>  -59.0521    1.0000 </r>
       <r>  -59.0510    1.0000 </r>
       <r>  -59.0127    1.0000 </r>
       <r>  -59.0003    1.0000 </r>
       <r>  -59.0002    1.0000 </r>
       <r>  -58.9880    1.0000 </r>
       <r>  -58.9879    1.0000 </r>
       <r>  -58.9823    1.0000 </r>
       <r>  -58.9822    1.0000 </r>
       <r>  -58.9794    1.0000 </r>
       <r>  -58.9783    1.0000 </r>
       <r>  -33.3761    1.0000 </r>
       <r>  -33.3756    1.0000 </r>
       <r>  -33.3538    1.0000 </r>
       <r>  -33.3311    1.0000 </r>
       <r>  -33.3057    1.0000 </r>
       <r>  -33.3053    1.0000 </r>
       <r>  -33.3027    1.0000 </r>
       <r>  -33.3027    1.0000 </r>
       <r>  -33.2807    1.0000 </r>
       <r>  -33.2580    1.0000 </r>
       <r>  -33.2324    1.0000 </r>
       <r>  -33.2324    1.0000 </r>
       <r>  -33.2180    1.0000 </r>
       <r>  -33.2048    1.0000 </r>
       <r>  -33.2029    1.0000 </r>
       <r>  -33.2025    1.0000 </r>
       <r>  -33.1951    1.0000 </r>
       <r>  -33.1931    1.0000 </r>
       <r>  -33.1929    1.0000 </r>
       <r>  -33.1683    1.0000 </r>
       <r>  -33.1680    1.0000 </r>
       <r>  -33.1568    1.0000 </r>
       <r>  -33.1565    1.0000 </r>
       <r>  -33.1509    1.0000 </r>
       <r>  -33.1487    1.0000 </r>
       <r>  -33.1455    1.0000 </r>
       <r>  -33.1318    1.0000 </r>
       <r>  -33.1297    1.0000 </r>
       <r>  -33.1296    1.0000 </r>
       <r>  -33.1258    1.0000 </r>
       <r>  -33.1256    1.0000 </r>
       <r>  -33.1238    1.0000 </r>
       <r>  -33.1233    1.0000 </r>
       <r>  -33.1221    1.0000 </r>
       <r>  -33.1205    1.0000 </r>
       <r>  -33.1205    1.0000 </r>
       <r>  -33.0957    1.0000 </r>
       <r>  -33.0956    1.0000 </r>
       <r>  -33.0842    1.0000 </r>
       <r>  -33.0841    1.0000 </r>
       <r>  -33.0800    1.0000 </r>
       <r>  -33.0785    1.0000 </r>
       <r>  -33.0774    1.0000 </r>
       <r>  -33.0770    1.0000 </r>
       <r>  -33.0762    1.0000 </r>
       <r>  -33.0526    1.0000 </r>
       <r>  -33.0526    1.0000 </r>
       <r>  -33.0506    1.0000 </r>
       <r>  -33.0505    1.0000 </r>
       <r>  -33.0450    1.0000 </r>
       <r>  -33.0069    1.0000 </r>
       <r>  -33.0042    1.0000 </r>
       <r>  -33.0042    1.0000 </r>
       <r>  -32.9720    1.0000 </r>
       <r>  -12.1992    1.0000 </r>
       <r>  -11.9975    1.0000 </r>
       <r>  -11.6260    1.0000 </r>
       <r>  -11.6242    1.0000 </r>
       <r>  -11.4353    1.0000 </r>
       <r>  -11.4342    1.0000 </r>
       <r>  -11.0066    1.0000 </r>
       <r>  -10.9639    1.0000 </r>
       <r>  -10.9618    1.0000 </r>
       <r>  -10.8023    1.0000 </r>
       <r>  -10.8014    1.0000 </r>
       <r>  -10.7508    1.0000 </r>
       <r>  -10.7506    1.0000 </r>
       <r>  -10.7298    1.0000 </r>
       <r>  -10.5933    1.0000 </r>
       <r>  -10.5906    1.0000 </r>
       <r>  -10.5262    1.0000 </r>
       <r>  -10.5256    1.0000 </r>
       <r>  -10.4679    1.0000 </r>
       <r>  -10.4673    1.0000 </r>
       <r>  -10.4546    1.0000 </r>
       <r>  -10.4543    1.0000 </r>
       <r>  -10.4259    1.0000 </r>
       <r>  -10.3377    1.0000 </r>
       <r>  -10.3150    1.0000 </r>
       <r>  -10.3033    1.0000 </r>
       <r>  -10.3024    1.0000 </r>
       <r>  -10.2988    1.0000 </r>
       <r>  -10.2982    1.0000 </r>
       <r>  -10.2451    1.0000 </r>
       <r>  -10.2017    1.0000 </r>
       <r>  -10.1970    1.0000 </r>
       <r>  -10.1965    1.0000 </r>
       <r>  -10.1716    1.0000 </r>
       <r>  -10.1117    1.0000 </r>
       <r>  -10.0923    1.0000 </r>
       <r>   -3.9462    1.0000 </r>
       <r>   -3.8892    1.0000 </r>
       <r>   -3.8878    1.0000 </r>
       <r>   -3.7533    1.0000 </r>
       <r>   -3.7529    1.0000 </r>
       <r>   -3.5217    1.0000 </r>
       <r>   -3.5012    1.0000 </r>
       <r>   -3.4997    1.0000 </r>
       <r>   -3.4956    1.0000 </r>
       <r>   -3.4945    1.0000 </r>
       <r>   -3.4022    1.0000 </r>
       <r>   -3.3941    1.0000 </r>
       <r>   -3.3712    1.0000 </r>
       <r>   -3.3104    1.0000 </r>
       <r>   -3.3069    1.0000 </r>
       <r>   -3.3031    1.0000 </r>
       <r>   -3.2557    1.0000 </r>
       <r>   -3.2554    1.0000 </r>
       <r>   -3.2550    1.0000 </r>
       <r>   -3.1657    1.0000 </r>
       <r>   -3.0051    1.0000 </r>
       <r>   -3.0040    1.0000 </r>
       <r>   -2.9683    1.0000 </r>
       <r>   -2.9667    1.0000 </r>
       <r>   -2.8488    1.0000 </r>
       <r>   -2.8483    1.0000 </r>
       <r>   -2.5614    1.0000 </r>
       <r>   -2.5605    1.0000 </r>
       <r>   -2.4539    1.0000 </r>
       <r>   -2.4528    1.0000 </r>
       <r>   -2.3074    1.0000 </r>
       <r>   -2.3057    1.0000 </r>
       <r>   -2.2571    1.0000 </r>
       <r>   -2.0958    1.0000 </r>
       <r>   -2.0946    1.0000 </r>
       <r>   -2.0673    1.0000 </r>
       <r>   -2.0668    1.0000 </r>
       <r>   -2.0525    1.0000 </r>
       <r>   -2.0519    1.0000 </r>
       <r>   -2.0187    1.0000 </r>
       <r>   -1.9751    1.0000 </r>
       <r>   -1.9747    1.0000 </r>
       <r>   -1.9418    1.0000 </r>
       <r>   -1.9019    1.0000 </r>
       <r>   -1.9012    1.0000 </r>
       <r>   -1.8833    1.0000 </r>
       <r>   -1.7501    1.0000 </r>
       <r>   -1.7496    1.0000 </r>
       <r>   -1.5062    1.0000 </r>
       <r>   -1.5046    1.0000 </r>
       <r>   -1.4486    1.0000 </r>
       <r>   -1.4306    1.0000 </r>
       <r>   -1.4295    1.0000 </r>
       <r>   -1.4097    1.0000 </r>
       <r>   -1.4077    1.0000 </r>
       <r>   -1.3618    1.0000 </r>
       <r>   -1.3574    1.0000 </r>
       <r>   -1.3168    1.0000 </r>
       <r>   -1.3167    1.0000 </r>
       <r>   -1.2965    1.0000 </r>
       <r>   -1.2741    1.0000 </r>
       <r>   -1.2508    1.0000 </r>
       <r>   -1.2499    1.0000 </r>
       <r>   -1.2234    1.0000 </r>
       <r>   -1.2204    1.0000 </r>
       <r>   -1.1526    1.0000 </r>
       <r>   -1.0442    1.0000 </r>
       <r>   -0.9850    1.0000 </r>
       <r>   -0.8829    1.0000 </r>
       <r>   -0.8815    1.0000 </r>
       <r>   -0.8145    1.0000 </r>
       <r>   -0.7876    1.0000 </r>
       <r>   -0.7873    1.0000 </r>
       <r>   -0.6940    1.0000 </r>
       <r>   -0.6180    1.0000 </r>
       <r>   -0.4262    1.0000 </r>
       <r>   -0.2908    1.0000 </r>
       <r>   -0.2889    1.0000 </r>
       <r>   -0.1864    1.0000 </r>
       <r>   -0.1856    1.0000 </r>
       <r>   -0.1763    1.0000 </r>
       <r>   -0.1757    1.0000 </r>
       <r>   -0.1447    1.0000 </r>
       <r>   -0.1252    1.0000 </r>
       <r>   -0.1242    1.0000 </r>
       <r>   -0.1229    1.0000 </r>
       <r>   -0.1009    1.0000 </r>
       <r>   -0.1008    1.0000 </r>
       <r>   -0.0454    1.0000 </r>
       <r>   -0.0199    1.0000 </r>
       <r>   -0.0049    1.0000 </r>
       <r>    0.1302    1.0000 </r>
       <r>    0.1938    1.0000 </r>
       <r>    0.1943    1.0000 </r>
       <r>    0.3132    1.0000 </r>
       <r>    0.3141    1.0000 </r>
       <r>    0.3629    1.0000 </r>
       <r>    0.3651    1.0000 </r>
       <r>    0.4635    1.0000 </r>
       <r>    0.4639    1.0000 </r>
       <r>    0.5247    1.0000 </r>
       <r>    0.5274    1.0000 </r>
       <r>    0.5554    1.0000 </r>
       <r>    0.5594    1.0000 </r>
       <r>    0.5599    1.0000 </r>
       <r>    0.8935    1.0000 </r>
       <r>    0.8939    1.0000 </r>
       <r>    0.9805    1.0000 </r>
       <r>    0.9819    1.0000 </r>
       <r>    1.0454    1.0000 </r>
       <r>    1.0711    1.0000 </r>
       <r>    1.0713    1.0000 </r>
       <r>    1.1420    1.0000 </r>
       <r>    1.1433    1.0000 </r>
       <r>    1.1513    1.0000 </r>
       <r>    1.1533    1.0000 </r>
       <r>    1.2544    1.0000 </r>
       <r>    1.2545    1.0000 </r>
       <r>    1.2547    1.0000 </r>
       <r>    1.2551    1.0000 </r>
       <r>    1.3677    1.0000 </r>
       <r>    1.4547    1.0000 </r>
       <r>    1.4943    1.0000 </r>
       <r>    1.5932    1.0000 </r>
       <r>    1.6182    1.0000 </r>
       <r>    2.1213    1.0000 </r>
       <r>    3.7213    0.0000 </r>
       <r>    3.7220    0.0000 </r>
       <r>    3.7576    0.0000 </r>
       <r>    3.7701    0.0000 </r>
       <r>    3.7901    0.0000 </r>
       <r>    3.7919    0.0000 </r>
       <r>    3.8307    0.0000 </r>
       <r>    3.9297    0.0000 </r>
       <r>    3.9803    0.0000 </r>
       <r>    3.9812    0.0000 </r>
       <r>    4.0510    0.0000 </r>
       <r>    4.0517    0.0000 </r>
       <r>    4.0547    0.0000 </r>
       <r>    4.0552    0.0000 </r>
       <r>    4.0615    0.0000 </r>
       <r>    4.0616    0.0000 </r>
       <r>    4.2254    0.0000 </r>
       <r>    4.2263    0.0000 </r>
       <r>    4.2881    0.0000 </r>
       <r>    4.2888    0.0000 </r>
       <r>    4.2940    0.0000 </r>
       <r>    4.2945    0.0000 </r>
       <r>    4.2984    0.0000 </r>
       <r>    4.3441    0.0000 </r>
       <r>    4.3815    0.0000 </r>
       <r>    4.3818    0.0000 </r>
       <r>    4.3824    0.0000 </r>
       <r>    4.3876    0.0000 </r>
       <r>    4.3888    0.0000 </r>
       <r>    4.4770    0.0000 </r>
       <r>    4.4774    0.0000 </r>
       <r>    4.5346    0.0000 </r>
       <r>    4.5619    0.0000 </r>
       <r>    4.5621    0.0000 </r>
       <r>    4.5669    0.0000 </r>
       <r>    4.6614    0.0000 </r>
       <r>    4.6776    0.0000 </r>
       <r>    4.8014    0.0000 </r>
       <r>    4.8019    0.0000 </r>
       <r>    4.8282    0.0000 </r>
       <r>    4.8289    0.0000 </r>
       <r>    4.8384    0.0000 </r>
       <r>    4.8512    0.0000 </r>
       <r>    4.8621    0.0000 </r>
       <r>    4.9293    0.0000 </r>
       <r>    4.9553    0.0000 </r>
       <r>    5.0143    0.0000 </r>
       <r>    5.0868    0.0000 </r>
       <r>    5.1021    0.0000 </r>
       <r>    5.1032    0.0000 </r>
       <r>    5.1379    0.0000 </r>
       <r>    5.3019    0.0000 </r>
      </set>
      <set comment="kpoint 9">
       <r>  -59.0854    1.0000 </r>
       <r>  -59.0732    1.0000 </r>
       <r>  -59.0728    1.0000 </r>
       <r>  -59.0609    1.0000 </r>
       <r>  -59.0605    1.0000 </r>
       <r>  -59.0552    1.0000 </r>
       <r>  -59.0548    1.0000 </r>
       <r>  -59.0521    1.0000 </r>
       <r>  -59.0510    1.0000 </r>
       <r>  -59.0127    1.0000 </r>
       <r>  -59.0003    1.0000 </r>
       <r>  -59.0002    1.0000 </r>
       <r>  -58.9880    1.0000 </r>
       <r>  -58.9879    1.0000 </r>
       <r>  -58.9823    1.0000 </r>
       <r>  -58.9822    1.0000 </r>
       <r>  -58.9794    1.0000 </r>
       <r>  -58.9783    1.0000 </r>
       <r>  -33.3760    1.0000 </r>
       <r>  -33.3756    1.0000 </r>
       <r>  -33.3538    1.0000 </r>
       <r>  -33.3311    1.0000 </r>
       <r>  -33.3058    1.0000 </r>
       <r>  -33.3053    1.0000 </r>
       <r>  -33.3027    1.0000 </r>
       <r>  -33.3027    1.0000 </r>
       <r>  -33.2807    1.0000 </r>
       <r>  -33.2580    1.0000 </r>
       <r>  -33.2324    1.0000 </r>
       <r>  -33.2324    1.0000 </r>
       <r>  -33.2180    1.0000 </r>
       <r>  -33.2049    1.0000 </r>
       <r>  -33.2028    1.0000 </r>
       <r>  -33.2025    1.0000 </r>
       <r>  -33.1951    1.0000 </r>
       <r>  -33.1932    1.0000 </r>
       <r>  -33.1928    1.0000 </r>
       <r>  -33.1684    1.0000 </r>
       <r>  -33.1679    1.0000 </r>
       <r>  -33.1568    1.0000 </r>
       <r>  -33.1564    1.0000 </r>
       <r>  -33.1509    1.0000 </r>
       <r>  -33.1487    1.0000 </r>
       <r>  -33.1455    1.0000 </r>
       <r>  -33.1318    1.0000 </r>
       <r>  -33.1297    1.0000 </r>
       <r>  -33.1296    1.0000 </r>
       <r>  -33.1258    1.0000 </r>
       <r>  -33.1256    1.0000 </r>
       <r>  -33.1238    1.0000 </r>
       <r>  -33.1233    1.0000 </r>
       <r>  -33.1221    1.0000 </r>
       <r>  -33.1205    1.0000 </r>
       <r>  -33.1205    1.0000 </r>
       <r>  -33.0957    1.0000 </r>
       <r>  -33.0957    1.0000 </r>
       <r>  -33.0842    1.0000 </r>
       <r>  -33.0841    1.0000 </r>
       <r>  -33.0799    1.0000 </r>
       <r>  -33.0785    1.0000 </r>
       <r>  -33.0774    1.0000 </r>
       <r>  -33.0771    1.0000 </r>
       <r>  -33.0762    1.0000 </r>
       <r>  -33.0526    1.0000 </r>
       <r>  -33.0526    1.0000 </r>
       <r>  -33.0506    1.0000 </r>
       <r>  -33.0505    1.0000 </r>
       <r>  -33.0450    1.0000 </r>
       <r>  -33.0069    1.0000 </r>
       <r>  -33.0042    1.0000 </r>
       <r>  -33.0042    1.0000 </r>
       <r>  -32.9720    1.0000 </r>
       <r>  -12.1992    1.0000 </r>
       <r>  -11.9975    1.0000 </r>
       <r>  -11.6261    1.0000 </r>
       <r>  -11.6241    1.0000 </r>
       <r>  -11.4353    1.0000 </r>
       <r>  -11.4342    1.0000 </r>
       <r>  -11.0066    1.0000 </r>
       <r>  -10.9639    1.0000 </r>
       <r>  -10.9617    1.0000 </r>
       <r>  -10.8022    1.0000 </r>
       <r>  -10.8014    1.0000 </r>
       <r>  -10.7509    1.0000 </r>
       <r>  -10.7505    1.0000 </r>
       <r>  -10.7298    1.0000 </r>
       <r>  -10.5934    1.0000 </r>
       <r>  -10.5905    1.0000 </r>
       <r>  -10.5263    1.0000 </r>
       <r>  -10.5255    1.0000 </r>
       <r>  -10.4679    1.0000 </r>
       <r>  -10.4673    1.0000 </r>
       <r>  -10.4548    1.0000 </r>
       <r>  -10.4542    1.0000 </r>
       <r>  -10.4259    1.0000 </r>
       <r>  -10.3376    1.0000 </r>
       <r>  -10.3150    1.0000 </r>
       <r>  -10.3031    1.0000 </r>
       <r>  -10.3024    1.0000 </r>
       <r>  -10.2989    1.0000 </r>
       <r>  -10.2982    1.0000 </r>
       <r>  -10.2451    1.0000 </r>
       <r>  -10.2016    1.0000 </r>
       <r>  -10.1970    1.0000 </r>
       <r>  -10.1965    1.0000 </r>
       <r>  -10.1717    1.0000 </r>
       <r>  -10.1116    1.0000 </r>
       <r>  -10.0923    1.0000 </r>
       <r>   -3.9462    1.0000 </r>
       <r>   -3.8894    1.0000 </r>
       <r>   -3.8876    1.0000 </r>
       <r>   -3.7533    1.0000 </r>
       <r>   -3.7528    1.0000 </r>
       <r>   -3.5217    1.0000 </r>
       <r>   -3.5012    1.0000 </r>
       <r>   -3.4996    1.0000 </r>
       <r>   -3.4957    1.0000 </r>
       <r>   -3.4945    1.0000 </r>
       <r>   -3.4023    1.0000 </r>
       <r>   -3.3939    1.0000 </r>
       <r>   -3.3712    1.0000 </r>
       <r>   -3.3104    1.0000 </r>
       <r>   -3.3069    1.0000 </r>
       <r>   -3.3033    1.0000 </r>
       <r>   -3.2559    1.0000 </r>
       <r>   -3.2554    1.0000 </r>
       <r>   -3.2549    1.0000 </r>
       <r>   -3.1657    1.0000 </r>
       <r>   -3.0054    1.0000 </r>
       <r>   -3.0040    1.0000 </r>
       <r>   -2.9683    1.0000 </r>
       <r>   -2.9667    1.0000 </r>
       <r>   -2.8488    1.0000 </r>
       <r>   -2.8483    1.0000 </r>
       <r>   -2.5613    1.0000 </r>
       <r>   -2.5604    1.0000 </r>
       <r>   -2.4538    1.0000 </r>
       <r>   -2.4529    1.0000 </r>
       <r>   -2.3077    1.0000 </r>
       <r>   -2.3057    1.0000 </r>
       <r>   -2.2568    1.0000 </r>
       <r>   -2.0956    1.0000 </r>
       <r>   -2.0943    1.0000 </r>
       <r>   -2.0674    1.0000 </r>
       <r>   -2.0667    1.0000 </r>
       <r>   -2.0524    1.0000 </r>
       <r>   -2.0520    1.0000 </r>
       <r>   -2.0187    1.0000 </r>
       <r>   -1.9750    1.0000 </r>
       <r>   -1.9747    1.0000 </r>
       <r>   -1.9420    1.0000 </r>
       <r>   -1.9017    1.0000 </r>
       <r>   -1.9012    1.0000 </r>
       <r>   -1.8831    1.0000 </r>
       <r>   -1.7501    1.0000 </r>
       <r>   -1.7495    1.0000 </r>
       <r>   -1.5060    1.0000 </r>
       <r>   -1.5046    1.0000 </r>
       <r>   -1.4486    1.0000 </r>
       <r>   -1.4303    1.0000 </r>
       <r>   -1.4296    1.0000 </r>
       <r>   -1.4099    1.0000 </r>
       <r>   -1.4076    1.0000 </r>
       <r>   -1.3618    1.0000 </r>
       <r>   -1.3574    1.0000 </r>
       <r>   -1.3168    1.0000 </r>
       <r>   -1.3167    1.0000 </r>
       <r>   -1.2967    1.0000 </r>
       <r>   -1.2742    1.0000 </r>
       <r>   -1.2507    1.0000 </r>
       <r>   -1.2500    1.0000 </r>
       <r>   -1.2234    1.0000 </r>
       <r>   -1.2204    1.0000 </r>
       <r>   -1.1526    1.0000 </r>
       <r>   -1.0442    1.0000 </r>
       <r>   -0.9847    1.0000 </r>
       <r>   -0.8834    1.0000 </r>
       <r>   -0.8814    1.0000 </r>
       <r>   -0.8145    1.0000 </r>
       <r>   -0.7877    1.0000 </r>
       <r>   -0.7873    1.0000 </r>
       <r>   -0.6938    1.0000 </r>
       <r>   -0.6180    1.0000 </r>
       <r>   -0.4259    1.0000 </r>
       <r>   -0.2911    1.0000 </r>
       <r>   -0.2888    1.0000 </r>
       <r>   -0.1864    1.0000 </r>
       <r>   -0.1856    1.0000 </r>
       <r>   -0.1764    1.0000 </r>
       <r>   -0.1757    1.0000 </r>
       <r>   -0.1449    1.0000 </r>
       <r>   -0.1259    1.0000 </r>
       <r>   -0.1244    1.0000 </r>
       <r>   -0.1227    1.0000 </r>
       <r>   -0.1009    1.0000 </r>
       <r>   -0.1008    1.0000 </r>
       <r>   -0.0454    1.0000 </r>
       <r>   -0.0198    1.0000 </r>
       <r>   -0.0050    1.0000 </r>
       <r>    0.1301    1.0000 </r>
       <r>    0.1940    1.0000 </r>
       <r>    0.1944    1.0000 </r>
       <r>    0.3132    1.0000 </r>
       <r>    0.3140    1.0000 </r>
       <r>    0.3628    1.0000 </r>
       <r>    0.3652    1.0000 </r>
       <r>    0.4634    1.0000 </r>
       <r>    0.4639    1.0000 </r>
       <r>    0.5245    1.0000 </r>
       <r>    0.5275    1.0000 </r>
       <r>    0.5555    1.0000 </r>
       <r>    0.5594    1.0000 </r>
       <r>    0.5597    1.0000 </r>
       <r>    0.8936    1.0000 </r>
       <r>    0.8939    1.0000 </r>
       <r>    0.9802    1.0000 </r>
       <r>    0.9818    1.0000 </r>
       <r>    1.0454    1.0000 </r>
       <r>    1.0711    1.0000 </r>
       <r>    1.0712    1.0000 </r>
       <r>    1.1419    1.0000 </r>
       <r>    1.1434    1.0000 </r>
       <r>    1.1516    1.0000 </r>
       <r>    1.1536    1.0000 </r>
       <r>    1.2545    1.0000 </r>
       <r>    1.2546    1.0000 </r>
       <r>    1.2547    1.0000 </r>
       <r>    1.2551    1.0000 </r>
       <r>    1.3677    1.0000 </r>
       <r>    1.4547    1.0000 </r>
       <r>    1.4943    1.0000 </r>
       <r>    1.5932    1.0000 </r>
       <r>    1.6183    1.0000 </r>
       <r>    2.1214    1.0000 </r>
       <r>    3.7215    0.0000 </r>
       <r>    3.7218    0.0000 </r>
       <r>    3.7575    0.0000 </r>
       <r>    3.7701    0.0000 </r>
       <r>    3.7902    0.0000 </r>
       <r>    3.7920    0.0000 </r>
       <r>    3.8307    0.0000 </r>
       <r>    3.9297    0.0000 </r>
       <r>    3.9804    0.0000 </r>
       <r>    3.9812    0.0000 </r>
       <r>    4.0509    0.0000 </r>
       <r>    4.0517    0.0000 </r>
       <r>    4.0546    0.0000 </r>
       <r>    4.0553    0.0000 </r>
       <r>    4.0615    0.0000 </r>
       <r>    4.0616    0.0000 </r>
       <r>    4.2254    0.0000 </r>
       <r>    4.2262    0.0000 </r>
       <r>    4.2881    0.0000 </r>
       <r>    4.2888    0.0000 </r>
       <r>    4.2939    0.0000 </r>
       <r>    4.2943    0.0000 </r>
       <r>    4.2978    0.0000 </r>
       <r>    4.3442    0.0000 </r>
       <r>    4.3814    0.0000 </r>
       <r>    4.3818    0.0000 </r>
       <r>    4.3824    0.0000 </r>
       <r>    4.3878    0.0000 </r>
       <r>    4.3888    0.0000 </r>
       <r>    4.4771    0.0000 </r>
       <r>    4.4773    0.0000 </r>
       <r>    4.5345    0.0000 </r>
       <r>    4.5620    0.0000 </r>
       <r>    4.5621    0.0000 </r>
       <r>    4.5667    0.0000 </r>
       <r>    4.6616    0.0000 </r>
       <r>    4.6775    0.0000 </r>
       <r>    4.8013    0.0000 </r>
       <r>    4.8019    0.0000 </r>
       <r>    4.8282    0.0000 </r>
       <r>    4.8286    0.0000 </r>
       <r>    4.8384    0.0000 </r>
       <r>    4.8518    0.0000 </r>
       <r>    4.8622    0.0000 </r>
       <r>    4.9294    0.0000 </r>
       <r>    4.9555    0.0000 </r>
       <r>    5.0142    0.0000 </r>
       <r>    5.0866    0.0000 </r>
       <r>    5.1023    0.0000 </r>
       <r>    5.1030    0.0000 </r>
       <r>    5.1381    0.0000 </r>
       <r>    5.3017    0.0000 </r>
      </set>
      <set comment="kpoint 10">
       <r>  -59.0854    1.0000 </r>
       <r>  -59.0732    1.0000 </r>
       <r>  -59.0728    1.0000 </r>
       <r>  -59.0609    1.0000 </r>
       <r>  -59.0604    1.0000 </r>
       <r>  -59.0552    1.0000 </r>
       <r>  -59.0548    1.0000 </r>
       <r>  -59.0521    1.0000 </r>
       <r>  -59.0510    1.0000 </r>
       <r>  -59.0127    1.0000 </r>
       <r>  -59.0003    1.0000 </r>
       <r>  -59.0002    1.0000 </r>
       <r>  -58.9880    1.0000 </r>
       <r>  -58.9879    1.0000 </r>
       <r>  -58.9823    1.0000 </r>
       <r>  -58.9822    1.0000 </r>
       <r>  -58.9794    1.0000 </r>
       <r>  -58.9783    1.0000 </r>
       <r>  -33.3761    1.0000 </r>
       <r>  -33.3756    1.0000 </r>
       <r>  -33.3538    1.0000 </r>
       <r>  -33.3311    1.0000 </r>
       <r>  -33.3057    1.0000 </r>
       <r>  -33.3052    1.0000 </r>
       <r>  -33.3028    1.0000 </r>
       <r>  -33.3027    1.0000 </r>
       <r>  -33.2807    1.0000 </r>
       <r>  -33.2580    1.0000 </r>
       <r>  -33.2324    1.0000 </r>
       <r>  -33.2324    1.0000 </r>
       <r>  -33.2180    1.0000 </r>
       <r>  -33.2048    1.0000 </r>
       <r>  -33.2029    1.0000 </r>
       <r>  -33.2025    1.0000 </r>
       <r>  -33.1952    1.0000 </r>
       <r>  -33.1931    1.0000 </r>
       <r>  -33.1929    1.0000 </r>
       <r>  -33.1683    1.0000 </r>
       <r>  -33.1680    1.0000 </r>
       <r>  -33.1567    1.0000 </r>
       <r>  -33.1565    1.0000 </r>
       <r>  -33.1509    1.0000 </r>
       <r>  -33.1487    1.0000 </r>
       <r>  -33.1455    1.0000 </r>
       <r>  -33.1318    1.0000 </r>
       <r>  -33.1297    1.0000 </r>
       <r>  -33.1296    1.0000 </r>
       <r>  -33.1259    1.0000 </r>
       <r>  -33.1256    1.0000 </r>
       <r>  -33.1238    1.0000 </r>
       <r>  -33.1233    1.0000 </r>
       <r>  -33.1221    1.0000 </r>
       <r>  -33.1206    1.0000 </r>
       <r>  -33.1205    1.0000 </r>
       <r>  -33.0957    1.0000 </r>
       <r>  -33.0956    1.0000 </r>
       <r>  -33.0842    1.0000 </r>
       <r>  -33.0841    1.0000 </r>
       <r>  -33.0800    1.0000 </r>
       <r>  -33.0785    1.0000 </r>
       <r>  -33.0774    1.0000 </r>
       <r>  -33.0770    1.0000 </r>
       <r>  -33.0762    1.0000 </r>
       <r>  -33.0527    1.0000 </r>
       <r>  -33.0526    1.0000 </r>
       <r>  -33.0506    1.0000 </r>
       <r>  -33.0505    1.0000 </r>
       <r>  -33.0449    1.0000 </r>
       <r>  -33.0069    1.0000 </r>
       <r>  -33.0042    1.0000 </r>
       <r>  -33.0042    1.0000 </r>
       <r>  -32.9720    1.0000 </r>
       <r>  -12.1992    1.0000 </r>
       <r>  -11.9975    1.0000 </r>
       <r>  -11.6261    1.0000 </r>
       <r>  -11.6242    1.0000 </r>
       <r>  -11.4353    1.0000 </r>
       <r>  -11.4342    1.0000 </r>
       <r>  -11.0066    1.0000 </r>
       <r>  -10.9641    1.0000 </r>
       <r>  -10.9617    1.0000 </r>
       <r>  -10.8023    1.0000 </r>
       <r>  -10.8014    1.0000 </r>
       <r>  -10.7510    1.0000 </r>
       <r>  -10.7505    1.0000 </r>
       <r>  -10.7298    1.0000 </r>
       <r>  -10.5931    1.0000 </r>
       <r>  -10.5906    1.0000 </r>
       <r>  -10.5263    1.0000 </r>
       <r>  -10.5256    1.0000 </r>
       <r>  -10.4678    1.0000 </r>
       <r>  -10.4673    1.0000 </r>
       <r>  -10.4545    1.0000 </r>
       <r>  -10.4542    1.0000 </r>
       <r>  -10.4258    1.0000 </r>
       <r>  -10.3378    1.0000 </r>
       <r>  -10.3150    1.0000 </r>
       <r>  -10.3034    1.0000 </r>
       <r>  -10.3024    1.0000 </r>
       <r>  -10.2987    1.0000 </r>
       <r>  -10.2982    1.0000 </r>
       <r>  -10.2451    1.0000 </r>
       <r>  -10.2018    1.0000 </r>
       <r>  -10.1971    1.0000 </r>
       <r>  -10.1965    1.0000 </r>
       <r>  -10.1715    1.0000 </r>
       <r>  -10.1117    1.0000 </r>
       <r>  -10.0923    1.0000 </r>
       <r>   -3.9462    1.0000 </r>
       <r>   -3.8890    1.0000 </r>
       <r>   -3.8880    1.0000 </r>
       <r>   -3.7533    1.0000 </r>
       <r>   -3.7530    1.0000 </r>
       <r>   -3.5217    1.0000 </r>
       <r>   -3.5012    1.0000 </r>
       <r>   -3.4997    1.0000 </r>
       <r>   -3.4955    1.0000 </r>
       <r>   -3.4945    1.0000 </r>
       <r>   -3.4020    1.0000 </r>
       <r>   -3.3944    1.0000 </r>
       <r>   -3.3711    1.0000 </r>
       <r>   -3.3104    1.0000 </r>
       <r>   -3.3069    1.0000 </r>
       <r>   -3.3030    1.0000 </r>
       <r>   -3.2556    1.0000 </r>
       <r>   -3.2555    1.0000 </r>
       <r>   -3.2551    1.0000 </r>
       <r>   -3.1657    1.0000 </r>
       <r>   -3.0048    1.0000 </r>
       <r>   -3.0039    1.0000 </r>
       <r>   -2.9683    1.0000 </r>
       <r>   -2.9667    1.0000 </r>
       <r>   -2.8487    1.0000 </r>
       <r>   -2.8483    1.0000 </r>
       <r>   -2.5616    1.0000 </r>
       <r>   -2.5604    1.0000 </r>
       <r>   -2.4540    1.0000 </r>
       <r>   -2.4527    1.0000 </r>
       <r>   -2.3070    1.0000 </r>
       <r>   -2.3058    1.0000 </r>
       <r>   -2.2573    1.0000 </r>
       <r>   -2.0962    1.0000 </r>
       <r>   -2.0947    1.0000 </r>
       <r>   -2.0671    1.0000 </r>
       <r>   -2.0670    1.0000 </r>
       <r>   -2.0529    1.0000 </r>
       <r>   -2.0516    1.0000 </r>
       <r>   -2.0186    1.0000 </r>
       <r>   -1.9752    1.0000 </r>
       <r>   -1.9746    1.0000 </r>
       <r>   -1.9417    1.0000 </r>
       <r>   -1.9020    1.0000 </r>
       <r>   -1.9012    1.0000 </r>
       <r>   -1.8836    1.0000 </r>
       <r>   -1.7503    1.0000 </r>
       <r>   -1.7496    1.0000 </r>
       <r>   -1.5064    1.0000 </r>
       <r>   -1.5045    1.0000 </r>
       <r>   -1.4487    1.0000 </r>
       <r>   -1.4309    1.0000 </r>
       <r>   -1.4293    1.0000 </r>
       <r>   -1.4095    1.0000 </r>
       <r>   -1.4078    1.0000 </r>
       <r>   -1.3620    1.0000 </r>
       <r>   -1.3573    1.0000 </r>
       <r>   -1.3168    1.0000 </r>
       <r>   -1.3167    1.0000 </r>
       <r>   -1.2963    1.0000 </r>
       <r>   -1.2741    1.0000 </r>
       <r>   -1.2510    1.0000 </r>
       <r>   -1.2498    1.0000 </r>
       <r>   -1.2234    1.0000 </r>
       <r>   -1.2204    1.0000 </r>
       <r>   -1.1526    1.0000 </r>
       <r>   -1.0442    1.0000 </r>
       <r>   -0.9852    1.0000 </r>
       <r>   -0.8828    1.0000 </r>
       <r>   -0.8812    1.0000 </r>
       <r>   -0.8145    1.0000 </r>
       <r>   -0.7874    1.0000 </r>
       <r>   -0.7874    1.0000 </r>
       <r>   -0.6942    1.0000 </r>
       <r>   -0.6180    1.0000 </r>
       <r>   -0.4265    1.0000 </r>
       <r>   -0.2905    1.0000 </r>
       <r>   -0.2889    1.0000 </r>
       <r>   -0.1865    1.0000 </r>
       <r>   -0.1856    1.0000 </r>
       <r>   -0.1762    1.0000 </r>
       <r>   -0.1757    1.0000 </r>
       <r>   -0.1445    1.0000 </r>
       <r>   -0.1249    1.0000 </r>
       <r>   -0.1236    1.0000 </r>
       <r>   -0.1229    1.0000 </r>
       <r>   -0.1009    1.0000 </r>
       <r>   -0.1008    1.0000 </r>
       <r>   -0.0454    1.0000 </r>
       <r>   -0.0200    1.0000 </r>
       <r>   -0.0048    1.0000 </r>
       <r>    0.1302    1.0000 </r>
       <r>    0.1938    1.0000 </r>
       <r>    0.1942    1.0000 </r>
       <r>    0.3132    1.0000 </r>
       <r>    0.3143    1.0000 </r>
       <r>    0.3630    1.0000 </r>
       <r>    0.3649    1.0000 </r>
       <r>    0.4635    1.0000 </r>
       <r>    0.4640    1.0000 </r>
       <r>    0.5248    1.0000 </r>
       <r>    0.5272    1.0000 </r>
       <r>    0.5552    1.0000 </r>
       <r>    0.5594    1.0000 </r>
       <r>    0.5601    1.0000 </r>
       <r>    0.8935    1.0000 </r>
       <r>    0.8938    1.0000 </r>
       <r>    0.9808    1.0000 </r>
       <r>    0.9820    1.0000 </r>
       <r>    1.0454    1.0000 </r>
       <r>    1.0712    1.0000 </r>
       <r>    1.0713    1.0000 </r>
       <r>    1.1421    1.0000 </r>
       <r>    1.1433    1.0000 </r>
       <r>    1.1511    1.0000 </r>
       <r>    1.1531    1.0000 </r>
       <r>    1.2544    1.0000 </r>
       <r>    1.2546    1.0000 </r>
       <r>    1.2547    1.0000 </r>
       <r>    1.2549    1.0000 </r>
       <r>    1.3676    1.0000 </r>
       <r>    1.4547    1.0000 </r>
       <r>    1.4944    1.0000 </r>
       <r>    1.5932    1.0000 </r>
       <r>    1.6182    1.0000 </r>
       <r>    2.1212    1.0000 </r>
       <r>    3.7210    0.0000 </r>
       <r>    3.7221    0.0000 </r>
       <r>    3.7577    0.0000 </r>
       <r>    3.7700    0.0000 </r>
       <r>    3.7900    0.0000 </r>
       <r>    3.7918    0.0000 </r>
       <r>    3.8307    0.0000 </r>
       <r>    3.9296    0.0000 </r>
       <r>    3.9802    0.0000 </r>
       <r>    3.9812    0.0000 </r>
       <r>    4.0511    0.0000 </r>
       <r>    4.0517    0.0000 </r>
       <r>    4.0547    0.0000 </r>
       <r>    4.0551    0.0000 </r>
       <r>    4.0615    0.0000 </r>
       <r>    4.0616    0.0000 </r>
       <r>    4.2254    0.0000 </r>
       <r>    4.2265    0.0000 </r>
       <r>    4.2882    0.0000 </r>
       <r>    4.2887    0.0000 </r>
       <r>    4.2941    0.0000 </r>
       <r>    4.2947    0.0000 </r>
       <r>    4.2990    0.0000 </r>
       <r>    4.3440    0.0000 </r>
       <r>    4.3815    0.0000 </r>
       <r>    4.3817    0.0000 </r>
       <r>    4.3824    0.0000 </r>
       <r>    4.3875    0.0000 </r>
       <r>    4.3889    0.0000 </r>
       <r>    4.4768    0.0000 </r>
       <r>    4.4776    0.0000 </r>
       <r>    4.5347    0.0000 </r>
       <r>    4.5619    0.0000 </r>
       <r>    4.5621    0.0000 </r>
       <r>    4.5671    0.0000 </r>
       <r>    4.6612    0.0000 </r>
       <r>    4.6776    0.0000 </r>
       <r>    4.8014    0.0000 </r>
       <r>    4.8019    0.0000 </r>
       <r>    4.8279    0.0000 </r>
       <r>    4.8293    0.0000 </r>
       <r>    4.8385    0.0000 </r>
       <r>    4.8505    0.0000 </r>
       <r>    4.8620    0.0000 </r>
       <r>    4.9292    0.0000 </r>
       <r>    4.9552    0.0000 </r>
       <r>    5.0144    0.0000 </r>
       <r>    5.0870    0.0000 </r>
       <r>    5.1020    0.0000 </r>
       <r>    5.1033    0.0000 </r>
       <r>    5.1377    0.0000 </r>
       <r>    5.3018    0.0000 </r>
      </set>
      <set comment="kpoint 11">
       <r>  -59.0802    1.0000 </r>
       <r>  -59.0798    1.0000 </r>
       <r>  -59.0740    1.0000 </r>
       <r>  -59.0612    1.0000 </r>
       <r>  -59.0561    1.0000 </r>
       <r>  -59.0557    1.0000 </r>
       <r>  -59.0535    1.0000 </r>
       <r>  -59.0529    1.0000 </r>
       <r>  -59.0525    1.0000 </r>
       <r>  -59.0073    1.0000 </r>
       <r>  -59.0072    1.0000 </r>
       <r>  -59.0013    1.0000 </r>
       <r>  -58.9884    1.0000 </r>
       <r>  -58.9832    1.0000 </r>
       <r>  -58.9831    1.0000 </r>
       <r>  -58.9807    1.0000 </r>
       <r>  -58.9801    1.0000 </r>
       <r>  -58.9800    1.0000 </r>
       <r>  -33.3904    1.0000 </r>
       <r>  -33.3732    1.0000 </r>
       <r>  -33.3728    1.0000 </r>
       <r>  -33.3256    1.0000 </r>
       <r>  -33.3252    1.0000 </r>
       <r>  -33.3172    1.0000 </r>
       <r>  -33.2999    1.0000 </r>
       <r>  -33.2999    1.0000 </r>
       <r>  -33.2916    1.0000 </r>
       <r>  -33.2523    1.0000 </r>
       <r>  -33.2523    1.0000 </r>
       <r>  -33.2185    1.0000 </r>
       <r>  -33.2073    1.0000 </r>
       <r>  -33.2069    1.0000 </r>
       <r>  -33.1951    1.0000 </r>
       <r>  -33.1884    1.0000 </r>
       <r>  -33.1691    1.0000 </r>
       <r>  -33.1647    1.0000 </r>
       <r>  -33.1645    1.0000 </r>
       <r>  -33.1587    1.0000 </r>
       <r>  -33.1583    1.0000 </r>
       <r>  -33.1542    1.0000 </r>
       <r>  -33.1538    1.0000 </r>
       <r>  -33.1535    1.0000 </r>
       <r>  -33.1524    1.0000 </r>
       <r>  -33.1519    1.0000 </r>
       <r>  -33.1346    1.0000 </r>
       <r>  -33.1346    1.0000 </r>
       <r>  -33.1344    1.0000 </r>
       <r>  -33.1340    1.0000 </r>
       <r>  -33.1339    1.0000 </r>
       <r>  -33.1275    1.0000 </r>
       <r>  -33.1226    1.0000 </r>
       <r>  -33.1154    1.0000 </r>
       <r>  -33.0967    1.0000 </r>
       <r>  -33.0916    1.0000 </r>
       <r>  -33.0915    1.0000 </r>
       <r>  -33.0860    1.0000 </r>
       <r>  -33.0860    1.0000 </r>
       <r>  -33.0811    1.0000 </r>
       <r>  -33.0809    1.0000 </r>
       <r>  -33.0809    1.0000 </r>
       <r>  -33.0797    1.0000 </r>
       <r>  -33.0797    1.0000 </r>
       <r>  -33.0787    1.0000 </r>
       <r>  -33.0611    1.0000 </r>
       <r>  -33.0611    1.0000 </r>
       <r>  -33.0609    1.0000 </r>
       <r>  -33.0592    1.0000 </r>
       <r>  -33.0590    1.0000 </r>
       <r>  -33.0545    1.0000 </r>
       <r>  -33.0056    1.0000 </r>
       <r>  -32.9861    1.0000 </r>
       <r>  -32.9861    1.0000 </r>
       <r>  -11.9578    1.0000 </r>
       <r>  -11.9558    1.0000 </r>
       <r>  -11.7593    1.0000 </r>
       <r>  -11.7581    1.0000 </r>
       <r>  -11.6769    1.0000 </r>
       <r>  -11.4849    1.0000 </r>
       <r>  -10.9940    1.0000 </r>
       <r>  -10.8987    1.0000 </r>
       <r>  -10.8981    1.0000 </r>
       <r>  -10.8303    1.0000 </r>
       <r>  -10.7731    1.0000 </r>
       <r>  -10.6737    1.0000 </r>
       <r>  -10.6710    1.0000 </r>
       <r>  -10.6432    1.0000 </r>
       <r>  -10.6425    1.0000 </r>
       <r>  -10.5432    1.0000 </r>
       <r>  -10.5336    1.0000 </r>
       <r>  -10.5328    1.0000 </r>
       <r>  -10.4822    1.0000 </r>
       <r>  -10.4654    1.0000 </r>
       <r>  -10.4496    1.0000 </r>
       <r>  -10.4466    1.0000 </r>
       <r>  -10.3744    1.0000 </r>
       <r>  -10.3413    1.0000 </r>
       <r>  -10.3408    1.0000 </r>
       <r>  -10.3189    1.0000 </r>
       <r>  -10.3182    1.0000 </r>
       <r>  -10.3051    1.0000 </r>
       <r>  -10.2596    1.0000 </r>
       <r>  -10.2322    1.0000 </r>
       <r>  -10.2315    1.0000 </r>
       <r>  -10.1973    1.0000 </r>
       <r>  -10.1965    1.0000 </r>
       <r>  -10.1679    1.0000 </r>
       <r>  -10.1427    1.0000 </r>
       <r>  -10.1422    1.0000 </r>
       <r>   -3.9734    1.0000 </r>
       <r>   -3.8510    1.0000 </r>
       <r>   -3.7739    1.0000 </r>
       <r>   -3.7726    1.0000 </r>
       <r>   -3.7127    1.0000 </r>
       <r>   -3.7114    1.0000 </r>
       <r>   -3.6439    1.0000 </r>
       <r>   -3.6435    1.0000 </r>
       <r>   -3.5025    1.0000 </r>
       <r>   -3.4840    1.0000 </r>
       <r>   -3.4829    1.0000 </r>
       <r>   -3.4193    1.0000 </r>
       <r>   -3.2749    1.0000 </r>
       <r>   -3.2748    1.0000 </r>
       <r>   -3.1994    1.0000 </r>
       <r>   -3.1975    1.0000 </r>
       <r>   -3.1432    1.0000 </r>
       <r>   -3.1074    1.0000 </r>
       <r>   -3.0949    1.0000 </r>
       <r>   -3.0932    1.0000 </r>
       <r>   -3.0926    1.0000 </r>
       <r>   -3.0921    1.0000 </r>
       <r>   -2.9583    1.0000 </r>
       <r>   -2.9438    1.0000 </r>
       <r>   -2.9409    1.0000 </r>
       <r>   -2.9407    1.0000 </r>
       <r>   -2.8823    1.0000 </r>
       <r>   -2.8821    1.0000 </r>
       <r>   -2.4641    1.0000 </r>
       <r>   -2.4149    1.0000 </r>
       <r>   -2.3609    1.0000 </r>
       <r>   -2.3015    1.0000 </r>
       <r>   -2.2993    1.0000 </r>
       <r>   -2.1217    1.0000 </r>
       <r>   -2.0601    1.0000 </r>
       <r>   -2.0591    1.0000 </r>
       <r>   -2.0479    1.0000 </r>
       <r>   -2.0253    1.0000 </r>
       <r>   -2.0240    1.0000 </r>
       <r>   -1.9887    1.0000 </r>
       <r>   -1.9236    1.0000 </r>
       <r>   -1.8880    1.0000 </r>
       <r>   -1.8554    1.0000 </r>
       <r>   -1.8539    1.0000 </r>
       <r>   -1.6951    1.0000 </r>
       <r>   -1.6914    1.0000 </r>
       <r>   -1.6190    1.0000 </r>
       <r>   -1.6189    1.0000 </r>
       <r>   -1.6110    1.0000 </r>
       <r>   -1.5985    1.0000 </r>
       <r>   -1.5529    1.0000 </r>
       <r>   -1.5524    1.0000 </r>
       <r>   -1.4354    1.0000 </r>
       <r>   -1.4348    1.0000 </r>
       <r>   -1.4319    1.0000 </r>
       <r>   -1.3590    1.0000 </r>
       <r>   -1.3574    1.0000 </r>
       <r>   -1.3496    1.0000 </r>
       <r>   -1.3107    1.0000 </r>
       <r>   -1.3101    1.0000 </r>
       <r>   -1.2663    1.0000 </r>
       <r>   -1.2587    1.0000 </r>
       <r>   -1.2581    1.0000 </r>
       <r>   -1.2529    1.0000 </r>
       <r>   -1.0338    1.0000 </r>
       <r>   -0.9250    1.0000 </r>
       <r>   -0.8904    1.0000 </r>
       <r>   -0.8895    1.0000 </r>
       <r>   -0.8480    1.0000 </r>
       <r>   -0.8470    1.0000 </r>
       <r>   -0.7127    1.0000 </r>
       <r>   -0.7122    1.0000 </r>
       <r>   -0.5196    1.0000 </r>
       <r>   -0.5160    1.0000 </r>
       <r>   -0.5041    1.0000 </r>
       <r>   -0.4600    1.0000 </r>
       <r>   -0.4577    1.0000 </r>
       <r>   -0.4338    1.0000 </r>
       <r>   -0.4332    1.0000 </r>
       <r>   -0.4031    1.0000 </r>
       <r>   -0.3782    1.0000 </r>
       <r>   -0.3781    1.0000 </r>
       <r>   -0.3278    1.0000 </r>
       <r>   -0.3262    1.0000 </r>
       <r>   -0.2783    1.0000 </r>
       <r>   -0.1956    1.0000 </r>
       <r>   -0.1815    1.0000 </r>
       <r>   -0.1470    1.0000 </r>
       <r>   -0.1463    1.0000 </r>
       <r>   -0.0620    1.0000 </r>
       <r>   -0.0605    1.0000 </r>
       <r>    0.1286    1.0000 </r>
       <r>    0.1289    1.0000 </r>
       <r>    0.1393    1.0000 </r>
       <r>    0.2428    1.0000 </r>
       <r>    0.2447    1.0000 </r>
       <r>    0.3610    1.0000 </r>
       <r>    0.3800    1.0000 </r>
       <r>    0.3803    1.0000 </r>
       <r>    0.5156    1.0000 </r>
       <r>    0.5228    1.0000 </r>
       <r>    0.6352    1.0000 </r>
       <r>    0.6386    1.0000 </r>
       <r>    0.6531    1.0000 </r>
       <r>    0.7232    1.0000 </r>
       <r>    0.9738    1.0000 </r>
       <r>    1.0413    1.0000 </r>
       <r>    1.0697    1.0000 </r>
       <r>    1.0700    1.0000 </r>
       <r>    1.0765    1.0000 </r>
       <r>    1.1274    1.0000 </r>
       <r>    1.1283    1.0000 </r>
       <r>    1.2140    1.0000 </r>
       <r>    1.2250    1.0000 </r>
       <r>    1.2251    1.0000 </r>
       <r>    1.2555    1.0000 </r>
       <r>    1.3142    1.0000 </r>
       <r>    1.3423    1.0000 </r>
       <r>    1.3438    1.0000 </r>
       <r>    1.3611    1.0000 </r>
       <r>    1.4462    1.0000 </r>
       <r>    1.4463    1.0000 </r>
       <r>    1.4477    1.0000 </r>
       <r>    1.4493    1.0000 </r>
       <r>    1.7029    1.0000 </r>
       <r>    1.7038    1.0000 </r>
       <r>    3.6505    0.0000 </r>
       <r>    3.7497    0.0000 </r>
       <r>    3.8164    0.0000 </r>
       <r>    3.8172    0.0000 </r>
       <r>    3.9519    0.0000 </r>
       <r>    3.9522    0.0000 </r>
       <r>    3.9914    0.0000 </r>
       <r>    3.9928    0.0000 </r>
       <r>    4.0021    0.0000 </r>
       <r>    4.0167    0.0000 </r>
       <r>    4.0389    0.0000 </r>
       <r>    4.0390    0.0000 </r>
       <r>    4.0544    0.0000 </r>
       <r>    4.0670    0.0000 </r>
       <r>    4.1940    0.0000 </r>
       <r>    4.1946    0.0000 </r>
       <r>    4.2024    0.0000 </r>
       <r>    4.2032    0.0000 </r>
       <r>    4.2159    0.0000 </r>
       <r>    4.2568    0.0000 </r>
       <r>    4.2692    0.0000 </r>
       <r>    4.2703    0.0000 </r>
       <r>    4.3112    0.0000 </r>
       <r>    4.3342    0.0000 </r>
       <r>    4.3357    0.0000 </r>
       <r>    4.3481    0.0000 </r>
       <r>    4.3548    0.0000 </r>
       <r>    4.4005    0.0000 </r>
       <r>    4.4007    0.0000 </r>
       <r>    4.4375    0.0000 </r>
       <r>    4.4381    0.0000 </r>
       <r>    4.4897    0.0000 </r>
       <r>    4.4898    0.0000 </r>
       <r>    4.5075    0.0000 </r>
       <r>    4.5905    0.0000 </r>
       <r>    4.5912    0.0000 </r>
       <r>    4.6233    0.0000 </r>
       <r>    4.6307    0.0000 </r>
       <r>    4.6333    0.0000 </r>
       <r>    4.6352    0.0000 </r>
       <r>    4.7019    0.0000 </r>
       <r>    4.7324    0.0000 </r>
       <r>    4.7327    0.0000 </r>
       <r>    4.8476    0.0000 </r>
       <r>    4.8493    0.0000 </r>
       <r>    4.9452    0.0000 </r>
       <r>    5.0821    0.0000 </r>
       <r>    5.0834    0.0000 </r>
       <r>    5.2199    0.0000 </r>
       <r>    5.2204    0.0000 </r>
       <r>    5.3210    0.0000 </r>
       <r>    5.3266    0.0000 </r>
      </set>
      <set comment="kpoint 12">
       <r>  -59.0802    1.0000 </r>
       <r>  -59.0797    1.0000 </r>
       <r>  -59.0740    1.0000 </r>
       <r>  -59.0612    1.0000 </r>
       <r>  -59.0561    1.0000 </r>
       <r>  -59.0557    1.0000 </r>
       <r>  -59.0535    1.0000 </r>
       <r>  -59.0529    1.0000 </r>
       <r>  -59.0524    1.0000 </r>
       <r>  -59.0073    1.0000 </r>
       <r>  -59.0072    1.0000 </r>
       <r>  -59.0013    1.0000 </r>
       <r>  -58.9884    1.0000 </r>
       <r>  -58.9832    1.0000 </r>
       <r>  -58.9831    1.0000 </r>
       <r>  -58.9807    1.0000 </r>
       <r>  -58.9801    1.0000 </r>
       <r>  -58.9800    1.0000 </r>
       <r>  -33.3903    1.0000 </r>
       <r>  -33.3733    1.0000 </r>
       <r>  -33.3728    1.0000 </r>
       <r>  -33.3256    1.0000 </r>
       <r>  -33.3251    1.0000 </r>
       <r>  -33.3172    1.0000 </r>
       <r>  -33.2999    1.0000 </r>
       <r>  -33.2999    1.0000 </r>
       <r>  -33.2917    1.0000 </r>
       <r>  -33.2523    1.0000 </r>
       <r>  -33.2523    1.0000 </r>
       <r>  -33.2185    1.0000 </r>
       <r>  -33.2072    1.0000 </r>
       <r>  -33.2070    1.0000 </r>
       <r>  -33.1951    1.0000 </r>
       <r>  -33.1885    1.0000 </r>
       <r>  -33.1691    1.0000 </r>
       <r>  -33.1648    1.0000 </r>
       <r>  -33.1644    1.0000 </r>
       <r>  -33.1586    1.0000 </r>
       <r>  -33.1584    1.0000 </r>
       <r>  -33.1542    1.0000 </r>
       <r>  -33.1537    1.0000 </r>
       <r>  -33.1535    1.0000 </r>
       <r>  -33.1523    1.0000 </r>
       <r>  -33.1520    1.0000 </r>
       <r>  -33.1346    1.0000 </r>
       <r>  -33.1345    1.0000 </r>
       <r>  -33.1344    1.0000 </r>
       <r>  -33.1339    1.0000 </r>
       <r>  -33.1338    1.0000 </r>
       <r>  -33.1275    1.0000 </r>
       <r>  -33.1226    1.0000 </r>
       <r>  -33.1154    1.0000 </r>
       <r>  -33.0967    1.0000 </r>
       <r>  -33.0916    1.0000 </r>
       <r>  -33.0915    1.0000 </r>
       <r>  -33.0861    1.0000 </r>
       <r>  -33.0860    1.0000 </r>
       <r>  -33.0811    1.0000 </r>
       <r>  -33.0809    1.0000 </r>
       <r>  -33.0809    1.0000 </r>
       <r>  -33.0797    1.0000 </r>
       <r>  -33.0797    1.0000 </r>
       <r>  -33.0786    1.0000 </r>
       <r>  -33.0611    1.0000 </r>
       <r>  -33.0611    1.0000 </r>
       <r>  -33.0609    1.0000 </r>
       <r>  -33.0593    1.0000 </r>
       <r>  -33.0590    1.0000 </r>
       <r>  -33.0545    1.0000 </r>
       <r>  -33.0056    1.0000 </r>
       <r>  -32.9861    1.0000 </r>
       <r>  -32.9861    1.0000 </r>
       <r>  -11.9578    1.0000 </r>
       <r>  -11.9558    1.0000 </r>
       <r>  -11.7593    1.0000 </r>
       <r>  -11.7581    1.0000 </r>
       <r>  -11.6768    1.0000 </r>
       <r>  -11.4849    1.0000 </r>
       <r>  -10.9939    1.0000 </r>
       <r>  -10.8987    1.0000 </r>
       <r>  -10.8980    1.0000 </r>
       <r>  -10.8302    1.0000 </r>
       <r>  -10.7732    1.0000 </r>
       <r>  -10.6737    1.0000 </r>
       <r>  -10.6711    1.0000 </r>
       <r>  -10.6431    1.0000 </r>
       <r>  -10.6425    1.0000 </r>
       <r>  -10.5433    1.0000 </r>
       <r>  -10.5336    1.0000 </r>
       <r>  -10.5328    1.0000 </r>
       <r>  -10.4826    1.0000 </r>
       <r>  -10.4655    1.0000 </r>
       <r>  -10.4493    1.0000 </r>
       <r>  -10.4466    1.0000 </r>
       <r>  -10.3745    1.0000 </r>
       <r>  -10.3412    1.0000 </r>
       <r>  -10.3408    1.0000 </r>
       <r>  -10.3188    1.0000 </r>
       <r>  -10.3182    1.0000 </r>
       <r>  -10.3052    1.0000 </r>
       <r>  -10.2592    1.0000 </r>
       <r>  -10.2325    1.0000 </r>
       <r>  -10.2315    1.0000 </r>
       <r>  -10.1972    1.0000 </r>
       <r>  -10.1965    1.0000 </r>
       <r>  -10.1678    1.0000 </r>
       <r>  -10.1427    1.0000 </r>
       <r>  -10.1422    1.0000 </r>
       <r>   -3.9733    1.0000 </r>
       <r>   -3.8508    1.0000 </r>
       <r>   -3.7736    1.0000 </r>
       <r>   -3.7730    1.0000 </r>
       <r>   -3.7128    1.0000 </r>
       <r>   -3.7113    1.0000 </r>
       <r>   -3.6439    1.0000 </r>
       <r>   -3.6437    1.0000 </r>
       <r>   -3.5025    1.0000 </r>
       <r>   -3.4839    1.0000 </r>
       <r>   -3.4830    1.0000 </r>
       <r>   -3.4193    1.0000 </r>
       <r>   -3.2751    1.0000 </r>
       <r>   -3.2747    1.0000 </r>
       <r>   -3.1994    1.0000 </r>
       <r>   -3.1973    1.0000 </r>
       <r>   -3.1431    1.0000 </r>
       <r>   -3.1079    1.0000 </r>
       <r>   -3.0949    1.0000 </r>
       <r>   -3.0932    1.0000 </r>
       <r>   -3.0926    1.0000 </r>
       <r>   -3.0922    1.0000 </r>
       <r>   -2.9583    1.0000 </r>
       <r>   -2.9443    1.0000 </r>
       <r>   -2.9411    1.0000 </r>
       <r>   -2.9405    1.0000 </r>
       <r>   -2.8823    1.0000 </r>
       <r>   -2.8821    1.0000 </r>
       <r>   -2.4635    1.0000 </r>
       <r>   -2.4148    1.0000 </r>
       <r>   -2.3615    1.0000 </r>
       <r>   -2.3008    1.0000 </r>
       <r>   -2.2993    1.0000 </r>
       <r>   -2.1217    1.0000 </r>
       <r>   -2.0598    1.0000 </r>
       <r>   -2.0593    1.0000 </r>
       <r>   -2.0475    1.0000 </r>
       <r>   -2.0248    1.0000 </r>
       <r>   -2.0243    1.0000 </r>
       <r>   -1.9882    1.0000 </r>
       <r>   -1.9237    1.0000 </r>
       <r>   -1.8881    1.0000 </r>
       <r>   -1.8552    1.0000 </r>
       <r>   -1.8539    1.0000 </r>
       <r>   -1.6958    1.0000 </r>
       <r>   -1.6913    1.0000 </r>
       <r>   -1.6190    1.0000 </r>
       <r>   -1.6189    1.0000 </r>
       <r>   -1.6114    1.0000 </r>
       <r>   -1.5988    1.0000 </r>
       <r>   -1.5526    1.0000 </r>
       <r>   -1.5523    1.0000 </r>
       <r>   -1.4351    1.0000 </r>
       <r>   -1.4346    1.0000 </r>
       <r>   -1.4323    1.0000 </r>
       <r>   -1.3582    1.0000 </r>
       <r>   -1.3573    1.0000 </r>
       <r>   -1.3496    1.0000 </r>
       <r>   -1.3106    1.0000 </r>
       <r>   -1.3101    1.0000 </r>
       <r>   -1.2665    1.0000 </r>
       <r>   -1.2586    1.0000 </r>
       <r>   -1.2579    1.0000 </r>
       <r>   -1.2529    1.0000 </r>
       <r>   -1.0332    1.0000 </r>
       <r>   -0.9251    1.0000 </r>
       <r>   -0.8899    1.0000 </r>
       <r>   -0.8893    1.0000 </r>
       <r>   -0.8481    1.0000 </r>
       <r>   -0.8473    1.0000 </r>
       <r>   -0.7128    1.0000 </r>
       <r>   -0.7123    1.0000 </r>
       <r>   -0.5223    1.0000 </r>
       <r>   -0.5155    1.0000 </r>
       <r>   -0.5042    1.0000 </r>
       <r>   -0.4592    1.0000 </r>
       <r>   -0.4578    1.0000 </r>
       <r>   -0.4338    1.0000 </r>
       <r>   -0.4332    1.0000 </r>
       <r>   -0.4030    1.0000 </r>
       <r>   -0.3783    1.0000 </r>
       <r>   -0.3781    1.0000 </r>
       <r>   -0.3281    1.0000 </r>
       <r>   -0.3264    1.0000 </r>
       <r>   -0.2785    1.0000 </r>
       <r>   -0.1956    1.0000 </r>
       <r>   -0.1812    1.0000 </r>
       <r>   -0.1467    1.0000 </r>
       <r>   -0.1465    1.0000 </r>
       <r>   -0.0622    1.0000 </r>
       <r>   -0.0606    1.0000 </r>
       <r>    0.1284    1.0000 </r>
       <r>    0.1288    1.0000 </r>
       <r>    0.1397    1.0000 </r>
       <r>    0.2427    1.0000 </r>
       <r>    0.2444    1.0000 </r>
       <r>    0.3610    1.0000 </r>
       <r>    0.3801    1.0000 </r>
       <r>    0.3802    1.0000 </r>
       <r>    0.5159    1.0000 </r>
       <r>    0.5228    1.0000 </r>
       <r>    0.6355    1.0000 </r>
       <r>    0.6382    1.0000 </r>
       <r>    0.6529    1.0000 </r>
       <r>    0.7234    1.0000 </r>
       <r>    0.9734    1.0000 </r>
       <r>    1.0414    1.0000 </r>
       <r>    1.0696    1.0000 </r>
       <r>    1.0701    1.0000 </r>
       <r>    1.0764    1.0000 </r>
       <r>    1.1272    1.0000 </r>
       <r>    1.1287    1.0000 </r>
       <r>    1.2133    1.0000 </r>
       <r>    1.2250    1.0000 </r>
       <r>    1.2250    1.0000 </r>
       <r>    1.2558    1.0000 </r>
       <r>    1.3139    1.0000 </r>
       <r>    1.3424    1.0000 </r>
       <r>    1.3437    1.0000 </r>
       <r>    1.3613    1.0000 </r>
       <r>    1.4461    1.0000 </r>
       <r>    1.4463    1.0000 </r>
       <r>    1.4481    1.0000 </r>
       <r>    1.4492    1.0000 </r>
       <r>    1.7034    1.0000 </r>
       <r>    1.7040    1.0000 </r>
       <r>    3.6506    0.0000 </r>
       <r>    3.7501    0.0000 </r>
       <r>    3.8161    0.0000 </r>
       <r>    3.8175    0.0000 </r>
       <r>    3.9516    0.0000 </r>
       <r>    3.9524    0.0000 </r>
       <r>    3.9913    0.0000 </r>
       <r>    3.9927    0.0000 </r>
       <r>    4.0025    0.0000 </r>
       <r>    4.0171    0.0000 </r>
       <r>    4.0388    0.0000 </r>
       <r>    4.0390    0.0000 </r>
       <r>    4.0544    0.0000 </r>
       <r>    4.0670    0.0000 </r>
       <r>    4.1942    0.0000 </r>
       <r>    4.1944    0.0000 </r>
       <r>    4.2022    0.0000 </r>
       <r>    4.2030    0.0000 </r>
       <r>    4.2162    0.0000 </r>
       <r>    4.2561    0.0000 </r>
       <r>    4.2692    0.0000 </r>
       <r>    4.2701    0.0000 </r>
       <r>    4.3108    0.0000 </r>
       <r>    4.3343    0.0000 </r>
       <r>    4.3351    0.0000 </r>
       <r>    4.3481    0.0000 </r>
       <r>    4.3546    0.0000 </r>
       <r>    4.4007    0.0000 </r>
       <r>    4.4010    0.0000 </r>
       <r>    4.4376    0.0000 </r>
       <r>    4.4378    0.0000 </r>
       <r>    4.4897    0.0000 </r>
       <r>    4.4898    0.0000 </r>
       <r>    4.5076    0.0000 </r>
       <r>    4.5907    0.0000 </r>
       <r>    4.5911    0.0000 </r>
       <r>    4.6233    0.0000 </r>
       <r>    4.6308    0.0000 </r>
       <r>    4.6335    0.0000 </r>
       <r>    4.6341    0.0000 </r>
       <r>    4.7020    0.0000 </r>
       <r>    4.7324    0.0000 </r>
       <r>    4.7327    0.0000 </r>
       <r>    4.8478    0.0000 </r>
       <r>    4.8496    0.0000 </r>
       <r>    4.9449    0.0000 </r>
       <r>    5.0822    0.0000 </r>
       <r>    5.0837    0.0000 </r>
       <r>    5.2199    0.0000 </r>
       <r>    5.2221    0.0000 </r>
       <r>    5.3255    0.0000 </r>
       <r>    5.3417    0.0000 </r>
      </set>
      <set comment="kpoint 13">
       <r>  -59.0802    1.0000 </r>
       <r>  -59.0798    1.0000 </r>
       <r>  -59.0740    1.0000 </r>
       <r>  -59.0612    1.0000 </r>
       <r>  -59.0561    1.0000 </r>
       <r>  -59.0557    1.0000 </r>
       <r>  -59.0535    1.0000 </r>
       <r>  -59.0529    1.0000 </r>
       <r>  -59.0524    1.0000 </r>
       <r>  -59.0073    1.0000 </r>
       <r>  -59.0072    1.0000 </r>
       <r>  -59.0013    1.0000 </r>
       <r>  -58.9884    1.0000 </r>
       <r>  -58.9832    1.0000 </r>
       <r>  -58.9831    1.0000 </r>
       <r>  -58.9807    1.0000 </r>
       <r>  -58.9801    1.0000 </r>
       <r>  -58.9800    1.0000 </r>
       <r>  -33.3903    1.0000 </r>
       <r>  -33.3733    1.0000 </r>
       <r>  -33.3728    1.0000 </r>
       <r>  -33.3256    1.0000 </r>
       <r>  -33.3251    1.0000 </r>
       <r>  -33.3172    1.0000 </r>
       <r>  -33.2999    1.0000 </r>
       <r>  -33.2999    1.0000 </r>
       <r>  -33.2916    1.0000 </r>
       <r>  -33.2523    1.0000 </r>
       <r>  -33.2523    1.0000 </r>
       <r>  -33.2185    1.0000 </r>
       <r>  -33.2072    1.0000 </r>
       <r>  -33.2069    1.0000 </r>
       <r>  -33.1951    1.0000 </r>
       <r>  -33.1884    1.0000 </r>
       <r>  -33.1691    1.0000 </r>
       <r>  -33.1648    1.0000 </r>
       <r>  -33.1644    1.0000 </r>
       <r>  -33.1586    1.0000 </r>
       <r>  -33.1583    1.0000 </r>
       <r>  -33.1542    1.0000 </r>
       <r>  -33.1538    1.0000 </r>
       <r>  -33.1535    1.0000 </r>
       <r>  -33.1523    1.0000 </r>
       <r>  -33.1520    1.0000 </r>
       <r>  -33.1346    1.0000 </r>
       <r>  -33.1345    1.0000 </r>
       <r>  -33.1344    1.0000 </r>
       <r>  -33.1340    1.0000 </r>
       <r>  -33.1338    1.0000 </r>
       <r>  -33.1275    1.0000 </r>
       <r>  -33.1226    1.0000 </r>
       <r>  -33.1154    1.0000 </r>
       <r>  -33.0967    1.0000 </r>
       <r>  -33.0916    1.0000 </r>
       <r>  -33.0915    1.0000 </r>
       <r>  -33.0860    1.0000 </r>
       <r>  -33.0860    1.0000 </r>
       <r>  -33.0811    1.0000 </r>
       <r>  -33.0809    1.0000 </r>
       <r>  -33.0809    1.0000 </r>
       <r>  -33.0797    1.0000 </r>
       <r>  -33.0797    1.0000 </r>
       <r>  -33.0787    1.0000 </r>
       <r>  -33.0611    1.0000 </r>
       <r>  -33.0611    1.0000 </r>
       <r>  -33.0609    1.0000 </r>
       <r>  -33.0592    1.0000 </r>
       <r>  -33.0590    1.0000 </r>
       <r>  -33.0545    1.0000 </r>
       <r>  -33.0056    1.0000 </r>
       <r>  -32.9861    1.0000 </r>
       <r>  -32.9861    1.0000 </r>
       <r>  -11.9577    1.0000 </r>
       <r>  -11.9559    1.0000 </r>
       <r>  -11.7593    1.0000 </r>
       <r>  -11.7581    1.0000 </r>
       <r>  -11.6768    1.0000 </r>
       <r>  -11.4849    1.0000 </r>
       <r>  -10.9939    1.0000 </r>
       <r>  -10.8986    1.0000 </r>
       <r>  -10.8982    1.0000 </r>
       <r>  -10.8303    1.0000 </r>
       <r>  -10.7732    1.0000 </r>
       <r>  -10.6736    1.0000 </r>
       <r>  -10.6711    1.0000 </r>
       <r>  -10.6431    1.0000 </r>
       <r>  -10.6425    1.0000 </r>
       <r>  -10.5432    1.0000 </r>
       <r>  -10.5336    1.0000 </r>
       <r>  -10.5328    1.0000 </r>
       <r>  -10.4824    1.0000 </r>
       <r>  -10.4655    1.0000 </r>
       <r>  -10.4494    1.0000 </r>
       <r>  -10.4466    1.0000 </r>
       <r>  -10.3744    1.0000 </r>
       <r>  -10.3413    1.0000 </r>
       <r>  -10.3408    1.0000 </r>
       <r>  -10.3189    1.0000 </r>
       <r>  -10.3182    1.0000 </r>
       <r>  -10.3051    1.0000 </r>
       <r>  -10.2594    1.0000 </r>
       <r>  -10.2324    1.0000 </r>
       <r>  -10.2314    1.0000 </r>
       <r>  -10.1972    1.0000 </r>
       <r>  -10.1965    1.0000 </r>
       <r>  -10.1679    1.0000 </r>
       <r>  -10.1427    1.0000 </r>
       <r>  -10.1422    1.0000 </r>
       <r>   -3.9734    1.0000 </r>
       <r>   -3.8509    1.0000 </r>
       <r>   -3.7737    1.0000 </r>
       <r>   -3.7728    1.0000 </r>
       <r>   -3.7127    1.0000 </r>
       <r>   -3.7114    1.0000 </r>
       <r>   -3.6439    1.0000 </r>
       <r>   -3.6436    1.0000 </r>
       <r>   -3.5025    1.0000 </r>
       <r>   -3.4839    1.0000 </r>
       <r>   -3.4830    1.0000 </r>
       <r>   -3.4193    1.0000 </r>
       <r>   -3.2750    1.0000 </r>
       <r>   -3.2748    1.0000 </r>
       <r>   -3.1994    1.0000 </r>
       <r>   -3.1974    1.0000 </r>
       <r>   -3.1432    1.0000 </r>
       <r>   -3.1076    1.0000 </r>
       <r>   -3.0949    1.0000 </r>
       <r>   -3.0932    1.0000 </r>
       <r>   -3.0926    1.0000 </r>
       <r>   -3.0921    1.0000 </r>
       <r>   -2.9583    1.0000 </r>
       <r>   -2.9440    1.0000 </r>
       <r>   -2.9410    1.0000 </r>
       <r>   -2.9406    1.0000 </r>
       <r>   -2.8823    1.0000 </r>
       <r>   -2.8821    1.0000 </r>
       <r>   -2.4638    1.0000 </r>
       <r>   -2.4148    1.0000 </r>
       <r>   -2.3612    1.0000 </r>
       <r>   -2.3012    1.0000 </r>
       <r>   -2.2993    1.0000 </r>
       <r>   -2.1217    1.0000 </r>
       <r>   -2.0600    1.0000 </r>
       <r>   -2.0592    1.0000 </r>
       <r>   -2.0477    1.0000 </r>
       <r>   -2.0251    1.0000 </r>
       <r>   -2.0241    1.0000 </r>
       <r>   -1.9885    1.0000 </r>
       <r>   -1.9237    1.0000 </r>
       <r>   -1.8881    1.0000 </r>
       <r>   -1.8553    1.0000 </r>
       <r>   -1.8539    1.0000 </r>
       <r>   -1.6954    1.0000 </r>
       <r>   -1.6914    1.0000 </r>
       <r>   -1.6190    1.0000 </r>
       <r>   -1.6189    1.0000 </r>
       <r>   -1.6112    1.0000 </r>
       <r>   -1.5987    1.0000 </r>
       <r>   -1.5528    1.0000 </r>
       <r>   -1.5523    1.0000 </r>
       <r>   -1.4352    1.0000 </r>
       <r>   -1.4347    1.0000 </r>
       <r>   -1.4321    1.0000 </r>
       <r>   -1.3586    1.0000 </r>
       <r>   -1.3573    1.0000 </r>
       <r>   -1.3496    1.0000 </r>
       <r>   -1.3107    1.0000 </r>
       <r>   -1.3101    1.0000 </r>
       <r>   -1.2664    1.0000 </r>
       <r>   -1.2586    1.0000 </r>
       <r>   -1.2580    1.0000 </r>
       <r>   -1.2529    1.0000 </r>
       <r>   -1.0335    1.0000 </r>
       <r>   -0.9250    1.0000 </r>
       <r>   -0.8900    1.0000 </r>
       <r>   -0.8896    1.0000 </r>
       <r>   -0.8480    1.0000 </r>
       <r>   -0.8472    1.0000 </r>
       <r>   -0.7127    1.0000 </r>
       <r>   -0.7123    1.0000 </r>
       <r>   -0.5209    1.0000 </r>
       <r>   -0.5158    1.0000 </r>
       <r>   -0.5042    1.0000 </r>
       <r>   -0.4596    1.0000 </r>
       <r>   -0.4578    1.0000 </r>
       <r>   -0.4338    1.0000 </r>
       <r>   -0.4332    1.0000 </r>
       <r>   -0.4030    1.0000 </r>
       <r>   -0.3783    1.0000 </r>
       <r>   -0.3781    1.0000 </r>
       <r>   -0.3280    1.0000 </r>
       <r>   -0.3263    1.0000 </r>
       <r>   -0.2784    1.0000 </r>
       <r>   -0.1956    1.0000 </r>
       <r>   -0.1813    1.0000 </r>
       <r>   -0.1468    1.0000 </r>
       <r>   -0.1464    1.0000 </r>
       <r>   -0.0621    1.0000 </r>
       <r>   -0.0606    1.0000 </r>
       <r>    0.1285    1.0000 </r>
       <r>    0.1289    1.0000 </r>
       <r>    0.1395    1.0000 </r>
       <r>    0.2427    1.0000 </r>
       <r>    0.2446    1.0000 </r>
       <r>    0.3610    1.0000 </r>
       <r>    0.3801    1.0000 </r>
       <r>    0.3803    1.0000 </r>
       <r>    0.5157    1.0000 </r>
       <r>    0.5228    1.0000 </r>
       <r>    0.6354    1.0000 </r>
       <r>    0.6383    1.0000 </r>
       <r>    0.6530    1.0000 </r>
       <r>    0.7233    1.0000 </r>
       <r>    0.9736    1.0000 </r>
       <r>    1.0414    1.0000 </r>
       <r>    1.0697    1.0000 </r>
       <r>    1.0701    1.0000 </r>
       <r>    1.0764    1.0000 </r>
       <r>    1.1273    1.0000 </r>
       <r>    1.1285    1.0000 </r>
       <r>    1.2137    1.0000 </r>
       <r>    1.2250    1.0000 </r>
       <r>    1.2250    1.0000 </r>
       <r>    1.2557    1.0000 </r>
       <r>    1.3141    1.0000 </r>
       <r>    1.3424    1.0000 </r>
       <r>    1.3437    1.0000 </r>
       <r>    1.3612    1.0000 </r>
       <r>    1.4461    1.0000 </r>
       <r>    1.4463    1.0000 </r>
       <r>    1.4479    1.0000 </r>
       <r>    1.4492    1.0000 </r>
       <r>    1.7031    1.0000 </r>
       <r>    1.7039    1.0000 </r>
       <r>    3.6506    0.0000 </r>
       <r>    3.7499    0.0000 </r>
       <r>    3.8163    0.0000 </r>
       <r>    3.8173    0.0000 </r>
       <r>    3.9518    0.0000 </r>
       <r>    3.9523    0.0000 </r>
       <r>    3.9914    0.0000 </r>
       <r>    3.9927    0.0000 </r>
       <r>    4.0023    0.0000 </r>
       <r>    4.0169    0.0000 </r>
       <r>    4.0388    0.0000 </r>
       <r>    4.0390    0.0000 </r>
       <r>    4.0544    0.0000 </r>
       <r>    4.0670    0.0000 </r>
       <r>    4.1941    0.0000 </r>
       <r>    4.1945    0.0000 </r>
       <r>    4.2022    0.0000 </r>
       <r>    4.2032    0.0000 </r>
       <r>    4.2161    0.0000 </r>
       <r>    4.2565    0.0000 </r>
       <r>    4.2693    0.0000 </r>
       <r>    4.2701    0.0000 </r>
       <r>    4.3110    0.0000 </r>
       <r>    4.3342    0.0000 </r>
       <r>    4.3354    0.0000 </r>
       <r>    4.3481    0.0000 </r>
       <r>    4.3547    0.0000 </r>
       <r>    4.4005    0.0000 </r>
       <r>    4.4009    0.0000 </r>
       <r>    4.4375    0.0000 </r>
       <r>    4.4380    0.0000 </r>
       <r>    4.4897    0.0000 </r>
       <r>    4.4898    0.0000 </r>
       <r>    4.5076    0.0000 </r>
       <r>    4.5906    0.0000 </r>
       <r>    4.5912    0.0000 </r>
       <r>    4.6233    0.0000 </r>
       <r>    4.6308    0.0000 </r>
       <r>    4.6336    0.0000 </r>
       <r>    4.6344    0.0000 </r>
       <r>    4.7020    0.0000 </r>
       <r>    4.7324    0.0000 </r>
       <r>    4.7327    0.0000 </r>
       <r>    4.8477    0.0000 </r>
       <r>    4.8494    0.0000 </r>
       <r>    4.9450    0.0000 </r>
       <r>    5.0822    0.0000 </r>
       <r>    5.0835    0.0000 </r>
       <r>    5.2196    0.0000 </r>
       <r>    5.2224    0.0000 </r>
       <r>    5.3199    0.0000 </r>
       <r>    5.3374    0.0000 </r>
      </set>
     </set>
    </set>
   </array>
  </eigenvalues>
  <separator name="orbital magnetization" >
   <v name="MAGDIPOLOUT">      0.00000000      0.00000000      0.00000000</v>
  </separator>
  <dos>
   <i name="efermi">      2.80796205 </i>
   <total>
    <array>
     <dimension dim="1">gridpoints</dimension>
     <dimension dim="2">spin</dimension>
     <field>energy</field>
     <field>total</field>
     <field>integrated</field>
     <set>
      <set comment="spin 1">
       <r>   -62.3179     0.0000     0.0000 </r>
       <r>   -62.0811     0.0000     0.0000 </r>
       <r>   -61.8444     0.0000     0.0000 </r>
       <r>   -61.6077     0.0000     0.0000 </r>
       <r>   -61.3710     0.0000     0.0000 </r>
       <r>   -61.1343     0.0000     0.0000 </r>
       <r>   -60.8976     0.0000     0.0000 </r>
       <r>   -60.6609     0.0000     0.0000 </r>
       <r>   -60.4242     0.0000     0.0000 </r>
       <r>   -60.1874     0.0000     0.0000 </r>
       <r>   -59.9507     0.0000     0.0000 </r>
       <r>   -59.7140     0.0000     0.0000 </r>
       <r>   -59.4773     0.0000     0.0000 </r>
       <r>   -59.2406     0.0001     0.0000 </r>
       <r>   -59.0039    98.8071    23.3890 </r>
       <r>   -58.7672    53.2753    36.0000 </r>
       <r>   -58.5304     0.0000    36.0000 </r>
       <r>   -58.2937     0.0000    36.0000 </r>
       <r>   -58.0570     0.0000    36.0000 </r>
       <r>   -57.8203     0.0000    36.0000 </r>
       <r>   -57.5836     0.0000    36.0000 </r>
       <r>   -57.3469     0.0000    36.0000 </r>
       <r>   -57.1102     0.0000    36.0000 </r>
       <r>   -56.8734     0.0000    36.0000 </r>
       <r>   -56.6367     0.0000    36.0000 </r>
       <r>   -56.4000     0.0000    36.0000 </r>
       <r>   -56.1633     0.0000    36.0000 </r>
       <r>   -55.9266     0.0000    36.0000 </r>
       <r>   -55.6899     0.0000    36.0000 </r>
       <r>   -55.4532     0.0000    36.0000 </r>
       <r>   -55.2165     0.0000    36.0000 </r>
       <r>   -54.9797     0.0000    36.0000 </r>
       <r>   -54.7430     0.0000    36.0000 </r>
       <r>   -54.5063     0.0000    36.0000 </r>
       <r>   -54.2696     0.0000    36.0000 </r>
       <r>   -54.0329     0.0000    36.0000 </r>
       <r>   -53.7962     0.0000    36.0000 </r>
       <r>   -53.5595     0.0000    36.0000 </r>
       <r>   -53.3227     0.0000    36.0000 </r>
       <r>   -53.0860     0.0000    36.0000 </r>
       <r>   -52.8493     0.0000    36.0000 </r>
       <r>   -52.6126     0.0000    36.0000 </r>
       <r>   -52.3759     0.0000    36.0000 </r>
       <r>   -52.1392     0.0000    36.0000 </r>
       <r>   -51.9025     0.0000    36.0000 </r>
       <r>   -51.6657     0.0000    36.0000 </r>
       <r>   -51.4290     0.0000    36.0000 </r>
       <r>   -51.1923     0.0000    36.0000 </r>
       <r>   -50.9556     0.0000    36.0000 </r>
       <r>   -50.7189     0.0000    36.0000 </r>
       <r>   -50.4822     0.0000    36.0000 </r>
       <r>   -50.2455     0.0000    36.0000 </r>
       <r>   -50.0088     0.0000    36.0000 </r>
       <r>   -49.7720     0.0000    36.0000 </r>
       <r>   -49.5353     0.0000    36.0000 </r>
       <r>   -49.2986     0.0000    36.0000 </r>
       <r>   -49.0619     0.0000    36.0000 </r>
       <r>   -48.8252     0.0000    36.0000 </r>
       <r>   -48.5885     0.0000    36.0000 </r>
       <r>   -48.3518     0.0000    36.0000 </r>
       <r>   -48.1150     0.0000    36.0000 </r>
       <r>   -47.8783     0.0000    36.0000 </r>
       <r>   -47.6416     0.0000    36.0000 </r>
       <r>   -47.4049     0.0000    36.0000 </r>
       <r>   -47.1682     0.0000    36.0000 </r>
       <r>   -46.9315     0.0000    36.0000 </r>
       <r>   -46.6948     0.0000    36.0000 </r>
       <r>   -46.4581     0.0000    36.0000 </r>
       <r>   -46.2213     0.0000    36.0000 </r>
       <r>   -45.9846     0.0000    36.0000 </r>
       <r>   -45.7479     0.0000    36.0000 </r>
       <r>   -45.5112     0.0000    36.0000 </r>
       <r>   -45.2745     0.0000    36.0000 </r>
       <r>   -45.0378     0.0000    36.0000 </r>
       <r>   -44.8011     0.0000    36.0000 </r>
       <r>   -44.5643     0.0000    36.0000 </r>
       <r>   -44.3276     0.0000    36.0000 </r>
       <r>   -44.0909     0.0000    36.0000 </r>
       <r>   -43.8542     0.0000    36.0000 </r>
       <r>   -43.6175     0.0000    36.0000 </r>
       <r>   -43.3808     0.0000    36.0000 </r>
       <r>   -43.1441     0.0000    36.0000 </r>
       <r>   -42.9073     0.0000    36.0000 </r>
       <r>   -42.6706     0.0000    36.0000 </r>
       <r>   -42.4339     0.0000    36.0000 </r>
       <r>   -42.1972     0.0000    36.0000 </r>
       <r>   -41.9605     0.0000    36.0000 </r>
       <r>   -41.7238     0.0000    36.0000 </r>
       <r>   -41.4871     0.0000    36.0000 </r>
       <r>   -41.2504     0.0000    36.0000 </r>
       <r>   -41.0136     0.0000    36.0000 </r>
       <r>   -40.7769     0.0000    36.0000 </r>
       <r>   -40.5402     0.0000    36.0000 </r>
       <r>   -40.3035     0.0000    36.0000 </r>
       <r>   -40.0668     0.0000    36.0000 </r>
       <r>   -39.8301     0.0000    36.0000 </r>
       <r>   -39.5934     0.0000    36.0000 </r>
       <r>   -39.3566     0.0000    36.0000 </r>
       <r>   -39.1199     0.0000    36.0000 </r>
       <r>   -38.8832     0.0000    36.0000 </r>
       <r>   -38.6465     0.0000    36.0000 </r>
       <r>   -38.4098     0.0000    36.0000 </r>
       <r>   -38.1731     0.0000    36.0000 </r>
       <r>   -37.9364     0.0000    36.0000 </r>
       <r>   -37.6996     0.0000    36.0000 </r>
       <r>   -37.4629     0.0000    36.0000 </r>
       <r>   -37.2262     0.0000    36.0000 </r>
       <r>   -36.9895     0.0000    36.0000 </r>
       <r>   -36.7528     0.0000    36.0000 </r>
       <r>   -36.5161     0.0000    36.0000 </r>
       <r>   -36.2794     0.0000    36.0000 </r>
       <r>   -36.0427     0.0000    36.0000 </r>
       <r>   -35.8059     0.0000    36.0000 </r>
       <r>   -35.5692     0.0000    36.0000 </r>
       <r>   -35.3325     0.0000    36.0000 </r>
       <r>   -35.0958     0.0000    36.0000 </r>
       <r>   -34.8591     0.0000    36.0000 </r>
       <r>   -34.6224     0.0000    36.0000 </r>
       <r>   -34.3857     0.0000    36.0000 </r>
       <r>   -34.1489     0.0000    36.0000 </r>
       <r>   -33.9122     0.0000    36.0000 </r>
       <r>   -33.6755     0.0000    36.0000 </r>
       <r>   -33.4388     0.7387    36.1749 </r>
       <r>   -33.2021   134.7839    68.0800 </r>
       <r>   -32.9654   312.9944   142.1701 </r>
       <r>   -32.7287     7.7306   144.0000 </r>
       <r>   -32.4919     0.0000   144.0000 </r>
       <r>   -32.2552     0.0000   144.0000 </r>
       <r>   -32.0185     0.0000   144.0000 </r>
       <r>   -31.7818     0.0000   144.0000 </r>
       <r>   -31.5451     0.0000   144.0000 </r>
       <r>   -31.3084     0.0000   144.0000 </r>
       <r>   -31.0717     0.0000   144.0000 </r>
       <r>   -30.8350     0.0000   144.0000 </r>
       <r>   -30.5982     0.0000   144.0000 </r>
       <r>   -30.3615     0.0000   144.0000 </r>
       <r>   -30.1248     0.0000   144.0000 </r>
       <r>   -29.8881     0.0000   144.0000 </r>
       <r>   -29.6514     0.0000   144.0000 </r>
       <r>   -29.4147     0.0000   144.0000 </r>
       <r>   -29.1780     0.0000   144.0000 </r>
       <r>   -28.9412     0.0000   144.0000 </r>
       <r>   -28.7045     0.0000   144.0000 </r>
       <r>   -28.4678     0.0000   144.0000 </r>
       <r>   -28.2311     0.0000   144.0000 </r>
       <r>   -27.9944     0.0000   144.0000 </r>
       <r>   -27.7577     0.0000   144.0000 </r>
       <r>   -27.5210     0.0000   144.0000 </r>
       <r>   -27.2843     0.0000   144.0000 </r>
       <r>   -27.0475     0.0000   144.0000 </r>
       <r>   -26.8108     0.0000   144.0000 </r>
       <r>   -26.5741     0.0000   144.0000 </r>
       <r>   -26.3374     0.0000   144.0000 </r>
       <r>   -26.1007     0.0000   144.0000 </r>
       <r>   -25.8640     0.0000   144.0000 </r>
       <r>   -25.6273     0.0000   144.0000 </r>
       <r>   -25.3905     0.0000   144.0000 </r>
       <r>   -25.1538     0.0000   144.0000 </r>
       <r>   -24.9171     0.0000   144.0000 </r>
       <r>   -24.6804     0.0000   144.0000 </r>
       <r>   -24.4437     0.0000   144.0000 </r>
       <r>   -24.2070     0.0000   144.0000 </r>
       <r>   -23.9703     0.0000   144.0000 </r>
       <r>   -23.7335     0.0000   144.0000 </r>
       <r>   -23.4968     0.0000   144.0000 </r>
       <r>   -23.2601     0.0000   144.0000 </r>
       <r>   -23.0234     0.0000   144.0000 </r>
       <r>   -22.7867     0.0000   144.0000 </r>
       <r>   -22.5500     0.0000   144.0000 </r>
       <r>   -22.3133     0.0000   144.0000 </r>
       <r>   -22.0766     0.0000   144.0000 </r>
       <r>   -21.8398     0.0000   144.0000 </r>
       <r>   -21.6031     0.0000   144.0000 </r>
       <r>   -21.3664     0.0000   144.0000 </r>
       <r>   -21.1297     0.0000   144.0000 </r>
       <r>   -20.8930     0.0000   144.0000 </r>
       <r>   -20.6563     0.0000   144.0000 </r>
       <r>   -20.4196     0.0000   144.0000 </r>
       <r>   -20.1828     0.0000   144.0000 </r>
       <r>   -19.9461     0.0000   144.0000 </r>
       <r>   -19.7094     0.0000   144.0000 </r>
       <r>   -19.4727     0.0000   144.0000 </r>
       <r>   -19.2360     0.0000   144.0000 </r>
       <r>   -18.9993     0.0000   144.0000 </r>
       <r>   -18.7626     0.0000   144.0000 </r>
       <r>   -18.5258     0.0000   144.0000 </r>
       <r>   -18.2891     0.0000   144.0000 </r>
       <r>   -18.0524     0.0000   144.0000 </r>
       <r>   -17.8157     0.0000   144.0000 </r>
       <r>   -17.5790     0.0000   144.0000 </r>
       <r>   -17.3423     0.0000   144.0000 </r>
       <r>   -17.1056     0.0000   144.0000 </r>
       <r>   -16.8689     0.0000   144.0000 </r>
       <r>   -16.6321     0.0000   144.0000 </r>
       <r>   -16.3954     0.0000   144.0000 </r>
       <r>   -16.1587     0.0000   144.0000 </r>
       <r>   -15.9220     0.0000   144.0000 </r>
       <r>   -15.6853     0.0000   144.0000 </r>
       <r>   -15.4486     0.0000   144.0000 </r>
       <r>   -15.2119     0.0000   144.0000 </r>
       <r>   -14.9751     0.0000   144.0000 </r>
       <r>   -14.7384     0.0000   144.0000 </r>
       <r>   -14.5017     0.0000   144.0000 </r>
       <r>   -14.2650     0.0000   144.0000 </r>
       <r>   -14.0283     0.0000   144.0000 </r>
       <r>   -13.7916     0.0000   144.0000 </r>
       <r>   -13.5549     0.0000   144.0000 </r>
       <r>   -13.3182     0.0000   144.0000 </r>
       <r>   -13.0814     0.0000   144.0000 </r>
       <r>   -12.8447     0.0000   144.0000 </r>
       <r>   -12.6080     0.0000   144.0000 </r>
       <r>   -12.3713     0.4528   144.1072 </r>
       <r>   -12.1346     6.0263   145.5337 </r>
       <r>   -11.8979    10.0554   147.9139 </r>
       <r>   -11.6612     9.1109   150.0706 </r>
       <r>   -11.4244    11.7707   152.8569 </r>
       <r>   -11.1877    12.2715   155.7617 </r>
       <r>   -10.9510    20.7264   160.6680 </r>
       <r>   -10.7143    34.7047   168.8831 </r>
       <r>   -10.4776    57.9593   182.6028 </r>
       <r>   -10.2409    85.9367   202.9452 </r>
       <r>   -10.0042    54.8051   215.9183 </r>
       <r>    -9.7674     0.3451   216.0000 </r>
       <r>    -9.5307     0.0000   216.0000 </r>
       <r>    -9.2940     0.0000   216.0000 </r>
       <r>    -9.0573     0.0000   216.0000 </r>
       <r>    -8.8206     0.0000   216.0000 </r>
       <r>    -8.5839     0.0000   216.0000 </r>
       <r>    -8.3472     0.0000   216.0000 </r>
       <r>    -8.1105     0.0000   216.0000 </r>
       <r>    -7.8737     0.0000   216.0000 </r>
       <r>    -7.6370     0.0000   216.0000 </r>
       <r>    -7.4003     0.0000   216.0000 </r>
       <r>    -7.1636     0.0000   216.0000 </r>
       <r>    -6.9269     0.0000   216.0000 </r>
       <r>    -6.6902     0.0000   216.0000 </r>
       <r>    -6.4535     0.0000   216.0000 </r>
       <r>    -6.2167     0.0000   216.0000 </r>
       <r>    -5.9800     0.0000   216.0000 </r>
       <r>    -5.7433     0.0000   216.0000 </r>
       <r>    -5.5066     0.0000   216.0000 </r>
       <r>    -5.2699     0.0000   216.0000 </r>
       <r>    -5.0332     0.0000   216.0000 </r>
       <r>    -4.7965     0.0000   216.0000 </r>
       <r>    -4.5597     0.0000   216.0000 </r>
       <r>    -4.3230     0.0000   216.0000 </r>
       <r>    -4.0863     1.3356   216.3161 </r>
       <r>    -3.8496    15.9923   220.1017 </r>
       <r>    -3.6129    31.2093   227.4894 </r>
       <r>    -3.3762    59.1657   241.4947 </r>
       <r>    -3.1395    47.5687   252.7549 </r>
       <r>    -2.9028    48.9393   264.3395 </r>
       <r>    -2.6660    20.9495   269.2985 </r>
       <r>    -2.4293    17.0161   273.3264 </r>
       <r>    -2.1926    36.5036   281.9673 </r>
       <r>    -1.9559    74.5383   299.6115 </r>
       <r>    -1.7192    49.1003   311.2342 </r>
       <r>    -1.4825    33.0750   319.0635 </r>
       <r>    -1.2458    78.4633   337.6369 </r>
       <r>    -1.0090    53.1922   350.2282 </r>
       <r>    -0.7723    36.5052   358.8695 </r>
       <r>    -0.5356    23.0763   364.3320 </r>
       <r>    -0.2989    36.8665   373.0588 </r>
       <r>    -0.0622    67.5847   389.0570 </r>
       <r>     0.1745    52.6855   401.5284 </r>
       <r>     0.4112    51.9188   413.8182 </r>
       <r>     0.6480    40.5526   423.4176 </r>
       <r>     0.8847    23.6289   429.0109 </r>
       <r>     1.1214    65.0264   444.4035 </r>
       <r>     1.3581    46.3191   455.3679 </r>
       <r>     1.5948    29.2656   462.2954 </r>
       <r>     1.8315    17.3428   466.4007 </r>
       <r>     2.0682     2.4155   466.9725 </r>
       <r>     2.3049     2.1815   467.4889 </r>
       <r>     2.5417     2.1547   467.9989 </r>
       <r>     2.7784     0.0046   468.0000 </r>
       <r>     3.0151     0.0000   468.0000 </r>
       <r>     3.2518     0.0000   468.0000 </r>
       <r>     3.4885     1.2869   468.3046 </r>
       <r>     3.7252    17.8329   472.5259 </r>
       <r>     3.9619    53.3982   485.1660 </r>
       <r>     4.1987    71.4239   502.0730 </r>
       <r>     4.4354    94.5114   524.4451 </r>
       <r>     4.6721    69.9682   541.0076 </r>
       <r>     4.9088    60.6966   555.3753 </r>
       <r>     5.1455    37.5791   564.2708 </r>
       <r>     5.3822    29.4911   571.2517 </r>
       <r>     5.6189     3.1611   572.0000 </r>
       <r>     5.8556     0.0000   572.0000 </r>
       <r>     6.0924     0.0000   572.0000 </r>
       <r>     6.3291     0.0000   572.0000 </r>
       <r>     6.5658     0.0000   572.0000 </r>
       <r>     6.8025     0.0000   572.0000 </r>
       <r>     7.0392     0.0000   572.0000 </r>
       <r>     7.2759     0.0000   572.0000 </r>
       <r>     7.5126     0.0000   572.0000 </r>
       <r>     7.7494     0.0000   572.0000 </r>
       <r>     7.9861     0.0000   572.0000 </r>
       <r>     8.2228     0.0000   572.0000 </r>
       <r>     8.4595     0.0000   572.0000 </r>
       <r>     8.6962     0.0000   572.0000 </r>
      </set>
     </set>
    </array>
   </total>
  </dos>
 </calculation>
 <structure name="finalpos" >
  <crystal>
   <varray name="basis" >
    <v>       9.57671374       0.00000000       0.00000000 </v>
    <v>       4.78835687       8.29367738       0.00000000 </v>
    <v>       0.00000000       0.00000000      20.00000000 </v>
   </varray>
   <i name="volume">   1588.52348190 </i>
   <varray name="rec_basis" >
    <v>       0.10441995      -0.06028689       0.00000000 </v>
    <v>       0.00000000       0.12057378       0.00000000 </v>
    <v>       0.00000000       0.00000000       0.05000000 </v>
   </varray>
  </crystal>
  <varray name="positions" >
   <v>       0.00000000       0.00000000       0.51296834 </v>
   <v>       0.33333333       0.00000000       0.51296834 </v>
   <v>       0.66666667       0.00000000       0.51296834 </v>
   <v>       0.00000000       0.33333333       0.51296834 </v>
   <v>       0.33333333       0.33333333       0.51296834 </v>
   <v>       0.66666667       0.33333333       0.51296834 </v>
   <v>       0.00000000       0.66666667       0.51296834 </v>
   <v>       0.33333333       0.66666667       0.51296834 </v>
   <v>       0.66666667       0.66666667       0.51296834 </v>
   <v>       0.11111111       0.11111111       0.81206902 </v>
   <v>       0.44444444       0.11111111       0.81206902 </v>
   <v>       0.77777778       0.11111111       0.81206902 </v>
   <v>       0.11111111       0.44444444       0.81206902 </v>
   <v>       0.44444444       0.44444444       0.81206902 </v>
   <v>       0.77777778       0.44444444       0.81206902 </v>
   <v>       0.11111111       0.77777778       0.81206902 </v>
   <v>       0.44444444       0.77777778       0.81206902 </v>
   <v>       0.77777778       0.77777778       0.81206902 </v>
   <v>       0.11111111       0.11111111       0.43526293 </v>
   <v>       0.44444444       0.11111111       0.43526293 </v>
   <v>       0.77777778       0.11111111       0.43526293 </v>
   <v>       0.11111111       0.44444444       0.43526293 </v>
   <v>       0.44444444       0.44444444       0.43526293 </v>
   <v>       0.77777778       0.44444444       0.43526293 </v>
   <v>       0.11111111       0.77777778       0.43526293 </v>
   <v>       0.44444444       0.77777778       0.43526293 </v>
   <v>       0.77777778       0.77777778       0.43526293 </v>
   <v>       0.11111111       0.11111111       0.59047446 </v>
   <v>       0.44444444       0.11111111       0.59047446 </v>
   <v>       0.77777778       0.11111111       0.59047446 </v>
   <v>       0.11111111       0.44444444       0.59047446 </v>
   <v>       0.44444444       0.44444444       0.59047446 </v>
   <v>       0.77777778       0.44444444       0.59047446 </v>
   <v>       0.11111111       0.77777778       0.59047446 </v>
   <v>       0.44444444       0.77777778       0.59047446 </v>
   <v>       0.77777778       0.77777778       0.59047446 </v>
   <v>       0.22267319       0.22222222       0.73495018 </v>
   <v>       0.55555556       0.22222222       0.73449922 </v>
   <v>       0.88888889       0.22222222       0.73449922 </v>
   <v>       0.22222222       0.55555556       0.73449922 </v>
   <v>       0.55555556       0.55555556       0.73449922 </v>
   <v>       0.88888889       0.55555556       0.73449922 </v>
   <v>       0.22222222       0.88888889       0.73449922 </v>
   <v>       0.55555556       0.88888889       0.73449922 </v>
   <v>       0.88888889       0.88888889       0.73449922 </v>
   <v>       0.22222222       0.22222222       0.88972603 </v>
   <v>       0.55555556       0.22222222       0.88972603 </v>
   <v>       0.88888889       0.22222222       0.88972603 </v>
   <v>       0.22222222       0.55555556       0.88972603 </v>
   <v>       0.55555556       0.55555556       0.88972603 </v>
   <v>       0.88888889       0.55555556       0.88972603 </v>
   <v>       0.22222222       0.88888889       0.88972603 </v>
   <v>       0.55555556       0.88888889       0.88972603 </v>
   <v>       0.88888889       0.88888889       0.88972603 </v>
  </varray>
 </structure>
</modeling>
