Mo1 W1 Se4                              
   1.00000000000000     
     3.3529072800000002   -0.0000000000000027    0.0000000000000001
     1.6764536399999814    2.9037028810137979    0.0000000000000000
    -0.0000000000000002    0.0000000000000019   20.1776881949768985
   Mo   Se   W 
     1     4     1
Direct
    -0.0000000000000000    0.0000000000000000    0.5060748824573177
     0.3333333333333357    0.3333333333333357    0.4241429585724342
     0.3333333333333357    0.3333333333333357    0.5878204451164111
     0.6666666666666714    0.6666666666666714    0.7366431725880543
     0.6666666666666714    0.6666666666666714    0.9013477776577535
     0.3333333333333357    0.3333333333333357    0.8189707636078586
 
  0.00000000E+00  0.00000000E+00  0.00000000E+00
  0.00000000E+00  0.00000000E+00  0.00000000E+00
  0.00000000E+00  0.00000000E+00  0.00000000E+00
  0.00000000E+00  0.00000000E+00  0.00000000E+00
  0.00000000E+00  0.00000000E+00  0.00000000E+00
  0.00000000E+00  0.00000000E+00  0.00000000E+00
