    5    5  600    1
  0.3686441E+02  0.3262183E-09  0.3262183E-09  0.2000000E-08  0.5000000E-15
  1.000000000000000E-004
  CAR 
 WSe2_GaN_TM_TX relaxation               
     34     27     22
 
  0.1276756E-14  0.1276756E-14  0.1276756E-14  0.4444444E-02
      1        -74.371217   1.000000
      2        -38.634421   1.000000
      3        -38.472114   1.000000
      4        -38.472114   1.000000
      5        -15.234345   1.000000
      6        -14.900705   1.000000
      7        -14.007431   1.000000
      8         -6.699155   1.000000
      9         -3.489941   1.000000
     10         -2.582975   1.000000
     11         -2.582974   1.000000
     12         -2.432362   1.000000
     13         -1.446699   1.000000
     14         -1.446699   1.000000
     15         -1.258870   1.000000
     16         -1.258870   1.000000
     17         -0.841638   1.000000
     18          1.326634   0.000000
     19          2.688727   0.000000
     20          2.688727   0.000000
     21          2.822250   0.000000
     22          2.822250   0.000000
 
  0.6666667E-01  0.8375338E-14  0.1276756E-14  0.2666667E-01
      1        -74.370711   1.000000
      2        -38.632331   1.000000
      3        -38.483178   1.000000
      4        -38.474704   1.000000
      5        -15.165261   1.000000
      6        -14.851293   1.000000
      7        -13.971006   1.000000
      8         -6.609289   1.000000
      9         -3.464685   1.000000
     10         -2.795948   1.000000
     11         -2.538976   1.000000
     12         -2.515199   1.000000
     13         -1.688578   1.000000
     14         -1.567638   1.000000
     15         -1.436812   1.000000
     16         -1.343078   1.000000
     17         -0.837571   1.000000
     18          1.626983   0.000000
     19          2.506495   0.000000
     20          2.538081   0.000000
     21          2.729169   0.000000
     22          2.808642   0.000000
 
  0.1333333E+00  0.8385813E-14  0.1276756E-14  0.2666667E-01
      1        -74.369305   1.000000
      2        -38.626421   1.000000
      3        -38.514340   1.000000
      4        -38.482023   1.000000
      5        -14.963833   1.000000
      6        -14.705849   1.000000
      7        -13.864802   1.000000
      8         -6.351536   1.000000
      9         -3.472910   1.000000
     10         -3.346329   1.000000
     11         -2.715927   1.000000
     12         -2.581133   1.000000
     13         -2.322386   1.000000
     14         -1.872859   1.000000
     15         -1.571071   1.000000
     16         -1.523381   1.000000
     17         -0.901277   1.000000
     18          1.823520   0.000000
     19          2.193650   0.000000
     20          2.502212   0.000000
     21          2.512400   0.000000
     22          3.097531   0.000000
 
  0.2000000E+00  0.1276831E-14  0.1276756E-14  0.2666667E-01
      1        -74.367224   1.000000
      2        -38.617701   1.000000
      3        -38.559930   1.000000
      4        -38.492784   1.000000
      5        -14.648577   1.000000
      6        -14.473048   1.000000
      7        -13.698643   1.000000
      8         -5.970986   1.000000
      9         -4.065077   1.000000
     10         -3.784295   1.000000
     11         -3.584330   1.000000
     12         -2.660625   1.000000
     13         -2.253827   1.000000
     14         -2.038172   1.000000
     15         -1.882978   1.000000
     16         -1.760283   1.000000
     17         -1.112310   1.000000
     18          1.530850   0.000000
     19          2.235655   0.000000
     20          2.245390   0.000000
     21          3.061977   0.000000
     22          3.428789   0.000000
 
  0.2666667E+00  0.1283466E-14  0.1276756E-14  0.2666667E-01
      1        -74.364840   1.000000
      2        -38.611820   1.000000
      3        -38.607674   1.000000
      4        -38.505110   1.000000
      5        -14.258014   1.000000
      6        -14.165870   1.000000
      7        -13.490943   1.000000
      8         -5.619519   1.000000
      9         -4.759955   1.000000
     10         -4.666886   1.000000
     11         -4.221746   1.000000
     12         -2.624896   1.000000
     13         -2.515973   1.000000
     14         -2.216132   1.000000
     15         -1.913995   1.000000
     16         -1.717204   1.000000
     17         -1.422194   1.000000
     18          1.509939   0.000000
     19          2.062503   0.000000
     20          2.495951   0.000000
     21          3.580405   0.000000
     22          3.707006   0.000000
 
  0.3333333E+00  0.8360144E-14  0.1276756E-14  0.2666667E-01
      1        -74.362554   1.000000
      2        -38.660988   1.000000
      3        -38.598067   1.000000
      4        -38.516867   1.000000
      5        -13.881753   1.000000
      6        -13.781841   1.000000
      7        -13.271266   1.000000
      8         -5.865152   1.000000
      9         -5.598848   1.000000
     10         -4.840261   1.000000
     11         -4.799854   1.000000
     12         -2.934734   1.000000
     13         -2.553169   1.000000
     14         -2.510226   1.000000
     15         -1.792125   1.000000
     16         -1.538789   1.000000
     17         -1.437451   1.000000
     18          1.723907   0.000000
     19          2.018839   0.000000
     20          2.824996   0.000000
     21          3.896269   0.000000
     22          3.944275   0.000000
 
  0.4000000E+00  0.8418651E-14  0.1276756E-14  0.2666667E-01
      1        -74.360770   1.000000
      2        -38.699107   1.000000
      3        -38.590550   1.000000
      4        -38.526031   1.000000
      5        -13.579341   1.000000
      6        -13.399920   1.000000
      7        -13.081395   1.000000
      8         -6.427927   1.000000
      9         -6.292033   1.000000
     10         -5.295871   1.000000
     11         -4.661982   1.000000
     12         -3.154071   1.000000
     13         -2.727149   1.000000
     14         -2.636876   1.000000
     15         -1.667632   1.000000
     16         -1.270503   1.000000
     17         -1.252467   1.000000
     18          2.047470   0.000000
     19          2.102208   0.000000
     20          3.063244   0.000000
     21          4.003186   0.000000
     22          4.081885   0.000000
 
  0.4666667E+00  0.1274235E-14  0.1276756E-14  0.2666667E-01
      1        -74.359787   1.000000
      2        -38.719859   1.000000
      3        -38.586430   1.000000
      4        -38.531038   1.000000
      5        -13.396684   1.000000
      6        -13.161121   1.000000
      7        -12.969072   1.000000
      8         -6.788123   1.000000
      9         -6.672462   1.000000
     10         -5.572368   1.000000
     11         -4.598864   1.000000
     12         -3.267190   1.000000
     13         -2.841624   1.000000
     14         -2.679847   1.000000
     15         -1.498542   1.000000
     16         -1.168959   1.000000
     17         -1.039132   1.000000
     18          2.204219   0.000000
     19          2.352438   0.000000
     20          3.131250   0.000000
     21          3.816669   0.000000
     22          4.049044   0.000000
 
  0.1333333E+00  0.6666667E-01  0.1276756E-14  0.2666667E-01
      1        -74.369760   1.000000
      2        -38.628331   1.000000
      3        -38.503931   1.000000
      4        -38.480020   1.000000
      5        -15.029969   1.000000
      6        -14.753854   1.000000
      7        -13.899659   1.000000
      8         -6.434964   1.000000
      9         -3.450855   1.000000
     10         -3.171556   1.000000
     11         -2.666612   1.000000
     12         -2.390881   1.000000
     13         -2.312266   1.000000
     14         -1.858732   1.000000
     15         -1.517102   1.000000
     16         -1.409114   1.000000
     17         -0.870730   1.000000
     18          1.881019   0.000000
     19          2.224423   0.000000
     20          2.416635   0.000000
     21          2.552554   0.000000
     22          3.028694   0.000000
 
  0.2000000E+00  0.6666667E-01  0.1276756E-14  0.5333333E-01
      1        -74.368016   1.000000
      2        -38.621016   1.000000
      3        -38.541341   1.000000
      4        -38.490022   1.000000
      5        -14.771276   1.000000
      6        -14.564555   1.000000
      7        -13.763210   1.000000
      8         -6.110649   1.000000
      9         -3.787784   1.000000
     10         -3.587647   1.000000
     11         -3.211052   1.000000
     12         -2.687393   1.000000
     13         -2.329655   1.000000
     14         -2.179918   1.000000
     15         -1.827034   1.000000
     16         -1.479778   1.000000
     17         -1.002165   1.000000
     18          1.615341   0.000000
     19          2.124081   0.000000
     20          2.280752   0.000000
     21          2.867299   0.000000
     22          3.362934   0.000000
 
  0.2666667E+00  0.6666667E-01  0.1276756E-14  0.5333333E-01
      1        -74.365786   1.000000
      2        -38.611643   1.000000
      3        -38.588791   1.000000
      4        -38.502847   1.000000
      5        -14.416197   1.000000
      6        -14.294738   1.000000
      7        -13.575369   1.000000
      8         -5.711013   1.000000
      9         -4.483397   1.000000
     10         -4.245703   1.000000
     11         -3.919120   1.000000
     12         -2.860510   1.000000
     13         -2.424191   1.000000
     14         -2.193064   1.000000
     15         -1.975930   1.000000
     16         -1.686932   1.000000
     17         -1.218920   1.000000
     18          1.426041   0.000000
     19          2.101167   0.000000
     20          2.265453   0.000000
     21          3.419541   0.000000
     22          3.684116   0.000000
 
  0.3333333E+00  0.6666667E-01  0.1276756E-14  0.5333333E-01
      1        -74.363443   1.000000
      2        -38.637960   1.000000
      3        -38.601824   1.000000
      4        -38.516234   1.000000
      5        -14.028000   1.000000
      6        -13.948541   1.000000
      7        -13.359594   1.000000
      8         -5.591964   1.000000
      9         -5.180772   1.000000
     10         -4.884050   1.000000
     11         -4.502176   1.000000
     12         -3.138507   1.000000
     13         -2.540617   1.000000
     14         -2.298987   1.000000
     15         -1.978857   1.000000
     16         -1.757922   1.000000
     17         -1.269583   1.000000
     18          1.472084   0.000000
     19          2.094721   0.000000
     20          2.577019   0.000000
     21          3.785365   0.000000
     22          3.986782   0.000000
 
  0.4000000E+00  0.6666667E-01  0.1276756E-14  0.5333333E-01
      1        -74.361408   1.000000
      2        -38.680420   1.000000
      3        -38.593260   1.000000
      4        -38.527863   1.000000
      5        -13.694406   1.000000
      6        -13.548791   1.000000
      7        -13.151337   1.000000
      8         -6.113551   1.000000
      9         -5.962010   1.000000
     10         -5.067576   1.000000
     11         -4.710767   1.000000
     12         -3.290862   1.000000
     13         -2.819814   1.000000
     14         -2.447271   1.000000
     15         -2.032199   1.000000
     16         -1.480652   1.000000
     17         -1.136272   1.000000
     18          1.707444   0.000000
     19          2.222781   0.000000
     20          2.917159   0.000000
     21          3.864342   0.000000
     22          4.230986   0.000000
 
  0.4666667E+00  0.6666667E-01  0.1276756E-14  0.5333333E-01
      1        -74.360029   1.000000
      2        -38.709053   1.000000
      3        -38.587442   1.000000
      4        -38.535741   1.000000
      5        -13.446739   1.000000
      6        -13.228127   1.000000
      7        -12.996343   1.000000
      8         -6.596578   1.000000
      9         -6.488014   1.000000
     10         -5.467510   1.000000
     11         -4.590902   1.000000
     12         -3.361550   1.000000
     13         -2.998830   1.000000
     14         -2.602983   1.000000
     15         -1.948580   1.000000
     16         -1.206303   1.000000
     17         -0.972680   1.000000
     18          2.023967   0.000000
     19          2.386256   0.000000
     20          3.167912   0.000000
     21          3.756180   0.000000
     22          4.046760   0.000000
 
 -0.4666667E+00  0.6666667E-01  0.1276756E-14  0.2666667E-01
      1        -74.359544   1.000000
      2        -38.719146   1.000000
      3        -38.585382   1.000000
      4        -38.538525   1.000000
      5        -13.351942   1.000000
      6        -13.103799   1.000000
      7        -12.938347   1.000000
      8         -6.783447   1.000000
      9         -6.675162   1.000000
     10         -5.611736   1.000000
     11         -4.567305   1.000000
     12         -3.381367   1.000000
     13         -3.060248   1.000000
     14         -2.661122   1.000000
     15         -1.886882   1.000000
     16         -1.104242   1.000000
     17         -0.882919   1.000000
     18          2.169010   0.000000
     19          2.508365   0.000000
     20          3.230972   0.000000
     21          3.693820   0.000000
     22          3.853158   0.000000
 
  0.2666667E+00  0.1333333E+00  0.1276756E-14  0.2666667E-01
      1        -74.366124   1.000000
      2        -38.613047   1.000000
      3        -38.578907   1.000000
      4        -38.503786   1.000000
      5        -14.471553   1.000000
      6        -14.338032   1.000000
      7        -13.604403   1.000000
      8         -5.749090   1.000000
      9         -4.359044   1.000000
     10         -4.049290   1.000000
     11         -3.735122   1.000000
     12         -3.045793   1.000000
     13         -2.453313   1.000000
     14         -2.254382   1.000000
     15         -2.105183   1.000000
     16         -1.484961   1.000000
     17         -1.131862   1.000000
     18          1.384817   0.000000
     19          2.091815   0.000000
     20          2.116163   0.000000
     21          3.384987   0.000000
     22          3.706188   0.000000
 
  0.3333333E+00  0.1333333E+00  0.1276756E-14  0.5333333E-01
      1        -74.363934   1.000000
      2        -38.620783   1.000000
      3        -38.603881   1.000000
      4        -38.520506   1.000000
      5        -14.110275   1.000000
      6        -14.032181   1.000000
      7        -13.406150   1.000000
      8         -5.421783   1.000000
      9         -4.885770   1.000000
     10         -4.835316   1.000000
     11         -4.182349   1.000000
     12         -3.502920   1.000000
     13         -2.716807   1.000000
     14         -2.283399   1.000000
     15         -2.179589   1.000000
     16         -1.624316   1.000000
     17         -1.146403   1.000000
     18          1.272126   0.000000
     19          2.140807   0.000000
     20          2.286628   0.000000
     21          3.783041   0.000000
     22          4.087327   0.000000
 
  0.4000000E+00  0.1333333E+00  0.1276756E-14  0.5333333E-01
      1        -74.361846   1.000000
      2        -38.660143   1.000000
      3        -38.595104   1.000000
      4        -38.536843   1.000000
      5        -13.772425   1.000000
      6        -13.648346   1.000000
      7        -13.196838   1.000000
      8         -5.750915   1.000000
      9         -5.602373   1.000000
     10         -4.800562   1.000000
     11         -4.755846   1.000000
     12         -3.633330   1.000000
     13         -3.117566   1.000000
     14         -2.544046   1.000000
     15         -2.175540   1.000000
     16         -1.554017   1.000000
     17         -1.067263   1.000000
     18          1.423275   0.000000
     19          2.316682   0.000000
     20          2.579130   0.000000
     21          3.892280   0.000000
     22          4.435017   0.000000
 
  0.4666667E+00  0.1333333E+00  0.1276756E-14  0.5333333E-01
      1        -74.360218   1.000000
      2        -38.690565   1.000000
      3        -38.588237   1.000000
      4        -38.549715   1.000000
      5        -13.490235   1.000000
      6        -13.287487   1.000000
      7        -13.016287   1.000000
      8         -6.274647   1.000000
      9         -6.169586   1.000000
     10         -5.310808   1.000000
     11         -4.556132   1.000000
     12         -3.630736   1.000000
     13         -3.401866   1.000000
     14         -2.666525   1.000000
     15         -2.427781   1.000000
     16         -1.253497   1.000000
     17         -0.934059   1.000000
     18          1.766395   0.000000
     19          2.482123   0.000000
     20          2.878295   0.000000
     21          3.775779   0.000000
     22          4.271353   0.000000
 
 -0.4666667E+00  0.1333333E+00  0.1276756E-14  0.5333333E-01
      1        -74.359323   1.000000
      2        -38.707110   1.000000
      3        -38.584475   1.000000
      4        -38.556780   1.000000
      5        -13.319899   1.000000
      6        -13.065922   1.000000
      7        -12.909655   1.000000
      8         -6.606792   1.000000
      9         -6.475948   1.000000
     10         -5.594907   1.000000
     11         -4.503980   1.000000
     12         -3.601838   1.000000
     13         -3.534566   1.000000
     14         -2.668703   1.000000
     15         -2.612343   1.000000
     16         -1.050324   1.000000
     17         -0.783074   1.000000
     18          2.021260   0.000000
     19          2.644433   0.000000
     20          3.101936   0.000000
     21          3.527320   0.000000
     22          4.055648   0.000000
 
  0.4000000E+00  0.2000000E+00  0.1276756E-14  0.2666667E-01
      1        -74.362002   1.000000
      2        -38.650499   1.000000
      3        -38.595756   1.000000
      4        -38.542518   1.000000
      5        -13.800063   1.000000
      6        -13.683116   1.000000
      7        -13.212576   1.000000
      8         -5.564255   1.000000
      9         -5.421059   1.000000
     10         -4.796684   1.000000
     11         -4.632750   1.000000
     12         -3.837764   1.000000
     13         -3.290184   1.000000
     14         -2.773170   1.000000
     15         -2.074055   1.000000
     16         -1.556480   1.000000
     17         -1.049162   1.000000
     18          1.316145   0.000000
     19          2.345222   0.000000
     20          2.400554   0.000000
     21          3.943640   0.000000
     22          4.507060   0.000000
 
  0.4666667E+00  0.2000000E+00  0.1276756E-14  0.5333333E-01
      1        -74.360321   1.000000
      2        -38.673939   1.000000
      3        -38.588674   1.000000
      4        -38.563964   1.000000
      5        -13.515513   1.000000
      6        -13.322173   1.000000
      7        -13.026715   1.000000
      8         -5.993389   1.000000
      9         -5.859572   1.000000
     10         -5.168512   1.000000
     11         -4.521571   1.000000
     12         -3.867756   1.000000
     13         -3.765582   1.000000
     14         -3.219628   1.000000
     15         -2.292682   1.000000
     16         -1.275223   1.000000
     17         -0.941412   1.000000
     18          1.603567   0.000000
     19          2.530668   0.000000
     20          2.545762   0.000000
     21          3.967116   0.000000
     22          4.421097   0.000000
 
 -0.4666667E+00  0.2000000E+00  0.1276756E-14  0.5333333E-01
      1        -74.359179   1.000000
      2        -38.688662   1.000000
      3        -38.583863   1.000000
      4        -38.579621   1.000000
      5        -13.302116   1.000000
      6        -13.047059   1.000000
      7        -12.889112   1.000000
      8         -6.352680   1.000000
      9         -6.135144   1.000000
     10         -5.550969   1.000000
     11         -4.429420   1.000000
     12         -4.075919   1.000000
     13         -3.779544   1.000000
     14         -3.436319   1.000000
     15         -2.568341   1.000000
     16         -1.015187   1.000000
     17         -0.750023   1.000000
     18          1.827057   0.000000
     19          2.637583   0.000000
     20          2.716623   0.000000
     21          3.821795   0.000000
     22          4.342982   0.000000
 
 -0.4000000E+00  0.2000000E+00  0.1276756E-14  0.2666667E-01
      1        -74.358775   1.000000
      2        -38.693642   1.000000
      3        -38.585372   1.000000
      4        -38.582160   1.000000
      5        -13.221385   1.000000
      6        -12.942825   1.000000
      7        -12.837784   1.000000
      8         -6.487576   1.000000
      9         -6.235933   1.000000
     10         -5.687703   1.000000
     11         -4.442709   1.000000
     12         -4.177523   1.000000
     13         -3.722871   1.000000
     14         -3.473722   1.000000
     15         -2.695872   1.000000
     16         -0.912312   1.000000
     17         -0.630928   1.000000
     18          1.835182   0.000000
     19          2.671241   0.000000
     20          2.893155   0.000000
     21          3.680760   0.000000
     22          4.325936   0.000000
 
 -0.4666667E+00  0.2666667E+00  0.1276756E-14  0.2666667E-01
      1        -74.359131   1.000000
      2        -38.677794   1.000000
      3        -38.592076   1.000000
      4        -38.583648   1.000000
      5        -13.296629   1.000000
      6        -13.041746   1.000000
      7        -12.881631   1.000000
      8         -6.209687   1.000000
      9         -5.929014   1.000000
     10         -5.527457   1.000000
     11         -4.379719   1.000000
     12         -4.314066   1.000000
     13         -3.869410   1.000000
     14         -3.817822   1.000000
     15         -2.542292   1.000000
     16         -1.001989   1.000000
     17         -0.742802   1.000000
     18          1.739888   0.000000
     19          2.466242   0.000000
     20          2.732059   0.000000
     21          3.957978   0.000000
     22          4.466339   0.000000
 
 -0.4000000E+00  0.2666667E+00  0.1276756E-14  0.5333333E-01
      1        -74.358480   1.000000
      2        -38.674917   1.000000
      3        -38.612448   1.000000
      4        -38.580896   1.000000
      5        -13.167956   1.000000
      6        -12.877560   1.000000
      7        -12.796738   1.000000
      8         -6.318890   1.000000
      9         -5.902546   1.000000
     10         -5.740957   1.000000
     11         -4.645583   1.000000
     12         -4.495270   1.000000
     13         -4.020397   1.000000
     14         -3.786966   1.000000
     15         -2.754353   1.000000
     16         -0.835604   1.000000
     17         -0.505688   1.000000
     18          1.604787   0.000000
     19          2.402871   0.000000
     20          3.028825   0.000000
     21          3.851692   0.000000
     22          4.592678   0.000000
 
 -0.3333333E+00  0.3333333E+00  0.1276756E-14  0.8888889E-02
      1        -74.358228   1.000000
      2        -38.659107   1.000000
      3        -38.635020   1.000000
      4        -38.579847   1.000000
      5        -13.119106   1.000000
      6        -12.816531   1.000000
      7        -12.762668   1.000000
      8         -6.269260   1.000000
      9         -5.814837   1.000000
     10         -5.688003   1.000000
     11         -4.890369   1.000000
     12         -4.768295   1.000000
     13         -4.107167   1.000000
     14         -3.762624   1.000000
     15         -2.844553   1.000000
     16         -0.770567   1.000000
     17         -0.356629   1.000000
     18          1.422747   0.000000
     19          2.311342   0.000000
     20          3.202915   0.000000
     21          3.860577   0.000000
     22          4.722375   0.000000
