Bilayer MoSe2/TiS2 2H (relaxed monolayer
   1.00000000000000     
     3.3158674393543892    0.0000000000000000    0.0000000000000000
     1.6579337196771946    2.8716254380625572    0.0000000000000000
     0.0000000000000000    0.0000000000000000   20.0000000000000000
   Mo   Se   Ti   S 
     1     2     1     2
Direct
    -0.0000000000000000   -0.0000000000000000    0.5002521651506208
     0.3333333333333357    0.3333333333333357    0.4168929101391685
     0.3333333333333357    0.3333333333333357    0.5836175680333305
     0.3333333333333357    0.3333333333333357    0.9817465703207452
    -0.0000000000000000   -0.0000000000000000    0.9062507929552400
    -0.0000000000000000   -0.0000000000000000    0.0571502302521621
 
  0.00000000E+00  0.00000000E+00  0.00000000E+00
  0.00000000E+00  0.00000000E+00  0.00000000E+00
  0.00000000E+00  0.00000000E+00  0.00000000E+00
  0.00000000E+00  0.00000000E+00  0.00000000E+00
  0.00000000E+00  0.00000000E+00  0.00000000E+00
  0.00000000E+00  0.00000000E+00  0.00000000E+00
