Bilayer graphene/BN BA (relaxed monolaye
   1.00000000000000     
     2.4885956308015413    0.0000000000000000    0.0000000000000000
     1.2442978154007707    2.1551870360210943    0.0000000000000000
     0.0000000000000000    0.0000000000000000   20.0000000000000000
   C    B    N 
     2     1     1
Direct
    -0.0000000000000000   -0.0000000000000000    0.5003612188394465
     0.3333333333333357    0.3333333333333357    0.5003785931075482
     0.6666666666666643    0.6666666666666643    0.6761636685219191
     0.0000000000000000    0.0000000000000000    0.6761965195308067
 
  0.00000000E+00  0.00000000E+00  0.00000000E+00
  0.00000000E+00  0.00000000E+00  0.00000000E+00
  0.00000000E+00  0.00000000E+00  0.00000000E+00
  0.00000000E+00  0.00000000E+00  0.00000000E+00
