Mo Te
 1.0000000000000000
    17.5147949999999994   12.1346059296613333    0.0000000000000000
    -1.7514795000000001   21.2355603769073333    0.0000000000000000
     0.0000000000000000    0.0000000000000000   20.0000000000000000
 Mo  Te 
  74 148
Direct
  0.4684684684684686  0.8468468468468470  0.8438323609243427
  0.2162162162162162  0.1621621621621621  0.4999999999999999
  0.4144144144144145  0.4414414414414414  0.8438323609243427
  0.6846846846846848  0.4684684684684685  0.8438323609243427
  0.1081081081081081  0.0810810810810811  0.4999999999999999
  0.8108108108108109  0.1081081081081082  0.4999999999999999
  0.0000000000000000  0.0000000000000000  0.4999999999999999
  0.7657657657657659  0.5765765765765765  0.8438323609243427
  0.7027027027027024  0.0270270270270273  0.4999999999999999
  0.8918918918918919  0.9189189189189187  0.4999999999999999
  0.8468468468468471  0.6846846846846845  0.8438323609243427
  0.7837837837837837  0.8378378378378379  0.4999999999999999
  0.9189189189189190  0.1891891891891893  0.4999999999999999
  0.0630630630630630  0.3063063063063062  0.8438323609243427
  0.6756756756756757  0.7567567567567568  0.4999999999999999
  0.6216216216216217  0.2162162162162163  0.4999999999999999
  0.5675675675675672  0.6756756756756759  0.4999999999999999
  0.3333333333333335  0.3333333333333332  0.8438323609243427
  0.6036036036036039  0.3603603603603603  0.8438323609243427
  0.3243243243243243  0.2432432432432433  0.4999999999999999
  0.4324324324324325  0.3243243243243242  0.4999999999999999
  0.5135135135135135  0.1351351351351354  0.4999999999999999
  0.7387387387387391  0.8738738738738737  0.8438323609243427
  0.4054054054054054  0.0540540540540541  0.4999999999999999
  0.7297297297297298  0.2972972972972975  0.4999999999999999
  0.9729729729729730  0.7297297297297299  0.4999999999999999
  0.8198198198198201  0.9819819819819818  0.8438323609243427
  0.5765765765765768  0.6576576576576575  0.8438323609243427
  0.8648648648648649  0.6486486486486485  0.4999999999999999
  0.3603603603603605  0.0360360360360360  0.8438323609243427
  0.7567567567567568  0.5675675675675675  0.4999999999999999
  0.8378378378378379  0.3783783783783783  0.4999999999999999
  0.6486486486486486  0.4864864864864866  0.4999999999999999
  0.4414414414414415  0.1441441441441440  0.8438323609243427
  0.4954954954954957  0.5495495495495495  0.8438323609243427
  0.5405405405405406  0.4054054054054055  0.4999999999999999
  0.9459459459459459  0.4594594594594597  0.4999999999999999
  0.5225225225225227  0.2522522522522522  0.8438323609243427
  0.1171171171171172  0.7117117117117117  0.8438323609243427
  0.0090090090090093  0.9009009009009007  0.8438323609243427
  0.9279279279279283  0.7927927927927928  0.8438323609243427
  0.6576576576576579  0.7657657657657655  0.8438323609243427
  0.4864864864864865  0.8648648648648649  0.4999999999999999
  0.1441441441441442  0.4144144144144145  0.8438323609243427
  0.9819819819819822  0.1981981981981979  0.8438323609243427
  0.3783783783783784  0.7837837837837838  0.4999999999999999
  0.4594594594594595  0.5945945945945946  0.4999999999999999
  0.5495495495495497  0.9549549549549547  0.8438323609243427
  0.8738738738738739  0.3873873873873873  0.8438323609243427
  0.9549549549549552  0.4954954954954954  0.8438323609243427
  0.2702702702702703  0.7027027027027027  0.4999999999999999
  0.2252252252252253  0.5225225225225226  0.8438323609243427
  0.0360360360360365  0.6036036036036034  0.8438323609243427
  0.1621621621621621  0.6216216216216218  0.4999999999999999
  0.2972972972972974  0.9729729729729731  0.4999999999999999
  0.3063063063063065  0.6306306306306309  0.8438323609243427
  0.0900900900900901  0.0090090090090090  0.8438323609243427
  0.0540540540540541  0.5405405405405406  0.4999999999999999
  0.1891891891891893  0.8918918918918921  0.4999999999999999
  0.9009009009009011  0.0900900900900899  0.8438323609243427
  0.1711711711711712  0.1171171171171171  0.8438323609243427
  0.7927927927927929  0.2792792792792791  0.8438323609243427
  0.0270270270270270  0.2702702702702703  0.4999999999999999
  0.2792792792792795  0.9279279279279278  0.8438323609243427
  0.3873873873873875  0.7387387387387386  0.8438323609243427
  0.1351351351351351  0.3513513513513514  0.4999999999999999
  0.7117117117117119  0.1711711711711710  0.8438323609243427
  0.5945945945945946  0.9459459459459462  0.4999999999999999
  0.2432432432432433  0.4324324324324325  0.4999999999999999
  0.1981981981981984  0.8198198198198199  0.8438323609243427
  0.6306306306306307  0.0630630630630628  0.8438323609243427
  0.0810810810810812  0.8108108108108110  0.4999999999999999
  0.3513513513513513  0.5135135135135136  0.4999999999999999
  0.2522522522522523  0.2252252252252251  0.8438323609243427
  0.6666666666666670  0.6666666666666664  0.7529000609243426
  0.6666666666666670  0.6666666666666664  0.9347646609243427
  0.6396396396396399  0.9639639639639639  0.7529000609243426
  0.7477477477477480  0.7747747747747746  0.7529000609243426
  0.3423423423423424  0.2342342342342342  0.9347646609243427
  0.5855855855855858  0.5585585585585585  0.9347646609243427
  0.1801801801801802  0.0180180180180180  0.7529000609243426
  0.5855855855855858  0.5585585585585585  0.7529000609243426
  0.1801801801801802  0.0180180180180180  0.9347646609243427
  0.2612612612612614  0.1261261261261260  0.7529000609243426
  0.5045045045045047  0.4504504504504502  0.7529000609243426
  0.4234234234234236  0.3423423423423422  0.9347646609243427
  0.2612612612612614  0.1261261261261260  0.9347646609243427
  0.3423423423423424  0.2342342342342342  0.7529000609243426
  0.4234234234234236  0.3423423423423422  0.7529000609243426
  0.6396396396396399  0.9639639639639639  0.9347646609243427
  0.5045045045045047  0.4504504504504502  0.9347646609243427
  0.1801801801801803  0.8018018018018019  0.4090677000000000
  0.8288288288288290  0.8828828828828827  0.7529000609243426
  0.7207207207207209  0.0720720720720719  0.7529000609243426
  0.7207207207207209  0.0720720720720719  0.9347646609243427
  0.8018018018018020  0.1801801801801801  0.7529000609243426
  0.8018018018018020  0.1801801801801801  0.9347646609243427
  0.8828828828828831  0.2882882882882881  0.7529000609243426
  0.8828828828828831  0.2882882882882881  0.9347646609243427
  0.9639639639639641  0.3963963963963962  0.7529000609243426
  0.9639639639639641  0.3963963963963962  0.9347646609243427
  0.0450450450450454  0.5045045045045046  0.7529000609243426
  0.0450450450450454  0.5045045045045046  0.9347646609243427
  0.1261261261261265  0.6126126126126125  0.7529000609243426
  0.1261261261261265  0.6126126126126125  0.9347646609243427
  0.9909909909909911  0.0990990990990989  0.7529000609243426
  0.9909909909909911  0.0990990990990989  0.9347646609243427
  0.0720720720720721  0.2072072072072071  0.7529000609243426
  0.0720720720720721  0.2072072072072071  0.9347646609243427
  0.1531531531531533  0.3153153153153153  0.7529000609243426
  0.0990990990990994  0.9099099099099096  0.9347646609243427
  0.7477477477477480  0.7747747747747746  0.9347646609243427
  0.0990990990990994  0.9099099099099096  0.7529000609243426
  0.0180180180180182  0.8018018018018018  0.7529000609243426
  0.8288288288288290  0.8828828828828827  0.9347646609243427
  0.9099099099099102  0.9909909909909906  0.7529000609243426
  0.9099099099099102  0.9909909909909906  0.9347646609243427
  0.4504504504504506  0.0450450450450449  0.7529000609243426
  0.4504504504504506  0.0450450450450449  0.9347646609243427
  0.5315315315315315  0.1531531531531530  0.7529000609243426
  0.5315315315315315  0.1531531531531530  0.9347646609243427
  0.6126126126126127  0.2612612612612611  0.7529000609243426
  0.5585585585585586  0.8558558558558560  0.9347646609243427
  0.6936936936936937  0.3693693693693691  0.7529000609243426
  0.6936936936936937  0.3693693693693691  0.9347646609243427
  0.7747747747747750  0.4774774774774774  0.7529000609243426
  0.7747747747747750  0.4774774774774774  0.9347646609243427
  0.8558558558558561  0.5855855855855854  0.7529000609243426
  0.8558558558558561  0.5855855855855854  0.9347646609243427
  0.9369369369369370  0.6936936936936936  0.7529000609243426
  0.9369369369369370  0.6936936936936936  0.9347646609243427
  0.0180180180180182  0.8018018018018018  0.9347646609243427
  0.6126126126126127  0.2612612612612611  0.9347646609243427
  0.0180180180180181  0.1801801801801803  0.5909323000000000
  0.4774774774774777  0.7477477477477478  0.9347646609243427
  0.3423423423423424  0.4234234234234237  0.5909323000000000
  0.4504504504504505  0.5045045045045045  0.4090677000000000
  0.4504504504504505  0.5045045045045045  0.5909323000000000
  0.5585585585585585  0.5855855855855856  0.4090677000000000
  0.5585585585585585  0.5855855855855856  0.5909323000000000
  0.6666666666666665  0.6666666666666665  0.4090677000000000
  0.6666666666666665  0.6666666666666665  0.5909323000000000
  0.7747747747747749  0.7477477477477477  0.4090677000000000
  0.3423423423423424  0.4234234234234237  0.4090677000000000
  0.7747747747747749  0.7477477477477477  0.5909323000000000
  0.8828828828828825  0.8288288288288289  0.5909323000000000
  0.9909909909909911  0.9099099099099098  0.4090677000000000
  0.9909909909909911  0.9099099099099098  0.5909323000000000
  0.0990990990990991  0.9909909909909910  0.4090677000000000
  0.0990990990990991  0.9909909909909910  0.5909323000000000
  0.2072072072072072  0.0720720720720721  0.4090677000000000
  0.2072072072072072  0.0720720720720721  0.5909323000000000
  0.3153153153153153  0.1531531531531531  0.4090677000000000
  0.8828828828828825  0.8288288288288289  0.4090677000000000
  0.3153153153153153  0.1531531531531531  0.5909323000000000
  0.2342342342342343  0.3423423423423425  0.5909323000000000
  0.1261261261261261  0.2612612612612613  0.5909323000000000
  0.1801801801801803  0.8018018018018019  0.5909323000000000
  0.2882882882882883  0.8828828828828827  0.4090677000000000
  0.2882882882882883  0.8828828828828827  0.5909323000000000
  0.3963963963963965  0.9639639639639641  0.4090677000000000
  0.3963963963963965  0.9639639639639641  0.5909323000000000
  0.1531531531531532  0.5315315315315317  0.4090677000000000
  0.1531531531531532  0.5315315315315317  0.5909323000000000
  0.2612612612612611  0.6126126126126127  0.4090677000000000
  0.2342342342342343  0.3423423423423425  0.4090677000000000
  0.2612612612612611  0.6126126126126127  0.5909323000000000
  0.3693693693693693  0.6936936936936937  0.5909323000000000
  0.4774774774774775  0.7747747747747747  0.4090677000000000
  0.4774774774774775  0.7747747747747747  0.5909323000000000
  0.5855855855855856  0.8558558558558560  0.4090677000000000
  0.5855855855855856  0.8558558558558560  0.5909323000000000
  0.6936936936936936  0.9369369369369371  0.4090677000000000
  0.6936936936936936  0.9369369369369371  0.5909323000000000
  0.1261261261261261  0.2612612612612613  0.4090677000000000
  0.3693693693693693  0.6936936936936937  0.4090677000000000
  0.4234234234234234  0.2342342342342343  0.4090677000000000
  0.4234234234234234  0.2342342342342343  0.5909323000000000
  0.5315315315315315  0.3153153153153154  0.4090677000000000
  0.8018018018018017  0.0180180180180181  0.4090677000000000
  0.8018018018018017  0.0180180180180181  0.5909323000000000
  0.9099099099099099  0.0990990990990992  0.4090677000000000
  0.9099099099099099  0.0990990990990992  0.5909323000000000
  0.0180180180180181  0.1801801801801803  0.4090677000000000
  0.2072072072072074  0.7207207207207209  0.7529000609243426
  0.2072072072072074  0.7207207207207209  0.9347646609243427
  0.2882882882882885  0.8288288288288289  0.7529000609243426
  0.0450450450450451  0.4504504504504506  0.5909323000000000
  0.2882882882882885  0.8288288288288289  0.9347646609243427
  0.3693693693693696  0.9369369369369370  0.9347646609243427
  0.2342342342342343  0.4234234234234233  0.7529000609243426
  0.2342342342342343  0.4234234234234233  0.9347646609243427
  0.3153153153153154  0.5315315315315315  0.7529000609243426
  0.3153153153153154  0.5315315315315315  0.9347646609243427
  0.3963963963963966  0.6396396396396397  0.7529000609243426
  0.3963963963963966  0.6396396396396397  0.9347646609243427
  0.4774774774774777  0.7477477477477478  0.7529000609243426
  0.3693693693693696  0.9369369369369370  0.7529000609243426
  0.0450450450450451  0.4504504504504506  0.4090677000000000
  0.9369369369369370  0.3693693693693692  0.5909323000000000
  0.9369369369369370  0.3693693693693692  0.4090677000000000
  0.5315315315315315  0.3153153153153154  0.5909323000000000
  0.6396396396396397  0.3963963963963965  0.4090677000000000
  0.6396396396396397  0.3963963963963965  0.5909323000000000
  0.7477477477477475  0.4774774774774775  0.4090677000000000
  0.7477477477477475  0.4774774774774775  0.5909323000000000
  0.8558558558558559  0.5585585585585585  0.4090677000000000
  0.8558558558558559  0.5585585585585585  0.5909323000000000
  0.9639639639639639  0.6396396396396397  0.4090677000000000
  0.9639639639639639  0.6396396396396397  0.5909323000000000
  0.0720720720720721  0.7207207207207209  0.4090677000000000
  0.0720720720720721  0.7207207207207209  0.5909323000000000
  0.5045045045045046  0.0450450450450452  0.4090677000000000
  0.5045045045045046  0.0450450450450452  0.5909323000000000
  0.6126126126126124  0.1261261261261263  0.4090677000000000
  0.6126126126126124  0.1261261261261263  0.5909323000000000
  0.7207207207207209  0.2072072072072072  0.4090677000000000
  0.7207207207207209  0.2072072072072072  0.5909323000000000
  0.8288288288288287  0.2882882882882885  0.4090677000000000
  0.8288288288288287  0.2882882882882885  0.5909323000000000
  0.5585585585585586  0.8558558558558560  0.7529000609243426
  0.1531531531531533  0.3153153153153153  0.9347646609243427
