Bilayer MoS2/WSe2 2H (relaxed monolayers
   1.00000000000000     
     3.2560854169657336    0.0000000000000000    0.0000000000000000
     1.6280427084828668    2.8198526879843717    0.0000000000000000
     0.0000000000000000    0.0000000000000000   20.0000000000000000
   Mo   S    W    Se
     1     2     1     2
Direct
     0.0000000000000000   -0.0000000000000000    0.5075103615620021
     0.3333333333333357    0.3333333333333357    0.4308540668749636
     0.3333333333333357    0.3333333333333357    0.5841413853943886
     0.3333333333333357    0.3333333333333357    0.8174836972334072
    -0.0000000000000000   -0.0000000000000000    0.7326027390921989
    -0.0000000000000000    0.0000000000000000    0.9024077498430606
 
  0.00000000E+00  0.00000000E+00  0.00000000E+00
  0.00000000E+00  0.00000000E+00  0.00000000E+00
  0.00000000E+00  0.00000000E+00  0.00000000E+00
  0.00000000E+00  0.00000000E+00  0.00000000E+00
  0.00000000E+00  0.00000000E+00  0.00000000E+00
  0.00000000E+00  0.00000000E+00  0.00000000E+00
