  54  54   0   0
  0.3295884E+02  0.1013684E-08  0.1013684E-08  0.2000000E-08  0.5000000E-15
  1.000000000000000E-004
  CAR 
 MoS2_MoTe2_3R phonon                    
      9.62957208    -61.73036093  301      3.52316815      1.00000000
    -61.730  0.0000E+00  0.0000E+00
    -61.492  0.0000E+00  0.0000E+00
    -61.255  0.0000E+00  0.0000E+00
    -61.017  0.0000E+00  0.0000E+00
    -60.779  0.0000E+00  0.0000E+00
    -60.541  0.0000E+00  0.0000E+00
    -60.303  0.0000E+00  0.0000E+00
    -60.065  0.0000E+00  0.0000E+00
    -59.827  0.0000E+00  0.0000E+00
    -59.590  0.0000E+00  0.0000E+00
    -59.352  0.0000E+00  0.0000E+00
    -59.114  0.0000E+00  0.0000E+00
    -58.876  0.0000E+00  0.0000E+00
    -58.638  0.1747E-03  0.4155E-04
    -58.400  0.7422E+02  0.1766E+02
    -58.162  0.1449E+01  0.1800E+02
    -57.924  0.0000E+00  0.1800E+02
    -57.687  0.0000E+00  0.1800E+02
    -57.449  0.1307E-15  0.1800E+02
    -57.211  0.2042E+01  0.1849E+02
    -56.973  0.7363E+02  0.3600E+02
    -56.735  0.0000E+00  0.3600E+02
    -56.497  0.0000E+00  0.3600E+02
    -56.259  0.0000E+00  0.3600E+02
    -56.022  0.0000E+00  0.3600E+02
    -55.784  0.0000E+00  0.3600E+02
    -55.546  0.0000E+00  0.3600E+02
    -55.308  0.0000E+00  0.3600E+02
    -55.070  0.0000E+00  0.3600E+02
    -54.832  0.0000E+00  0.3600E+02
    -54.594  0.0000E+00  0.3600E+02
    -54.357  0.0000E+00  0.3600E+02
    -54.119  0.0000E+00  0.3600E+02
    -53.881  0.0000E+00  0.3600E+02
    -53.643  0.0000E+00  0.3600E+02
    -53.405  0.0000E+00  0.3600E+02
    -53.167  0.0000E+00  0.3600E+02
    -52.929  0.0000E+00  0.3600E+02
    -52.691  0.0000E+00  0.3600E+02
    -52.454  0.0000E+00  0.3600E+02
    -52.216  0.0000E+00  0.3600E+02
    -51.978  0.0000E+00  0.3600E+02
    -51.740  0.0000E+00  0.3600E+02
    -51.502  0.0000E+00  0.3600E+02
    -51.264  0.0000E+00  0.3600E+02
    -51.026  0.0000E+00  0.3600E+02
    -50.789  0.0000E+00  0.3600E+02
    -50.551  0.0000E+00  0.3600E+02
    -50.313  0.0000E+00  0.3600E+02
    -50.075  0.0000E+00  0.3600E+02
    -49.837  0.0000E+00  0.3600E+02
    -49.599  0.0000E+00  0.3600E+02
    -49.361  0.0000E+00  0.3600E+02
    -49.123  0.0000E+00  0.3600E+02
    -48.886  0.0000E+00  0.3600E+02
    -48.648  0.0000E+00  0.3600E+02
    -48.410  0.0000E+00  0.3600E+02
    -48.172  0.0000E+00  0.3600E+02
    -47.934  0.0000E+00  0.3600E+02
    -47.696  0.0000E+00  0.3600E+02
    -47.458  0.0000E+00  0.3600E+02
    -47.221  0.0000E+00  0.3600E+02
    -46.983  0.0000E+00  0.3600E+02
    -46.745  0.0000E+00  0.3600E+02
    -46.507  0.0000E+00  0.3600E+02
    -46.269  0.0000E+00  0.3600E+02
    -46.031  0.0000E+00  0.3600E+02
    -45.793  0.0000E+00  0.3600E+02
    -45.555  0.0000E+00  0.3600E+02
    -45.318  0.0000E+00  0.3600E+02
    -45.080  0.0000E+00  0.3600E+02
    -44.842  0.0000E+00  0.3600E+02
    -44.604  0.0000E+00  0.3600E+02
    -44.366  0.0000E+00  0.3600E+02
    -44.128  0.0000E+00  0.3600E+02
    -43.890  0.0000E+00  0.3600E+02
    -43.653  0.0000E+00  0.3600E+02
    -43.415  0.0000E+00  0.3600E+02
    -43.177  0.0000E+00  0.3600E+02
    -42.939  0.0000E+00  0.3600E+02
    -42.701  0.0000E+00  0.3600E+02
    -42.463  0.0000E+00  0.3600E+02
    -42.225  0.0000E+00  0.3600E+02
    -41.987  0.0000E+00  0.3600E+02
    -41.750  0.0000E+00  0.3600E+02
    -41.512  0.0000E+00  0.3600E+02
    -41.274  0.0000E+00  0.3600E+02
    -41.036  0.0000E+00  0.3600E+02
    -40.798  0.0000E+00  0.3600E+02
    -40.560  0.0000E+00  0.3600E+02
    -40.322  0.0000E+00  0.3600E+02
    -40.085  0.0000E+00  0.3600E+02
    -39.847  0.0000E+00  0.3600E+02
    -39.609  0.0000E+00  0.3600E+02
    -39.371  0.0000E+00  0.3600E+02
    -39.133  0.0000E+00  0.3600E+02
    -38.895  0.0000E+00  0.3600E+02
    -38.657  0.0000E+00  0.3600E+02
    -38.419  0.0000E+00  0.3600E+02
    -38.182  0.0000E+00  0.3600E+02
    -37.944  0.0000E+00  0.3600E+02
    -37.706  0.0000E+00  0.3600E+02
    -37.468  0.0000E+00  0.3600E+02
    -37.230  0.0000E+00  0.3600E+02
    -36.992  0.0000E+00  0.3600E+02
    -36.754  0.0000E+00  0.3600E+02
    -36.517  0.0000E+00  0.3600E+02
    -36.279  0.0000E+00  0.3600E+02
    -36.041  0.0000E+00  0.3600E+02
    -35.803  0.0000E+00  0.3600E+02
    -35.565  0.0000E+00  0.3600E+02
    -35.327  0.0000E+00  0.3600E+02
    -35.089  0.0000E+00  0.3600E+02
    -34.851  0.0000E+00  0.3600E+02
    -34.614  0.0000E+00  0.3600E+02
    -34.376  0.0000E+00  0.3600E+02
    -34.138  0.0000E+00  0.3600E+02
    -33.900  0.0000E+00  0.3600E+02
    -33.662  0.0000E+00  0.3600E+02
    -33.424  0.0000E+00  0.3600E+02
    -33.186  0.0000E+00  0.3600E+02
    -32.949  0.8317E-11  0.3600E+02
    -32.711  0.8593E+01  0.3804E+02
    -32.473  0.1871E+03  0.8254E+02
    -32.235  0.3136E+02  0.9000E+02
    -31.997  0.0000E+00  0.9000E+02
    -31.759  0.0000E+00  0.9000E+02
    -31.521  0.5874E-02  0.9000E+02
    -31.283  0.1166E+03  0.1177E+03
    -31.046  0.1104E+03  0.1440E+03
    -30.808  0.2317E-01  0.1440E+03
    -30.570  0.0000E+00  0.1440E+03
    -30.332  0.0000E+00  0.1440E+03
    -30.094  0.0000E+00  0.1440E+03
    -29.856  0.0000E+00  0.1440E+03
    -29.618  0.0000E+00  0.1440E+03
    -29.381  0.0000E+00  0.1440E+03
    -29.143  0.0000E+00  0.1440E+03
    -28.905  0.0000E+00  0.1440E+03
    -28.667  0.0000E+00  0.1440E+03
    -28.429  0.0000E+00  0.1440E+03
    -28.191  0.0000E+00  0.1440E+03
    -27.953  0.0000E+00  0.1440E+03
    -27.715  0.0000E+00  0.1440E+03
    -27.478  0.0000E+00  0.1440E+03
    -27.240  0.0000E+00  0.1440E+03
    -27.002  0.0000E+00  0.1440E+03
    -26.764  0.0000E+00  0.1440E+03
    -26.526  0.0000E+00  0.1440E+03
    -26.288  0.0000E+00  0.1440E+03
    -26.050  0.0000E+00  0.1440E+03
    -25.813  0.0000E+00  0.1440E+03
    -25.575  0.0000E+00  0.1440E+03
    -25.337  0.0000E+00  0.1440E+03
    -25.099  0.0000E+00  0.1440E+03
    -24.861  0.0000E+00  0.1440E+03
    -24.623  0.0000E+00  0.1440E+03
    -24.385  0.0000E+00  0.1440E+03
    -24.147  0.0000E+00  0.1440E+03
    -23.910  0.0000E+00  0.1440E+03
    -23.672  0.0000E+00  0.1440E+03
    -23.434  0.0000E+00  0.1440E+03
    -23.196  0.0000E+00  0.1440E+03
    -22.958  0.0000E+00  0.1440E+03
    -22.720  0.0000E+00  0.1440E+03
    -22.482  0.0000E+00  0.1440E+03
    -22.245  0.0000E+00  0.1440E+03
    -22.007  0.0000E+00  0.1440E+03
    -21.769  0.0000E+00  0.1440E+03
    -21.531  0.0000E+00  0.1440E+03
    -21.293  0.0000E+00  0.1440E+03
    -21.055  0.0000E+00  0.1440E+03
    -20.817  0.0000E+00  0.1440E+03
    -20.579  0.0000E+00  0.1440E+03
    -20.342  0.0000E+00  0.1440E+03
    -20.104  0.0000E+00  0.1440E+03
    -19.866  0.0000E+00  0.1440E+03
    -19.628  0.0000E+00  0.1440E+03
    -19.390  0.0000E+00  0.1440E+03
    -19.152  0.0000E+00  0.1440E+03
    -18.914  0.0000E+00  0.1440E+03
    -18.677  0.0000E+00  0.1440E+03
    -18.439  0.0000E+00  0.1440E+03
    -18.201  0.0000E+00  0.1440E+03
    -17.963  0.0000E+00  0.1440E+03
    -17.725  0.0000E+00  0.1440E+03
    -17.487  0.0000E+00  0.1440E+03
    -17.249  0.0000E+00  0.1440E+03
    -17.011  0.0000E+00  0.1440E+03
    -16.774  0.0000E+00  0.1440E+03
    -16.536  0.0000E+00  0.1440E+03
    -16.298  0.0000E+00  0.1440E+03
    -16.060  0.0000E+00  0.1440E+03
    -15.822  0.0000E+00  0.1440E+03
    -15.584  0.0000E+00  0.1440E+03
    -15.346  0.0000E+00  0.1440E+03
    -15.109  0.0000E+00  0.1440E+03
    -14.871  0.0000E+00  0.1440E+03
    -14.633  0.0000E+00  0.1440E+03
    -14.395  0.0000E+00  0.1440E+03
    -14.157  0.0000E+00  0.1440E+03
    -13.919  0.0000E+00  0.1440E+03
    -13.681  0.0000E+00  0.1440E+03
    -13.443  0.0000E+00  0.1440E+03
    -13.206  0.0000E+00  0.1440E+03
    -12.968  0.0000E+00  0.1440E+03
    -12.730  0.0000E+00  0.1440E+03
    -12.492  0.0000E+00  0.1440E+03
    -12.254  0.0000E+00  0.1440E+03
    -12.016  0.0000E+00  0.1440E+03
    -11.778  0.0000E+00  0.1440E+03
    -11.541  0.0000E+00  0.1440E+03
    -11.303  0.7254E-03  0.1440E+03
    -11.065  0.3149E+01  0.1447E+03
    -10.827  0.6914E+01  0.1464E+03
    -10.589  0.7498E+01  0.1482E+03
    -10.351  0.8072E+01  0.1501E+03
    -10.113  0.1055E+02  0.1526E+03
     -9.875  0.1904E+02  0.1571E+03
     -9.638  0.3384E+02  0.1652E+03
     -9.400  0.2940E+02  0.1722E+03
     -9.162  0.4245E+02  0.1823E+03
     -8.924  0.3014E+01  0.1830E+03
     -8.686  0.9769E+01  0.1853E+03
     -8.448  0.9851E+01  0.1877E+03
     -8.210  0.1224E+02  0.1906E+03
     -7.973  0.9062E+01  0.1927E+03
     -7.735  0.1587E+02  0.1965E+03
     -7.497  0.1405E+02  0.1998E+03
     -7.259  0.1784E+02  0.2041E+03
     -7.021  0.2891E+02  0.2110E+03
     -6.783  0.1943E+02  0.2156E+03
     -6.545  0.1723E+01  0.2160E+03
     -6.307  0.0000E+00  0.2160E+03
     -6.070  0.0000E+00  0.2160E+03
     -5.832  0.0000E+00  0.2160E+03
     -5.594  0.0000E+00  0.2160E+03
     -5.356  0.0000E+00  0.2160E+03
     -5.118  0.0000E+00  0.2160E+03
     -4.880  0.0000E+00  0.2160E+03
     -4.642  0.0000E+00  0.2160E+03
     -4.405  0.0000E+00  0.2160E+03
     -4.167  0.0000E+00  0.2160E+03
     -3.929  0.0000E+00  0.2160E+03
     -3.691  0.0000E+00  0.2160E+03
     -3.453  0.0000E+00  0.2160E+03
     -3.215  0.0000E+00  0.2160E+03
     -2.977  0.7703E-03  0.2160E+03
     -2.739  0.5734E+01  0.2174E+03
     -2.502  0.2514E+02  0.2233E+03
     -2.264  0.5093E+02  0.2355E+03
     -2.026  0.1831E+02  0.2398E+03
     -1.788  0.2505E+02  0.2458E+03
     -1.550  0.4152E+02  0.2556E+03
     -1.312  0.5924E+02  0.2697E+03
     -1.074  0.4983E+02  0.2816E+03
     -0.837  0.3344E+02  0.2895E+03
     -0.599  0.2905E+02  0.2965E+03
     -0.361  0.5119E+02  0.3086E+03
     -0.123  0.4922E+02  0.3203E+03
      0.115  0.6583E+02  0.3360E+03
      0.353  0.4736E+02  0.3473E+03
      0.591  0.3876E+02  0.3565E+03
      0.829  0.3648E+02  0.3652E+03
      1.066  0.3810E+02  0.3742E+03
      1.304  0.3312E+02  0.3821E+03
      1.542  0.4644E+02  0.3931E+03
      1.780  0.5850E+02  0.4071E+03
      2.018  0.5743E+02  0.4207E+03
      2.256  0.5679E+02  0.4342E+03
      2.494  0.3684E+02  0.4430E+03
      2.731  0.2573E+02  0.4491E+03
      2.969  0.1843E+02  0.4535E+03
      3.207  0.2925E+02  0.4605E+03
      3.445  0.2914E+02  0.4674E+03
      3.683  0.5967E+01  0.4688E+03
      3.921  0.3445E+01  0.4696E+03
      4.159  0.1140E+02  0.4723E+03
      4.397  0.2960E+02  0.4794E+03
      4.634  0.4354E+02  0.4897E+03
      4.872  0.5872E+02  0.5037E+03
      5.110  0.6204E+02  0.5185E+03
      5.348  0.5382E+02  0.5313E+03
      5.586  0.5897E+02  0.5453E+03
      5.824  0.5030E+02  0.5573E+03
      6.062  0.4638E+02  0.5683E+03
      6.299  0.1399E+02  0.5716E+03
      6.537  0.1614E+01  0.5720E+03
      6.775  0.5919E-05  0.5720E+03
      7.013  0.0000E+00  0.5720E+03
      7.251  0.0000E+00  0.5720E+03
      7.489  0.0000E+00  0.5720E+03
      7.727  0.0000E+00  0.5720E+03
      7.965  0.0000E+00  0.5720E+03
      8.202  0.0000E+00  0.5720E+03
      8.440  0.0000E+00  0.5720E+03
      8.678  0.0000E+00  0.5720E+03
      8.916  0.0000E+00  0.5720E+03
      9.154  0.0000E+00  0.5720E+03
      9.392  0.0000E+00  0.5720E+03
      9.630  0.0000E+00  0.5720E+03
