<?xml version="1.0" encoding="ISO-8859-1"?>
<modeling>
 <generator>
  <i name="program" type="string">vasp </i>
  <i name="version" type="string">6.5.1  </i>
  <i name="subversion" type="string">10Mar25 (build Aug 29 2025 00:30:47) complex                          parallel </i>
  <i name="platform" type="string">LinuxIFC </i>
  <i name="date" type="string">2026 06 01 </i>
  <i name="time" type="string">17:18:01 </i>
 </generator>
 <incar>
  <i type="string" name="SYSTEM">TaS2 relaxation</i>
  <i type="string" name="PREC">Accurate</i>
  <i type="string" name="ALGO">Normal</i>
  <i name="AMIN">      0.01000000</i>
  <i type="int" name="NELM">   200</i>
  <i type="int" name="IBRION">     1</i>
  <i name="EDIFF">      0.00000100</i>
  <i name="EDIFFG">     -0.00010000</i>
  <i type="int" name="NSW">   600</i>
  <i type="int" name="ISIF">     2</i>
  <i name="ENCUT">    520.00000000</i>
  <i type="string" name="LREAL">Auto</i>
  <i type="int" name="ISMEAR">     0</i>
  <i name="SIGMA">      0.05000000</i>
  <i type="logical" name="LWAVE"> F  </i>
  <i type="logical" name="LCHARG"> F  </i>
  <i type="int" name="IVDW">    12</i>
 </incar>
 <primitive_cell>
  <structure name="primitive_cell" >
   <crystal>
    <varray name="basis" >
     <v>       3.33852022       0.00000000       0.00000000 </v>
     <v>       1.66926011       2.89124332       0.00000000 </v>
     <v>       0.00000000       0.00000000      20.00000000 </v>
    </varray>
    <i name="volume">    193.04948525 </i>
    <varray name="rec_basis" >
     <v>       0.29953391      -0.17293598       0.00000000 </v>
     <v>       0.00000000       0.34587196       0.00000000 </v>
     <v>       0.00000000       0.00000000       0.05000000 </v>
    </varray>
   </crystal>
   <varray name="positions" >
    <v>       0.00000000       0.00000000       0.50000000 </v>
    <v>       0.33333333       0.33333333       0.42251988 </v>
    <v>       0.33333333       0.33333333       0.57748012 </v>
   </varray>
  </structure>
  <varray name="primitive_index" >
   <v type="int" >        1 </v>
   <v type="int" >        2 </v>
   <v type="int" >        3 </v>
  </varray>
 </primitive_cell>
 <kpoints>
  <generation param="Gamma">
   <v type="int" name="divisions">      15       15        1 </v>
   <v name="usershift">      0.00000000       0.00000000       0.00000000 </v>
   <v name="genvec1">      0.06666667      -0.00000000       0.00000000 </v>
   <v name="genvec2">      0.00000000       0.06666667       0.00000000 </v>
   <v name="genvec3">      0.00000000       0.00000000       1.00000000 </v>
   <v name="shift">      0.00000000       0.00000000       0.00000000 </v>
  </generation>
  <varray name="kpointlist" >
   <v>       0.00000000       0.00000000       0.00000000 </v>
   <v>       0.06666667       0.00000000       0.00000000 </v>
   <v>       0.13333333       0.00000000       0.00000000 </v>
   <v>       0.20000000       0.00000000       0.00000000 </v>
   <v>       0.26666667       0.00000000       0.00000000 </v>
   <v>       0.33333333       0.00000000       0.00000000 </v>
   <v>       0.40000000       0.00000000       0.00000000 </v>
   <v>       0.46666667       0.00000000       0.00000000 </v>
   <v>       0.13333333       0.06666667       0.00000000 </v>
   <v>       0.20000000       0.06666667       0.00000000 </v>
   <v>       0.26666667       0.06666667       0.00000000 </v>
   <v>       0.33333333       0.06666667       0.00000000 </v>
   <v>       0.40000000       0.06666667       0.00000000 </v>
   <v>       0.46666667       0.06666667       0.00000000 </v>
   <v>      -0.46666667       0.06666667       0.00000000 </v>
   <v>       0.26666667       0.13333333       0.00000000 </v>
   <v>       0.33333333       0.13333333       0.00000000 </v>
   <v>       0.40000000       0.13333333       0.00000000 </v>
   <v>       0.46666667       0.13333333       0.00000000 </v>
   <v>      -0.46666667       0.13333333       0.00000000 </v>
   <v>       0.40000000       0.20000000       0.00000000 </v>
   <v>       0.46666667       0.20000000       0.00000000 </v>
   <v>      -0.46666667       0.20000000       0.00000000 </v>
   <v>      -0.40000000       0.20000000       0.00000000 </v>
   <v>      -0.46666667       0.26666667       0.00000000 </v>
   <v>      -0.40000000       0.26666667       0.00000000 </v>
   <v>      -0.33333333       0.33333333       0.00000000 </v>
  </varray>
  <varray name="weights" >
   <v>       0.00444444 </v>
   <v>       0.02666667 </v>
   <v>       0.02666667 </v>
   <v>       0.02666667 </v>
   <v>       0.02666667 </v>
   <v>       0.02666667 </v>
   <v>       0.02666667 </v>
   <v>       0.02666667 </v>
   <v>       0.02666667 </v>
   <v>       0.05333333 </v>
   <v>       0.05333333 </v>
   <v>       0.05333333 </v>
   <v>       0.05333333 </v>
   <v>       0.05333333 </v>
   <v>       0.02666667 </v>
   <v>       0.02666667 </v>
   <v>       0.05333333 </v>
   <v>       0.05333333 </v>
   <v>       0.05333333 </v>
   <v>       0.05333333 </v>
   <v>       0.02666667 </v>
   <v>       0.05333333 </v>
   <v>       0.05333333 </v>
   <v>       0.02666667 </v>
   <v>       0.02666667 </v>
   <v>       0.05333333 </v>
   <v>       0.00888889 </v>
  </varray>
 </kpoints>
 <parameters>
  <separator name="general" >
   <i type="string" name="SYSTEM">TaS2 relaxation</i>
   <i type="logical" name="LCOMPAT"> F  </i>
  </separator>
  <separator name="electronic" >
   <i type="string" name="PREC">accura</i>
   <i name="ENMAX">    520.00000000</i>
   <i name="ENAUG">    377.42100000</i>
   <i name="EDIFF">      0.00000100</i>
   <i type="int" name="IALGO">    38</i>
   <i type="int" name="IWAVPR">    11</i>
   <i type="int" name="NBANDS">    22</i>
   <i type="int" name="NBANDSLOW">    -1</i>
   <i type="int" name="NBANDSHIGH">    -1</i>
   <i name="NELECT">     23.00000000</i>
   <i type="int" name="TURBO">     0</i>
   <i type="int" name="IRESTART">     0</i>
   <i type="int" name="NREBOOT">     0</i>
   <i type="int" name="NMIN">     0</i>
   <i name="EREF">      0.00000000</i>
   <separator name="electronic smearing" >
    <i type="int" name="ISMEAR">     0</i>
    <i name="SIGMA">      0.05000000</i>
    <i name="KSPACING">      0.50000000</i>
    <i type="logical" name="KGAMMA"> T  </i>
    <i type="logical" name="KBLOWUP"> T  </i>
   </separator>
   <separator name="electronic projectors" >
    <i type="logical" name="LREAL"> T  </i>
    <v name="ROPT">     -0.00025000     -0.00025000</v>
    <i type="int" name="LMAXPAW">  -100</i>
    <i type="int" name="LMAXMIX">     2</i>
    <i type="logical" name="NLSPLINE"> F  </i>
   </separator>
   <separator name="electronic startup" >
    <i type="int" name="ISTART">     0</i>
    <i type="int" name="ICHARG">     2</i>
    <i type="int" name="INIWAV">     1</i>
   </separator>
   <separator name="electronic spin" >
    <i type="int" name="ISPIN">     1</i>
    <i type="logical" name="LNONCOLLINEAR"> F  </i>
    <v name="MAGMOM">      1.00000000      1.00000000      1.00000000</v>
    <i name="NUPDOWN">     -1.00000000</i>
    <i type="logical" name="LSORBIT"> F  </i>
    <v name="SAXIS">      0.00000000      0.00000000      1.00000000</v>
    <i type="logical" name="LSPIRAL"> F  </i>
    <v name="QSPIRAL">      0.00000000      0.00000000      0.00000000</v>
    <i type="logical" name="LZEROZ"> F  </i>
   </separator>
   <separator name="electronic exchange-correlation" >
    <i type="logical" name="LASPH"> F  </i>
   </separator>
   <separator name="electronic convergence" >
    <i type="int" name="NELM">   200</i>
    <i type="int" name="NELMDL">    -5</i>
    <i type="int" name="NELMIN">     2</i>
    <i name="ENINI">    520.00000000</i>
    <separator name="electronic convergence detail" >
     <i type="logical" name="LDIAG"> T  </i>
     <i type="logical" name="LSUBROT"> F  </i>
     <i type="logical" name="LROBUST"> F  </i>
     <i type="int" name="ISEARCH">     0</i>
     <i name="WEIMIN">      0.00100000</i>
     <i name="EBREAK">      0.00000001</i>
     <i name="DEPER">      0.30000000</i>
     <i type="int" name="NRMM">     4</i>
     <i name="TIME">      0.40000000</i>
    </separator>
   </separator>
   <separator name="electronic mixer" >
    <i name="AMIX">      0.40000000</i>
    <i name="BMIX">      1.00000000</i>
    <i name="AMIN">      0.01000000</i>
    <i name="AMIX_MAG">      1.60000000</i>
    <i name="BMIX_MAG">      1.00000000</i>
    <separator name="electronic mixer details" >
     <i type="int" name="IMIX">     4</i>
     <i type="logical" name="MIXFIRST"> F  </i>
     <i type="int" name="MAXMIX">   -45</i>
     <i name="WC">    100.00000000</i>
     <i type="int" name="INIMIX">     1</i>
     <i type="int" name="MIXPRE">     1</i>
     <i type="int" name="MREMOVE">     5</i>
    </separator>
   </separator>
   <separator name="electronic dipolcorrection" >
    <i type="logical" name="LDIPOL"> F  </i>
    <i type="logical" name="LMONO"> F  </i>
    <i type="int" name="IDIPOL">     0</i>
    <i name="EPSILON">      1.00000000</i>
    <v name="DIPOL">   -100.00000000   -100.00000000   -100.00000000</v>
    <i name="EFIELD">      0.00000000</i>
    <i type="logical" name="LVACPOTAV"> F  </i>
   </separator>
  </separator>
  <separator name="grids" >
   <i type="int" name="NGX">    28</i>
   <i type="int" name="NGY">    28</i>
   <i type="int" name="NGZ">   150</i>
   <i type="int" name="NGXF">    56</i>
   <i type="int" name="NGYF">    56</i>
   <i type="int" name="NGZF">   300</i>
   <i type="logical" name="ADDGRID"> F  </i>
  </separator>
  <separator name="ionic" >
   <i type="int" name="NSW">   600</i>
   <i type="int" name="IBRION">     1</i>
   <i type="int" name="MDALGO">     0</i>
   <i type="int" name="ISIF">     2</i>
   <i name="PSTRESS">      0.00000000</i>
   <i name="EDIFFG">     -0.00010000</i>
   <i type="int" name="NFREE">     0</i>
   <i name="POTIM">      0.50000000</i>
   <i name="SMASS">     -3.00000000</i>
   <i name="SCALEE">      1.00000000</i>
  </separator>
  <separator name="ionic md" >
   <i name="TEBEG">      0.00010000</i>
   <i name="TEEND">      0.00010000</i>
   <i type="int" name="NBLOCK">     1</i>
   <i type="int" name="KBLOCK">   600</i>
   <i type="int" name="NPACO">   256</i>
   <i name="APACO">     10.00000000</i>
  </separator>
  <separator name="symmetry" >
   <i type="int" name="ISYM">     2</i>
   <i name="SYMPREC">      0.00001000</i>
  </separator>
  <separator name="dos" >
   <i type="int" name="LORBIT">     0</i>
   <v name="RWIGS">     -1.00000000     -1.00000000</v>
   <i type="int" name="NEDOS">   301</i>
   <i name="EMIN">     10.00000000</i>
   <i name="EMAX">    -10.00000000</i>
   <i name="EFERMI">      0.00000000</i>
  </separator>
  <separator name="writing" >
   <i type="int" name="NWRITE">     2</i>
   <i type="logical" name="LWAVE"> F  </i>
   <i type="logical" name="LDOWNSAMPLE"> F  </i>
   <i type="logical" name="LCHARG"> F  </i>
   <i type="logical" name="LPARD"> F  </i>
   <i type="logical" name="LVTOT"> F  </i>
   <i type="logical" name="LVHAR"> F  </i>
   <i type="logical" name="LELF"> F  </i>
   <i type="logical" name="LOPTICS"> F  </i>
   <v name="STM">      0.00000000      0.00000000      0.00000000      0.00000000      0.00000000      0.00000000      0.00000000</v>
  </separator>
  <separator name="performance" >
   <i type="int" name="NPAR">    11</i>
   <i type="int" name="NSIM">     4</i>
   <i type="int" name="NBLK">    -1</i>
   <i type="logical" name="LPLANE"> T  </i>
   <i type="logical" name="LSCALAPACK"> T  </i>
   <i type="logical" name="LSCAAWARE"> F  </i>
   <i type="logical" name="LSCALU"> F  </i>
   <i type="logical" name="LASYNC"> F  </i>
   <i type="logical" name="LORBITALREAL"> F  </i>
  </separator>
  <separator name="miscellaneous" >
   <i type="int" name="IDIOT">     3</i>
   <i type="int" name="PHON_NSTRUCT">    -1</i>
   <i type="logical" name="LMUSIC"> F  </i>
   <v name="POMASS">    180.94800000     32.06600000</v>
   <v name="DARWINR">      0.00000000      0.00000000</v>
   <v name="DARWINV">      1.00000000      1.00000000</v>
   <i type="logical" name="LCORR"> T  </i>
  </separator>
  <i type="logical" name="GGA_COMPAT"> T  </i>
  <i type="logical" name="LBERRY"> F  </i>
  <i type="int" name="ICORELEVEL">     0</i>
  <i type="logical" name="LDAU"> F  </i>
  <i type="int" name="I_CONSTRAINED_M">     0</i>
  <separator name="electronic exchange-correlation" >
   <i type="string" name="GGA    ">PE</i>
   <i type="string" name="XC_C">1</i>
   <i type="int" name="VOSKOWN">     0</i>
   <i type="logical" name="LHFCALC"> F  </i>
   <i type="string" name="PRECFOCK"></i>
   <i type="logical" name="LSYMGRAD"> F  </i>
   <i type="logical" name="LHFONE"> F  </i>
   <i type="logical" name="LRHFCALC"> F  </i>
   <i type="logical" name="LTHOMAS"> F  </i>
   <i type="logical" name="LMODELHF"> F  </i>
   <i type="logical" name="LFOCKACE"> F  </i>
   <i name="ENCUT4O">     -1.00000000</i>
   <i type="int" name="EXXOEP">     0</i>
   <i type="int" name="FOURORBIT">     0</i>
   <i name="AEXX">      0.00000000</i>
   <i name="HFALPHA">      0.00000000</i>
   <i name="MCALPHA">      0.00000000</i>
   <i name="ALDAX">      1.00000000</i>
   <i name="AGGAX">      1.00000000</i>
   <i name="AMGGAX">      1.00000000</i>
   <i name="ALDAC">      1.00000000</i>
   <i name="AGGAC">      1.00000000</i>
   <i name="AMGGAC">      1.00000000</i>
   <i type="int" name="NKREDX">     1</i>
   <i type="int" name="NKREDY">     1</i>
   <i type="int" name="NKREDZ">     1</i>
   <i type="logical" name="SHIFTRED"> F  </i>
   <i type="logical" name="ODDONLY"> F  </i>
   <i type="logical" name="EVENONLY"> F  </i>
   <i type="int" name="LMAXFOCK">     0</i>
   <i type="int" name="NMAXFOCKAE">     0</i>
   <i type="logical" name="LFOCKAEDFT"> F  </i>
   <i name="HFSCREEN">      0.00000000</i>
   <i name="HFSCREENC">      0.00000000</i>
   <i type="int" name="NBANDSGWLOW">     0</i>
  </separator>
  <separator name="vdW DFT" >
   <i type="logical" name="LUSE_VDW"> F  </i>
   <i type="int" name="IVDW_NL">    -1</i>
   <i type="logical" name="LSPIN_VDW"> F  </i>
   <i name="ZAB_VDW">     -0.84910000</i>
   <i name="GAMMA_VDW">      1.39626340</i>
   <i name="ALPHA_VDW">      0.00000000</i>
   <i name="PARAM1">      0.12340000</i>
   <i name="PARAM2">      1.00000000</i>
   <i name="BPARAM">      6.30000000</i>
   <i name="CPARAM">      0.00930000</i>
  </separator>
  <separator name="model GW" >
   <i type="int" name="MODEL_GW">     0</i>
   <i name="MODEL_EPS0">     38.60989705</i>
   <i name="MODEL_ALPHA">      1.00000000</i>
  </separator>
  <separator name="linear response parameters" >
   <i type="logical" name="LEPSILON"> F  </i>
   <i type="logical" name="LRPA"> F  </i>
   <i type="logical" name="LNABLA"> F  </i>
   <i type="logical" name="LVEL"> F  </i>
   <i name="CSHIFT">      0.10000000</i>
   <i name="OMEGAMAX">     -1.00000000</i>
   <i name="DEG_THRESHOLD">      0.00200000</i>
   <i name="RTIME">     -0.10000000</i>
   <i name="WPLASMAI">      0.00000000</i>
   <v name="DFIELD">      0.00000000      0.00000000      0.00000000</v>
   <v name="WPLASMA">      0.00000000      0.00000000      0.00000000      0.00000000      0.00000000      0.00000000      0.00000000      0.00000000      0.00000000</v>
  </separator>
  <separator name="orbital magnetization" >
   <i type="logical" name="NUCIND"> F  </i>
   <v name="MAGPOS">      0.00000000      0.00000000      0.00000000</v>
   <i type="logical" name="LNICSALL"> T  </i>
   <i type="logical" name="ORBITALMAG"> F  </i>
   <i type="logical" name="LMAGBLOCH"> F  </i>
   <i type="logical" name="LCHIMAG"> F  </i>
   <i type="logical" name="LGAUGE"> T  </i>
   <i type="int" name="MAGATOM">     0</i>
   <v name="MAGDIPOL">      0.00000000      0.00000000      0.00000000</v>
   <v name="AVECCONST">      0.00000000      0.00000000      0.00000000</v>
  </separator>
  <separator name="response functions" >
   <i type="logical" name="LALL_IN_ONE"> F  </i>
   <i type="int" name="IALL_IN_ONE">    -1</i>
   <i type="int" name="NBANDS_WAVE">    -1</i>
   <i type="logical" name="LFINITE_TEMPERATURE"> F  </i>
   <i type="logical" name="LADDER"> F  </i>
   <i type="logical" name="LRPAFORCE"> F  </i>
   <i type="logical" name="LFXC"> F  </i>
   <i type="logical" name="LHARTREE"> T  </i>
   <i type="int" name="IBSE">     2</i>
   <v type="int" name="KPOINT">    -1     0     0     0</v>
   <i type="logical" name="LTCTC"> F  </i>
   <i type="logical" name="LTCTE"> F  </i>
   <i type="logical" name="LTETE"> F  </i>
   <i type="logical" name="LTRIPLET"> F  </i>
   <i type="logical" name="LFXCEPS"> F  </i>
   <i type="logical" name="LFXHEG"> F  </i>
   <i type="int" name="NATURALO">     2</i>
   <i type="logical" name="LHOLEGF"> F  </i>
   <i type="logical" name="L2ORDER"> F  </i>
   <i type="logical" name="LDMP1"> F  </i>
   <i type="logical" name="LMP2LT"> F  </i>
   <i type="logical" name="LSMP2LT"> F  </i>
   <i type="logical" name="LGWLF"> F  </i>
   <i name="ENCUTGW">     -1.60000002</i>
   <i name="ENCUTGWSOFT">     -1.60000002</i>
   <i name="ENCUTLF">     -1.00000000</i>
   <i type="logical" name="ESF_SPLINES"> F  </i>
   <i name="ESF_CONV">      0.01000000</i>
   <i type="int" name="ESF_NINTER">    15</i>
   <i type="int" name="LMAXMP2">    -1</i>
   <i name="SCISSOR">      0.00000000</i>
   <i type="int" name="NOMEGA">     0</i>
   <i type="int" name="NOMEGAR">     0</i>
   <i type="int" name="NBANDSGW">    -1</i>
   <i type="int" name="NBANDSO">    -1</i>
   <i type="int" name="NBANDSV">    -1</i>
   <i type="int" name="NELMGW">     1</i>
   <i type="int" name="NELMHF">     1</i>
   <i type="int" name="DIM">     3</i>
   <i type="int" name="IESPILON">     4</i>
   <i type="int" name="ANTIRES">     0</i>
   <i name="OMEGAMAX">    -30.00000000</i>
   <i name="OMEGAMIN">    -30.00000000</i>
   <i name="OMEGATL">   -200.00000000</i>
   <i type="int" name="OMEGAGRID">     0</i>
   <i name="CSHIFT">     -0.10000000</i>
   <i type="logical" name="LSELFENERGY"> F  </i>
   <i type="logical" name="LSPECTRAL"> F  </i>
   <i type="logical" name="LSPECTRALGW"> F  </i>
   <i type="logical" name="LSINGLES"> F  </i>
   <i type="logical" name="LFERMIGW"> F  </i>
   <i type="logical" name="ODDONLYGW"> F  </i>
   <i type="logical" name="EVENONLYGW"> F  </i>
   <i type="int" name="NKREDLFX">     1</i>
   <i type="int" name="NKREDLFY">     1</i>
   <i type="int" name="NKREDLFZ">     1</i>
   <i type="int" name="MAXMEM">  2800</i>
   <i type="int" name="TELESCOPE">     0</i>
   <i type="int" name="NTAUPAR">    -1</i>
   <i type="int" name="NOMEGAPAR">    -1</i>
   <i name="DAMP_NEWTON">      0.80000001</i>
   <i name="LAMBDA">      1.00000000</i>
  </separator>
  <separator name="External order field" >
   <i name="OFIELD_KAPPA">      0.00000000</i>
   <v name="OFIELD_K">      0.00000000      0.00000000      0.00000000</v>
   <i name="OFIELD_Q6_NEAR">      0.00000000</i>
   <i name="OFIELD_Q6_FAR">      0.00000000</i>
   <i name="OFIELD_A">      0.00000000</i>
  </separator>
  <separator name="optional k-points parameters" >
   <i type="int" name="KPOINTS_OPT_MODE">     1</i>
   <i type="logical" name="LKPOINTS_OPT"> F  </i>
  </separator>
 </parameters>
 <atominfo>
  <atoms>       3 </atoms>
  <types>       2 </types>
  <array name="atoms" >
   <dimension dim="1">ion</dimension>
   <field type="string">element</field>
   <field type="int">atomtype</field>
   <set>
    <rc><c>Ta</c><c>   1</c></rc>
    <rc><c>S </c><c>   2</c></rc>
    <rc><c>S </c><c>   2</c></rc>
   </set>
  </array>
  <array name="atomtypes" >
   <dimension dim="1">type</dimension>
   <field type="int">atomspertype</field>
   <field type="string">element</field>
   <field>mass</field>
   <field>valence</field>
   <field type="string">pseudopotential</field>
   <set>
    <rc><c>   1</c><c>Ta</c><c>    180.94800000</c><c>     11.00000000</c><c>  PAW_PBE Ta_pv 07Sep2000               </c></rc>
    <rc><c>   2</c><c>S </c><c>     32.06600000</c><c>      6.00000000</c><c>  PAW_PBE S 06Sep2000                   </c></rc>
   </set>
  </array>
 </atominfo>
 <structure name="initialpos" >
  <crystal>
   <varray name="basis" >
    <v>       3.33852022       0.00000000       0.00000000 </v>
    <v>       1.66926011       2.89124332       0.00000000 </v>
    <v>       0.00000000       0.00000000      20.00000000 </v>
   </varray>
   <i name="volume">    193.04948525 </i>
   <varray name="rec_basis" >
    <v>       0.29953391      -0.17293598       0.00000000 </v>
    <v>       0.00000000       0.34587196       0.00000000 </v>
    <v>       0.00000000       0.00000000       0.05000000 </v>
   </varray>
  </crystal>
  <varray name="positions" >
   <v>       0.00000000       0.00000000       0.50000000 </v>
   <v>       0.33333333       0.33333333       0.42251988 </v>
   <v>       0.33333333       0.33333333       0.57748012 </v>
  </varray>
 </structure>
 <calculation>
  <scstep>
   <time name="dav">    0.09    0.09</time>
   <time name="total">    0.12    0.12</time>
   <energy>
    <i name="alphaZ">     30.82484184 </i>
    <i name="ewald">   3804.85054545 </i>
    <i name="hartreedc">  -5169.39664055 </i>
    <i name="XCdc">     47.98274628 </i>
    <i name="pawpsdc">   1255.91668348 </i>
    <i name="pawaedc">  -1233.02827551 </i>
    <i name="eentropy">     -0.00081404 </i>
    <i name="bandstr">   -233.02572113 </i>
    <i name="atom">   1600.83958772 </i>
    <i name="e_fr_energy">    104.96295353 </i>
    <i name="e_wo_entrp">    104.96376757 </i>
    <i name="e_0_energy">    104.96336055 </i>
   </energy>
  </scstep>
  <scstep>
   <time name="dav">    0.08    0.08</time>
   <time name="total">    0.08    0.08</time>
   <energy>
    <i name="e_fr_energy">    -14.85332604 </i>
    <i name="e_wo_entrp">    -14.84987238 </i>
    <i name="e_0_energy">    -14.85159921 </i>
   </energy>
  </scstep>
  <scstep>
   <time name="dav">    0.08    0.08</time>
   <time name="total">    0.08    0.08</time>
   <energy>
    <i name="e_fr_energy">    -24.63913126 </i>
    <i name="e_wo_entrp">    -24.63429356 </i>
    <i name="e_0_energy">    -24.63671241 </i>
   </energy>
  </scstep>
  <scstep>
   <time name="dav">    0.08    0.08</time>
   <time name="total">    0.08    0.08</time>
   <energy>
    <i name="e_fr_energy">    -24.81983403 </i>
    <i name="e_wo_entrp">    -24.81493020 </i>
    <i name="e_0_energy">    -24.81738211 </i>
   </energy>
  </scstep>
  <scstep>
   <time name="dav">    0.08    0.08</time>
   <time name="total">    0.10    0.10</time>
   <energy>
    <i name="e_fr_energy">    -24.82465527 </i>
    <i name="e_wo_entrp">    -24.81975142 </i>
    <i name="e_0_energy">    -24.82220334 </i>
   </energy>
  </scstep>
  <scstep>
   <time name="dav">    0.06    0.06</time>
   <time name="total">    0.17    0.17</time>
   <energy>
    <i name="e_fr_energy">    -23.33808032 </i>
    <i name="e_wo_entrp">    -23.33450370 </i>
    <i name="e_0_energy">    -23.33629201 </i>
   </energy>
  </scstep>
  <scstep>
   <time name="dav">    0.08    0.08</time>
   <time name="total">    0.11    0.12</time>
   <energy>
    <i name="e_fr_energy">    -23.23276214 </i>
    <i name="e_wo_entrp">    -23.22972922 </i>
    <i name="e_0_energy">    -23.23124568 </i>
   </energy>
  </scstep>
  <scstep>
   <time name="dav">    0.08    0.08</time>
   <time name="total">    0.12    0.12</time>
   <energy>
    <i name="e_fr_energy">    -23.21732247 </i>
    <i name="e_wo_entrp">    -23.21434908 </i>
    <i name="e_0_energy">    -23.21583577 </i>
   </energy>
  </scstep>
  <scstep>
   <time name="dav">    0.08    0.08</time>
   <time name="total">    0.11    0.11</time>
   <energy>
    <i name="e_fr_energy">    -23.21401906 </i>
    <i name="e_wo_entrp">    -23.21091941 </i>
    <i name="e_0_energy">    -23.21246923 </i>
   </energy>
  </scstep>
  <scstep>
   <time name="dav">    0.08    0.08</time>
   <time name="total">    0.12    0.12</time>
   <energy>
    <i name="e_fr_energy">    -23.21196255 </i>
    <i name="e_wo_entrp">    -23.20873619 </i>
    <i name="e_0_energy">    -23.21034937 </i>
   </energy>
  </scstep>
  <scstep>
   <time name="dav">    0.08    0.08</time>
   <time name="total">    0.12    0.12</time>
   <energy>
    <i name="e_fr_energy">    -23.21165813 </i>
    <i name="e_wo_entrp">    -23.20847518 </i>
    <i name="e_0_energy">    -23.21006666 </i>
   </energy>
  </scstep>
  <scstep>
   <time name="dav">    0.08    0.08</time>
   <time name="total">    0.11    0.12</time>
   <energy>
    <i name="e_fr_energy">    -23.21138178 </i>
    <i name="e_wo_entrp">    -23.20818397 </i>
    <i name="e_0_energy">    -23.20978287 </i>
   </energy>
  </scstep>
  <scstep>
   <time name="dav">    0.08    0.08</time>
   <time name="total">    0.11    0.12</time>
   <energy>
    <i name="e_fr_energy">    -23.21081792 </i>
    <i name="e_wo_entrp">    -23.20762611 </i>
    <i name="e_0_energy">    -23.20922202 </i>
   </energy>
  </scstep>
  <scstep>
   <time name="dav">    0.07    0.07</time>
   <time name="total">    0.10    0.11</time>
   <energy>
    <i name="e_fr_energy">    -23.21054157 </i>
    <i name="e_wo_entrp">    -23.20735948 </i>
    <i name="e_0_energy">    -23.20895053 </i>
   </energy>
  </scstep>
  <scstep>
   <time name="dav">    0.07    0.07</time>
   <time name="total">    0.10    0.10</time>
   <energy>
    <i name="e_fr_energy">    -23.21007872 </i>
    <i name="e_wo_entrp">    -23.20689675 </i>
    <i name="e_0_energy">    -23.20848773 </i>
   </energy>
  </scstep>
  <scstep>
   <time name="dav">    0.07    0.07</time>
   <time name="total">    0.11    0.11</time>
   <energy>
    <i name="e_fr_energy">    -23.21026487 </i>
    <i name="e_wo_entrp">    -23.20708460 </i>
    <i name="e_0_energy">    -23.20867473 </i>
   </energy>
  </scstep>
  <scstep>
   <time name="dav">    0.07    0.07</time>
   <time name="total">    0.10    0.10</time>
   <energy>
    <i name="e_fr_energy">    -23.21098058 </i>
    <i name="e_wo_entrp">    -23.20779305 </i>
    <i name="e_0_energy">    -23.20938682 </i>
   </energy>
  </scstep>
  <scstep>
   <time name="dav">    0.07    0.07</time>
   <time name="total">    0.11    0.11</time>
   <energy>
    <i name="e_fr_energy">    -23.21115094 </i>
    <i name="e_wo_entrp">    -23.20796453 </i>
    <i name="e_0_energy">    -23.20955773 </i>
   </energy>
  </scstep>
  <scstep>
   <time name="dav">    0.07    0.07</time>
   <time name="total">    0.10    0.11</time>
   <energy>
    <i name="e_fr_energy">    -23.21132457 </i>
    <i name="e_wo_entrp">    -23.20814214 </i>
    <i name="e_0_energy">    -23.20973335 </i>
   </energy>
  </scstep>
  <scstep>
   <time name="dav">    0.07    0.07</time>
   <time name="total">    0.11    0.11</time>
   <energy>
    <i name="e_fr_energy">    -23.21137198 </i>
    <i name="e_wo_entrp">    -23.20819040 </i>
    <i name="e_0_energy">    -23.20978119 </i>
   </energy>
  </scstep>
  <scstep>
   <time name="dav">    0.06    0.06</time>
   <time name="total">    0.10    0.10</time>
   <energy>
    <i name="e_fr_energy">    -23.21137982 </i>
    <i name="e_wo_entrp">    -23.20819710 </i>
    <i name="e_0_energy">    -23.20978846 </i>
   </energy>
  </scstep>
  <scstep>
   <time name="dav">    0.06    0.06</time>
   <time name="total">    0.10    0.10</time>
   <energy>
    <i name="e_fr_energy">    -23.21138778 </i>
    <i name="e_wo_entrp">    -23.20820436 </i>
    <i name="e_0_energy">    -23.20979607 </i>
   </energy>
  </scstep>
  <scstep>
   <time name="dav">    0.06    0.06</time>
   <time name="total">    0.10    0.10</time>
   <energy>
    <i name="e_fr_energy">    -23.21138896 </i>
    <i name="e_wo_entrp">    -23.20820564 </i>
    <i name="e_0_energy">    -23.20979730 </i>
   </energy>
  </scstep>
  <scstep>
   <time name="dav">    0.06    0.06</time>
   <time name="total">    0.08    0.08</time>
   <energy>
    <i name="alphaZ">     30.82484184 </i>
    <i name="ewald">   3804.85054545 </i>
    <i name="hartreedc">  -5169.92013928 </i>
    <i name="XCdc">     48.07773861 </i>
    <i name="pawpsdc">   2956.99160337 </i>
    <i name="pawaedc">  -2937.09926194 </i>
    <i name="eentropy">     -0.00318319 </i>
    <i name="bandstr">   -357.77312188 </i>
    <i name="atom">   1600.83958772 </i>
    <i name="e_fr_energy">    -23.21138931 </i>
    <i name="e_wo_entrp">    -23.20820612 </i>
    <i name="e_0_energy">    -23.20979771 </i>
   </energy>
  </scstep>
  <structure>
   <crystal>
    <varray name="basis" >
     <v>       3.33852022       0.00000000       0.00000000 </v>
     <v>       1.66926011       2.89124332       0.00000000 </v>
     <v>       0.00000000       0.00000000      20.00000000 </v>
    </varray>
    <i name="volume">    193.04948525 </i>
    <varray name="rec_basis" >
     <v>       0.29953391      -0.17293598       0.00000000 </v>
     <v>       0.00000000       0.34587196       0.00000000 </v>
     <v>       0.00000000       0.00000000       0.05000000 </v>
    </varray>
   </crystal>
   <varray name="positions" >
    <v>       0.00000000       0.00000000       0.50000000 </v>
    <v>       0.33333333       0.33333333       0.42251988 </v>
    <v>       0.33333333       0.33333333       0.57748012 </v>
   </varray>
  </structure>
  <varray name="forces" >
   <v>       0.00000000       0.00000000       0.00000000 </v>
   <v>      -0.00000000       0.00000000      -0.16680181 </v>
   <v>      -0.00000000      -0.00000000       0.16680181 </v>
  </varray>
  <varray name="stress" >
   <v>      -5.23779330      -0.00000000      -0.00000000 </v>
   <v>      -0.00000000      -5.23779330      -0.00000000 </v>
   <v>      -0.00000000       0.00000000       4.09449693 </v>
  </varray>
  <energy>
   <i name="e_fr_energy">    -24.06601806 </i>
   <i name="e_wo_entrp">    -24.06283488 </i>
   <i name="e_0_energy">    -24.06442647 </i>
  </energy>
  <time name="totalsc">    2.77    2.85</time>
 </calculation>
 <calculation>
  <scstep>
   <time name="dav">    0.06    0.06</time>
   <time name="total">    0.09    0.10</time>
   <energy>
    <i name="alphaZ">     30.82484184 </i>
    <i name="ewald">   3793.54789861 </i>
    <i name="hartreedc">  -5158.98999616 </i>
    <i name="XCdc">     48.03191365 </i>
    <i name="pawpsdc">   2956.93714780 </i>
    <i name="pawaedc">  -2937.04478073 </i>
    <i name="eentropy">     -0.00296230 </i>
    <i name="bandstr">   -357.35753176 </i>
    <i name="atom">   1600.83958772 </i>
    <i name="e_fr_energy">    -23.21388134 </i>
    <i name="e_wo_entrp">    -23.21091904 </i>
    <i name="e_0_energy">    -23.21240019 </i>
   </energy>
  </scstep>
  <scstep>
   <time name="dav">    0.07    0.07</time>
   <time name="total">    0.11    0.11</time>
   <energy>
    <i name="e_fr_energy">    -23.21431841 </i>
    <i name="e_wo_entrp">    -23.21135280 </i>
    <i name="e_0_energy">    -23.21283561 </i>
   </energy>
  </scstep>
  <scstep>
   <time name="dav">    0.07    0.07</time>
   <time name="total">    0.11    0.11</time>
   <energy>
    <i name="e_fr_energy">    -23.21431606 </i>
    <i name="e_wo_entrp">    -23.21134660 </i>
    <i name="e_0_energy">    -23.21283133 </i>
   </energy>
  </scstep>
  <scstep>
   <time name="dav">    0.07    0.07</time>
   <time name="total">    0.11    0.11</time>
   <energy>
    <i name="e_fr_energy">    -23.21431064 </i>
    <i name="e_wo_entrp">    -23.21133244 </i>
    <i name="e_0_energy">    -23.21282154 </i>
   </energy>
  </scstep>
  <scstep>
   <time name="dav">    0.07    0.07</time>
   <time name="total">    0.10    0.11</time>
   <energy>
    <i name="e_fr_energy">    -23.21430959 </i>
    <i name="e_wo_entrp">    -23.21133400 </i>
    <i name="e_0_energy">    -23.21282179 </i>
   </energy>
  </scstep>
  <scstep>
   <time name="dav">    0.07    0.07</time>
   <time name="total">    0.09    0.09</time>
   <energy>
    <i name="alphaZ">     30.82484184 </i>
    <i name="ewald">   3793.54789861 </i>
    <i name="hartreedc">  -5158.84076657 </i>
    <i name="XCdc">     48.03026055 </i>
    <i name="pawpsdc">   2931.19847875 </i>
    <i name="pawaedc">  -2911.28490543 </i>
    <i name="eentropy">     -0.00297506 </i>
    <i name="bandstr">   -357.52672977 </i>
    <i name="atom">   1600.83958772 </i>
    <i name="e_fr_energy">    -23.21430937 </i>
    <i name="e_wo_entrp">    -23.21133431 </i>
    <i name="e_0_energy">    -23.21282184 </i>
   </energy>
  </scstep>
  <structure>
   <crystal>
    <varray name="basis" >
     <v>       3.33852022       0.00000000       0.00000000 </v>
     <v>       1.66926011       2.89124332       0.00000000 </v>
     <v>       0.00000000       0.00000000      20.00000000 </v>
    </varray>
    <i name="volume">    193.04948525 </i>
    <varray name="rec_basis" >
     <v>       0.29953391      -0.17293598       0.00000000 </v>
     <v>       0.00000000       0.34587196       0.00000000 </v>
     <v>       0.00000000       0.00000000       0.05000000 </v>
    </varray>
   </crystal>
   <varray name="positions" >
    <v>       0.00000000       0.00000000       0.50000000 </v>
    <v>       0.33333333       0.33333333       0.42211753 </v>
    <v>       0.33333333       0.33333333       0.57788247 </v>
   </varray>
  </structure>
  <varray name="forces" >
   <v>       0.00000000       0.00000000       0.00000000 </v>
   <v>       0.00000000      -0.00000000      -0.02032866 </v>
   <v>      -0.00000000      -0.00000000       0.02032866 </v>
  </varray>
  <varray name="stress" >
   <v>      -6.47047622      -0.00000000       0.00000000 </v>
   <v>      -0.00000000      -6.47047622       0.00000000 </v>
   <v>      -0.00000000       0.00000000       0.41463456 </v>
  </varray>
  <energy>
   <i name="e_fr_energy">    -24.06752106 </i>
   <i name="e_wo_entrp">    -24.06454600 </i>
   <i name="e_0_energy">    -24.06603353 </i>
  </energy>
  <time name="totalsc">    0.80    0.82</time>
 </calculation>
 <calculation>
  <scstep>
   <time name="dav">    0.07    0.07</time>
   <time name="total">    0.11    0.11</time>
   <energy>
    <i name="alphaZ">     30.82484184 </i>
    <i name="ewald">   3791.97955204 </i>
    <i name="hartreedc">  -5157.33514439 </i>
    <i name="XCdc">     48.02409682 </i>
    <i name="pawpsdc">   2930.96758579 </i>
    <i name="pawaedc">  -2911.05421413 </i>
    <i name="eentropy">     -0.00294188 </i>
    <i name="bandstr">   -357.45788374 </i>
    <i name="atom">   1600.83958772 </i>
    <i name="e_fr_energy">    -23.21451994 </i>
    <i name="e_wo_entrp">    -23.21157806 </i>
    <i name="e_0_energy">    -23.21304900 </i>
   </energy>
  </scstep>
  <scstep>
   <time name="dav">    0.07    0.07</time>
   <time name="total">    0.11    0.11</time>
   <energy>
    <i name="e_fr_energy">    -23.21452837 </i>
    <i name="e_wo_entrp">    -23.21158621 </i>
    <i name="e_0_energy">    -23.21305729 </i>
   </energy>
  </scstep>
  <scstep>
   <time name="dav">    0.07    0.07</time>
   <time name="total">    0.09    0.09</time>
   <energy>
    <i name="alphaZ">     30.82484184 </i>
    <i name="ewald">   3791.97955204 </i>
    <i name="hartreedc">  -5157.31889209 </i>
    <i name="XCdc">     48.02391109 </i>
    <i name="pawpsdc">   2928.48881943 </i>
    <i name="pawaedc">  -2908.57383310 </i>
    <i name="eentropy">     -0.00294265 </i>
    <i name="bandstr">   -357.47557224 </i>
    <i name="atom">   1600.83958772 </i>
    <i name="e_fr_energy">    -23.21452798 </i>
    <i name="e_wo_entrp">    -23.21158532 </i>
    <i name="e_0_energy">    -23.21305665 </i>
   </energy>
  </scstep>
  <structure>
   <crystal>
    <varray name="basis" >
     <v>       3.33852022       0.00000000       0.00000000 </v>
     <v>       1.66926011       2.89124332       0.00000000 </v>
     <v>       0.00000000       0.00000000      20.00000000 </v>
    </varray>
    <i name="volume">    193.04948525 </i>
    <varray name="rec_basis" >
     <v>       0.29953391      -0.17293598       0.00000000 </v>
     <v>       0.00000000       0.34587196       0.00000000 </v>
     <v>       0.00000000       0.00000000       0.05000000 </v>
    </varray>
   </crystal>
   <varray name="positions" >
    <v>       0.00000000       0.00000000       0.50000000 </v>
    <v>       0.33333333       0.33333333       0.42206169 </v>
    <v>       0.33333333       0.33333333       0.57793831 </v>
   </varray>
  </structure>
  <varray name="forces" >
   <v>      -0.00000000      -0.00000000      -0.00000000 </v>
   <v>       0.00000000       0.00000000       0.00028254 </v>
   <v>      -0.00000000       0.00000000      -0.00028254 </v>
  </varray>
  <varray name="stress" >
   <v>      -6.67440319       0.00000000      -0.00000000 </v>
   <v>      -0.00000000      -6.67440319       0.00000000 </v>
   <v>       0.00000000       0.00000000      -0.18071779 </v>
  </varray>
  <energy>
   <i name="e_fr_energy">    -24.06754296 </i>
   <i name="e_wo_entrp">    -24.06460031 </i>
   <i name="e_0_energy">    -24.06607163 </i>
  </energy>
  <time name="totalsc">    0.51    0.52</time>
 </calculation>
 <calculation>
  <scstep>
   <time name="dav">    0.07    0.07</time>
   <time name="total">    0.11    0.11</time>
   <energy>
    <i name="alphaZ">     30.82484184 </i>
    <i name="ewald">   3792.00105061 </i>
    <i name="hartreedc">  -5157.34275656 </i>
    <i name="XCdc">     48.02406279 </i>
    <i name="pawpsdc">   2927.29352196 </i>
    <i name="pawaedc">  -2907.37709767 </i>
    <i name="eentropy">     -0.00294426 </i>
    <i name="bandstr">   -357.47479096 </i>
    <i name="atom">   1600.83958772 </i>
    <i name="e_fr_energy">    -23.21452453 </i>
    <i name="e_wo_entrp">    -23.21158027 </i>
    <i name="e_0_energy">    -23.21305240 </i>
   </energy>
  </scstep>
  <scstep>
   <time name="dav">    0.06    0.07</time>
   <time name="total">    0.08    0.09</time>
   <energy>
    <i name="alphaZ">     30.82484184 </i>
    <i name="ewald">   3792.00105061 </i>
    <i name="hartreedc">  -5157.34528819 </i>
    <i name="XCdc">     48.02409689 </i>
    <i name="pawpsdc">   2927.33336052 </i>
    <i name="pawaedc">  -2907.41704802 </i>
    <i name="eentropy">     -0.00294378 </i>
    <i name="bandstr">   -357.47218210 </i>
    <i name="atom">   1600.83958772 </i>
    <i name="e_fr_energy">    -23.21452451 </i>
    <i name="e_wo_entrp">    -23.21158073 </i>
    <i name="e_0_energy">    -23.21305262 </i>
   </energy>
  </scstep>
  <structure>
   <crystal>
    <varray name="basis" >
     <v>       3.33852022       0.00000000       0.00000000 </v>
     <v>       1.66926011       2.89124332       0.00000000 </v>
     <v>       0.00000000       0.00000000      20.00000000 </v>
    </varray>
    <i name="volume">    193.04948525 </i>
    <varray name="rec_basis" >
     <v>       0.29953391      -0.17293598       0.00000000 </v>
     <v>       0.00000000       0.34587196       0.00000000 </v>
     <v>       0.00000000       0.00000000       0.05000000 </v>
    </varray>
   </crystal>
   <varray name="positions" >
    <v>       0.00000000       0.00000000       0.50000000 </v>
    <v>       0.33333333       0.33333333       0.42206246 </v>
    <v>       0.33333333       0.33333333       0.57793754 </v>
   </varray>
  </structure>
  <varray name="forces" >
   <v>       0.00000000       0.00000000       0.00000000 </v>
   <v>      -0.00000000      -0.00000000      -0.00017212 </v>
   <v>      -0.00000000      -0.00000000       0.00017212 </v>
  </varray>
  <varray name="stress" >
   <v>      -6.64867027      -0.00000000       0.00000000 </v>
   <v>       0.00000000      -6.64867027      -0.00000000 </v>
   <v>      -0.00000000      -0.00000000      -0.15868041 </v>
  </varray>
  <energy>
   <i name="e_fr_energy">    -24.06754219 </i>
   <i name="e_wo_entrp">    -24.06459841 </i>
   <i name="e_0_energy">    -24.06607030 </i>
  </energy>
  <time name="totalsc">    0.39    0.40</time>
 </calculation>
 <calculation>
  <scstep>
   <time name="dav">    0.06    0.06</time>
   <time name="total">    0.10    0.10</time>
   <energy>
    <i name="alphaZ">     30.82484184 </i>
    <i name="ewald">   3791.99291206 </i>
    <i name="hartreedc">  -5157.33905575 </i>
    <i name="XCdc">     48.02408049 </i>
    <i name="pawpsdc">   2927.32302444 </i>
    <i name="pawaedc">  -2907.40673985 </i>
    <i name="eentropy">     -0.00294346 </i>
    <i name="bandstr">   -357.47023299 </i>
    <i name="atom">   1600.83958772 </i>
    <i name="e_fr_energy">    -23.21452551 </i>
    <i name="e_wo_entrp">    -23.21158205 </i>
    <i name="e_0_energy">    -23.21305378 </i>
   </energy>
  </scstep>
  <scstep>
   <time name="dav">    0.06    0.06</time>
   <time name="total">    0.08    0.08</time>
   <energy>
    <i name="alphaZ">     30.82484184 </i>
    <i name="ewald">   3791.99291206 </i>
    <i name="hartreedc">  -5157.34057851 </i>
    <i name="XCdc">     48.02409620 </i>
    <i name="pawpsdc">   2927.30636208 </i>
    <i name="pawaedc">  -2907.39009308 </i>
    <i name="eentropy">     -0.00294336 </i>
    <i name="bandstr">   -357.46871043 </i>
    <i name="atom">   1600.83958772 </i>
    <i name="e_fr_energy">    -23.21452549 </i>
    <i name="e_wo_entrp">    -23.21158213 </i>
    <i name="e_0_energy">    -23.21305381 </i>
   </energy>
  </scstep>
  <structure>
   <crystal>
    <varray name="basis" >
     <v>       3.33852022       0.00000000       0.00000000 </v>
     <v>       1.66926011       2.89124332       0.00000000 </v>
     <v>       0.00000000       0.00000000      20.00000000 </v>
    </varray>
    <i name="volume">    193.04948525 </i>
    <varray name="rec_basis" >
     <v>       0.29953391      -0.17293598       0.00000000 </v>
     <v>       0.00000000       0.34587196       0.00000000 </v>
     <v>       0.00000000       0.00000000       0.05000000 </v>
    </varray>
   </crystal>
   <varray name="positions" >
    <v>       0.00000000       0.00000000       0.50000000 </v>
    <v>       0.33333333       0.33333333       0.42206217 </v>
    <v>       0.33333333       0.33333333       0.57793783 </v>
   </varray>
  </structure>
  <varray name="forces" >
   <v>      -0.00000000      -0.00000000      -0.00000000 </v>
   <v>       0.00000000       0.00000000       0.00000847 </v>
   <v>       0.00000000      -0.00000000      -0.00000847 </v>
  </varray>
  <varray name="stress" >
   <v>      -6.65192402      -0.00000000      -0.00000000 </v>
   <v>      -0.00000000      -6.65192402      -0.00000000 </v>
   <v>      -0.00000000      -0.00000000      -0.17283823 </v>
  </varray>
  <energy>
   <i name="e_fr_energy">    -24.06754215 </i>
   <i name="e_wo_entrp">    -24.06459879 </i>
   <i name="e_0_energy">    -24.06607047 </i>
  </energy>
  <time name="totalsc">    0.36    0.37</time>
  <eigenvalues>
   <array>
    <dimension dim="1">band</dimension>
    <dimension dim="2">kpoint</dimension>
    <dimension dim="3">spin</dimension>
    <field>eigene</field>
    <field>occ</field>
    <set>
     <set comment="spin 1">
      <set comment="kpoint 1">
       <r>  -37.2810    1.0000 </r>
       <r>  -37.1749    1.0000 </r>
       <r>  -37.1749    1.0000 </r>
       <r>  -16.7387    1.0000 </r>
       <r>  -15.1717    1.0000 </r>
       <r>   -8.2823    1.0000 </r>
       <r>   -5.1791    1.0000 </r>
       <r>   -5.1791    1.0000 </r>
       <r>   -4.2409    1.0000 </r>
       <r>   -4.0489    1.0000 </r>
       <r>   -4.0489    1.0000 </r>
       <r>   -1.6822    0.0000 </r>
       <r>    0.5204    0.0000 </r>
       <r>    0.5204    0.0000 </r>
       <r>    0.6241    0.0000 </r>
       <r>    0.6241    0.0000 </r>
       <r>    1.8749    0.0000 </r>
       <r>    2.8950    0.0000 </r>
       <r>    2.9161    0.0000 </r>
       <r>    3.6975    0.0000 </r>
       <r>    4.6793    0.0000 </r>
       <r>    5.4602    0.0000 </r>
      </set>
      <set comment="kpoint 2">
       <r>  -37.2786    1.0000 </r>
       <r>  -37.1878    1.0000 </r>
       <r>  -37.1778    1.0000 </r>
       <r>  -16.6765    1.0000 </r>
       <r>  -15.1533    1.0000 </r>
       <r>   -8.2064    1.0000 </r>
       <r>   -5.3737    1.0000 </r>
       <r>   -5.1231    1.0000 </r>
       <r>   -4.5578    1.0000 </r>
       <r>   -4.1512    1.0000 </r>
       <r>   -3.8596    1.0000 </r>
       <r>   -1.7462    0.0000 </r>
       <r>    0.4800    0.0000 </r>
       <r>    0.5098    0.0000 </r>
       <r>    0.5819    0.0000 </r>
       <r>    0.6568    0.0000 </r>
       <r>    2.1693    0.0000 </r>
       <r>    2.9990    0.0000 </r>
       <r>    3.0138    0.0000 </r>
       <r>    3.7970    0.0000 </r>
       <r>    4.7640    0.0000 </r>
       <r>    5.7493    0.0000 </r>
      </set>
      <set comment="kpoint 3">
       <r>  -37.2718    1.0000 </r>
       <r>  -37.2243    1.0000 </r>
       <r>  -37.1862    1.0000 </r>
       <r>  -16.4968    1.0000 </r>
       <r>  -15.1002    1.0000 </r>
       <r>   -7.9912    1.0000 </r>
       <r>   -5.8584    1.0000 </r>
       <r>   -5.0256    1.0000 </r>
       <r>   -4.9653    1.0000 </r>
       <r>   -4.4120    1.0000 </r>
       <r>   -3.7758    1.0000 </r>
       <r>   -1.9708    0.0000 </r>
       <r>    0.3325    0.0000 </r>
       <r>    0.4810    0.0000 </r>
       <r>    0.4847    0.0000 </r>
       <r>    1.0078    0.0000 </r>
       <r>    2.8026    0.0000 </r>
       <r>    3.2364    0.0000 </r>
       <r>    3.4115    0.0000 </r>
       <r>    4.1004    0.0000 </r>
       <r>    4.9943    0.0000 </r>
       <r>    6.1405    0.0000 </r>
      </set>
      <set comment="kpoint 4">
       <r>  -37.2775    1.0000 </r>
       <r>  -37.2617    1.0000 </r>
       <r>  -37.1985    1.0000 </r>
       <r>  -16.2202    1.0000 </r>
       <r>  -15.0188    1.0000 </r>
       <r>   -7.6882    1.0000 </r>
       <r>   -6.4414    1.0000 </r>
       <r>   -5.5374    1.0000 </r>
       <r>   -4.7409    1.0000 </r>
       <r>   -4.7356    1.0000 </r>
       <r>   -3.8526    1.0000 </r>
       <r>   -2.3635    0.0000 </r>
       <r>    0.2984    0.0000 </r>
       <r>    0.3999    0.0000 </r>
       <r>    0.6631    0.0000 </r>
       <r>    1.4509    0.0000 </r>
       <r>    3.3372    0.0000 </r>
       <r>    3.6103    0.0000 </r>
       <r>    4.0581    0.0000 </r>
       <r>    4.6732    0.0000 </r>
       <r>    5.3427    0.0000 </r>
       <r>    6.2022    0.0000 </r>
      </set>
      <set comment="kpoint 5">
       <r>  -37.3379    1.0000 </r>
       <r>  -37.2501    1.0000 </r>
       <r>  -37.2126    1.0000 </r>
       <r>  -15.8816    1.0000 </r>
       <r>  -14.9199    1.0000 </r>
       <r>   -7.5117    1.0000 </r>
       <r>   -6.8470    1.0000 </r>
       <r>   -6.0524    1.0000 </r>
       <r>   -5.0638    1.0000 </r>
       <r>   -4.4810    1.0000 </r>
       <r>   -3.9981    1.0000 </r>
       <r>   -2.7921    0.9166 </r>
       <r>    0.3949    0.0000 </r>
       <r>    0.4340    0.0000 </r>
       <r>    0.9934    0.0000 </r>
       <r>    1.8726    0.0000 </r>
       <r>    3.7822    0.0000 </r>
       <r>    4.0950    0.0000 </r>
       <r>    4.5734    0.0000 </r>
       <r>    5.0940    0.0000 </r>
       <r>    5.7270    0.0000 </r>
       <r>    6.2033    0.0000 </r>
      </set>
      <set comment="kpoint 6">
       <r>  -37.3949    1.0000 </r>
       <r>  -37.2390    1.0000 </r>
       <r>  -37.2261    1.0000 </r>
       <r>  -15.5307    1.0000 </r>
       <r>  -14.8192    1.0000 </r>
       <r>   -7.8254    1.0000 </r>
       <r>   -6.7383    1.0000 </r>
       <r>   -6.5160    1.0000 </r>
       <r>   -5.3343    1.0000 </r>
       <r>   -4.2542    1.0000 </r>
       <r>   -4.1294    1.0000 </r>
       <r>   -3.0676    1.0000 </r>
       <r>    0.5018    0.0000 </r>
       <r>    0.6706    0.0000 </r>
       <r>    1.3454    0.0000 </r>
       <r>    2.2016    0.0000 </r>
       <r>    3.9465    0.0000 </r>
       <r>    4.6281    0.0000 </r>
       <r>    4.6447    0.0000 </r>
       <r>    5.4026    0.0000 </r>
       <r>    5.8119    0.0000 </r>
       <r>    6.5904    0.0000 </r>
      </set>
      <set comment="kpoint 7">
       <r>  -37.4391    1.0000 </r>
       <r>  -37.2366    1.0000 </r>
       <r>  -37.2303    1.0000 </r>
       <r>  -15.2323    1.0000 </r>
       <r>  -14.7357    1.0000 </r>
       <r>   -8.1986    1.0000 </r>
       <r>   -6.8675    1.0000 </r>
       <r>   -6.5818    1.0000 </r>
       <r>   -5.5261    1.0000 </r>
       <r>   -4.2150    1.0000 </r>
       <r>   -4.0940    1.0000 </r>
       <r>   -3.0974    1.0000 </r>
       <r>    0.6858    0.0000 </r>
       <r>    0.9434    0.0000 </r>
       <r>    1.6002    0.0000 </r>
       <r>    2.4131    0.0000 </r>
       <r>    3.3480    0.0000 </r>
       <r>    4.8932    0.0000 </r>
       <r>    5.0408    0.0000 </r>
       <r>    5.9376    0.0000 </r>
       <r>    6.1095    0.0000 </r>
       <r>    7.0277    0.0000 </r>
      </set>
      <set comment="kpoint 8">
       <r>  -37.4630    1.0000 </r>
       <r>  -37.2423    1.0000 </r>
       <r>  -37.2255    1.0000 </r>
       <r>  -15.0574    1.0000 </r>
       <r>  -14.6880    1.0000 </r>
       <r>   -8.4148    1.0000 </r>
       <r>   -7.0571    1.0000 </r>
       <r>   -6.5286    1.0000 </r>
       <r>   -5.6251    1.0000 </r>
       <r>   -4.2546    1.0000 </r>
       <r>   -4.0142    1.0000 </r>
       <r>   -3.0041    1.0000 </r>
       <r>    0.8359    0.0000 </r>
       <r>    1.1815    0.0000 </r>
       <r>    1.7158    0.0000 </r>
       <r>    2.5133    0.0000 </r>
       <r>    2.7465    0.0000 </r>
       <r>    5.1978    0.0000 </r>
       <r>    5.2084    0.0000 </r>
       <r>    6.3923    0.0000 </r>
       <r>    6.7855    0.0000 </r>
       <r>    7.2843    0.0000 </r>
      </set>
      <set comment="kpoint 9">
       <r>  -37.2740    1.0000 </r>
       <r>  -37.2121    1.0000 </r>
       <r>  -37.1839    1.0000 </r>
       <r>  -16.5555    1.0000 </r>
       <r>  -15.1175    1.0000 </r>
       <r>   -8.0602    1.0000 </r>
       <r>   -5.7079    1.0000 </r>
       <r>   -5.0208    1.0000 </r>
       <r>   -4.8749    1.0000 </r>
       <r>   -4.3818    1.0000 </r>
       <r>   -3.7464    1.0000 </r>
       <r>   -1.8905    0.0000 </r>
       <r>    0.3654    0.0000 </r>
       <r>    0.4430    0.0000 </r>
       <r>    0.5146    0.0000 </r>
       <r>    0.9193    0.0000 </r>
       <r>    2.6342    0.0000 </r>
       <r>    3.1590    0.0000 </r>
       <r>    3.2705    0.0000 </r>
       <r>    3.9969    0.0000 </r>
       <r>    4.9202    0.0000 </r>
       <r>    6.0778    0.0000 </r>
      </set>
      <set comment="kpoint 10">
       <r>  -37.2655    1.0000 </r>
       <r>  -37.2558    1.0000 </r>
       <r>  -37.1954    1.0000 </r>
       <r>  -16.3271    1.0000 </r>
       <r>  -15.0501    1.0000 </r>
       <r>   -7.7937    1.0000 </r>
       <r>   -6.2290    1.0000 </r>
       <r>   -5.3007    1.0000 </r>
       <r>   -4.8446    1.0000 </r>
       <r>   -4.7514    1.0000 </r>
       <r>   -3.7225    1.0000 </r>
       <r>   -2.1994    0.0000 </r>
       <r>    0.2268    0.0000 </r>
       <r>    0.4673    0.0000 </r>
       <r>    0.5092    0.0000 </r>
       <r>    1.3471    0.0000 </r>
       <r>    3.1843    0.0000 </r>
       <r>    3.4650    0.0000 </r>
       <r>    3.8434    0.0000 </r>
       <r>    4.4392    0.0000 </r>
       <r>    5.2104    0.0000 </r>
       <r>    6.3315    0.0000 </r>
      </set>
      <set comment="kpoint 11">
       <r>  -37.3111    1.0000 </r>
       <r>  -37.2547    1.0000 </r>
       <r>  -37.2101    1.0000 </r>
       <r>  -16.0187    1.0000 </r>
       <r>  -14.9593    1.0000 </r>
       <r>   -7.5029    1.0000 </r>
       <r>   -6.7437    1.0000 </r>
       <r>   -5.8010    1.0000 </r>
       <r>   -5.0888    1.0000 </r>
       <r>   -4.6436    1.0000 </r>
       <r>   -3.8262    1.0000 </r>
       <r>   -2.6017    0.0000 </r>
       <r>    0.1859    0.0000 </r>
       <r>    0.5321    0.0000 </r>
       <r>    0.7563    0.0000 </r>
       <r>    1.7958    0.0000 </r>
       <r>    3.6572    0.0000 </r>
       <r>    3.8982    0.0000 </r>
       <r>    4.4398    0.0000 </r>
       <r>    5.0549    0.0000 </r>
       <r>    5.5996    0.0000 </r>
       <r>    6.1658    0.0000 </r>
      </set>
      <set comment="kpoint 12">
       <r>  -37.3682    1.0000 </r>
       <r>  -37.2433    1.0000 </r>
       <r>  -37.2255    1.0000 </r>
       <r>  -15.6721    1.0000 </r>
       <r>  -14.8583    1.0000 </r>
       <r>   -7.5935    1.0000 </r>
       <r>   -6.8341    1.0000 </r>
       <r>   -6.3122    1.0000 </r>
       <r>   -5.3382    1.0000 </r>
       <r>   -4.4796    1.0000 </r>
       <r>   -3.9861    1.0000 </r>
       <r>   -2.9215    1.0000 </r>
       <r>    0.2842    0.0000 </r>
       <r>    0.6953    0.0000 </r>
       <r>    1.1144    0.0000 </r>
       <r>    2.1560    0.0000 </r>
       <r>    4.0723    0.0000 </r>
       <r>    4.4230    0.0000 </r>
       <r>    4.7483    0.0000 </r>
       <r>    5.2015    0.0000 </r>
       <r>    5.9049    0.0000 </r>
       <r>    6.4568    0.0000 </r>
      </set>
      <set comment="kpoint 13">
       <r>  -37.4174    1.0000 </r>
       <r>  -37.2388    1.0000 </r>
       <r>  -37.2334    1.0000 </r>
       <r>  -15.3441    1.0000 </r>
       <r>  -14.7644    1.0000 </r>
       <r>   -7.9814    1.0000 </r>
       <r>   -6.7456    1.0000 </r>
       <r>   -6.6325    1.0000 </r>
       <r>   -5.5072    1.0000 </r>
       <r>   -4.3779    1.0000 </r>
       <r>   -4.1314    1.0000 </r>
       <r>   -3.0172    1.0000 </r>
       <r>    0.5143    0.0000 </r>
       <r>    0.8858    0.0000 </r>
       <r>    1.4711    0.0000 </r>
       <r>    2.3551    0.0000 </r>
       <r>    3.8425    0.0000 </r>
       <r>    4.7890    0.0000 </r>
       <r>    4.9581    0.0000 </r>
       <r>    5.7941    0.0000 </r>
       <r>    5.9371    0.0000 </r>
       <r>    6.8680    0.0000 </r>
      </set>
      <set comment="kpoint 14">
       <r>  -37.4506    1.0000 </r>
       <r>  -37.2478    1.0000 </r>
       <r>  -37.2267    1.0000 </r>
       <r>  -15.1036    1.0000 </r>
       <r>  -14.6971    1.0000 </r>
       <r>   -8.2742    1.0000 </r>
       <r>   -7.0333    1.0000 </r>
       <r>   -6.5297    1.0000 </r>
       <r>   -5.6060    1.0000 </r>
       <r>   -4.3114    1.0000 </r>
       <r>   -4.2258    1.0000 </r>
       <r>   -2.9312    1.0000 </r>
       <r>    0.7365    0.0000 </r>
       <r>    1.0990    0.0000 </r>
       <r>    1.7403    0.0000 </r>
       <r>    2.3899    0.0000 </r>
       <r>    3.1357    0.0000 </r>
       <r>    5.1673    0.0000 </r>
       <r>    5.3508    0.0000 </r>
       <r>    6.2129    0.0000 </r>
       <r>    6.5672    0.0000 </r>
       <r>    7.2016    0.0000 </r>
      </set>
      <set comment="kpoint 15">
       <r>  -37.4622    1.0000 </r>
       <r>  -37.2510    1.0000 </r>
       <r>  -37.2243    1.0000 </r>
       <r>  -15.0143    1.0000 </r>
       <r>  -14.6726    1.0000 </r>
       <r>   -8.3806    1.0000 </r>
       <r>   -7.1340    1.0000 </r>
       <r>   -6.5097    1.0000 </r>
       <r>   -5.6387    1.0000 </r>
       <r>   -4.2842    1.0000 </r>
       <r>   -4.2578    1.0000 </r>
       <r>   -2.8609    0.9996 </r>
       <r>    0.7969    0.0000 </r>
       <r>    1.2599    0.0000 </r>
       <r>    1.8497    0.0000 </r>
       <r>    2.3682    0.0000 </r>
       <r>    2.7817    0.0000 </r>
       <r>    5.3921    0.0000 </r>
       <r>    5.4942    0.0000 </r>
       <r>    6.5328    0.0000 </r>
       <r>    6.8778    0.0000 </r>
       <r>    7.2150    0.0000 </r>
      </set>
      <set comment="kpoint 16">
       <r>  -37.2996    1.0000 </r>
       <r>  -37.2563    1.0000 </r>
       <r>  -37.2112    1.0000 </r>
       <r>  -16.0663    1.0000 </r>
       <r>  -14.9728    1.0000 </r>
       <r>   -7.5098    1.0000 </r>
       <r>   -6.6789    1.0000 </r>
       <r>   -5.6364    1.0000 </r>
       <r>   -5.2206    1.0000 </r>
       <r>   -4.7326    1.0000 </r>
       <r>   -3.7002    1.0000 </r>
       <r>   -2.5153    0.0000 </r>
       <r>    0.0942    0.0000 </r>
       <r>    0.5730    0.0000 </r>
       <r>    0.6183    0.0000 </r>
       <r>    1.8088    0.0000 </r>
       <r>    3.6261    0.0000 </r>
       <r>    3.8330    0.0000 </r>
       <r>    4.4057    0.0000 </r>
       <r>    5.0302    0.0000 </r>
       <r>    5.5514    0.0000 </r>
       <r>    6.2450    0.0000 </r>
      </set>
      <set comment="kpoint 17">
       <r>  -37.3483    1.0000 </r>
       <r>  -37.2457    1.0000 </r>
       <r>  -37.2305    1.0000 </r>
       <r>  -15.7479    1.0000 </r>
       <r>  -14.8784    1.0000 </r>
       <r>   -7.3850    1.0000 </r>
       <r>   -6.9203    1.0000 </r>
       <r>   -6.1342    1.0000 </r>
       <r>   -5.4874    1.0000 </r>
       <r>   -4.7078    1.0000 </r>
       <r>   -3.7993    1.0000 </r>
       <r>   -2.7891    0.9031 </r>
       <r>    0.0995    0.0000 </r>
       <r>    0.7524    0.0000 </r>
       <r>    0.8797    0.0000 </r>
       <r>    2.2163    0.0000 </r>
       <r>    4.1063    0.0000 </r>
       <r>    4.3188    0.0000 </r>
       <r>    4.9450    0.0000 </r>
       <r>    5.2196    0.0000 </r>
       <r>    5.9612    0.0000 </r>
       <r>    6.4371    0.0000 </r>
      </set>
      <set comment="kpoint 18">
       <r>  -37.3940    1.0000 </r>
       <r>  -37.2493    1.0000 </r>
       <r>  -37.2356    1.0000 </r>
       <r>  -15.4196    1.0000 </r>
       <r>  -14.7815    1.0000 </r>
       <r>   -7.7059    1.0000 </r>
       <r>   -6.6952    1.0000 </r>
       <r>   -6.6473    1.0000 </r>
       <r>   -5.5921    1.0000 </r>
       <r>   -4.7848    1.0000 </r>
       <r>   -3.9749    1.0000 </r>
       <r>   -2.8913    1.0000 </r>
       <r>    0.3037    0.0000 </r>
       <r>    0.9158    0.0000 </r>
       <r>    1.2353    0.0000 </r>
       <r>    2.4540    0.0000 </r>
       <r>    4.4082    0.0000 </r>
       <r>    4.8249    0.0000 </r>
       <r>    4.8845    0.0000 </r>
       <r>    5.6285    0.0000 </r>
       <r>    6.1690    0.0000 </r>
       <r>    6.8121    0.0000 </r>
      </set>
      <set comment="kpoint 19">
       <r>  -37.4292    1.0000 </r>
       <r>  -37.2641    1.0000 </r>
       <r>  -37.2276    1.0000 </r>
       <r>  -15.1427    1.0000 </r>
       <r>  -14.7006    1.0000 </r>
       <r>   -8.0084    1.0000 </r>
       <r>   -7.0387    1.0000 </r>
       <r>   -6.5222    1.0000 </r>
       <r>   -5.6220    1.0000 </r>
       <r>   -4.8610    1.0000 </r>
       <r>   -4.1506    1.0000 </r>
       <r>   -2.8104    0.9713 </r>
       <r>    0.5597    0.0000 </r>
       <r>    1.0624    0.0000 </r>
       <r>    1.6022    0.0000 </r>
       <r>    2.4606    0.0000 </r>
       <r>    3.7911    0.0000 </r>
       <r>    5.2120    0.0000 </r>
       <r>    5.4767    0.0000 </r>
       <r>    6.3071    0.0000 </r>
       <r>    6.3341    0.0000 </r>
       <r>    6.8926    0.0000 </r>
      </set>
      <set comment="kpoint 20">
       <r>  -37.4483    1.0000 </r>
       <r>  -37.2722    1.0000 </r>
       <r>  -37.2233    1.0000 </r>
       <r>  -14.9817    1.0000 </r>
       <r>  -14.6541    1.0000 </r>
       <r>   -8.1770    1.0000 </r>
       <r>   -7.2482    1.0000 </r>
       <r>   -6.4754    1.0000 </r>
       <r>   -5.6216    1.0000 </r>
       <r>   -4.8798    1.0000 </r>
       <r>   -4.2596    1.0000 </r>
       <r>   -2.6753    0.0274 </r>
       <r>    0.5820    0.0000 </r>
       <r>    1.3387    0.0000 </r>
       <r>    1.9252    0.0000 </r>
       <r>    2.2879    0.0000 </r>
       <r>    3.2136    0.0000 </r>
       <r>    5.6685    0.0000 </r>
       <r>    6.0130    0.0000 </r>
       <r>    6.5146    0.0000 </r>
       <r>    6.6370    0.0000 </r>
       <r>    7.1833    0.0000 </r>
      </set>
      <set comment="kpoint 21">
       <r>  -37.3828    1.0000 </r>
       <r>  -37.2559    1.0000 </r>
       <r>  -37.2363    1.0000 </r>
       <r>  -15.4462    1.0000 </r>
       <r>  -14.7871    1.0000 </r>
       <r>   -7.5581    1.0000 </r>
       <r>   -6.7405    1.0000 </r>
       <r>   -6.6024    1.0000 </r>
       <r>   -5.6502    1.0000 </r>
       <r>   -4.9659    1.0000 </r>
       <r>   -3.8946    1.0000 </r>
       <r>   -2.8421    0.9974 </r>
       <r>    0.2176    0.0000 </r>
       <r>    0.9323    0.0000 </r>
       <r>    1.1147    0.0000 </r>
       <r>    2.5308    0.0000 </r>
       <r>    4.5556    0.0000 </r>
       <r>    4.8522    0.0000 </r>
       <r>    5.0224    0.0000 </r>
       <r>    5.5787    0.0000 </r>
       <r>    6.3021    0.0000 </r>
       <r>    6.7942    0.0000 </r>
      </set>
      <set comment="kpoint 22">
       <r>  -37.4100    1.0000 </r>
       <r>  -37.2806    1.0000 </r>
       <r>  -37.2281    1.0000 </r>
       <r>  -15.1650    1.0000 </r>
       <r>  -14.7012    1.0000 </r>
       <r>   -7.7578    1.0000 </r>
       <r>   -7.0469    1.0000 </r>
       <r>   -6.5211    1.0000 </r>
       <r>   -5.6526    1.0000 </r>
       <r>   -5.2859    1.0000 </r>
       <r>   -4.0775    1.0000 </r>
       <r>   -2.7446    0.5163 </r>
       <r>    0.4243    0.0000 </r>
       <r>    1.0596    0.0000 </r>
       <r>    1.4019    0.0000 </r>
       <r>    2.6726    0.0000 </r>
       <r>    4.3890    0.0000 </r>
       <r>    5.2594    0.0000 </r>
       <r>    5.4535    0.0000 </r>
       <r>    6.1162    0.0000 </r>
       <r>    6.4853    0.0000 </r>
       <r>    6.5364    0.0000 </r>
      </set>
      <set comment="kpoint 23">
       <r>  -37.4271    1.0000 </r>
       <r>  -37.2987    1.0000 </r>
       <r>  -37.2226    1.0000 </r>
       <r>  -14.9623    1.0000 </r>
       <r>  -14.6388    1.0000 </r>
       <r>   -7.8800    1.0000 </r>
       <r>   -7.3482    1.0000 </r>
       <r>   -6.4337    1.0000 </r>
       <r>   -5.5955    1.0000 </r>
       <r>   -5.4914    1.0000 </r>
       <r>   -4.2582    1.0000 </r>
       <r>   -2.5438    0.0000 </r>
       <r>    0.3348    0.0000 </r>
       <r>    1.3885    0.0000 </r>
       <r>    1.6455    0.0000 </r>
       <r>    2.6638    0.0000 </r>
       <r>    3.8509    0.0000 </r>
       <r>    5.5720    0.0000 </r>
       <r>    6.0742    0.0000 </r>
       <r>    6.2836    0.0000 </r>
       <r>    6.7989    0.0000 </r>
       <r>    7.2206    0.0000 </r>
      </set>
      <set comment="kpoint 24">
       <r>  -37.4329    1.0000 </r>
       <r>  -37.3053    1.0000 </r>
       <r>  -37.2206    1.0000 </r>
       <r>  -14.8880    1.0000 </r>
       <r>  -14.6159    1.0000 </r>
       <r>   -7.9189    1.0000 </r>
       <r>   -7.4539    1.0000 </r>
       <r>   -6.4339    1.0000 </r>
       <r>   -5.5614    1.0000 </r>
       <r>   -5.5449    1.0000 </r>
       <r>   -4.3362    1.0000 </r>
       <r>   -2.4242    0.0000 </r>
       <r>    0.2031    0.0000 </r>
       <r>    1.6313    0.0000 </r>
       <r>    1.7482    0.0000 </r>
       <r>    2.6281    0.0000 </r>
       <r>    3.5438    0.0000 </r>
       <r>    5.6772    0.0000 </r>
       <r>    6.5212    0.0000 </r>
       <r>    6.5293    0.0000 </r>
       <r>    6.9080    0.0000 </r>
       <r>    7.5545    0.0000 </r>
      </set>
      <set comment="kpoint 25">
       <r>  -37.4147    1.0000 </r>
       <r>  -37.3130    1.0000 </r>
       <r>  -37.2223    1.0000 </r>
       <r>  -14.9560    1.0000 </r>
       <r>  -14.6329    1.0000 </r>
       <r>   -7.7111    1.0000 </r>
       <r>   -7.3873    1.0000 </r>
       <r>   -6.4039    1.0000 </r>
       <r>   -5.7893    1.0000 </r>
       <r>   -5.5845    1.0000 </r>
       <r>   -4.2560    1.0000 </r>
       <r>   -2.4938    0.0000 </r>
       <r>    0.2278    0.0000 </r>
       <r>    1.4044    0.0000 </r>
       <r>    1.5300    0.0000 </r>
       <r>    2.8500    0.0000 </r>
       <r>    4.2914    0.0000 </r>
       <r>    5.2109    0.0000 </r>
       <r>    6.0176    0.0000 </r>
       <r>    6.2663    0.0000 </r>
       <r>    6.9171    0.0000 </r>
       <r>    7.2103    0.0000 </r>
      </set>
      <set comment="kpoint 26">
       <r>  -37.4117    1.0000 </r>
       <r>  -37.3362    1.0000 </r>
       <r>  -37.2191    1.0000 </r>
       <r>  -14.8376    1.0000 </r>
       <r>  -14.5932    1.0000 </r>
       <r>   -7.6121    1.0000 </r>
       <r>   -7.5775    1.0000 </r>
       <r>   -6.4386    1.0000 </r>
       <r>   -6.0534    1.0000 </r>
       <r>   -5.4955    1.0000 </r>
       <r>   -4.4049    1.0000 </r>
       <r>   -2.2284    0.0000 </r>
       <r>   -0.1262    0.0000 </r>
       <r>    1.5830    0.0000 </r>
       <r>    1.8052    0.0000 </r>
       <r>    2.9635    0.0000 </r>
       <r>    4.0434    0.0000 </r>
       <r>    4.9916    0.0000 </r>
       <r>    6.4562    0.0000 </r>
       <r>    6.9329    0.0000 </r>
       <r>    7.4898    0.0000 </r>
       <r>    8.0166    0.0000 </r>
      </set>
      <set comment="kpoint 27">
       <r>  -37.3952    1.0000 </r>
       <r>  -37.3606    1.0000 </r>
       <r>  -37.2179    1.0000 </r>
       <r>  -14.7931    1.0000 </r>
       <r>  -14.5762    1.0000 </r>
       <r>   -7.6610    1.0000 </r>
       <r>   -7.3978    1.0000 </r>
       <r>   -6.6107    1.0000 </r>
       <r>   -6.2043    1.0000 </r>
       <r>   -5.4371    1.0000 </r>
       <r>   -4.4792    1.0000 </r>
       <r>   -2.0443    0.0000 </r>
       <r>   -0.3883    0.0000 </r>
       <r>    1.5455    0.0000 </r>
       <r>    2.0013    0.0000 </r>
       <r>    3.1053    0.0000 </r>
       <r>    4.3360    0.0000 </r>
       <r>    4.4840    0.0000 </r>
       <r>    6.5802    0.0000 </r>
       <r>    7.4699    0.0000 </r>
       <r>    7.9941    0.0000 </r>
       <r>    8.2198    0.0000 </r>
      </set>
     </set>
    </set>
   </array>
  </eigenvalues>
  <separator name="orbital magnetization" >
   <v name="MAGDIPOLOUT">      0.00000000      0.00000000      0.00000000</v>
  </separator>
 </calculation>
 <structure name="finalpos" >
  <crystal>
   <varray name="basis" >
    <v>       3.33852022       0.00000000       0.00000000 </v>
    <v>       1.66926011       2.89124332       0.00000000 </v>
    <v>       0.00000000       0.00000000      20.00000000 </v>
   </varray>
   <i name="volume">    193.04948525 </i>
   <varray name="rec_basis" >
    <v>       0.29953391      -0.17293598       0.00000000 </v>
    <v>       0.00000000       0.34587196       0.00000000 </v>
    <v>       0.00000000       0.00000000       0.05000000 </v>
   </varray>
  </crystal>
  <varray name="positions" >
   <v>       0.00000000       0.00000000       0.50000000 </v>
   <v>       0.33333333       0.33333333       0.42206217 </v>
   <v>       0.33333333       0.33333333       0.57793783 </v>
  </varray>
 </structure>
</modeling>
