Bilayer MoSe2/WS2 3R (relaxed monolayers
   1.00000000000000     
     3.2339027514997682    0.0000000000000000    0.0000000000000000
     1.6169513757498841    2.8006419361671937    0.0000000000000000
     0.0000000000000000    0.0000000000000000   20.0000000000000000
   Mo   Se   W    S 
     1     2     1     2
Direct
    -0.0000000000000000   -0.0000000000000000    0.5067541626182670
     0.3333333333333357    0.3333333333333357    0.4220239065606868
     0.3333333333333357    0.3333333333333357    0.5912872657853692
     0.3333333333333357    0.3333333333333357    0.8182948862093881
     0.6666666666666714    0.6666666666666714    0.7408700386168607
     0.6666666666666714    0.6666666666666714    0.8957697402092624
 
  0.00000000E+00  0.00000000E+00  0.00000000E+00
  0.00000000E+00  0.00000000E+00  0.00000000E+00
  0.00000000E+00  0.00000000E+00  0.00000000E+00
  0.00000000E+00  0.00000000E+00  0.00000000E+00
  0.00000000E+00  0.00000000E+00  0.00000000E+00
  0.00000000E+00  0.00000000E+00  0.00000000E+00
