cpu-bind=MASK - c166, task  0  0 [3338454]: mask 0xc3dfefffefffe set
 running  264 mpi-ranks, with    1 threads/rank, on    6 nodes
 distrk:  each k-point on   44 cores,    6 groups
 distr:  one band on    4 cores,   11 groups
 vasp.6.5.1 10Mar25 (build Aug 29 2025 00:30:47) complex                        
  
 POSCAR found type information on POSCAR MoS 
 POSCAR found :  2 types and      54 ions
 scaLAPACK will be used
 LDA part: xc-table for (Slater+PW92), standard interpolation
 POSCAR, INCAR and KPOINTS ok, starting setup
 FFT: planning ... GRIDC
 FFT: planning ... GRID_SOFT
 FFT: planning ... GRID
 WAVECAR not read
 entering main loop
       N       E                     dE             d eps       ncg     rms          rms(c)
DAV:   1     0.417323663867E+04    0.41732E+04   -0.25381E+05  9130   0.146E+03
DAV:   2    -0.761956508069E+02   -0.42494E+04   -0.41254E+04  8976   0.356E+02
DAV:   3    -0.404150428440E+03   -0.32795E+03   -0.32150E+03  8877   0.856E+01
DAV:   4    -0.419441493832E+03   -0.15291E+02   -0.15183E+02  9878   0.170E+01
DAV:   5    -0.419931332201E+03   -0.48984E+00   -0.48807E+00 10186   0.308E+00    0.101E+02
DAV:   6    -0.399569768048E+03    0.20362E+02   -0.17840E+02  8404   0.251E+01    0.398E+01
DAV:   7    -0.395853156114E+03    0.37166E+01   -0.71605E+01  8217   0.162E+01    0.239E+01
DAV:   8    -0.392637327210E+03    0.32158E+01   -0.11402E+01  8745   0.695E+00    0.821E+00
DAV:   9    -0.392761175682E+03   -0.12385E+00   -0.21451E+00  9801   0.218E+00    0.399E+00
DAV:  10    -0.392642738997E+03    0.11844E+00   -0.51149E-01  8844   0.145E+00    0.115E+00
DAV:  11    -0.392628776375E+03    0.13963E-01   -0.44305E-02  9878   0.521E-01    0.555E-01
DAV:  12    -0.392621517280E+03    0.72591E-02   -0.15210E-02  9108   0.394E-01    0.345E-01
DAV:  13    -0.392618369470E+03    0.31478E-02   -0.36602E-03  9251   0.186E-01    0.208E-01
DAV:  14    -0.392611103692E+03    0.72658E-02   -0.60249E-03  8767   0.170E-01    0.162E-01
DAV:  15    -0.392605627724E+03    0.54760E-02   -0.72760E-03  8767   0.196E-01    0.288E-01
DAV:  16    -0.392604729518E+03    0.89821E-03   -0.21794E-03  9284   0.994E-02    0.278E-01
DAV:  17    -0.392606605086E+03   -0.18756E-02   -0.18778E-03  8943   0.766E-02    0.117E-01
DAV:  18    -0.392609402983E+03   -0.27979E-02   -0.63680E-04  9152   0.412E-02    0.665E-02
DAV:  19    -0.392611009043E+03   -0.16061E-02   -0.14029E-04  9658   0.322E-02    0.568E-02
DAV:  20    -0.392613014396E+03   -0.20054E-02   -0.10090E-04  8800   0.296E-02    0.322E-02
DAV:  21    -0.392614641336E+03   -0.16269E-02   -0.65313E-05  8778   0.222E-02    0.216E-02
DAV:  22    -0.392615012347E+03   -0.37101E-03   -0.19374E-05  8327   0.115E-02    0.200E-02
DAV:  23    -0.392615094256E+03   -0.81909E-04   -0.36327E-06  7590   0.624E-03    0.175E-02
DAV:  24    -0.392615186466E+03   -0.92210E-04   -0.15607E-06  5753   0.300E-03    0.132E-02
DAV:  25    -0.392615327125E+03   -0.14066E-03   -0.75176E-06  6336   0.459E-03    0.500E-03
DAV:  26    -0.392615336602E+03   -0.94774E-05   -0.18186E-06  6248   0.203E-03    0.296E-03
DAV:  27    -0.392615339153E+03   -0.25506E-05   -0.28623E-07  5126   0.133E-03    0.219E-03
DAV:  28    -0.392615335990E+03    0.31625E-05   -0.11673E-06  5830   0.238E-03    0.265E-03
DAV:  29    -0.392615333255E+03    0.27356E-05   -0.69007E-07  5764   0.205E-03    0.335E-03
DAV:  30    -0.392615332973E+03    0.28134E-06   -0.22170E-07  4444   0.853E-04
   1 F= -.41260702E+03 E0= -.41260702E+03  d E =-.815826E-24
