Mo S  Te
 1.0000000000000000
     3.3575480000000000    0.0000000000000012    0.0000000000000000
     1.6787739999999631    2.9077218624255421    0.0000000000000000
     0.0000000000000000    0.0000000000000000   20.0000000000000000
 Mo  S   Te 
   2   2   2
Direct
  0.0000000000000000  0.0000000000000000  0.4655504196905037
  0.3333333333333357  0.3333333333333357  0.8456523178483512
  0.3333333333333357  0.3333333333333357  0.3901211454528921
  0.3333333333333357  0.3333333333333357  0.5409724358748491
  0.6666666666666714  0.6666666666666714  0.7511224358748478
  0.6666666666666714  0.6666666666666714  0.9401194199334951
Cartesian
  0.0000000000000000  0.0000000000000000  0.0000000000000000
  0.0000000000000000  0.0000000000000000  0.0000000000000000
  0.0000000000000000  0.0000000000000000  0.0000000000000000
  0.0000000000000000  0.0000000000000000  0.0000000000000000
  0.0000000000000000  0.0000000000000000  0.0000000000000000
  0.0000000000000000  0.0000000000000000  0.0000000000000000
