Bilayer structure
 1.0000000000000000
  3.2871640000000002   0.0000000000000000   0.0000000000000000
  1.6435820000000001   2.8467675304056703   0.0000000000000000
  0.0000000000000000   0.0000000000000000  20.0000000000000000
   Mo   Se   W
     1     4     1
Direct
  0.0000000000000000   0.0000000000000000   0.5000000000000000
  0.3333333333333333   0.3333333333333333   0.4159184250000000
  0.3333333333333333   0.3333333333333333   0.5840815750000000
  0.6666666666666666   0.6666666666666666   0.7362815750000000
  0.6666666666666666   0.6666666666666666   0.9044447250000001
  0.3333333333333333   0.3333333333333333   0.8203631500000000
