Te2 W1                                  
   1.00000000000000     
     3.5615466478068356    0.0000000000000000    0.0000000000000000
     1.7807733239034178    3.0843898737640285    0.0000000000000000
     0.0000000000000000    0.0000000000000000   20.0000000000000000
   W    Te
     1     2
Direct
     0.0000000000000000   -0.0000000000000000    0.5000000000000000
     0.3333333333333357    0.3333333333333357    0.4097666256966022
     0.3333333333333357    0.3333333333333357    0.5902333743033976
 
  0.00000000E+00  0.00000000E+00  0.00000000E+00
  0.00000000E+00  0.00000000E+00  0.00000000E+00
  0.00000000E+00  0.00000000E+00  0.00000000E+00
