    3    3  400    1
  0.7323466E+02  0.3561547E-09  0.3561547E-09  0.2000000E-08  0.5000000E-15
  1.000000000000000E-004
  CAR 
 WTe2 relaxation                         
     26     27     22
 
  0.1276756E-14  0.1276756E-14  0.1276756E-14  0.4444444E-02
      1        -74.353134   1.000000
      2        -38.554408   1.000000
      3        -38.528712   1.000000
      4        -38.528711   1.000000
      5        -13.385322   1.000000
      6        -12.193305   1.000000
      7         -5.941989   1.000000
      8         -2.316150   1.000000
      9         -2.249409   1.000000
     10         -2.249409   1.000000
     11         -1.331393   1.000000
     12         -1.331393   1.000000
     13         -0.871580   1.000000
     14          2.641589   0.000000
     15          2.641589   0.000000
     16          2.924028   0.000000
     17          2.924028   0.000000
     18          3.517038   0.000000
     19          3.962737   0.000000
     20          4.572877   0.000000
     21          5.323783   0.000000
     22          6.028755   0.000000
 
  0.6666667E-01  0.8378685E-14  0.1276756E-14  0.2666667E-01
      1        -74.353004   1.000000
      2        -38.553572   1.000000
      3        -38.532844   1.000000
      4        -38.529697   1.000000
      5        -13.321554   1.000000
      6        -12.152377   1.000000
      7         -5.868545   1.000000
      8         -2.424543   1.000000
      9         -2.421455   1.000000
     10         -2.197081   1.000000
     11         -1.425707   1.000000
     12         -1.307304   1.000000
     13         -0.878856   1.000000
     14          2.403114   0.000000
     15          2.517748   0.000000
     16          2.720858   0.000000
     17          2.793256   0.000000
     18          3.694162   0.000000
     19          4.040018   0.000000
     20          4.710532   0.000000
     21          5.551937   0.000000
     22          6.098463   0.000000
 
  0.1333333E+00  0.8391270E-14  0.1276756E-14  0.2666667E-01
      1        -74.352632   1.000000
      2        -38.551206   1.000000
      3        -38.544506   1.000000
      4        -38.532482   1.000000
      5        -13.133995   1.000000
      6        -12.032254   1.000000
      7         -5.655331   1.000000
      8         -2.887255   1.000000
      9         -2.698532   1.000000
     10         -2.046368   1.000000
     11         -1.669533   1.000000
     12         -1.345976   1.000000
     13         -0.928915   1.000000
     14          1.870085   0.000000
     15          2.013228   0.000000
     16          2.469732   0.000000
     17          2.915052   0.000000
     18          3.937677   0.000000
     19          4.260453   0.000000
     20          4.962943   0.000000
     21          6.069238   0.000000
     22          6.301373   0.000000
 
  0.2000000E+00  0.1292057E-14  0.1276756E-14  0.2666667E-01
      1        -74.352066   1.000000
      2        -38.561633   1.000000
      3        -38.547717   1.000000
      4        -38.536581   1.000000
      5        -12.834680   1.000000
      6        -11.841727   1.000000
      7         -5.329371   1.000000
      8         -3.541570   1.000000
      9         -3.104374   1.000000
     10         -1.983167   1.000000
     11         -1.817054   1.000000
     12         -1.554791   1.000000
     13         -1.085319   1.000000
     14          1.383468   0.000000
     15          1.886831   0.000000
     16          2.082634   0.000000
     17          3.137601   0.000000
     18          4.227067   0.000000
     19          4.609870   0.000000
     20          5.255675   0.000000
     21          6.164981   0.000000
     22          6.596091   0.000000
 
  0.2666667E+00  0.1290763E-14  0.1276756E-14  0.2666667E-01
      1        -74.351428   1.000000
      2        -38.581223   1.000000
      3        -38.543708   1.000000
      4        -38.541285   1.000000
      5        -12.446946   1.000000
      6        -11.598326   1.000000
      7         -4.985481   1.000000
      8         -4.240500   1.000000
      9         -3.646971   1.000000
     10         -2.296663   1.000000
     11         -1.820486   1.000000
     12         -1.544731   1.000000
     13         -1.337083   1.000000
     14          1.199651   0.000000
     15          1.733528   0.000000
     16          2.074774   0.000000
     17          3.323225   0.000000
     18          4.533138   0.000000
     19          5.057294   0.000000
     20          5.350964   0.000000
     21          5.912929   0.000000
     22          6.421778   0.000000
 
  0.3333333E+00  0.8388527E-14  0.1276756E-14  0.2666667E-01
      1        -74.350821   1.000000
      2        -38.599878   1.000000
      3        -38.545778   1.000000
      4        -38.539872   1.000000
      5        -12.012625   1.000000
      6        -11.332976   1.000000
      7         -5.233481   1.000000
      8         -4.362422   1.000000
      9         -4.252706   1.000000
     10         -2.563124   1.000000
     11         -2.009726   1.000000
     12         -1.525527   1.000000
     13         -1.280698   1.000000
     14          1.247146   0.000000
     15          1.482635   0.000000
     16          2.425385   0.000000
     17          3.448197   0.000000
     18          4.270492   0.000000
     19          5.166720   0.000000
     20          5.437320   0.000000
     21          6.077311   0.000000
     22          6.278777   0.000000
 
  0.4000000E+00  0.8399591E-14  0.1276756E-14  0.2666667E-01
      1        -74.350345   1.000000
      2        -38.614402   1.000000
      3        -38.549285   1.000000
      4        -38.536874   1.000000
      5        -11.605810   1.000000
      6        -11.095130   1.000000
      7         -5.851510   1.000000
      8         -4.775662   1.000000
      9         -4.117925   1.000000
     10         -2.753971   1.000000
     11         -2.110675   1.000000
     12         -1.513411   1.000000
     13         -1.080186   1.000000
     14          1.349098   0.000000
     15          1.403369   0.000000
     16          2.780632   0.000000
     17          3.344229   0.000000
     18          3.518086   0.000000
     19          5.367115   0.000000
     20          5.515245   0.000000
     21          6.320523   0.000000
     22          6.800252   0.000000
 
  0.4666667E+00  0.1311213E-14  0.1276756E-14  0.2666667E-01
      1        -74.350079   1.000000
      2        -38.622330   1.000000
      3        -38.551203   1.000000
      4        -38.535232   1.000000
      5        -11.344007   1.000000
      6        -10.949723   1.000000
      7         -6.243743   1.000000
      8         -5.079455   1.000000
      9         -3.997180   1.000000
     10         -2.853047   1.000000
     11         -2.151595   1.000000
     12         -1.382645   1.000000
     13         -0.977107   1.000000
     14          1.305013   0.000000
     15          1.587638   0.000000
     16          2.629143   0.000000
     17          3.001076   0.000000
     18          3.547823   0.000000
     19          5.286733   0.000000
     20          5.856682   0.000000
     21          6.409294   0.000000
     22          6.980471   0.000000
 
  0.1333333E+00  0.6666667E-01  0.1276756E-14  0.2666667E-01
      1        -74.352753   1.000000
      2        -38.551971   1.000000
      3        -38.540609   1.000000
      4        -38.531715   1.000000
      5        -13.195865   1.000000
      6        -12.071823   1.000000
      7         -5.724952   1.000000
      8         -2.734405   1.000000
      9         -2.604033   1.000000
     10         -2.101736   1.000000
     11         -1.651224   1.000000
     12         -1.265495   1.000000
     13         -0.906442   1.000000
     14          2.059243   0.000000
     15          2.087663   0.000000
     16          2.526667   0.000000
     17          2.860525   0.000000
     18          3.878388   0.000000
     19          4.189795   0.000000
     20          4.898602   0.000000
     21          5.959345   0.000000
     22          6.235605   0.000000
 
  0.2000000E+00  0.6666667E-01  0.1276756E-14  0.5333333E-01
      1        -74.352278   1.000000
      2        -38.554647   1.000000
      3        -38.549043   1.000000
      4        -38.535512   1.000000
      5        -12.952194   1.000000
      6        -11.916253   1.000000
      7         -5.452675   1.000000
      8         -3.277112   1.000000
      9         -2.903370   1.000000
     10         -2.043470   1.000000
     11         -1.939418   1.000000
     12         -1.306020   1.000000
     13         -1.000714   1.000000
     14          1.548562   0.000000
     15          1.825718   0.000000
     16          2.125779   0.000000
     17          3.064366   0.000000
     18          4.146460   0.000000
     19          4.479727   0.000000
     20          5.178227   0.000000
     21          6.373458   0.000000
     22          6.497591   0.000000
 
  0.2666667E+00  0.6666667E-01  0.1276756E-14  0.5333333E-01
      1        -74.351681   1.000000
      2        -38.572531   1.000000
      3        -38.545294   1.000000
      4        -38.540387   1.000000
      5        -12.607736   1.000000
      6        -11.698395   1.000000
      7         -5.096845   1.000000
      8         -3.945022   1.000000
      9         -3.350668   1.000000
     10         -2.424455   1.000000
     11         -1.785677   1.000000
     12         -1.505181   1.000000
     13         -1.152287   1.000000
     14          1.218866   0.000000
     15          1.775625   0.000000
     16          1.857608   0.000000
     17          3.246208   0.000000
     18          4.481410   0.000000
     19          4.888411   0.000000
     20          5.497192   0.000000
     21          6.092691   0.000000
     22          6.766588   0.000000
 
  0.3333333E+00  0.6666667E-01  0.1276756E-14  0.5333333E-01
      1        -74.351056   1.000000
      2        -38.591150   1.000000
      3        -38.545484   1.000000
      4        -38.541371   1.000000
      5        -12.193909   1.000000
      6        -11.441722   1.000000
      7         -4.944726   1.000000
      8         -4.428434   1.000000
      9         -3.940619   1.000000
     10         -2.680371   1.000000
     11         -1.797001   1.000000
     12         -1.762423   1.000000
     13         -1.161931   1.000000
     14          1.120032   0.000000
     15          1.558040   0.000000
     16          2.131013   0.000000
     17          3.360788   0.000000
     18          4.759581   0.000000
     19          5.201127   0.000000
     20          5.359909   0.000000
     21          6.103576   0.000000
     22          6.468439   0.000000
 
  0.4000000E+00  0.6666667E-01  0.1276756E-14  0.5333333E-01
      1        -74.350511   1.000000
      2        -38.607299   1.000000
      3        -38.549920   1.000000
      4        -38.537954   1.000000
      5        -11.766545   1.000000
      6        -11.185680   1.000000
      7         -5.520764   1.000000
      8         -4.525972   1.000000
      9         -4.205544   1.000000
     10         -2.835740   1.000000
     11         -1.974115   1.000000
     12         -1.858600   1.000000
     13         -1.030531   1.000000
     14          1.188844   0.000000
     15          1.468475   0.000000
     16          2.500861   0.000000
     17          3.389918   0.000000
     18          3.981437   0.000000
     19          5.406568   0.000000
     20          5.671693   0.000000
     21          6.383644   0.000000
     22          6.624994   0.000000
 
  0.4666667E+00  0.6666667E-01  0.1276756E-14  0.5333333E-01
      1        -74.350145   1.000000
      2        -38.618227   1.000000
      3        -38.552928   1.000000
      4        -38.535634   1.000000
      5        -11.420629   1.000000
      6        -10.988288   1.000000
      7         -6.040921   1.000000
      8         -4.952156   1.000000
      9         -4.017702   1.000000
     10         -2.924307   1.000000
     11         -2.101933   1.000000
     12         -1.797296   1.000000
     13         -0.910632   1.000000
     14          1.304877   0.000000
     15          1.506152   0.000000
     16          2.853561   0.000000
     17          3.090849   0.000000
     18          3.319646   0.000000
     19          5.733377   0.000000
     20          5.841580   0.000000
     21          6.547969   0.000000
     22          7.108032   0.000000
 
 -0.4666667E+00  0.6666667E-01  0.1276756E-14  0.2666667E-01
      1        -74.350018   1.000000
      2        -38.622086   1.000000
      3        -38.553992   1.000000
      4        -38.534813   1.000000
      5        -11.282367   1.000000
      6        -10.912607   1.000000
      7         -6.243006   1.000000
      8         -5.108672   1.000000
      9         -3.964006   1.000000
     10         -2.953922   1.000000
     11         -2.143511   1.000000
     12         -1.738062   1.000000
     13         -0.857492   1.000000
     14          1.307698   0.000000
     15          1.642401   0.000000
     16          2.668696   0.000000
     17          3.090434   0.000000
     18          3.181152   0.000000
     19          5.795664   0.000000
     20          6.106882   0.000000
     21          6.468366   0.000000
     22          7.017800   0.000000
 
  0.2666667E+00  0.1333333E+00  0.1276756E-14  0.2666667E-01
      1        -74.351770   1.000000
      2        -38.568814   1.000000
      3        -38.545855   1.000000
      4        -38.540711   1.000000
      5        -12.662734   1.000000
      6        -11.732710   1.000000
      7         -5.140641   1.000000
      8         -3.808552   1.000000
      9         -3.170267   1.000000
     10         -2.598001   1.000000
     11         -1.907276   1.000000
     12         -1.308462   1.000000
     13         -1.078221   1.000000
     14          1.237505   0.000000
     15          1.713678   0.000000
     16          1.731797   0.000000
     17          3.218189   0.000000
     18          4.472858   0.000000
     19          4.835720   0.000000
     20          5.517184   0.000000
     21          6.403299   0.000000
     22          6.805247   0.000000
 
  0.3333333E+00  0.1333333E+00  0.1276756E-14  0.5333333E-01
      1        -74.351189   1.000000
      2        -38.584674   1.000000
      3        -38.547030   1.000000
      4        -38.542192   1.000000
      5        -12.289406   1.000000
      6        -11.499129   1.000000
      7         -4.817354   1.000000
      8         -4.359223   1.000000
      9         -3.638941   1.000000
     10         -2.969035   1.000000
     11         -2.084106   1.000000
     12         -1.479084   1.000000
     13         -1.046805   1.000000
     14          1.000067   0.000000
     15          1.561883   0.000000
     16          1.814273   0.000000
     17          3.318087   0.000000
     18          4.879214   0.000000
     19          5.288935   0.000000
     20          5.716136   0.000000
     21          6.048651   0.000000
     22          7.067857   0.000000
 
  0.4000000E+00  0.1333333E+00  0.1276756E-14  0.5333333E-01
      1        -74.350630   1.000000
      2        -38.599640   1.000000
      3        -38.553211   1.000000
      4        -38.538688   1.000000
      5        -11.874414   1.000000
      6        -11.245843   1.000000
      7         -5.152613   1.000000
      8         -4.275182   1.000000
      9         -4.243791   1.000000
     10         -3.106724   1.000000
     11         -2.338478   1.000000
     12         -1.738972   1.000000
     13         -0.957913   1.000000
     14          1.006208   0.000000
     15          1.511865   0.000000
     16          2.066593   0.000000
     17          3.366645   0.000000
     18          4.788369   0.000000
     19          5.372130   0.000000
     20          5.761060   0.000000
     21          6.529883   0.000000
     22          7.000402   0.000000
 
  0.4666667E+00  0.1333333E+00  0.1276756E-14  0.5333333E-01
      1        -74.350197   1.000000
      2        -38.611246   1.000000
      3        -38.558089   1.000000
      4        -38.535949   1.000000
      5        -11.490296   1.000000
      6        -11.020294   1.000000
      7         -5.696622   1.000000
      8         -4.754739   1.000000
      9         -4.025035   1.000000
     10         -3.151960   1.000000
     11         -2.468375   1.000000
     12         -1.976749   1.000000
     13         -0.867785   1.000000
     14          1.229920   0.000000
     15          1.474315   0.000000
     16          2.334247   0.000000
     17          3.380072   0.000000
     18          3.824115   0.000000
     19          5.883812   0.000000
     20          6.090930   0.000000
     21          6.944263   0.000000
     22          7.163682   0.000000
 
 -0.4666667E+00  0.1333333E+00  0.1276756E-14  0.5333333E-01
      1        -74.349959   1.000000
      2        -38.617572   1.000000
      3        -38.560770   1.000000
      4        -38.534450   1.000000
      5        -11.246513   1.000000
      6        -10.883243   1.000000
      7         -6.037235   1.000000
      8         -5.045669   1.000000
      9         -3.926728   1.000000
     10         -3.159597   1.000000
     11         -2.469854   1.000000
     12         -2.116741   1.000000
     13         -0.776996   1.000000
     14          1.253017   0.000000
     15          1.686870   0.000000
     16          2.503214   0.000000
     17          3.122104   0.000000
     18          3.373733   0.000000
     19          6.286845   0.000000
     20          6.376010   0.000000
     21          6.807061   0.000000
     22          7.147311   0.000000
 
  0.4000000E+00  0.2000000E+00  0.1276756E-14  0.2666667E-01
      1        -74.350676   1.000000
      2        -38.596013   1.000000
      3        -38.555297   1.000000
      4        -38.538948   1.000000
      5        -11.912247   1.000000
      6        -11.266879   1.000000
      7         -4.964293   1.000000
      8         -4.312140   1.000000
      9         -4.080819   1.000000
     10         -3.278808   1.000000
     11         -2.561401   1.000000
     12         -1.625247   1.000000
     13         -0.933029   1.000000
     14          0.934058   0.000000
     15          1.521252   0.000000
     16          1.864444   0.000000
     17          3.380956   0.000000
     18          5.224064   0.000000
     19          5.379959   0.000000
     20          5.753312   0.000000
     21          6.490697   0.000000
     22          7.005241   0.000000
 
  0.4666667E+00  0.2000000E+00  0.1276756E-14  0.5333333E-01
      1        -74.350229   1.000000
      2        -38.605002   1.000000
      3        -38.563352   1.000000
      4        -38.536122   1.000000
      5        -11.531393   1.000000
      6        -11.038444   1.000000
      7         -5.375290   1.000000
      8         -4.573921   1.000000
      9         -4.024043   1.000000
     10         -3.374140   1.000000
     11         -2.990121   1.000000
     12         -1.865730   1.000000
     13         -0.856851   1.000000
     14          1.155219   0.000000
     15          1.473298   0.000000
     16          1.964390   0.000000
     17          3.489309   0.000000
     18          4.498283   0.000000
     19          5.850485   0.000000
     20          6.171211   0.000000
     21          6.312526   0.000000
     22          7.184115   0.000000
 
 -0.4666667E+00  0.2000000E+00  0.1276756E-14  0.5333333E-01
      1        -74.349922   1.000000
      2        -38.610671   1.000000
      3        -38.569233   1.000000
      4        -38.534203   1.000000
      5        -11.232312   1.000000
      6        -10.865005   1.000000
      7         -5.705255   1.000000
      8         -4.935880   1.000000
      9         -3.901852   1.000000
     10         -3.383087   1.000000
     11         -3.188011   1.000000
     12         -2.077283   1.000000
     13         -0.735624   1.000000
     14          1.148560   0.000000
     15          1.724752   0.000000
     16          2.035111   0.000000
     17          3.619927   0.000000
     18          3.747968   0.000000
     19          5.819789   0.000000
     20          6.406470   0.000000
     21          6.635002   0.000000
     22          7.796740   0.000000
 
 -0.4000000E+00  0.2000000E+00  0.1276756E-14  0.2666667E-01
      1        -74.349811   1.000000
      2        -38.612592   1.000000
      3        -38.571394   1.000000
      4        -38.533524   1.000000
      5        -11.115797   1.000000
      6        -10.799222   1.000000
      7         -5.834693   1.000000
      8         -5.068141   1.000000
      9         -3.905112   1.000000
     10         -3.376074   1.000000
     11         -3.208805   1.000000
     12         -2.161623   1.000000
     13         -0.650579   1.000000
     14          1.034146   0.000000
     15          1.996027   0.000000
     16          2.057313   0.000000
     17          3.361685   0.000000
     18          3.680468   0.000000
     19          5.742597   0.000000
     20          6.485998   0.000000
     21          7.062641   0.000000
     22          7.918459   0.000000
 
 -0.4666667E+00  0.2666667E+00  0.1276756E-14  0.2666667E-01
      1        -74.349907   1.000000
      2        -38.606634   1.000000
      3        -38.573827   1.000000
      4        -38.534116   1.000000
      5        -11.229282   1.000000
      6        -10.858897   1.000000
      7         -5.504083   1.000000
      8         -4.875958   1.000000
      9         -3.903341   1.000000
     10         -3.516215   1.000000
     11         -3.486928   1.000000
     12         -2.056537   1.000000
     13         -0.720258   1.000000
     14          1.098670   0.000000
     15          1.738272   0.000000
     16          1.864971   0.000000
     17          3.723050   0.000000
     18          4.167373   0.000000
     19          5.332556   0.000000
     20          6.458583   0.000000
     21          6.638123   0.000000
     22          7.886659   0.000000
 
 -0.4000000E+00  0.2666667E+00  0.1276756E-14  0.5333333E-01
      1        -74.349733   1.000000
      2        -38.605734   1.000000
      3        -38.581353   1.000000
      4        -38.533019   1.000000
      5        -11.047463   1.000000
      6        -10.752536   1.000000
      7         -5.539377   1.000000
      8         -5.057054   1.000000
      9         -4.131734   1.000000
     10         -3.567047   1.000000
     11         -3.514902   1.000000
     12         -2.192490   1.000000
     13         -0.535048   1.000000
     14          0.830103   0.000000
     15          1.803725   0.000000
     16          2.185914   0.000000
     17          3.775678   0.000000
     18          3.914830   0.000000
     19          4.951931   0.000000
     20          6.596503   0.000000
     21          7.314346   0.000000
     22          8.011368   0.000000
 
 -0.3333333E+00  0.3333333E+00  0.1276756E-14  0.8888889E-02
      1        -74.349664   1.000000
      2        -38.600426   1.000000
      3        -38.589203   1.000000
      4        -38.532599   1.000000
      5        -10.980190   1.000000
      6        -10.711205   1.000000
      7         -5.373675   1.000000
      8         -5.100365   1.000000
      9         -4.444618   1.000000
     10         -3.581544   1.000000
     11         -3.556708   1.000000
     12         -2.241138   1.000000
     13         -0.397633   1.000000
     14          0.636514   0.000000
     15          1.720406   0.000000
     16          2.428462   0.000000
     17          3.862249   0.000000
     18          4.047475   0.000000
     19          4.503921   0.000000
     20          6.680891   0.000000
     21          7.765205   0.000000
     22          7.925845   0.000000
