cpu-bind=MASK - c160, task  0  0 [1598330]: mask 0x7ffefffefffe set
 running  264 mpi-ranks, with    1 threads/rank, on    6 nodes
 distrk:  each k-point on   44 cores,    6 groups
 distr:  one band on    4 cores,   11 groups
 vasp.6.5.1 10Mar25 (build Aug 29 2025 00:30:47) complex                        
  
 POSCAR found type information on POSCAR W Te
 POSCAR found :  2 types and       3 ions
 scaLAPACK will be used
 -----------------------------------------------------------------------------
|                                                                             |
|               ----> ADVICE to this user running VASP <----                  |
|                                                                             |
|     You have a (more or less) 'small supercell' and for smaller cells       |
|     it is recommended to use the reciprocal-space projection scheme!        |
|     The real-space optimization is not efficient for small cells and it     |
|     is also less accurate ...                                               |
|     Therefore, set LREAL=.FALSE. in the INCAR file.                         |
|                                                                             |
 -----------------------------------------------------------------------------

 LDA part: xc-table for (Slater+PW92), standard interpolation
 POSCAR, INCAR and KPOINTS ok, starting setup
 FFT: planning ... GRIDC
 FFT: planning ... GRID_SOFT
 FFT: planning ... GRID
 WAVECAR not read
 entering main loop
       N       E                     dE             d eps       ncg     rms          rms(c)
DAV:   1     0.122997219085E+03    0.12300E+03   -0.13203E+04  1485   0.924E+02
DAV:   2    -0.111319532446E+02   -0.13413E+03   -0.12687E+03  1507   0.184E+02
DAV:   3    -0.199117281435E+02   -0.87798E+01   -0.87107E+01  1617   0.461E+01
DAV:   4    -0.201321205144E+02   -0.22039E+00   -0.22032E+00  1694   0.771E+00
DAV:   5    -0.201344830209E+02   -0.23625E-02   -0.23625E-02  1925   0.755E-01    0.185E+01
DAV:   6    -0.196274935317E+02    0.50699E+00   -0.25720E+00  1298   0.994E+00    0.782E+00
DAV:   7    -0.195390210886E+02    0.88472E-01   -0.11905E+00  1639   0.559E+00    0.354E+00
DAV:   8    -0.194330802182E+02    0.10594E+00   -0.33987E-01  1485   0.349E+00    0.978E-01
DAV:   9    -0.194305932753E+02    0.24869E-02   -0.35282E-02  1683   0.938E-01    0.863E-01
DAV:  10    -0.194289909120E+02    0.16024E-02   -0.23108E-03  1628   0.328E-01    0.470E-01
DAV:  11    -0.194275391073E+02    0.14518E-02   -0.64238E-04  1672   0.134E-01    0.163E-01
DAV:  12    -0.194270116431E+02    0.52746E-03   -0.18009E-04  1496   0.639E-02    0.660E-02
DAV:  13    -0.194260382536E+02    0.97339E-03   -0.46760E-04  1562   0.693E-02    0.819E-02
DAV:  14    -0.194256726478E+02    0.36561E-03   -0.19739E-04  1298   0.481E-02    0.115E-01
DAV:  15    -0.194248214102E+02    0.85124E-03   -0.43748E-04  1386   0.506E-02    0.925E-02
DAV:  16    -0.194256388244E+02   -0.81741E-03   -0.17262E-04  1452   0.491E-02    0.883E-02
DAV:  17    -0.194265225928E+02   -0.88377E-03   -0.17771E-04  1408   0.385E-02    0.914E-02
DAV:  18    -0.194268187326E+02   -0.29614E-03   -0.37345E-05  1485   0.214E-02    0.325E-02
DAV:  19    -0.194269669193E+02   -0.14819E-03   -0.27628E-05  1441   0.164E-02    0.667E-03
DAV:  20    -0.194270033569E+02   -0.36438E-04   -0.34869E-06  1408   0.541E-03    0.105E-02
DAV:  21    -0.194270135736E+02   -0.10217E-04   -0.63887E-07  1276   0.226E-03    0.570E-03
DAV:  22    -0.194270163136E+02   -0.27400E-05   -0.13430E-07  1155   0.139E-03    0.199E-03
DAV:  23    -0.194270177096E+02   -0.13960E-05   -0.97144E-08  1078   0.911E-04    0.253E-04
DAV:  24    -0.194270179383E+02   -0.22871E-06   -0.11761E-08  1045   0.303E-04
   1 F= -.20568611E+02 E0= -.20568611E+02  d E =-.205686E+02
 BRION: g(F)=  0.272E-02 g(S)=  0.000E+00
 bond charge predicted
       N       E                     dE             d eps       ncg     rms          rms(c)
DAV:   1    -0.194307512975E+02   -0.37336E-02   -0.55239E-02  1221   0.926E-01    0.175E-01
DAV:   2    -0.194308315927E+02   -0.80295E-04   -0.21068E-03  1419   0.223E-01    0.115E-01
DAV:   3    -0.194308200859E+02    0.11507E-04   -0.14244E-04  1540   0.705E-02    0.618E-02
DAV:   4    -0.194308074582E+02    0.12628E-04   -0.42551E-05  1485   0.345E-02    0.924E-03
DAV:   5    -0.194308064725E+02    0.98573E-06   -0.29782E-06  1705   0.103E-02
   2 F= -.20570294E+02 E0= -.20570294E+02  d E =-.168306E-02
 BRION: g(F)=  0.174E-03 g(S)=  0.000E+00 retain N=  1 mean eig= 1.34
 eig:   1.338
 bond charge predicted
       N       E                     dE             d eps       ncg     rms          rms(c)
DAV:   1    -0.194316342553E+02   -0.82680E-03   -0.63084E-03  1375   0.311E-01    0.576E-02
DAV:   2    -0.194316406943E+02   -0.64390E-05   -0.24931E-04  1485   0.779E-02    0.382E-02
DAV:   3    -0.194316371186E+02    0.35757E-05   -0.18970E-05  1551   0.254E-02    0.221E-02
DAV:   4    -0.194316337843E+02    0.33343E-05   -0.47385E-06  1430   0.114E-02    0.318E-03
DAV:   5    -0.194316335722E+02    0.21213E-06   -0.26449E-07  1551   0.292E-03
   3 F= -.20570409E+02 E0= -.20570409E+02  d E =-.115251E-03
 BRION: g(F)=  0.101E-06 g(S)=  0.000E+00 retain N=  1 mean eig= 1.37
 eig:   1.371
 bond charge predicted
       N       E                     dE             d eps       ncg     rms          rms(c)
DAV:   1    -0.194316508740E+02   -0.17090E-04   -0.40026E-06  1298   0.773E-03    0.182E-03
DAV:   2    -0.194316509060E+02   -0.32066E-07   -0.29030E-07  1397   0.307E-03
   4 F= -.20570409E+02 E0= -.20570409E+02  d E =0.292875E-06
 BRION: g(F)=  0.429E-08 g(S)=  0.000E+00 retain N=  1 mean eig= 1.14
 eig:   1.137
 bond charge predicted
       N       E                     dE             d eps       ncg     rms          rms(c)
DAV:   1    -0.194316479119E+02    0.29621E-05   -0.95397E-08  1089   0.155E-03    0.749E-04
DAV:   2    -0.194316480056E+02   -0.93753E-07   -0.59397E-09  1023   0.370E-04
   5 F= -.20570409E+02 E0= -.20570409E+02  d E =-.106374E-06
 BRION: g(F)=  0.210E-08 g(S)=  0.000E+00 retain N=  1 mean eig= 0.67
 eig:   0.669
 bond charge predicted
       N       E                     dE             d eps       ncg     rms          rms(c)
DAV:   1    -0.194316495249E+02   -0.16130E-05   -0.34660E-08  1012   0.669E-04    0.252E-04
DAV:   2    -0.194316496858E+02   -0.16089E-06   -0.27001E-09  1254   0.228E-04
   6 F= -.20570410E+02 E0= -.20570410E+02  d E =-.442403E-06
 BRION: g(F)=  0.526E-10 g(S)=  0.000E+00 retain N=  1 mean eig= 0.80
 eig:   0.795
 bond charge predicted
       N       E                     dE             d eps       ncg     rms          rms(c)
DAV:   1    -0.194316503383E+02   -0.81342E-06   -0.92073E-09  1188   0.313E-04    0.212E-04
DAV:   2    -0.194316505202E+02   -0.18185E-06   -0.21402E-09  1298   0.237E-04
   7 F= -.20570410E+02 E0= -.20570410E+02  d E =-.601585E-06
 BRION: g(F)=  0.847E-12 g(S)=  0.000E+00 retain N=  1 mean eig= 0.71
 eig:   0.706
 bond charge predicted
       N       E                     dE             d eps       ncg     rms          rms(c)
DAV:   1    -0.194316506976E+02   -0.35926E-06   -0.13255E-09  1210   0.155E-04    0.169E-04
DAV:   2    -0.194316508745E+02   -0.17690E-06   -0.64197E-10  1254   0.103E-04
   8 F= -.20570411E+02 E0= -.20570411E+02  d E =-.380515E-06
 BRION: g(F)=  0.297E-11 g(S)=  0.000E+00 retain N=  1 mean eig= 0.25
 eig:   0.246
 bond charge predicted
       N       E                     dE             d eps       ncg     rms          rms(c)
DAV:   1    -0.194316514209E+02   -0.72335E-06   -0.43224E-09  1122   0.198E-04    0.154E-04
DAV:   2    -0.194316515841E+02   -0.16319E-06   -0.12593E-09  1243   0.185E-04
   9 F= -.20570411E+02 E0= -.20570411E+02  d E =-.692563E-06
 BRION: g(F)=  0.538E-11 g(S)=  0.000E+00 retain N=  1 mean eig= 0.10
 eig:   0.105
 bond charge predicted
       N       E                     dE             d eps       ncg     rms          rms(c)
DAV:   1    -0.194316517249E+02   -0.30402E-06   -0.55150E-10  1166   0.106E-04    0.119E-04
DAV:   2    -0.194316518752E+02   -0.15026E-06   -0.24986E-10  1155   0.574E-05
  10 F= -.20570412E+02 E0= -.20570412E+02  d E =-.300891E-06
 BRION: g(F)=  0.122E-12 g(S)=  0.000E+00 retain N=  1 mean eig= 0.12
 eig:   0.123
 bond charge predicted
       N       E                     dE             d eps       ncg     rms          rms(c)
DAV:   1    -0.194316525253E+02   -0.80034E-06   -0.41953E-09  1100   0.171E-04    0.113E-04
DAV:   2    -0.194316526434E+02   -0.11816E-06   -0.86844E-10  1243   0.158E-04
  11 F= -.20570412E+02 E0= -.20570412E+02  d E =-.769974E-06
 BRION: g(F)=  0.182E-10 g(S)=  0.000E+00 retain N=  1 mean eig= 0.01
 eig:   0.011
 bond charge predicted
       N       E                     dE             d eps       ncg     rms          rms(c)
DAV:   1    -0.194316527359E+02   -0.21058E-06   -0.26076E-10  1177   0.769E-05    0.806E-05
DAV:   2    -0.194316528421E+02   -0.10626E-06   -0.96164E-11  1155   0.302E-05
  12 F= -.20570413E+02 E0= -.20570413E+02  d E =-.196799E-06
 BRION: g(F)=  0.556E-11 g(S)=  0.000E+00 retain N=  1 mean eig= 0.02
 eig:   0.024
 bond charge predicted
       N       E                     dE             d eps       ncg     rms          rms(c)
DAV:   1    -0.194316536415E+02   -0.90568E-06   -0.64409E-09  1034   0.170E-04    0.747E-05
DAV:   2    -0.194316537007E+02   -0.59200E-07   -0.54221E-10  1298   0.127E-04
  13 F= -.20570413E+02 E0= -.20570413E+02  d E =-.856287E-06
 BRION: g(F)=  0.439E-10 g(S)=  0.000E+00 retain N=  1 mean eig= 0.01
 eig:   0.014
 bond charge predicted
       N       E                     dE             d eps       ncg     rms          rms(c)
DAV:   1    -0.194316537351E+02   -0.93567E-07   -0.10649E-10  1122   0.527E-05    0.456E-05
DAV:   2    -0.194316537876E+02   -0.52482E-07   -0.28736E-11  1122   0.153E-05
  14 F= -.20570414E+02 E0= -.20570414E+02  d E =-.904654E-07
 BRION: g(F)=  0.202E-10 g(S)=  0.000E+00 retain N=  1 mean eig= 0.04
 eig:   0.042
 bond charge predicted
       N       E                     dE             d eps       ncg     rms          rms(c)
DAV:   1    -0.194316543614E+02   -0.62632E-06   -0.66319E-09   968   0.134E-04    0.210E-05
DAV:   2    -0.194316543759E+02   -0.14471E-07   -0.41910E-11  1287   0.271E-05
  15 F= -.20570414E+02 E0= -.20570414E+02  d E =-.595916E-06
 BRION: g(F)=  0.433E-10 g(S)=  0.000E+00 retain N=  1 mean eig= 0.09
 eig:   0.090
 bond charge predicted
       N       E                     dE             d eps       ncg     rms          rms(c)
DAV:   1    -0.194316544325E+02   -0.71067E-07   -0.79187E-11  1089   0.281E-05    0.189E-05
DAV:   2    -0.194316544443E+02   -0.11836E-07   -0.13001E-11  1177   0.218E-05
  16 F= -.20570414E+02 E0= -.20570414E+02  d E =-.444380E-07
 BRION: g(F)=  0.537E-10 g(S)=  0.000E+00 retain N=  1 mean eig= 0.79
 eig:   0.789
 bond charge predicted
       N       E                     dE             d eps       ncg     rms          rms(c)
DAV:   1    -0.194316542234E+02    0.20914E-06   -0.62140E-10  1078   0.102E-04    0.224E-05
DAV:   2    -0.194316542346E+02   -0.11211E-07   -0.27648E-11  1144   0.260E-05
  17 F= -.20570414E+02 E0= -.20570414E+02  d E =-.237961E-07
 BRION: g(F)=  0.343E-11 g(S)=  0.000E+00 retain N=  1 mean eig= 1.06
 eig:   1.056
 bond charge predicted
       N       E                     dE             d eps       ncg     rms          rms(c)
DAV:   1    -0.194316541954E+02    0.27963E-07   -0.17220E-10   990   0.428E-05    0.126E-05
DAV:   2    -0.194316542029E+02   -0.74751E-08   -0.10732E-11  1265   0.215E-05
  18 F= -.20570414E+02 E0= -.20570414E+02  d E =-.472466E-07
 BRION: g(F)=  0.153E-12 g(S)=  0.000E+00 retain N=  1 mean eig= 1.34
 eig:   1.339
 bond charge predicted
       N       E                     dE             d eps       ncg     rms          rms(c)
DAV:   1    -0.194316541927E+02    0.26953E-08   -0.13983E-11  1001   0.185E-05    0.107E-05
DAV:   2    -0.194316541993E+02   -0.65547E-08    0.17837E-12  1177   0.135E-05
  19 F= -.20570414E+02 E0= -.20570414E+02  d E =-.175430E-07
 BRION: g(F)=  0.110E-12 g(S)=  0.000E+00
 BRIONS problems: POTIM should be increased
 retain N=  1 mean eig= 8.73
 eig:   8.727
 bond charge predicted
       N       E                     dE             d eps       ncg     rms          rms(c)
DAV:   1    -0.194316540947E+02    0.98035E-07   -0.18468E-10   990   0.537E-05    0.122E-05
DAV:   2    -0.194316541001E+02   -0.54761E-08   -0.12155E-11  1177   0.242E-05
  20 F= -.20570414E+02 E0= -.20570414E+02  d E =-.176097E-07
 BRION: g(F)=  0.481E-11 g(S)=  0.000E+00 retain N=  1 mean eig= 1.14
 eig:   1.145
 bond charge predicted
       N       E                     dE             d eps       ncg     rms          rms(c)
DAV:   1    -0.194316542073E+02   -0.11268E-06   -0.10874E-10  1012   0.452E-05    0.950E-06
DAV:   2    -0.194316542117E+02   -0.43665E-08    0.14381E-12  1100   0.996E-06
  21 F= -.20570414E+02 E0= -.20570414E+02  d E =-.101580E-07
 BRION: g(F)=  0.358E-12 g(S)=  0.000E+00 retain N=  1 mean eig= 0.90
 eig:   0.900
 bond charge predicted
       N       E                     dE             d eps       ncg     rms          rms(c)
DAV:   1    -0.194316542154E+02   -0.80277E-08   -0.10765E-10   946   0.174E-05    0.973E-06
DAV:   2    -0.194316542182E+02   -0.28012E-08    0.84996E-12  1276   0.542E-06
  22 F= -.20570414E+02 E0= -.20570414E+02  d E =-.281967E-07
 BRION: g(F)=  0.414E-13 g(S)=  0.000E+00 retain N=  1 mean eig= 1.36
 eig:   1.363
 reached required accuracy - stopping structural energy minimisation
