cpu-bind=MASK - c080, task  0  0 [104865]: mask 0xfffffffffff0 set
 running  264 mpi-ranks, with    1 threads/rank, on    6 nodes
 distrk:  each k-point on   44 cores,    6 groups
 distr:  one band on    4 cores,   11 groups
 vasp.6.5.1 10Mar25 (build Aug 29 2025 00:30:47) complex                        
  
 POSCAR found type information on POSCAR W Te
 POSCAR found :  2 types and       3 ions
 scaLAPACK will be used
 -----------------------------------------------------------------------------
|                                                                             |
|               ----> ADVICE to this user running VASP <----                  |
|                                                                             |
|     You have a (more or less) 'small supercell' and for smaller cells       |
|     it is recommended to use the reciprocal-space projection scheme!        |
|     The real-space optimization is not efficient for small cells and it     |
|     is also less accurate ...                                               |
|     Therefore, set LREAL=.FALSE. in the INCAR file.                         |
|                                                                             |
 -----------------------------------------------------------------------------

 LDA part: xc-table for (Slater+PW92), standard interpolation
 POSCAR, INCAR and KPOINTS ok, starting setup
 FFT: planning ... GRIDC
 FFT: planning ... GRID_SOFT
 FFT: planning ... GRID
 WAVECAR not read
 entering main loop
       N       E                     dE             d eps       ncg     rms          rms(c)
DAV:   1     0.122997219085E+03    0.12300E+03   -0.13203E+04  1485   0.924E+02
DAV:   2    -0.111319532446E+02   -0.13413E+03   -0.12687E+03  1507   0.184E+02
DAV:   3    -0.199117281434E+02   -0.87798E+01   -0.87107E+01  1617   0.461E+01
DAV:   4    -0.201321205144E+02   -0.22039E+00   -0.22032E+00  1694   0.771E+00
DAV:   5    -0.201344830208E+02   -0.23625E-02   -0.23625E-02  1925   0.755E-01    0.185E+01
DAV:   6    -0.196274935317E+02    0.50699E+00   -0.25720E+00  1298   0.994E+00    0.782E+00
DAV:   7    -0.195390210885E+02    0.88472E-01   -0.11905E+00  1639   0.559E+00    0.354E+00
DAV:   8    -0.194330802182E+02    0.10594E+00   -0.33987E-01  1485   0.349E+00    0.978E-01
DAV:   9    -0.194305932753E+02    0.24869E-02   -0.35282E-02  1683   0.938E-01    0.863E-01
DAV:  10    -0.194289909119E+02    0.16024E-02   -0.23108E-03  1628   0.328E-01    0.470E-01
DAV:  11    -0.194275391072E+02    0.14518E-02   -0.64238E-04  1672   0.134E-01    0.163E-01
DAV:  12    -0.194270116432E+02    0.52746E-03   -0.18009E-04  1496   0.639E-02    0.660E-02
DAV:  13    -0.194260382536E+02    0.97339E-03   -0.46760E-04  1562   0.693E-02    0.819E-02
DAV:  14    -0.194256726477E+02    0.36561E-03   -0.19739E-04  1298   0.481E-02    0.115E-01
DAV:  15    -0.194248214103E+02    0.85124E-03   -0.43748E-04  1386   0.506E-02    0.925E-02
DAV:  16    -0.194256388244E+02   -0.81741E-03   -0.17262E-04  1452   0.491E-02    0.883E-02
DAV:  17    -0.194265225929E+02   -0.88377E-03   -0.17771E-04  1408   0.385E-02    0.914E-02
DAV:  18    -0.194268187327E+02   -0.29614E-03   -0.37345E-05  1485   0.214E-02    0.325E-02
DAV:  19    -0.194269669193E+02   -0.14819E-03   -0.27628E-05  1441   0.164E-02    0.667E-03
DAV:  20    -0.194270033538E+02   -0.36434E-04   -0.34560E-06  1276   0.541E-03    0.104E-02
DAV:  21    -0.194270137970E+02   -0.10443E-04   -0.68556E-07  1133   0.244E-03    0.520E-03
DAV:  22    -0.194270164108E+02   -0.26137E-05   -0.12973E-07  1078   0.133E-03    0.193E-03
DAV:  23    -0.194270178074E+02   -0.13966E-05   -0.11034E-07  1001   0.920E-04    0.174E-04
DAV:  24    -0.194270179400E+02   -0.13263E-06   -0.68154E-09  1100   0.294E-04
   1 F= -.20568611E+02 E0= -.20568611E+02  d E =-.205686E+02
 BRION: g(F)=  0.272E-02 g(S)=  0.000E+00
 bond charge predicted
       N       E                     dE             d eps       ncg     rms          rms(c)
DAV:   1    -0.194307510560E+02   -0.37332E-02   -0.55237E-02  1210   0.926E-01    0.175E-01
DAV:   2    -0.194308315151E+02   -0.80459E-04   -0.21072E-03  1430   0.223E-01    0.115E-01
DAV:   3    -0.194308201287E+02    0.11386E-04   -0.14283E-04  1540   0.706E-02    0.615E-02
DAV:   4    -0.194308074488E+02    0.12680E-04   -0.43107E-05  1496   0.348E-02    0.917E-03
DAV:   5    -0.194308064406E+02    0.10082E-05   -0.29778E-06  1529   0.104E-02    0.842E-03
DAV:   6    -0.194308048481E+02    0.15924E-05   -0.55534E-07  1155   0.394E-03    0.339E-03
DAV:   7    -0.194308049886E+02   -0.14042E-06   -0.23858E-07  1100   0.308E-03
   2 F= -.20570293E+02 E0= -.20570293E+02  d E =-.168159E-02
 BRION: g(F)=  0.173E-03 g(S)=  0.000E+00 retain N=  1 mean eig= 1.34
 eig:   1.337
 bond charge predicted
       N       E                     dE             d eps       ncg     rms          rms(c)
DAV:   1    -0.194316309049E+02   -0.82606E-03   -0.63044E-03  1232   0.312E-01    0.602E-02
DAV:   2    -0.194316387245E+02   -0.78196E-05   -0.23899E-04  1353   0.751E-02    0.387E-02
DAV:   3    -0.194316356445E+02    0.30799E-05   -0.17429E-05  1540   0.246E-02    0.208E-02
DAV:   4    -0.194316325996E+02    0.30450E-05   -0.53586E-06  1463   0.123E-02    0.324E-03
DAV:   5    -0.194316322992E+02    0.30037E-06   -0.34242E-07  1177   0.364E-03
   3 F= -.20570410E+02 E0= -.20570410E+02  d E =-.116869E-03
 BRION: g(F)=  0.113E-06 g(S)=  0.000E+00 retain N=  1 mean eig= 1.37
 eig:   1.373
 bond charge predicted
       N       E                     dE             d eps       ncg     rms          rms(c)
DAV:   1    -0.194316507314E+02   -0.18132E-04   -0.44301E-06  1309   0.826E-03    0.206E-03
DAV:   2    -0.194316507535E+02   -0.22108E-07   -0.20756E-07  1012   0.251E-03
   4 F= -.20570409E+02 E0= -.20570409E+02  d E =0.203216E-06
 BRION: g(F)=  0.159E-08 g(S)=  0.000E+00 retain N=  1 mean eig= 1.23
 eig:   1.227
 bond charge predicted
       N       E                     dE             d eps       ncg     rms          rms(c)
DAV:   1    -0.194316488163E+02    0.19150E-05   -0.60682E-08  1078   0.139E-03    0.832E-04
DAV:   2    -0.194316489198E+02   -0.10343E-06   -0.10215E-08  1078   0.628E-04
   5 F= -.20570409E+02 E0= -.20570409E+02  d E =-.140022E-06
 BRION: g(F)=  0.502E-09 g(S)=  0.000E+00 retain N=  1 mean eig= 0.79
 eig:   0.785
 reached required accuracy - stopping structural energy minimisation
