<?xml version="1.0" encoding="ISO-8859-1"?>
<modeling>
 <generator>
  <i name="program" type="string">vasp </i>
  <i name="version" type="string">6.5.1  </i>
  <i name="subversion" type="string">10Mar25 (build Aug 29 2025 00:30:47) complex                          parallel </i>
  <i name="platform" type="string">LinuxIFC </i>
  <i name="date" type="string">2026 06 01 </i>
  <i name="time" type="string">17:18:05 </i>
 </generator>
 <incar>
  <i type="string" name="SYSTEM">WTe2 relaxation</i>
  <i type="string" name="PREC">Accurate</i>
  <i type="string" name="ALGO">Normal</i>
  <i name="AMIN">      0.01000000</i>
  <i type="int" name="NELM">   200</i>
  <i type="int" name="IBRION">     1</i>
  <i name="EDIFF">      0.00000100</i>
  <i name="EDIFFG">     -0.00010000</i>
  <i type="int" name="NSW">   600</i>
  <i type="int" name="ISIF">     2</i>
  <i name="ENCUT">    520.00000000</i>
  <i type="string" name="LREAL">Auto</i>
  <i type="int" name="ISMEAR">     0</i>
  <i name="SIGMA">      0.05000000</i>
  <i type="logical" name="LWAVE"> F  </i>
  <i type="logical" name="LCHARG"> F  </i>
  <i type="int" name="IVDW">    12</i>
 </incar>
 <primitive_cell>
  <structure name="primitive_cell" >
   <crystal>
    <varray name="basis" >
     <v>       3.56154665       0.00000000       0.00000000 </v>
     <v>       1.78077332       3.08438987       0.00000000 </v>
     <v>       0.00000000       0.00000000      20.00000000 </v>
    </varray>
    <i name="volume">    219.70396831 </i>
    <varray name="rec_basis" >
     <v>       0.28077689      -0.16210661       0.00000000 </v>
     <v>       0.00000000       0.32421323       0.00000000 </v>
     <v>       0.00000000       0.00000000       0.05000000 </v>
    </varray>
   </crystal>
   <varray name="positions" >
    <v>       0.00000000       0.00000000       0.50000000 </v>
    <v>       0.33333333       0.33333333       0.41031155 </v>
    <v>       0.33333333       0.33333333       0.58968845 </v>
   </varray>
  </structure>
  <varray name="primitive_index" >
   <v type="int" >        1 </v>
   <v type="int" >        2 </v>
   <v type="int" >        3 </v>
  </varray>
 </primitive_cell>
 <kpoints>
  <generation param="Gamma">
   <v type="int" name="divisions">      15       15        1 </v>
   <v name="usershift">      0.00000000       0.00000000       0.00000000 </v>
   <v name="genvec1">      0.06666667       0.00000000       0.00000000 </v>
   <v name="genvec2">      0.00000000       0.06666667       0.00000000 </v>
   <v name="genvec3">      0.00000000       0.00000000       1.00000000 </v>
   <v name="shift">      0.00000000       0.00000000       0.00000000 </v>
  </generation>
  <varray name="kpointlist" >
   <v>       0.00000000       0.00000000       0.00000000 </v>
   <v>       0.06666667       0.00000000       0.00000000 </v>
   <v>       0.13333333       0.00000000       0.00000000 </v>
   <v>       0.20000000       0.00000000       0.00000000 </v>
   <v>       0.26666667       0.00000000       0.00000000 </v>
   <v>       0.33333333       0.00000000       0.00000000 </v>
   <v>       0.40000000       0.00000000       0.00000000 </v>
   <v>       0.46666667       0.00000000       0.00000000 </v>
   <v>       0.13333333       0.06666667       0.00000000 </v>
   <v>       0.20000000       0.06666667       0.00000000 </v>
   <v>       0.26666667       0.06666667       0.00000000 </v>
   <v>       0.33333333       0.06666667       0.00000000 </v>
   <v>       0.40000000       0.06666667       0.00000000 </v>
   <v>       0.46666667       0.06666667       0.00000000 </v>
   <v>      -0.46666667       0.06666667       0.00000000 </v>
   <v>       0.26666667       0.13333333       0.00000000 </v>
   <v>       0.33333333       0.13333333       0.00000000 </v>
   <v>       0.40000000       0.13333333       0.00000000 </v>
   <v>       0.46666667       0.13333333       0.00000000 </v>
   <v>      -0.46666667       0.13333333       0.00000000 </v>
   <v>       0.40000000       0.20000000       0.00000000 </v>
   <v>       0.46666667       0.20000000       0.00000000 </v>
   <v>      -0.46666667       0.20000000       0.00000000 </v>
   <v>      -0.40000000       0.20000000       0.00000000 </v>
   <v>      -0.46666667       0.26666667       0.00000000 </v>
   <v>      -0.40000000       0.26666667       0.00000000 </v>
   <v>      -0.33333333       0.33333333       0.00000000 </v>
  </varray>
  <varray name="weights" >
   <v>       0.00444444 </v>
   <v>       0.02666667 </v>
   <v>       0.02666667 </v>
   <v>       0.02666667 </v>
   <v>       0.02666667 </v>
   <v>       0.02666667 </v>
   <v>       0.02666667 </v>
   <v>       0.02666667 </v>
   <v>       0.02666667 </v>
   <v>       0.05333333 </v>
   <v>       0.05333333 </v>
   <v>       0.05333333 </v>
   <v>       0.05333333 </v>
   <v>       0.05333333 </v>
   <v>       0.02666667 </v>
   <v>       0.02666667 </v>
   <v>       0.05333333 </v>
   <v>       0.05333333 </v>
   <v>       0.05333333 </v>
   <v>       0.05333333 </v>
   <v>       0.02666667 </v>
   <v>       0.05333333 </v>
   <v>       0.05333333 </v>
   <v>       0.02666667 </v>
   <v>       0.02666667 </v>
   <v>       0.05333333 </v>
   <v>       0.00888889 </v>
  </varray>
 </kpoints>
 <parameters>
  <separator name="general" >
   <i type="string" name="SYSTEM">WTe2 relaxation</i>
   <i type="logical" name="LCOMPAT"> F  </i>
  </separator>
  <separator name="electronic" >
   <i type="string" name="PREC">accura</i>
   <i name="ENMAX">    520.00000000</i>
   <i name="ENAUG">    373.43800000</i>
   <i name="EDIFF">      0.00000100</i>
   <i type="int" name="IALGO">    38</i>
   <i type="int" name="IWAVPR">    11</i>
   <i type="int" name="NBANDS">    22</i>
   <i type="int" name="NBANDSLOW">    -1</i>
   <i type="int" name="NBANDSHIGH">    -1</i>
   <i name="NELECT">     26.00000000</i>
   <i type="int" name="TURBO">     0</i>
   <i type="int" name="IRESTART">     0</i>
   <i type="int" name="NREBOOT">     0</i>
   <i type="int" name="NMIN">     0</i>
   <i name="EREF">      0.00000000</i>
   <separator name="electronic smearing" >
    <i type="int" name="ISMEAR">     0</i>
    <i name="SIGMA">      0.05000000</i>
    <i name="KSPACING">      0.50000000</i>
    <i type="logical" name="KGAMMA"> T  </i>
    <i type="logical" name="KBLOWUP"> T  </i>
   </separator>
   <separator name="electronic projectors" >
    <i type="logical" name="LREAL"> T  </i>
    <v name="ROPT">     -0.00025000     -0.00025000</v>
    <i type="int" name="LMAXPAW">  -100</i>
    <i type="int" name="LMAXMIX">     2</i>
    <i type="logical" name="NLSPLINE"> F  </i>
   </separator>
   <separator name="electronic startup" >
    <i type="int" name="ISTART">     0</i>
    <i type="int" name="ICHARG">     2</i>
    <i type="int" name="INIWAV">     1</i>
   </separator>
   <separator name="electronic spin" >
    <i type="int" name="ISPIN">     1</i>
    <i type="logical" name="LNONCOLLINEAR"> F  </i>
    <v name="MAGMOM">      1.00000000      1.00000000      1.00000000</v>
    <i name="NUPDOWN">     -1.00000000</i>
    <i type="logical" name="LSORBIT"> F  </i>
    <v name="SAXIS">      0.00000000      0.00000000      1.00000000</v>
    <i type="logical" name="LSPIRAL"> F  </i>
    <v name="QSPIRAL">      0.00000000      0.00000000      0.00000000</v>
    <i type="logical" name="LZEROZ"> F  </i>
   </separator>
   <separator name="electronic exchange-correlation" >
    <i type="logical" name="LASPH"> F  </i>
   </separator>
   <separator name="electronic convergence" >
    <i type="int" name="NELM">   200</i>
    <i type="int" name="NELMDL">    -5</i>
    <i type="int" name="NELMIN">     2</i>
    <i name="ENINI">    520.00000000</i>
    <separator name="electronic convergence detail" >
     <i type="logical" name="LDIAG"> T  </i>
     <i type="logical" name="LSUBROT"> F  </i>
     <i type="logical" name="LROBUST"> F  </i>
     <i type="int" name="ISEARCH">     0</i>
     <i name="WEIMIN">      0.00100000</i>
     <i name="EBREAK">      0.00000001</i>
     <i name="DEPER">      0.30000000</i>
     <i type="int" name="NRMM">     4</i>
     <i name="TIME">      0.40000000</i>
    </separator>
   </separator>
   <separator name="electronic mixer" >
    <i name="AMIX">      0.40000000</i>
    <i name="BMIX">      1.00000000</i>
    <i name="AMIN">      0.01000000</i>
    <i name="AMIX_MAG">      1.60000000</i>
    <i name="BMIX_MAG">      1.00000000</i>
    <separator name="electronic mixer details" >
     <i type="int" name="IMIX">     4</i>
     <i type="logical" name="MIXFIRST"> F  </i>
     <i type="int" name="MAXMIX">   -45</i>
     <i name="WC">    100.00000000</i>
     <i type="int" name="INIMIX">     1</i>
     <i type="int" name="MIXPRE">     1</i>
     <i type="int" name="MREMOVE">     5</i>
    </separator>
   </separator>
   <separator name="electronic dipolcorrection" >
    <i type="logical" name="LDIPOL"> F  </i>
    <i type="logical" name="LMONO"> F  </i>
    <i type="int" name="IDIPOL">     0</i>
    <i name="EPSILON">      1.00000000</i>
    <v name="DIPOL">   -100.00000000   -100.00000000   -100.00000000</v>
    <i name="EFIELD">      0.00000000</i>
    <i type="logical" name="LVACPOTAV"> F  </i>
   </separator>
  </separator>
  <separator name="grids" >
   <i type="int" name="NGX">    28</i>
   <i type="int" name="NGY">    28</i>
   <i type="int" name="NGZ">   150</i>
   <i type="int" name="NGXF">    56</i>
   <i type="int" name="NGYF">    56</i>
   <i type="int" name="NGZF">   300</i>
   <i type="logical" name="ADDGRID"> F  </i>
  </separator>
  <separator name="ionic" >
   <i type="int" name="NSW">   600</i>
   <i type="int" name="IBRION">     1</i>
   <i type="int" name="MDALGO">     0</i>
   <i type="int" name="ISIF">     2</i>
   <i name="PSTRESS">      0.00000000</i>
   <i name="EDIFFG">     -0.00010000</i>
   <i type="int" name="NFREE">     0</i>
   <i name="POTIM">      0.50000000</i>
   <i name="SMASS">     -3.00000000</i>
   <i name="SCALEE">      1.00000000</i>
  </separator>
  <separator name="ionic md" >
   <i name="TEBEG">      0.00010000</i>
   <i name="TEEND">      0.00010000</i>
   <i type="int" name="NBLOCK">     1</i>
   <i type="int" name="KBLOCK">   600</i>
   <i type="int" name="NPACO">   256</i>
   <i name="APACO">     10.00000000</i>
  </separator>
  <separator name="symmetry" >
   <i type="int" name="ISYM">     2</i>
   <i name="SYMPREC">      0.00001000</i>
  </separator>
  <separator name="dos" >
   <i type="int" name="LORBIT">     0</i>
   <v name="RWIGS">     -1.00000000     -1.00000000</v>
   <i type="int" name="NEDOS">   301</i>
   <i name="EMIN">     10.00000000</i>
   <i name="EMAX">    -10.00000000</i>
   <i name="EFERMI">      0.00000000</i>
  </separator>
  <separator name="writing" >
   <i type="int" name="NWRITE">     2</i>
   <i type="logical" name="LWAVE"> F  </i>
   <i type="logical" name="LDOWNSAMPLE"> F  </i>
   <i type="logical" name="LCHARG"> F  </i>
   <i type="logical" name="LPARD"> F  </i>
   <i type="logical" name="LVTOT"> F  </i>
   <i type="logical" name="LVHAR"> F  </i>
   <i type="logical" name="LELF"> F  </i>
   <i type="logical" name="LOPTICS"> F  </i>
   <v name="STM">      0.00000000      0.00000000      0.00000000      0.00000000      0.00000000      0.00000000      0.00000000</v>
  </separator>
  <separator name="performance" >
   <i type="int" name="NPAR">    11</i>
   <i type="int" name="NSIM">     4</i>
   <i type="int" name="NBLK">    -1</i>
   <i type="logical" name="LPLANE"> T  </i>
   <i type="logical" name="LSCALAPACK"> T  </i>
   <i type="logical" name="LSCAAWARE"> F  </i>
   <i type="logical" name="LSCALU"> F  </i>
   <i type="logical" name="LASYNC"> F  </i>
   <i type="logical" name="LORBITALREAL"> F  </i>
  </separator>
  <separator name="miscellaneous" >
   <i type="int" name="IDIOT">     3</i>
   <i type="int" name="PHON_NSTRUCT">    -1</i>
   <i type="logical" name="LMUSIC"> F  </i>
   <v name="POMASS">    183.85000000    127.60000000</v>
   <v name="DARWINR">      0.00000000      0.00000000</v>
   <v name="DARWINV">      1.00000000      1.00000000</v>
   <i type="logical" name="LCORR"> T  </i>
  </separator>
  <i type="logical" name="GGA_COMPAT"> T  </i>
  <i type="logical" name="LBERRY"> F  </i>
  <i type="int" name="ICORELEVEL">     0</i>
  <i type="logical" name="LDAU"> F  </i>
  <i type="int" name="I_CONSTRAINED_M">     0</i>
  <separator name="electronic exchange-correlation" >
   <i type="string" name="GGA    ">PE</i>
   <i type="string" name="XC_C">1</i>
   <i type="int" name="VOSKOWN">     0</i>
   <i type="logical" name="LHFCALC"> F  </i>
   <i type="string" name="PRECFOCK"></i>
   <i type="logical" name="LSYMGRAD"> F  </i>
   <i type="logical" name="LHFONE"> F  </i>
   <i type="logical" name="LRHFCALC"> F  </i>
   <i type="logical" name="LTHOMAS"> F  </i>
   <i type="logical" name="LMODELHF"> F  </i>
   <i type="logical" name="LFOCKACE"> F  </i>
   <i name="ENCUT4O">     -1.00000000</i>
   <i type="int" name="EXXOEP">     0</i>
   <i type="int" name="FOURORBIT">     0</i>
   <i name="AEXX">      0.00000000</i>
   <i name="HFALPHA">      0.00000000</i>
   <i name="MCALPHA">      0.00000000</i>
   <i name="ALDAX">      1.00000000</i>
   <i name="AGGAX">      1.00000000</i>
   <i name="AMGGAX">      1.00000000</i>
   <i name="ALDAC">      1.00000000</i>
   <i name="AGGAC">      1.00000000</i>
   <i name="AMGGAC">      1.00000000</i>
   <i type="int" name="NKREDX">     1</i>
   <i type="int" name="NKREDY">     1</i>
   <i type="int" name="NKREDZ">     1</i>
   <i type="logical" name="SHIFTRED"> F  </i>
   <i type="logical" name="ODDONLY"> F  </i>
   <i type="logical" name="EVENONLY"> F  </i>
   <i type="int" name="LMAXFOCK">     0</i>
   <i type="int" name="NMAXFOCKAE">     0</i>
   <i type="logical" name="LFOCKAEDFT"> F  </i>
   <i name="HFSCREEN">      0.00000000</i>
   <i name="HFSCREENC">      0.00000000</i>
   <i type="int" name="NBANDSGWLOW">     0</i>
  </separator>
  <separator name="vdW DFT" >
   <i type="logical" name="LUSE_VDW"> F  </i>
   <i type="int" name="IVDW_NL">    -1</i>
   <i type="logical" name="LSPIN_VDW"> F  </i>
   <i name="ZAB_VDW">     -0.84910000</i>
   <i name="GAMMA_VDW">      1.39626340</i>
   <i name="ALPHA_VDW">      0.00000000</i>
   <i name="PARAM1">      0.12340000</i>
   <i name="PARAM2">      1.00000000</i>
   <i name="BPARAM">      6.30000000</i>
   <i name="CPARAM">      0.00930000</i>
  </separator>
  <separator name="model GW" >
   <i type="int" name="MODEL_GW">     0</i>
   <i name="MODEL_EPS0">     43.94079366</i>
   <i name="MODEL_ALPHA">      1.00000000</i>
  </separator>
  <separator name="linear response parameters" >
   <i type="logical" name="LEPSILON"> F  </i>
   <i type="logical" name="LRPA"> F  </i>
   <i type="logical" name="LNABLA"> F  </i>
   <i type="logical" name="LVEL"> F  </i>
   <i name="CSHIFT">      0.10000000</i>
   <i name="OMEGAMAX">     -1.00000000</i>
   <i name="DEG_THRESHOLD">      0.00200000</i>
   <i name="RTIME">     -0.10000000</i>
   <i name="WPLASMAI">      0.00000000</i>
   <v name="DFIELD">      0.00000000      0.00000000      0.00000000</v>
   <v name="WPLASMA">      0.00000000      0.00000000      0.00000000      0.00000000      0.00000000      0.00000000      0.00000000      0.00000000      0.00000000</v>
  </separator>
  <separator name="orbital magnetization" >
   <i type="logical" name="NUCIND"> F  </i>
   <v name="MAGPOS">      0.00000000      0.00000000      0.00000000</v>
   <i type="logical" name="LNICSALL"> T  </i>
   <i type="logical" name="ORBITALMAG"> F  </i>
   <i type="logical" name="LMAGBLOCH"> F  </i>
   <i type="logical" name="LCHIMAG"> F  </i>
   <i type="logical" name="LGAUGE"> T  </i>
   <i type="int" name="MAGATOM">     0</i>
   <v name="MAGDIPOL">      0.00000000      0.00000000      0.00000000</v>
   <v name="AVECCONST">      0.00000000      0.00000000      0.00000000</v>
  </separator>
  <separator name="response functions" >
   <i type="logical" name="LALL_IN_ONE"> F  </i>
   <i type="int" name="IALL_IN_ONE">    -1</i>
   <i type="int" name="NBANDS_WAVE">    -1</i>
   <i type="logical" name="LFINITE_TEMPERATURE"> F  </i>
   <i type="logical" name="LADDER"> F  </i>
   <i type="logical" name="LRPAFORCE"> F  </i>
   <i type="logical" name="LFXC"> F  </i>
   <i type="logical" name="LHARTREE"> T  </i>
   <i type="int" name="IBSE">     2</i>
   <v type="int" name="KPOINT">    -1     0     0     0</v>
   <i type="logical" name="LTCTC"> F  </i>
   <i type="logical" name="LTCTE"> F  </i>
   <i type="logical" name="LTETE"> F  </i>
   <i type="logical" name="LTRIPLET"> F  </i>
   <i type="logical" name="LFXCEPS"> F  </i>
   <i type="logical" name="LFXHEG"> F  </i>
   <i type="int" name="NATURALO">     2</i>
   <i type="logical" name="LHOLEGF"> F  </i>
   <i type="logical" name="L2ORDER"> F  </i>
   <i type="logical" name="LDMP1"> F  </i>
   <i type="logical" name="LMP2LT"> F  </i>
   <i type="logical" name="LSMP2LT"> F  </i>
   <i type="logical" name="LGWLF"> F  </i>
   <i name="ENCUTGW">     -1.60000002</i>
   <i name="ENCUTGWSOFT">     -1.60000002</i>
   <i name="ENCUTLF">     -1.00000000</i>
   <i type="logical" name="ESF_SPLINES"> F  </i>
   <i name="ESF_CONV">      0.01000000</i>
   <i type="int" name="ESF_NINTER">    15</i>
   <i type="int" name="LMAXMP2">    -1</i>
   <i name="SCISSOR">      0.00000000</i>
   <i type="int" name="NOMEGA">     0</i>
   <i type="int" name="NOMEGAR">     0</i>
   <i type="int" name="NBANDSGW">    -1</i>
   <i type="int" name="NBANDSO">    -1</i>
   <i type="int" name="NBANDSV">    -1</i>
   <i type="int" name="NELMGW">     1</i>
   <i type="int" name="NELMHF">     1</i>
   <i type="int" name="DIM">     3</i>
   <i type="int" name="IESPILON">     4</i>
   <i type="int" name="ANTIRES">     0</i>
   <i name="OMEGAMAX">    -30.00000000</i>
   <i name="OMEGAMIN">    -30.00000000</i>
   <i name="OMEGATL">   -200.00000000</i>
   <i type="int" name="OMEGAGRID">     0</i>
   <i name="CSHIFT">     -0.10000000</i>
   <i type="logical" name="LSELFENERGY"> F  </i>
   <i type="logical" name="LSPECTRAL"> F  </i>
   <i type="logical" name="LSPECTRALGW"> F  </i>
   <i type="logical" name="LSINGLES"> F  </i>
   <i type="logical" name="LFERMIGW"> F  </i>
   <i type="logical" name="ODDONLYGW"> F  </i>
   <i type="logical" name="EVENONLYGW"> F  </i>
   <i type="int" name="NKREDLFX">     1</i>
   <i type="int" name="NKREDLFY">     1</i>
   <i type="int" name="NKREDLFZ">     1</i>
   <i type="int" name="MAXMEM">  2800</i>
   <i type="int" name="TELESCOPE">     0</i>
   <i type="int" name="NTAUPAR">    -1</i>
   <i type="int" name="NOMEGAPAR">    -1</i>
   <i name="DAMP_NEWTON">      0.80000001</i>
   <i name="LAMBDA">      1.00000000</i>
  </separator>
  <separator name="External order field" >
   <i name="OFIELD_KAPPA">      0.00000000</i>
   <v name="OFIELD_K">      0.00000000      0.00000000      0.00000000</v>
   <i name="OFIELD_Q6_NEAR">      0.00000000</i>
   <i name="OFIELD_Q6_FAR">      0.00000000</i>
   <i name="OFIELD_A">      0.00000000</i>
  </separator>
  <separator name="optional k-points parameters" >
   <i type="int" name="KPOINTS_OPT_MODE">     1</i>
   <i type="logical" name="LKPOINTS_OPT"> F  </i>
  </separator>
 </parameters>
 <atominfo>
  <atoms>       3 </atoms>
  <types>       2 </types>
  <array name="atoms" >
   <dimension dim="1">ion</dimension>
   <field type="string">element</field>
   <field type="int">atomtype</field>
   <set>
    <rc><c>W </c><c>   1</c></rc>
    <rc><c>Te</c><c>   2</c></rc>
    <rc><c>Te</c><c>   2</c></rc>
   </set>
  </array>
  <array name="atomtypes" >
   <dimension dim="1">type</dimension>
   <field type="int">atomspertype</field>
   <field type="string">element</field>
   <field>mass</field>
   <field>valence</field>
   <field type="string">pseudopotential</field>
   <set>
    <rc><c>   1</c><c>W </c><c>    183.85000000</c><c>     14.00000000</c><c>  PAW_PBE W_sv 04Sep2015                </c></rc>
    <rc><c>   2</c><c>Te</c><c>    127.60000000</c><c>      6.00000000</c><c>  PAW_PBE Te 08Apr2002                  </c></rc>
   </set>
  </array>
 </atominfo>
 <structure name="initialpos" >
  <crystal>
   <varray name="basis" >
    <v>       3.56154665       0.00000000       0.00000000 </v>
    <v>       1.78077332       3.08438987       0.00000000 </v>
    <v>       0.00000000       0.00000000      20.00000000 </v>
   </varray>
   <i name="volume">    219.70396831 </i>
   <varray name="rec_basis" >
    <v>       0.28077689      -0.16210661       0.00000000 </v>
    <v>       0.00000000       0.32421323       0.00000000 </v>
    <v>       0.00000000       0.00000000       0.05000000 </v>
   </varray>
  </crystal>
  <varray name="positions" >
   <v>       0.00000000       0.00000000       0.50000000 </v>
   <v>       0.33333333       0.33333333       0.41031155 </v>
   <v>       0.33333333       0.33333333       0.58968845 </v>
  </varray>
 </structure>
 <calculation>
  <scstep>
   <time name="dav">    0.13    0.15</time>
   <time name="total">    0.26    0.28</time>
   <energy>
    <i name="alphaZ">     21.27135837 </i>
    <i name="ewald">   3815.69661295 </i>
    <i name="hartreedc">  -5795.91096260 </i>
    <i name="XCdc">      1.52125435 </i>
    <i name="pawpsdc">   1878.95179618 </i>
    <i name="pawaedc">  -1779.47533485 </i>
    <i name="eentropy">     -0.00224788 </i>
    <i name="bandstr">   -331.17465245 </i>
    <i name="atom">   2312.11939502 </i>
    <i name="e_fr_energy">    122.99721909 </i>
    <i name="e_wo_entrp">    122.99946696 </i>
    <i name="e_0_energy">    122.99834302 </i>
   </energy>
  </scstep>
  <scstep>
   <time name="dav">    0.07    0.08</time>
   <time name="total">    0.08    0.08</time>
   <energy>
    <i name="e_fr_energy">    -11.13195324 </i>
    <i name="e_wo_entrp">    -11.13195324 </i>
    <i name="e_0_energy">    -11.13195324 </i>
   </energy>
  </scstep>
  <scstep>
   <time name="dav">    0.08    0.08</time>
   <time name="total">    0.08    0.08</time>
   <energy>
    <i name="e_fr_energy">    -19.91172814 </i>
    <i name="e_wo_entrp">    -19.91172814 </i>
    <i name="e_0_energy">    -19.91172814 </i>
   </energy>
  </scstep>
  <scstep>
   <time name="dav">    0.08    0.08</time>
   <time name="total">    0.08    0.08</time>
   <energy>
    <i name="e_fr_energy">    -20.13212051 </i>
    <i name="e_wo_entrp">    -20.13212051 </i>
    <i name="e_0_energy">    -20.13212051 </i>
   </energy>
  </scstep>
  <scstep>
   <time name="dav">    0.09    0.09</time>
   <time name="total">    0.11    0.11</time>
   <energy>
    <i name="e_fr_energy">    -20.13448302 </i>
    <i name="e_wo_entrp">    -20.13448302 </i>
    <i name="e_0_energy">    -20.13448302 </i>
   </energy>
  </scstep>
  <scstep>
   <time name="dav">    0.07    0.07</time>
   <time name="total">    0.10    0.11</time>
   <energy>
    <i name="e_fr_energy">    -19.62749353 </i>
    <i name="e_wo_entrp">    -19.62749353 </i>
    <i name="e_0_energy">    -19.62749353 </i>
   </energy>
  </scstep>
  <scstep>
   <time name="dav">    0.08    0.08</time>
   <time name="total">    0.11    0.12</time>
   <energy>
    <i name="e_fr_energy">    -19.53902109 </i>
    <i name="e_wo_entrp">    -19.53902109 </i>
    <i name="e_0_energy">    -19.53902109 </i>
   </energy>
  </scstep>
  <scstep>
   <time name="dav">    0.08    0.08</time>
   <time name="total">    0.11    0.12</time>
   <energy>
    <i name="e_fr_energy">    -19.43308022 </i>
    <i name="e_wo_entrp">    -19.43308022 </i>
    <i name="e_0_energy">    -19.43308022 </i>
   </energy>
  </scstep>
  <scstep>
   <time name="dav">    0.08    0.08</time>
   <time name="total">    0.12    0.12</time>
   <energy>
    <i name="e_fr_energy">    -19.43059328 </i>
    <i name="e_wo_entrp">    -19.43059328 </i>
    <i name="e_0_energy">    -19.43059328 </i>
   </energy>
  </scstep>
  <scstep>
   <time name="dav">    0.08    0.08</time>
   <time name="total">    0.12    0.12</time>
   <energy>
    <i name="e_fr_energy">    -19.42899091 </i>
    <i name="e_wo_entrp">    -19.42899091 </i>
    <i name="e_0_energy">    -19.42899091 </i>
   </energy>
  </scstep>
  <scstep>
   <time name="dav">    0.08    0.08</time>
   <time name="total">    0.13    0.13</time>
   <energy>
    <i name="e_fr_energy">    -19.42753911 </i>
    <i name="e_wo_entrp">    -19.42753911 </i>
    <i name="e_0_energy">    -19.42753911 </i>
   </energy>
  </scstep>
  <scstep>
   <time name="dav">    0.08    0.08</time>
   <time name="total">    0.12    0.12</time>
   <energy>
    <i name="e_fr_energy">    -19.42701164 </i>
    <i name="e_wo_entrp">    -19.42701164 </i>
    <i name="e_0_energy">    -19.42701164 </i>
   </energy>
  </scstep>
  <scstep>
   <time name="dav">    0.08    0.08</time>
   <time name="total">    0.11    0.12</time>
   <energy>
    <i name="e_fr_energy">    -19.42603825 </i>
    <i name="e_wo_entrp">    -19.42603825 </i>
    <i name="e_0_energy">    -19.42603825 </i>
   </energy>
  </scstep>
  <scstep>
   <time name="dav">    0.07    0.07</time>
   <time name="total">    0.11    0.11</time>
   <energy>
    <i name="e_fr_energy">    -19.42567265 </i>
    <i name="e_wo_entrp">    -19.42567265 </i>
    <i name="e_0_energy">    -19.42567265 </i>
   </energy>
  </scstep>
  <scstep>
   <time name="dav">    0.07    0.07</time>
   <time name="total">    0.11    0.11</time>
   <energy>
    <i name="e_fr_energy">    -19.42482141 </i>
    <i name="e_wo_entrp">    -19.42482141 </i>
    <i name="e_0_energy">    -19.42482141 </i>
   </energy>
  </scstep>
  <scstep>
   <time name="dav">    0.07    0.08</time>
   <time name="total">    0.11    0.11</time>
   <energy>
    <i name="e_fr_energy">    -19.42563882 </i>
    <i name="e_wo_entrp">    -19.42563882 </i>
    <i name="e_0_energy">    -19.42563882 </i>
   </energy>
  </scstep>
  <scstep>
   <time name="dav">    0.07    0.07</time>
   <time name="total">    0.11    0.11</time>
   <energy>
    <i name="e_fr_energy">    -19.42652259 </i>
    <i name="e_wo_entrp">    -19.42652259 </i>
    <i name="e_0_energy">    -19.42652259 </i>
   </energy>
  </scstep>
  <scstep>
   <time name="dav">    0.07    0.07</time>
   <time name="total">    0.11    0.11</time>
   <energy>
    <i name="e_fr_energy">    -19.42681873 </i>
    <i name="e_wo_entrp">    -19.42681873 </i>
    <i name="e_0_energy">    -19.42681873 </i>
   </energy>
  </scstep>
  <scstep>
   <time name="dav">    0.07    0.07</time>
   <time name="total">    0.11    0.11</time>
   <energy>
    <i name="e_fr_energy">    -19.42696692 </i>
    <i name="e_wo_entrp">    -19.42696692 </i>
    <i name="e_0_energy">    -19.42696692 </i>
   </energy>
  </scstep>
  <scstep>
   <time name="dav">    0.07    0.07</time>
   <time name="total">    0.11    0.11</time>
   <energy>
    <i name="e_fr_energy">    -19.42700335 </i>
    <i name="e_wo_entrp">    -19.42700335 </i>
    <i name="e_0_energy">    -19.42700335 </i>
   </energy>
  </scstep>
  <scstep>
   <time name="dav">    0.06    0.06</time>
   <time name="total">    0.10    0.10</time>
   <energy>
    <i name="e_fr_energy">    -19.42701380 </i>
    <i name="e_wo_entrp">    -19.42701380 </i>
    <i name="e_0_energy">    -19.42701380 </i>
   </energy>
  </scstep>
  <scstep>
   <time name="dav">    0.06    0.06</time>
   <time name="total">    0.09    0.10</time>
   <energy>
    <i name="e_fr_energy">    -19.42701641 </i>
    <i name="e_wo_entrp">    -19.42701641 </i>
    <i name="e_0_energy">    -19.42701641 </i>
   </energy>
  </scstep>
  <scstep>
   <time name="dav">    0.05    0.05</time>
   <time name="total">    0.09    0.09</time>
   <energy>
    <i name="e_fr_energy">    -19.42701781 </i>
    <i name="e_wo_entrp">    -19.42701781 </i>
    <i name="e_0_energy">    -19.42701781 </i>
   </energy>
  </scstep>
  <scstep>
   <time name="dav">    0.06    0.06</time>
   <time name="total">    0.08    0.08</time>
   <energy>
    <i name="alphaZ">     21.27135837 </i>
    <i name="ewald">   3815.69661295 </i>
    <i name="hartreedc">  -5794.90849328 </i>
    <i name="XCdc">      1.01617976 </i>
    <i name="pawpsdc">   3172.46542330 </i>
    <i name="pawaedc">  -3077.26807505 </i>
    <i name="eentropy">     -0.00000000 </i>
    <i name="bandstr">   -469.81941902 </i>
    <i name="atom">   2312.11939502 </i>
    <i name="e_fr_energy">    -19.42701794 </i>
    <i name="e_wo_entrp">    -19.42701794 </i>
    <i name="e_0_energy">    -19.42701794 </i>
   </energy>
  </scstep>
  <structure>
   <crystal>
    <varray name="basis" >
     <v>       3.56154665       0.00000000       0.00000000 </v>
     <v>       1.78077332       3.08438987       0.00000000 </v>
     <v>       0.00000000       0.00000000      20.00000000 </v>
    </varray>
    <i name="volume">    219.70396831 </i>
    <varray name="rec_basis" >
     <v>       0.28077689      -0.16210661       0.00000000 </v>
     <v>       0.00000000       0.32421323       0.00000000 </v>
     <v>       0.00000000       0.00000000       0.05000000 </v>
    </varray>
   </crystal>
   <varray name="positions" >
    <v>       0.00000000       0.00000000       0.50000000 </v>
    <v>       0.33333333       0.33333333       0.41031155 </v>
    <v>       0.33333333       0.33333333       0.58968845 </v>
   </varray>
  </structure>
  <varray name="forces" >
   <v>       0.00000000       0.00000000       0.00000000 </v>
   <v>      -0.00000000       0.00000000      -0.16791440 </v>
   <v>      -0.00000000      -0.00000000       0.16791440 </v>
  </varray>
  <varray name="stress" >
   <v>      -6.08302370       0.00000000       0.00000000 </v>
   <v>      -0.00000000      -6.08302370       0.00000000 </v>
   <v>      -0.00000000      -0.00000000       4.12818387 </v>
  </varray>
  <energy>
   <i name="e_fr_energy">    -20.56861109 </i>
   <i name="e_wo_entrp">    -20.56861109 </i>
   <i name="e_0_energy">    -20.56861109 </i>
  </energy>
  <time name="totalsc">    2.85    2.97</time>
 </calculation>
 <calculation>
  <scstep>
   <time name="dav">    0.06    0.06</time>
   <time name="total">    0.10    0.10</time>
   <energy>
    <i name="alphaZ">     21.27135837 </i>
    <i name="ewald">   3804.17756723 </i>
    <i name="hartreedc">  -5783.73359853 </i>
    <i name="XCdc">      0.97055636 </i>
    <i name="pawpsdc">   3172.47079176 </i>
    <i name="pawaedc">  -3077.27344438 </i>
    <i name="eentropy">     -0.00000000 </i>
    <i name="bandstr">   -469.43337688 </i>
    <i name="atom">   2312.11939502 </i>
    <i name="e_fr_energy">    -19.43075106 </i>
    <i name="e_wo_entrp">    -19.43075106 </i>
    <i name="e_0_energy">    -19.43075106 </i>
   </energy>
  </scstep>
  <scstep>
   <time name="dav">    0.07    0.07</time>
   <time name="total">    0.10    0.11</time>
   <energy>
    <i name="e_fr_energy">    -19.43083152 </i>
    <i name="e_wo_entrp">    -19.43083152 </i>
    <i name="e_0_energy">    -19.43083152 </i>
   </energy>
  </scstep>
  <scstep>
   <time name="dav">    0.08    0.08</time>
   <time name="total">    0.11    0.11</time>
   <energy>
    <i name="e_fr_energy">    -19.43082013 </i>
    <i name="e_wo_entrp">    -19.43082013 </i>
    <i name="e_0_energy">    -19.43082013 </i>
   </energy>
  </scstep>
  <scstep>
   <time name="dav">    0.07    0.07</time>
   <time name="total">    0.11    0.11</time>
   <energy>
    <i name="e_fr_energy">    -19.43080745 </i>
    <i name="e_wo_entrp">    -19.43080745 </i>
    <i name="e_0_energy">    -19.43080745 </i>
   </energy>
  </scstep>
  <scstep>
   <time name="dav">    0.08    0.08</time>
   <time name="total">    0.11    0.11</time>
   <energy>
    <i name="e_fr_energy">    -19.43080644 </i>
    <i name="e_wo_entrp">    -19.43080644 </i>
    <i name="e_0_energy">    -19.43080644 </i>
   </energy>
  </scstep>
  <scstep>
   <time name="dav">    0.06    0.06</time>
   <time name="total">    0.09    0.10</time>
   <energy>
    <i name="e_fr_energy">    -19.43080485 </i>
    <i name="e_wo_entrp">    -19.43080485 </i>
    <i name="e_0_energy">    -19.43080485 </i>
   </energy>
  </scstep>
  <scstep>
   <time name="dav">    0.06    0.06</time>
   <time name="total">    0.08    0.08</time>
   <energy>
    <i name="alphaZ">     21.27135837 </i>
    <i name="ewald">   3804.17756723 </i>
    <i name="hartreedc">  -5783.63909424 </i>
    <i name="XCdc">      0.97091415 </i>
    <i name="pawpsdc">   3152.11900641 </i>
    <i name="pawaedc">  -3056.90009197 </i>
    <i name="eentropy">     -0.00000000 </i>
    <i name="bandstr">   -469.54985996 </i>
    <i name="atom">   2312.11939502 </i>
    <i name="e_fr_energy">    -19.43080499 </i>
    <i name="e_wo_entrp">    -19.43080499 </i>
    <i name="e_0_energy">    -19.43080499 </i>
   </energy>
  </scstep>
  <structure>
   <crystal>
    <varray name="basis" >
     <v>       3.56154665       0.00000000       0.00000000 </v>
     <v>       1.78077332       3.08438987       0.00000000 </v>
     <v>       0.00000000       0.00000000      20.00000000 </v>
    </varray>
    <i name="volume">    219.70396831 </i>
    <varray name="rec_basis" >
     <v>       0.28077689      -0.16210661       0.00000000 </v>
     <v>       0.00000000       0.32421323       0.00000000 </v>
     <v>       0.00000000       0.00000000       0.05000000 </v>
    </varray>
   </crystal>
   <varray name="positions" >
    <v>       0.00000000       0.00000000       0.50000000 </v>
    <v>       0.33333333       0.33333333       0.40990652 </v>
    <v>       0.33333333       0.33333333       0.59009348 </v>
   </varray>
  </structure>
  <varray name="forces" >
   <v>       0.00000000       0.00000000       0.00000000 </v>
   <v>      -0.00000000      -0.00000000      -0.04236665 </v>
   <v>       0.00000000       0.00000000       0.04236665 </v>
  </varray>
  <varray name="stress" >
   <v>      -7.31043022       0.00000000       0.00000000 </v>
   <v>      -0.00000000      -7.31043022       0.00000000 </v>
   <v>      -0.00000000       0.00000000       0.96684521 </v>
  </varray>
  <energy>
   <i name="e_fr_energy">    -20.57029268 </i>
   <i name="e_wo_entrp">    -20.57029268 </i>
   <i name="e_0_energy">    -20.57029268 </i>
  </energy>
  <time name="totalsc">    0.91    0.92</time>
 </calculation>
 <calculation>
  <scstep>
   <time name="dav">    0.06    0.06</time>
   <time name="total">    0.10    0.10</time>
   <energy>
    <i name="alphaZ">     21.27135837 </i>
    <i name="ewald">   3800.29172712 </i>
    <i name="hartreedc">  -5779.87101280 </i>
    <i name="XCdc">      0.95558635 </i>
    <i name="pawpsdc">   3152.11897977 </i>
    <i name="pawaedc">  -3056.90007149 </i>
    <i name="eentropy">     -0.00000000 </i>
    <i name="bandstr">   -469.41759325 </i>
    <i name="atom">   2312.11939502 </i>
    <i name="e_fr_energy">    -19.43163090 </i>
    <i name="e_wo_entrp">    -19.43163090 </i>
    <i name="e_0_energy">    -19.43163090 </i>
   </energy>
  </scstep>
  <scstep>
   <time name="dav">    0.07    0.07</time>
   <time name="total">    0.10    0.10</time>
   <energy>
    <i name="e_fr_energy">    -19.43163872 </i>
    <i name="e_wo_entrp">    -19.43163872 </i>
    <i name="e_0_energy">    -19.43163872 </i>
   </energy>
  </scstep>
  <scstep>
   <time name="dav">    0.07    0.07</time>
   <time name="total">    0.11    0.11</time>
   <energy>
    <i name="e_fr_energy">    -19.43163564 </i>
    <i name="e_wo_entrp">    -19.43163564 </i>
    <i name="e_0_energy">    -19.43163564 </i>
   </energy>
  </scstep>
  <scstep>
   <time name="dav">    0.07    0.07</time>
   <time name="total">    0.11    0.11</time>
   <energy>
    <i name="e_fr_energy">    -19.43163260 </i>
    <i name="e_wo_entrp">    -19.43163260 </i>
    <i name="e_0_energy">    -19.43163260 </i>
   </energy>
  </scstep>
  <scstep>
   <time name="dav">    0.06    0.07</time>
   <time name="total">    0.08    0.08</time>
   <energy>
    <i name="alphaZ">     21.27135837 </i>
    <i name="ewald">   3800.29172712 </i>
    <i name="hartreedc">  -5779.84971863 </i>
    <i name="XCdc">      0.95580989 </i>
    <i name="pawpsdc">   3145.21702330 </i>
    <i name="pawaedc">  -3049.99061607 </i>
    <i name="eentropy">     -0.00000000 </i>
    <i name="bandstr">   -469.44661129 </i>
    <i name="atom">   2312.11939502 </i>
    <i name="e_fr_energy">    -19.43163230 </i>
    <i name="e_wo_entrp">    -19.43163230 </i>
    <i name="e_0_energy">    -19.43163230 </i>
   </energy>
  </scstep>
  <structure>
   <crystal>
    <varray name="basis" >
     <v>       3.56154665       0.00000000       0.00000000 </v>
     <v>       1.78077332       3.08438987       0.00000000 </v>
     <v>       0.00000000       0.00000000      20.00000000 </v>
    </varray>
    <i name="volume">    219.70396831 </i>
    <varray name="rec_basis" >
     <v>       0.28077689      -0.16210661       0.00000000 </v>
     <v>       0.00000000       0.32421323       0.00000000 </v>
     <v>       0.00000000       0.00000000       0.05000000 </v>
    </varray>
   </crystal>
   <varray name="positions" >
    <v>       0.00000000       0.00000000       0.50000000 </v>
    <v>       0.33333333       0.33333333       0.40976984 </v>
    <v>       0.33333333       0.33333333       0.59023016 </v>
   </varray>
  </structure>
  <varray name="forces" >
   <v>       0.00000000      -0.00000000      -0.00000000 </v>
   <v>      -0.00000000       0.00000000      -0.00108418 </v>
   <v>       0.00000000      -0.00000000       0.00108418 </v>
  </varray>
  <varray name="stress" >
   <v>      -7.70521199      -0.00000000       0.00000000 </v>
   <v>       0.00000000      -7.70521199      -0.00000000 </v>
   <v>      -0.00000000       0.00000000      -0.08470343 </v>
  </varray>
  <energy>
   <i name="e_fr_energy">    -20.57040955 </i>
   <i name="e_wo_entrp">    -20.57040955 </i>
   <i name="e_0_energy">    -20.57040955 </i>
  </energy>
  <time name="totalsc">    0.70    0.71</time>
 </calculation>
 <calculation>
  <scstep>
   <time name="dav">    0.07    0.07</time>
   <time name="total">    0.10    0.10</time>
   <energy>
    <i name="alphaZ">     21.27135837 </i>
    <i name="ewald">   3800.18968436 </i>
    <i name="hartreedc">  -5779.76224486 </i>
    <i name="XCdc">      0.95554051 </i>
    <i name="pawpsdc">   3145.11800649 </i>
    <i name="pawaedc">  -3049.89151393 </i>
    <i name="eentropy">     -0.00000000 </i>
    <i name="bandstr">   -469.43187668 </i>
    <i name="atom">   2312.11939502 </i>
    <i name="e_fr_energy">    -19.43165073 </i>
    <i name="e_wo_entrp">    -19.43165073 </i>
    <i name="e_0_energy">    -19.43165073 </i>
   </energy>
  </scstep>
  <scstep>
   <time name="dav">    0.05    0.05</time>
   <time name="total">    0.07    0.07</time>
   <energy>
    <i name="alphaZ">     21.27135837 </i>
    <i name="ewald">   3800.18968436 </i>
    <i name="hartreedc">  -5779.76196021 </i>
    <i name="XCdc">      0.95547791 </i>
    <i name="pawpsdc">   3145.05730897 </i>
    <i name="pawaedc">  -3049.83092511 </i>
    <i name="eentropy">     -0.00000000 </i>
    <i name="bandstr">   -469.43199006 </i>
    <i name="atom">   2312.11939502 </i>
    <i name="e_fr_energy">    -19.43165075 </i>
    <i name="e_wo_entrp">    -19.43165075 </i>
    <i name="e_0_energy">    -19.43165075 </i>
   </energy>
  </scstep>
  <structure>
   <crystal>
    <varray name="basis" >
     <v>       3.56154665       0.00000000       0.00000000 </v>
     <v>       1.78077332       3.08438987       0.00000000 </v>
     <v>       0.00000000       0.00000000      20.00000000 </v>
    </varray>
    <i name="volume">    219.70396831 </i>
    <varray name="rec_basis" >
     <v>       0.28077689      -0.16210661       0.00000000 </v>
     <v>       0.00000000       0.32421323       0.00000000 </v>
     <v>       0.00000000       0.00000000       0.05000000 </v>
    </varray>
   </crystal>
   <varray name="positions" >
    <v>       0.00000000       0.00000000       0.50000000 </v>
    <v>       0.33333333       0.33333333       0.40976625 </v>
    <v>       0.33333333       0.33333333       0.59023375 </v>
   </varray>
  </structure>
  <varray name="forces" >
   <v>      -0.00000000      -0.00000000      -0.00000000 </v>
   <v>       0.00000000       0.00000000       0.00012826 </v>
   <v>      -0.00000000      -0.00000000      -0.00012826 </v>
  </varray>
  <varray name="stress" >
   <v>      -7.72526974       0.00000000      -0.00000000 </v>
   <v>       0.00000000      -7.72526974       0.00000000 </v>
   <v>       0.00000000      -0.00000000      -0.10109219 </v>
  </varray>
  <energy>
   <i name="e_fr_energy">    -20.57040934 </i>
   <i name="e_wo_entrp">    -20.57040934 </i>
   <i name="e_0_energy">    -20.57040934 </i>
  </energy>
  <time name="totalsc">    0.38    0.39</time>
 </calculation>
 <calculation>
  <scstep>
   <time name="dav">    0.06    0.06</time>
   <time name="total">    0.09    0.09</time>
   <energy>
    <i name="alphaZ">     21.27135837 </i>
    <i name="ewald">   3800.20047926 </i>
    <i name="hartreedc">  -5779.77763497 </i>
    <i name="XCdc">      0.95557730 </i>
    <i name="pawpsdc">   3145.03186451 </i>
    <i name="pawaedc">  -3049.80535124 </i>
    <i name="eentropy">     -0.00000000 </i>
    <i name="bandstr">   -469.42733706 </i>
    <i name="atom">   2312.11939502 </i>
    <i name="e_fr_energy">    -19.43164882 </i>
    <i name="e_wo_entrp">    -19.43164882 </i>
    <i name="e_0_energy">    -19.43164882 </i>
   </energy>
  </scstep>
  <scstep>
   <time name="dav">    0.06    0.06</time>
   <time name="total">    0.08    0.08</time>
   <energy>
    <i name="alphaZ">     21.27135837 </i>
    <i name="ewald">   3800.20047926 </i>
    <i name="hartreedc">  -5779.77953233 </i>
    <i name="XCdc">      0.95558042 </i>
    <i name="pawpsdc">   3145.02018336 </i>
    <i name="pawaedc">  -3049.79369103 </i>
    <i name="eentropy">     -0.00000000 </i>
    <i name="bandstr">   -469.42542199 </i>
    <i name="atom">   2312.11939502 </i>
    <i name="e_fr_energy">    -19.43164892 </i>
    <i name="e_wo_entrp">    -19.43164892 </i>
    <i name="e_0_energy">    -19.43164892 </i>
   </energy>
  </scstep>
  <structure>
   <crystal>
    <varray name="basis" >
     <v>       3.56154665       0.00000000       0.00000000 </v>
     <v>       1.78077332       3.08438987       0.00000000 </v>
     <v>       0.00000000       0.00000000      20.00000000 </v>
    </varray>
    <i name="volume">    219.70396831 </i>
    <varray name="rec_basis" >
     <v>       0.28077689      -0.16210661       0.00000000 </v>
     <v>       0.00000000       0.32421323       0.00000000 </v>
     <v>       0.00000000       0.00000000       0.05000000 </v>
    </varray>
   </crystal>
   <varray name="positions" >
    <v>       0.00000000      -0.00000000       0.50000000 </v>
    <v>       0.33333333       0.33333333       0.40976663 </v>
    <v>       0.33333333       0.33333333       0.59023337 </v>
   </varray>
  </structure>
  <varray name="forces" >
   <v>       0.00000000       0.00000000      -0.00000000 </v>
   <v>      -0.00000000      -0.00000000      -0.00007216 </v>
   <v>       0.00000000      -0.00000000       0.00007216 </v>
  </varray>
  <varray name="stress" >
   <v>      -7.72301998      -0.00000000      -0.00000000 </v>
   <v>      -0.00000000      -7.72301998      -0.00000000 </v>
   <v>      -0.00000000      -0.00000000      -0.11039623 </v>
  </varray>
  <energy>
   <i name="e_fr_energy">    -20.57040948 </i>
   <i name="e_wo_entrp">    -20.57040948 </i>
   <i name="e_0_energy">    -20.57040948 </i>
  </energy>
  <time name="totalsc">    0.35    0.36</time>
  <eigenvalues>
   <array>
    <dimension dim="1">band</dimension>
    <dimension dim="2">kpoint</dimension>
    <dimension dim="3">spin</dimension>
    <field>eigene</field>
    <field>occ</field>
    <set>
     <set comment="spin 1">
      <set comment="kpoint 1">
       <r>  -74.3552    1.0000 </r>
       <r>  -38.5565    1.0000 </r>
       <r>  -38.5308    1.0000 </r>
       <r>  -38.5308    1.0000 </r>
       <r>  -13.3874    1.0000 </r>
       <r>  -12.1954    1.0000 </r>
       <r>   -5.9440    1.0000 </r>
       <r>   -2.3181    1.0000 </r>
       <r>   -2.2515    1.0000 </r>
       <r>   -2.2515    1.0000 </r>
       <r>   -1.3335    1.0000 </r>
       <r>   -1.3335    1.0000 </r>
       <r>   -0.8736    1.0000 </r>
       <r>    2.6395    0.0000 </r>
       <r>    2.6395    0.0000 </r>
       <r>    2.9220    0.0000 </r>
       <r>    2.9220    0.0000 </r>
       <r>    3.4990    0.0000 </r>
       <r>    3.9437    0.0000 </r>
       <r>    4.4749    0.0000 </r>
       <r>    5.2940    0.0000 </r>
       <r>    5.9547    0.0000 </r>
      </set>
      <set comment="kpoint 2">
       <r>  -74.3551    1.0000 </r>
       <r>  -38.5557    1.0000 </r>
       <r>  -38.5349    1.0000 </r>
       <r>  -38.5318    1.0000 </r>
       <r>  -13.3236    1.0000 </r>
       <r>  -12.1544    1.0000 </r>
       <r>   -5.8706    1.0000 </r>
       <r>   -2.4265    1.0000 </r>
       <r>   -2.4236    1.0000 </r>
       <r>   -2.1992    1.0000 </r>
       <r>   -1.4278    1.0000 </r>
       <r>   -1.3094    1.0000 </r>
       <r>   -0.8809    1.0000 </r>
       <r>    2.4010    0.0000 </r>
       <r>    2.5155    0.0000 </r>
       <r>    2.7188    0.0000 </r>
       <r>    2.7912    0.0000 </r>
       <r>    3.6720    0.0000 </r>
       <r>    4.0210    0.0000 </r>
       <r>    4.6085    0.0000 </r>
       <r>    5.5300    0.0000 </r>
       <r>    6.0246    0.0000 </r>
      </set>
      <set comment="kpoint 3">
       <r>  -74.3547    1.0000 </r>
       <r>  -38.5533    1.0000 </r>
       <r>  -38.5466    1.0000 </r>
       <r>  -38.5346    1.0000 </r>
       <r>  -13.1361    1.0000 </r>
       <r>  -12.0343    1.0000 </r>
       <r>   -5.6574    1.0000 </r>
       <r>   -2.8894    1.0000 </r>
       <r>   -2.7005    1.0000 </r>
       <r>   -2.0485    1.0000 </r>
       <r>   -1.6716    1.0000 </r>
       <r>   -1.3480    1.0000 </r>
       <r>   -0.9310    1.0000 </r>
       <r>    1.8680    0.0000 </r>
       <r>    2.0111    0.0000 </r>
       <r>    2.4677    0.0000 </r>
       <r>    2.9130    0.0000 </r>
       <r>    3.9131    0.0000 </r>
       <r>    4.2413    0.0000 </r>
       <r>    4.8577    0.0000 </r>
       <r>    6.0492    0.0000 </r>
       <r>    6.2281    0.0000 </r>
      </set>
      <set comment="kpoint 4">
       <r>  -74.3542    1.0000 </r>
       <r>  -38.5637    1.0000 </r>
       <r>  -38.5498    1.0000 </r>
       <r>  -38.5387    1.0000 </r>
       <r>  -12.8368    1.0000 </r>
       <r>  -11.8438    1.0000 </r>
       <r>   -5.3314    1.0000 </r>
       <r>   -3.5437    1.0000 </r>
       <r>   -3.1064    1.0000 </r>
       <r>   -1.9853    1.0000 </r>
       <r>   -1.8192    1.0000 </r>
       <r>   -1.5568    1.0000 </r>
       <r>   -1.0874    1.0000 </r>
       <r>    1.3814    0.0000 </r>
       <r>    1.8848    0.0000 </r>
       <r>    2.0806    0.0000 </r>
       <r>    3.1355    0.0000 </r>
       <r>    4.2059    0.0000 </r>
       <r>    4.5911    0.0000 </r>
       <r>    5.1538    0.0000 </r>
       <r>    6.1394    0.0000 </r>
       <r>    6.5279    0.0000 </r>
      </set>
      <set comment="kpoint 5">
       <r>  -74.3535    1.0000 </r>
       <r>  -38.5833    1.0000 </r>
       <r>  -38.5458    1.0000 </r>
       <r>  -38.5434    1.0000 </r>
       <r>  -12.4490    1.0000 </r>
       <r>  -11.6004    1.0000 </r>
       <r>   -4.9875    1.0000 </r>
       <r>   -4.2426    1.0000 </r>
       <r>   -3.6490    1.0000 </r>
       <r>   -2.2988    1.0000 </r>
       <r>   -1.8225    1.0000 </r>
       <r>   -1.5468    1.0000 </r>
       <r>   -1.3392    1.0000 </r>
       <r>    1.1976    0.0000 </r>
       <r>    1.7314    0.0000 </r>
       <r>    2.0727    0.0000 </r>
       <r>    3.3212    0.0000 </r>
       <r>    4.5208    0.0000 </r>
       <r>    5.0402    0.0000 </r>
       <r>    5.3100    0.0000 </r>
       <r>    5.8305    0.0000 </r>
       <r>    6.4093    0.0000 </r>
      </set>
      <set comment="kpoint 6">
       <r>  -74.3529    1.0000 </r>
       <r>  -38.6020    1.0000 </r>
       <r>  -38.5479    1.0000 </r>
       <r>  -38.5420    1.0000 </r>
       <r>  -12.0147    1.0000 </r>
       <r>  -11.3351    1.0000 </r>
       <r>   -5.2356    1.0000 </r>
       <r>   -4.3645    1.0000 </r>
       <r>   -4.2548    1.0000 </r>
       <r>   -2.5652    1.0000 </r>
       <r>   -2.0117    1.0000 </r>
       <r>   -1.5276    1.0000 </r>
       <r>   -1.2828    1.0000 </r>
       <r>    1.2451    0.0000 </r>
       <r>    1.4805    0.0000 </r>
       <r>    2.4234    0.0000 </r>
       <r>    3.4461    0.0000 </r>
       <r>    4.2683    0.0000 </r>
       <r>    5.1539    0.0000 </r>
       <r>    5.4286    0.0000 </r>
       <r>    6.0651    0.0000 </r>
       <r>    6.1754    0.0000 </r>
      </set>
      <set comment="kpoint 7">
       <r>  -74.3524    1.0000 </r>
       <r>  -38.6165    1.0000 </r>
       <r>  -38.5514    1.0000 </r>
       <r>  -38.5390    1.0000 </r>
       <r>  -11.6079    1.0000 </r>
       <r>  -11.0972    1.0000 </r>
       <r>   -5.8536    1.0000 </r>
       <r>   -4.7777    1.0000 </r>
       <r>   -4.1200    1.0000 </r>
       <r>   -2.7561    1.0000 </r>
       <r>   -2.1127    1.0000 </r>
       <r>   -1.5155    1.0000 </r>
       <r>   -1.0823    1.0000 </r>
       <r>    1.3470    0.0000 </r>
       <r>    1.4013    0.0000 </r>
       <r>    2.7786    0.0000 </r>
       <r>    3.3422    0.0000 </r>
       <r>    3.5160    0.0000 </r>
       <r>    5.3647    0.0000 </r>
       <r>    5.5096    0.0000 </r>
       <r>    6.3102    0.0000 </r>
       <r>    6.7288    0.0000 </r>
      </set>
      <set comment="kpoint 8">
       <r>  -74.3522    1.0000 </r>
       <r>  -38.6244    1.0000 </r>
       <r>  -38.5533    1.0000 </r>
       <r>  -38.5373    1.0000 </r>
       <r>  -11.3461    1.0000 </r>
       <r>  -10.9518    1.0000 </r>
       <r>   -6.2458    1.0000 </r>
       <r>   -5.0815    1.0000 </r>
       <r>   -3.9992    1.0000 </r>
       <r>   -2.8551    1.0000 </r>
       <r>   -2.1536    1.0000 </r>
       <r>   -1.3847    1.0000 </r>
       <r>   -0.9792    1.0000 </r>
       <r>    1.3029    0.0000 </r>
       <r>    1.5856    0.0000 </r>
       <r>    2.6272    0.0000 </r>
       <r>    2.9991    0.0000 </r>
       <r>    3.5458    0.0000 </r>
       <r>    5.2847    0.0000 </r>
       <r>    5.8540    0.0000 </r>
       <r>    6.4061    0.0000 </r>
       <r>    6.9719    0.0000 </r>
      </set>
      <set comment="kpoint 9">
       <r>  -74.3548    1.0000 </r>
       <r>  -38.5541    1.0000 </r>
       <r>  -38.5427    1.0000 </r>
       <r>  -38.5338    1.0000 </r>
       <r>  -13.1980    1.0000 </r>
       <r>  -12.0739    1.0000 </r>
       <r>   -5.7270    1.0000 </r>
       <r>   -2.7365    1.0000 </r>
       <r>   -2.6060    1.0000 </r>
       <r>   -2.1038    1.0000 </r>
       <r>   -1.6533    1.0000 </r>
       <r>   -1.2675    1.0000 </r>
       <r>   -0.9085    1.0000 </r>
       <r>    2.0571    0.0000 </r>
       <r>    2.0856    0.0000 </r>
       <r>    2.5246    0.0000 </r>
       <r>    2.8584    0.0000 </r>
       <r>    3.8532    0.0000 </r>
       <r>    4.1707    0.0000 </r>
       <r>    4.7935    0.0000 </r>
       <r>    5.9414    0.0000 </r>
       <r>    6.1621    0.0000 </r>
      </set>
      <set comment="kpoint 10">
       <r>  -74.3544    1.0000 </r>
       <r>  -38.5567    1.0000 </r>
       <r>  -38.5511    1.0000 </r>
       <r>  -38.5376    1.0000 </r>
       <r>  -12.9543    1.0000 </r>
       <r>  -11.9183    1.0000 </r>
       <r>   -5.4547    1.0000 </r>
       <r>   -3.2792    1.0000 </r>
       <r>   -2.9054    1.0000 </r>
       <r>   -2.0456    1.0000 </r>
       <r>   -1.9415    1.0000 </r>
       <r>   -1.3080    1.0000 </r>
       <r>   -1.0028    1.0000 </r>
       <r>    1.5465    0.0000 </r>
       <r>    1.8237    0.0000 </r>
       <r>    2.1237    0.0000 </r>
       <r>    3.0623    0.0000 </r>
       <r>    4.1217    0.0000 </r>
       <r>    4.4607    0.0000 </r>
       <r>    5.0724    0.0000 </r>
       <r>    6.3508    0.0000 </r>
       <r>    6.4252    0.0000 </r>
      </set>
      <set comment="kpoint 11">
       <r>  -74.3538    1.0000 </r>
       <r>  -38.5746    1.0000 </r>
       <r>  -38.5474    1.0000 </r>
       <r>  -38.5425    1.0000 </r>
       <r>  -12.6098    1.0000 </r>
       <r>  -11.7005    1.0000 </r>
       <r>   -5.0989    1.0000 </r>
       <r>   -3.9471    1.0000 </r>
       <r>   -3.3527    1.0000 </r>
       <r>   -2.4265    1.0000 </r>
       <r>   -1.7878    1.0000 </r>
       <r>   -1.5072    1.0000 </r>
       <r>   -1.1544    1.0000 </r>
       <r>    1.2168    0.0000 </r>
       <r>    1.7736    0.0000 </r>
       <r>    1.8556    0.0000 </r>
       <r>    3.2441    0.0000 </r>
       <r>    4.4615    0.0000 </r>
       <r>    4.8700    0.0000 </r>
       <r>    5.4029    0.0000 </r>
       <r>    6.0652    0.0000 </r>
       <r>    6.7140    0.0000 </r>
      </set>
      <set comment="kpoint 12">
       <r>  -74.3531    1.0000 </r>
       <r>  -38.5932    1.0000 </r>
       <r>  -38.5476    1.0000 </r>
       <r>  -38.5435    1.0000 </r>
       <r>  -12.1960    1.0000 </r>
       <r>  -11.4438    1.0000 </r>
       <r>   -4.9468    1.0000 </r>
       <r>   -4.4305    1.0000 </r>
       <r>   -3.9427    1.0000 </r>
       <r>   -2.6825    1.0000 </r>
       <r>   -1.7991    1.0000 </r>
       <r>   -1.7644    1.0000 </r>
       <r>   -1.1640    1.0000 </r>
       <r>    1.1180    0.0000 </r>
       <r>    1.5560    0.0000 </r>
       <r>    2.1290    0.0000 </r>
       <r>    3.3587    0.0000 </r>
       <r>    4.7523    0.0000 </r>
       <r>    5.1862    0.0000 </r>
       <r>    5.3447    0.0000 </r>
       <r>    5.9965    0.0000 </r>
       <r>    6.4575    0.0000 </r>
      </set>
      <set comment="kpoint 13">
       <r>  -74.3526    1.0000 </r>
       <r>  -38.6094    1.0000 </r>
       <r>  -38.5520    1.0000 </r>
       <r>  -38.5400    1.0000 </r>
       <r>  -11.7686    1.0000 </r>
       <r>  -11.1878    1.0000 </r>
       <r>   -5.5229    1.0000 </r>
       <r>   -4.5280    1.0000 </r>
       <r>   -4.2076    1.0000 </r>
       <r>   -2.8378    1.0000 </r>
       <r>   -1.9761    1.0000 </r>
       <r>   -1.8607    1.0000 </r>
       <r>   -1.0326    1.0000 </r>
       <r>    1.1868    0.0000 </r>
       <r>    1.4664    0.0000 </r>
       <r>    2.4989    0.0000 </r>
       <r>    3.3879    0.0000 </r>
       <r>    3.9794    0.0000 </r>
       <r>    5.3975    0.0000 </r>
       <r>    5.6656    0.0000 </r>
       <r>    6.3711    0.0000 </r>
       <r>    6.5265    0.0000 </r>
      </set>
      <set comment="kpoint 14">
       <r>  -74.3522    1.0000 </r>
       <r>  -38.6203    1.0000 </r>
       <r>  -38.5550    1.0000 </r>
       <r>  -38.5377    1.0000 </r>
       <r>  -11.4227    1.0000 </r>
       <r>  -10.9904    1.0000 </r>
       <r>   -6.0430    1.0000 </r>
       <r>   -4.9542    1.0000 </r>
       <r>   -4.0197    1.0000 </r>
       <r>   -2.9264    1.0000 </r>
       <r>   -2.1039    1.0000 </r>
       <r>   -1.7994    1.0000 </r>
       <r>   -0.9127    1.0000 </r>
       <r>    1.3028    0.0000 </r>
       <r>    1.5041    0.0000 </r>
       <r>    2.8516    0.0000 </r>
       <r>    3.0889    0.0000 </r>
       <r>    3.3176    0.0000 </r>
       <r>    5.7309    0.0000 </r>
       <r>    5.8373    0.0000 </r>
       <r>    6.5427    0.0000 </r>
       <r>    7.0710    0.0000 </r>
      </set>
      <set comment="kpoint 15">
       <r>  -74.3521    1.0000 </r>
       <r>  -38.6242    1.0000 </r>
       <r>  -38.5561    1.0000 </r>
       <r>  -38.5369    1.0000 </r>
       <r>  -11.2845    1.0000 </r>
       <r>  -10.9147    1.0000 </r>
       <r>   -6.2451    1.0000 </r>
       <r>   -5.1107    1.0000 </r>
       <r>   -3.9661    1.0000 </r>
       <r>   -2.9560    1.0000 </r>
       <r>   -2.1455    1.0000 </r>
       <r>   -1.7401    1.0000 </r>
       <r>   -0.8596    1.0000 </r>
       <r>    1.3056    0.0000 </r>
       <r>    1.6403    0.0000 </r>
       <r>    2.6667    0.0000 </r>
       <r>    3.0884    0.0000 </r>
       <r>    3.1792    0.0000 </r>
       <r>    5.7936    0.0000 </r>
       <r>    6.1044    0.0000 </r>
       <r>    6.4658    0.0000 </r>
       <r>    7.0129    0.0000 </r>
      </set>
      <set comment="kpoint 16">
       <r>  -74.3539    1.0000 </r>
       <r>  -38.5709    1.0000 </r>
       <r>  -38.5479    1.0000 </r>
       <r>  -38.5428    1.0000 </r>
       <r>  -12.6648    1.0000 </r>
       <r>  -11.7348    1.0000 </r>
       <r>   -5.1427    1.0000 </r>
       <r>   -3.8107    1.0000 </r>
       <r>   -3.1723    1.0000 </r>
       <r>   -2.6001    1.0000 </r>
       <r>   -1.9094    1.0000 </r>
       <r>   -1.3105    1.0000 </r>
       <r>   -1.0803    1.0000 </r>
       <r>    1.2355    0.0000 </r>
       <r>    1.7116    0.0000 </r>
       <r>    1.7297    0.0000 </r>
       <r>    3.2161    0.0000 </r>
       <r>    4.4493    0.0000 </r>
       <r>    4.8169    0.0000 </r>
       <r>    5.4118    0.0000 </r>
       <r>    6.3877    0.0000 </r>
       <r>    6.7354    0.0000 </r>
      </set>
      <set comment="kpoint 17">
       <r>  -74.3533    1.0000 </r>
       <r>  -38.5868    1.0000 </r>
       <r>  -38.5491    1.0000 </r>
       <r>  -38.5443    1.0000 </r>
       <r>  -12.2915    1.0000 </r>
       <r>  -11.5012    1.0000 </r>
       <r>   -4.8194    1.0000 </r>
       <r>   -4.3613    1.0000 </r>
       <r>   -3.6410    1.0000 </r>
       <r>   -2.9711    1.0000 </r>
       <r>   -2.0862    1.0000 </r>
       <r>   -1.4811    1.0000 </r>
       <r>   -1.0489    1.0000 </r>
       <r>    0.9980    0.0000 </r>
       <r>    1.5598    0.0000 </r>
       <r>    1.8122    0.0000 </r>
       <r>    3.3160    0.0000 </r>
       <r>    4.8599    0.0000 </r>
       <r>    5.2716    0.0000 </r>
       <r>    5.6929    0.0000 </r>
       <r>    5.9559    0.0000 </r>
       <r>    7.0214    0.0000 </r>
      </set>
      <set comment="kpoint 18">
       <r>  -74.3527    1.0000 </r>
       <r>  -38.6017    1.0000 </r>
       <r>  -38.5553    1.0000 </r>
       <r>  -38.5408    1.0000 </r>
       <r>  -11.8765    1.0000 </r>
       <r>  -11.2479    1.0000 </r>
       <r>   -5.1547    1.0000 </r>
       <r>   -4.2772    1.0000 </r>
       <r>   -4.2459    1.0000 </r>
       <r>   -3.1088    1.0000 </r>
       <r>   -2.3406    1.0000 </r>
       <r>   -1.7410    1.0000 </r>
       <r>   -0.9600    1.0000 </r>
       <r>    1.0042    0.0000 </r>
       <r>    1.5098    0.0000 </r>
       <r>    2.0646    0.0000 </r>
       <r>    3.3646    0.0000 </r>
       <r>    4.7862    0.0000 </r>
       <r>    5.3586    0.0000 </r>
       <r>    5.7483    0.0000 </r>
       <r>    6.4213    0.0000 </r>
       <r>    6.9822    0.0000 </r>
      </set>
      <set comment="kpoint 19">
       <r>  -74.3523    1.0000 </r>
       <r>  -38.6133    1.0000 </r>
       <r>  -38.5602    1.0000 </r>
       <r>  -38.5380    1.0000 </r>
       <r>  -11.4924    1.0000 </r>
       <r>  -11.0224    1.0000 </r>
       <r>   -5.6987    1.0000 </r>
       <r>   -4.7568    1.0000 </r>
       <r>   -4.0271    1.0000 </r>
       <r>   -3.1540    1.0000 </r>
       <r>   -2.4705    1.0000 </r>
       <r>   -1.9788    1.0000 </r>
       <r>   -0.8699    1.0000 </r>
       <r>    1.2279    0.0000 </r>
       <r>    1.4722    0.0000 </r>
       <r>    2.3322    0.0000 </r>
       <r>    3.3781    0.0000 </r>
       <r>    3.8221    0.0000 </r>
       <r>    5.8762    0.0000 </r>
       <r>    6.0853    0.0000 </r>
       <r>    6.9131    0.0000 </r>
       <r>    7.1502    0.0000 </r>
      </set>
      <set comment="kpoint 20">
       <r>  -74.3520    1.0000 </r>
       <r>  -38.6197    1.0000 </r>
       <r>  -38.5629    1.0000 </r>
       <r>  -38.5365    1.0000 </r>
       <r>  -11.2486    1.0000 </r>
       <r>  -10.8853    1.0000 </r>
       <r>   -6.0393    1.0000 </r>
       <r>   -5.0477    1.0000 </r>
       <r>   -3.9288    1.0000 </r>
       <r>   -3.1617    1.0000 </r>
       <r>   -2.4719    1.0000 </r>
       <r>   -2.1187    1.0000 </r>
       <r>   -0.7791    1.0000 </r>
       <r>    1.2509    0.0000 </r>
       <r>    1.6848    0.0000 </r>
       <r>    2.5012    0.0000 </r>
       <r>    3.1201    0.0000 </r>
       <r>    3.3717    0.0000 </r>
       <r>    6.2841    0.0000 </r>
       <r>    6.3726    0.0000 </r>
       <r>    6.8042    0.0000 </r>
       <r>    7.1450    0.0000 </r>
      </set>
      <set comment="kpoint 21">
       <r>  -74.3528    1.0000 </r>
       <r>  -38.5981    1.0000 </r>
       <r>  -38.5574    1.0000 </r>
       <r>  -38.5410    1.0000 </r>
       <r>  -11.9143    1.0000 </r>
       <r>  -11.2690    1.0000 </r>
       <r>   -4.9664    1.0000 </r>
       <r>   -4.3142    1.0000 </r>
       <r>   -4.0829    1.0000 </r>
       <r>   -3.2809    1.0000 </r>
       <r>   -2.5635    1.0000 </r>
       <r>   -1.6273    1.0000 </r>
       <r>   -0.9351    1.0000 </r>
       <r>    0.9320    0.0000 </r>
       <r>    1.5192    0.0000 </r>
       <r>    1.8624    0.0000 </r>
       <r>    3.3789    0.0000 </r>
       <r>    5.2190    0.0000 </r>
       <r>    5.3672    0.0000 </r>
       <r>    5.7388    0.0000 </r>
       <r>    6.3831    0.0000 </r>
       <r>    6.9947    0.0000 </r>
      </set>
      <set comment="kpoint 22">
       <r>  -74.3523    1.0000 </r>
       <r>  -38.6071    1.0000 </r>
       <r>  -38.5654    1.0000 </r>
       <r>  -38.5382    1.0000 </r>
       <r>  -11.5335    1.0000 </r>
       <r>  -11.0405    1.0000 </r>
       <r>   -5.3774    1.0000 </r>
       <r>   -4.5760    1.0000 </r>
       <r>   -4.0261    1.0000 </r>
       <r>   -3.3762    1.0000 </r>
       <r>   -2.9922    1.0000 </r>
       <r>   -1.8677    1.0000 </r>
       <r>   -0.8589    1.0000 </r>
       <r>    1.1532    0.0000 </r>
       <r>    1.4712    0.0000 </r>
       <r>    1.9624    0.0000 </r>
       <r>    3.4873    0.0000 </r>
       <r>    4.4963    0.0000 </r>
       <r>    5.8424    0.0000 </r>
       <r>    6.1627    0.0000 </r>
       <r>    6.3029    0.0000 </r>
       <r>    7.0740    0.0000 </r>
      </set>
      <set comment="kpoint 23">
       <r>  -74.3520    1.0000 </r>
       <r>  -38.6128    1.0000 </r>
       <r>  -38.5713    1.0000 </r>
       <r>  -38.5363    1.0000 </r>
       <r>  -11.2344    1.0000 </r>
       <r>  -10.8671    1.0000 </r>
       <r>   -5.7073    1.0000 </r>
       <r>   -4.9380    1.0000 </r>
       <r>   -3.9039    1.0000 </r>
       <r>   -3.3852    1.0000 </r>
       <r>   -3.1901    1.0000 </r>
       <r>   -2.0793    1.0000 </r>
       <r>   -0.7377    1.0000 </r>
       <r>    1.1465    0.0000 </r>
       <r>    1.7227    0.0000 </r>
       <r>    2.0331    0.0000 </r>
       <r>    3.6179    0.0000 </r>
       <r>    3.7460    0.0000 </r>
       <r>    5.8178    0.0000 </r>
       <r>    6.4030    0.0000 </r>
       <r>    6.6265    0.0000 </r>
       <r>    7.7908    0.0000 </r>
      </set>
      <set comment="kpoint 24">
       <r>  -74.3519    1.0000 </r>
       <r>  -38.6147    1.0000 </r>
       <r>  -38.5735    1.0000 </r>
       <r>  -38.5356    1.0000 </r>
       <r>  -11.1179    1.0000 </r>
       <r>  -10.8013    1.0000 </r>
       <r>   -5.8368    1.0000 </r>
       <r>   -5.0702    1.0000 </r>
       <r>   -3.9072    1.0000 </r>
       <r>   -3.3782    1.0000 </r>
       <r>   -3.2109    1.0000 </r>
       <r>   -2.1636    1.0000 </r>
       <r>   -0.6527    1.0000 </r>
       <r>    1.0320    0.0000 </r>
       <r>    1.9940    0.0000 </r>
       <r>    2.0553    0.0000 </r>
       <r>    3.3597    0.0000 </r>
       <r>    3.6785    0.0000 </r>
       <r>    5.7406    0.0000 </r>
       <r>    6.4837    0.0000 </r>
       <r>    7.0587    0.0000 </r>
       <r>    7.9106    0.0000 </r>
      </set>
      <set comment="kpoint 25">
       <r>  -74.3520    1.0000 </r>
       <r>  -38.6087    1.0000 </r>
       <r>  -38.5759    1.0000 </r>
       <r>  -38.5362    1.0000 </r>
       <r>  -11.2314    1.0000 </r>
       <r>  -10.8610    1.0000 </r>
       <r>   -5.5062    1.0000 </r>
       <r>   -4.8780    1.0000 </r>
       <r>   -3.9054    1.0000 </r>
       <r>   -3.5183    1.0000 </r>
       <r>   -3.4890    1.0000 </r>
       <r>   -2.0585    1.0000 </r>
       <r>   -0.7223    1.0000 </r>
       <r>    1.0966    0.0000 </r>
       <r>    1.7362    0.0000 </r>
       <r>    1.8630    0.0000 </r>
       <r>    3.7210    0.0000 </r>
       <r>    4.1654    0.0000 </r>
       <r>    5.3306    0.0000 </r>
       <r>    6.4546    0.0000 </r>
       <r>    6.6279    0.0000 </r>
       <r>    7.7771    0.0000 </r>
      </set>
      <set comment="kpoint 26">
       <r>  -74.3518    1.0000 </r>
       <r>  -38.6078    1.0000 </r>
       <r>  -38.5834    1.0000 </r>
       <r>  -38.5351    1.0000 </r>
       <r>  -11.0495    1.0000 </r>
       <r>  -10.7546    1.0000 </r>
       <r>   -5.5415    1.0000 </r>
       <r>   -5.0591    1.0000 </r>
       <r>   -4.1338    1.0000 </r>
       <r>   -3.5691    1.0000 </r>
       <r>   -3.5170    1.0000 </r>
       <r>   -2.1945    1.0000 </r>
       <r>   -0.5371    1.0000 </r>
       <r>    0.8280    0.0000 </r>
       <r>    1.8017    0.0000 </r>
       <r>    2.1839    0.0000 </r>
       <r>    3.7737    0.0000 </r>
       <r>    3.9128    0.0000 </r>
       <r>    4.9500    0.0000 </r>
       <r>    6.5942    0.0000 </r>
       <r>    7.3083    0.0000 </r>
       <r>    8.0044    0.0000 </r>
      </set>
      <set comment="kpoint 27">
       <r>  -74.3517    1.0000 </r>
       <r>  -38.6025    1.0000 </r>
       <r>  -38.5913    1.0000 </r>
       <r>  -38.5347    1.0000 </r>
       <r>  -10.9823    1.0000 </r>
       <r>  -10.7133    1.0000 </r>
       <r>   -5.3758    1.0000 </r>
       <r>   -5.1025    1.0000 </r>
       <r>   -4.4467    1.0000 </r>
       <r>   -3.5836    1.0000 </r>
       <r>   -3.5588    1.0000 </r>
       <r>   -2.2432    1.0000 </r>
       <r>   -0.3997    1.0000 </r>
       <r>    0.6344    0.0000 </r>
       <r>    1.7184    0.0000 </r>
       <r>    2.4264    0.0000 </r>
       <r>    3.8603    0.0000 </r>
       <r>    4.0455    0.0000 </r>
       <r>    4.5019    0.0000 </r>
       <r>    6.6789    0.0000 </r>
       <r>    7.7617    0.0000 </r>
       <r>    7.9225    0.0000 </r>
      </set>
     </set>
    </set>
   </array>
  </eigenvalues>
  <separator name="orbital magnetization" >
   <v name="MAGDIPOLOUT">      0.00000000      0.00000000      0.00000000</v>
  </separator>
 </calculation>
 <structure name="finalpos" >
  <crystal>
   <varray name="basis" >
    <v>       3.56154665       0.00000000       0.00000000 </v>
    <v>       1.78077332       3.08438987       0.00000000 </v>
    <v>       0.00000000       0.00000000      20.00000000 </v>
   </varray>
   <i name="volume">    219.70396831 </i>
   <varray name="rec_basis" >
    <v>       0.28077689      -0.16210661       0.00000000 </v>
    <v>       0.00000000       0.32421323       0.00000000 </v>
    <v>       0.00000000       0.00000000       0.05000000 </v>
   </varray>
  </crystal>
  <varray name="positions" >
   <v>       0.00000000      -0.00000000       0.50000000 </v>
   <v>       0.33333333       0.33333333       0.40976663 </v>
   <v>       0.33333333       0.33333333       0.59023337 </v>
  </varray>
 </structure>
</modeling>
