WTe2 relaxation                         
           1
     3.561547    0.000000    0.000000
     1.780773    3.084390    0.000000
     0.000000    0.000000   20.000000
   W    Te
     1     2
Direct configuration=     1
   0.00000000  0.00000000  0.50000000
   0.33333333  0.33333333  0.41031155
   0.33333333  0.33333333  0.58968845
Direct configuration=     2
   0.00000000  0.00000000  0.50000000
   0.33333333  0.33333333  0.40990651
   0.33333333  0.33333333  0.59009349
Direct configuration=     3
   0.00000000  0.00000000  0.50000000
   0.33333333  0.33333333  0.40976956
   0.33333333  0.33333333  0.59023044
Direct configuration=     4
   0.00000000  0.00000000  0.50000000
   0.33333333  0.33333333  0.40976617
   0.33333333  0.33333333  0.59023383
Direct configuration=     5
   0.00000000 -0.00000000  0.50000000
   0.33333333  0.33333333  0.40976675
   0.33333333  0.33333333  0.59023325
Direct configuration=     6
   0.00000000 -0.00000000  0.50000000
   0.33333333  0.33333333  0.40976651
   0.33333333  0.33333333  0.59023349
Direct configuration=     7
   0.00000000 -0.00000000  0.50000000
   0.33333333  0.33333333  0.40976647
   0.33333333  0.33333333  0.59023353
Direct configuration=     8
   0.00000000 -0.00000000  0.50000000
   0.33333333  0.33333333  0.40976647
   0.33333333  0.33333333  0.59023353
Direct configuration=     9
   0.00000000 -0.00000000  0.50000000
   0.33333333  0.33333333  0.40976647
   0.33333333  0.33333333  0.59023353
Direct configuration=    10
   0.00000000  0.00000000  0.50000000
   0.33333333  0.33333333  0.40976647
   0.33333333  0.33333333  0.59023353
Direct configuration=    11
   0.00000000  0.00000000  0.50000000
   0.33333333  0.33333333  0.40976647
   0.33333333  0.33333333  0.59023353
Direct configuration=    12
   0.00000000  0.00000000  0.50000000
   0.33333333  0.33333333  0.40976647
   0.33333333  0.33333333  0.59023353
Direct configuration=    13
  -0.00000000 -0.00000000  0.50000000
   0.33333333  0.33333333  0.40976647
   0.33333333  0.33333333  0.59023353
Direct configuration=    14
   0.00000000  0.00000000  0.50000000
   0.33333333  0.33333333  0.40976647
   0.33333333  0.33333333  0.59023353
Direct configuration=    15
   0.00000000  0.00000000  0.50000000
   0.33333333  0.33333333  0.40976647
   0.33333333  0.33333333  0.59023353
Direct configuration=    16
  -0.00000000 -0.00000000  0.50000000
   0.33333333  0.33333333  0.40976647
   0.33333333  0.33333333  0.59023353
Direct configuration=    17
   0.00000000  0.00000000  0.50000000
   0.33333333  0.33333333  0.40976651
   0.33333333  0.33333333  0.59023349
Direct configuration=    18
   0.00000000  0.00000000  0.50000000
   0.33333333  0.33333333  0.40976653
   0.33333333  0.33333333  0.59023347
Direct configuration=    19
   0.00000000  0.00000000  0.50000000
   0.33333333  0.33333333  0.40976653
   0.33333333  0.33333333  0.59023347
Direct configuration=    20
   0.00000000  0.00000000  0.50000000
   0.33333333  0.33333333  0.40976655
   0.33333333  0.33333333  0.59023345
Direct configuration=    21
   0.00000000  0.00000000  0.50000000
   0.33333333  0.33333333  0.40976653
   0.33333333  0.33333333  0.59023347
Direct configuration=    22
   0.00000000  0.00000000  0.50000000
   0.33333333  0.33333333  0.40976654
   0.33333333  0.33333333  0.59023346
