generated by phonopy
   1.0
     9.5526686841691912    0.0000000000000000    0.0000000000000000
     4.7763343420845956    8.2728537544265865    0.0000000000000000
     0.0000000000000000    0.0000000000000000   20.0000000000000000
W S
   9   18
Direct
  0.0000000000000000  0.0000000000000000  0.5000000000000000
  0.3333333333333333  0.0000000000000000  0.5000000000000000
  0.6666666666666666  0.0000000000000000  0.5000000000000000
  0.0000000000000000  0.3333333333333333  0.5000000000000000
  0.3333333333333334  0.3333333333333333  0.5000000000000000
  0.6666666666666667  0.3333333333333333  0.5000000000000000
  0.0000000000000000  0.6666666666666666  0.5000000000000000
  0.3333333333333333  0.6666666666666666  0.5000000000000000
  0.6666666666666667  0.6666666666666666  0.5000000000000000
  0.1106599338739130  0.1111111111111119  0.4211767862831702
  0.4444444444444451  0.1111111111111119  0.4216279635203692
  0.7777777777777786  0.1111111111111119  0.4216279635203692
  0.1111111111111119  0.4444444444444451  0.4216279635203692
  0.4444444444444451  0.4444444444444451  0.4216279635203692
  0.7777777777777786  0.4444444444444451  0.4216279635203692
  0.1111111111111120  0.7777777777777785  0.4216279635203692
  0.4444444444444453  0.7777777777777785  0.4216279635203692
  0.7777777777777786  0.7777777777777785  0.4216279635203692
  0.1111111111111119  0.1111111111111119  0.5783720364796309
  0.4444444444444451  0.1111111111111119  0.5783720364796309
  0.7777777777777786  0.1111111111111119  0.5783720364796309
  0.1111111111111119  0.4444444444444451  0.5783720364796309
  0.4444444444444451  0.4444444444444451  0.5783720364796309
  0.7777777777777786  0.4444444444444451  0.5783720364796309
  0.1111111111111120  0.7777777777777785  0.5783720364796309
  0.4444444444444453  0.7777777777777785  0.5783720364796309
  0.7777777777777786  0.7777777777777785  0.5783720364796309
