generated by phonopy                    
   1.00000000000000     
    10.1368387071583523    0.0000000000000000    0.0000000000000000
     5.0684193535791762    8.7787598344645392    0.0000000000000000
     0.0000000000000000    0.0000000000000000   20.0000000000000000
   Mo   S    Te
    18    18    18
Direct
     0.0000000000000000    0.0000000000000000    0.5039856267623435
     0.3333333333333357    0.0000000000000000    0.5039856267623435
     0.6666666666666643    0.0000000000000000    0.5039856267623435
     0.0000000000000000    0.3333333333333357    0.5039856267623435
     0.3333333333333357    0.3333333333333357    0.5039856267623435
     0.6666666666666643    0.3333333333333357    0.5039856267623435
     0.0000000000000000    0.6666666666666643    0.5039856267623435
     0.3333333333333357    0.6666666666666643    0.5039856267623435
     0.6666666666666643    0.6666666666666643    0.5039856267623435
     0.1111111111111143    0.1111111111111143    0.8210369186521689
     0.4444444444444429    0.1111111111111143    0.8210369186521689
     0.7777777777777786    0.1111111111111143    0.8210369186521689
     0.1111111111111143    0.4444444444444429    0.8210369186521689
     0.4444444444444429    0.4444444444444429    0.8210369186521689
     0.7777777777777786    0.4444444444444429    0.8210369186521689
     0.1111111111111143    0.7777777777777786    0.8210369186521689
     0.4444444444444429    0.7777777777777786    0.8210369186521689
     0.7777777777777786    0.7777777777777786    0.8210369186521689
     0.1115570974801159    0.1111111111111143    0.4295753949182668
     0.4444444444444429    0.1111111111111143    0.4291294085492652
     0.7777777777777786    0.1111111111111143    0.4291294085492652
     0.1111111111111143    0.4444444444444429    0.4291294085492652
     0.4444444444444429    0.4444444444444429    0.4291294085492652
     0.7777777777777786    0.4444444444444429    0.4291294085492652
     0.1111111111111143    0.7777777777777786    0.4291294085492652
     0.4444444444444429    0.7777777777777786    0.4291294085492652
     0.7777777777777786    0.7777777777777786    0.4291294085492652
     0.1111111111111143    0.1111111111111143    0.5787769616829834
     0.4444444444444429    0.1111111111111143    0.5787769616829834
     0.7777777777777786    0.1111111111111143    0.5787769616829834
     0.1111111111111143    0.4444444444444429    0.5787769616829834
     0.4444444444444429    0.4444444444444429    0.5787769616829834
     0.7777777777777786    0.4444444444444429    0.5787769616829834
     0.1111111111111143    0.7777777777777786    0.5787769616829834
     0.4444444444444429    0.7777777777777786    0.5787769616829834
     0.7777777777777786    0.7777777777777786    0.5787769616829834
     0.2222222222222214    0.2222222222222214    0.7276579239031165
     0.5555555555555571    0.2222222222222214    0.7276579239031165
     0.8888888888888928    0.2222222222222214    0.7276579239031165
     0.2222222222222214    0.5555555555555571    0.7276579239031165
     0.5555555555555571    0.5555555555555571    0.7276579239031165
     0.8888888888888928    0.5555555555555571    0.7276579239031165
     0.2222222222222214    0.8888888888888928    0.7276579239031165
     0.5555555555555571    0.8888888888888928    0.7276579239031165
     0.8888888888888928    0.8888888888888928    0.7276579239031165
     0.2222222222222214    0.2222222222222214    0.9144131604501453
     0.5555555555555571    0.2222222222222214    0.9144131604501453
     0.8888888888888928    0.2222222222222214    0.9144131604501453
     0.2222222222222214    0.5555555555555571    0.9144131604501453
     0.5555555555555571    0.5555555555555571    0.9144131604501453
     0.8888888888888928    0.5555555555555571    0.9144131604501453
     0.2222222222222214    0.8888888888888928    0.9144131604501453
     0.5555555555555571    0.8888888888888928    0.9144131604501453
     0.8888888888888928    0.8888888888888928    0.9144131604501453
 
  0.00000000E+00  0.00000000E+00  0.00000000E+00
  0.00000000E+00  0.00000000E+00  0.00000000E+00
  0.00000000E+00  0.00000000E+00  0.00000000E+00
  0.00000000E+00  0.00000000E+00  0.00000000E+00
  0.00000000E+00  0.00000000E+00  0.00000000E+00
  0.00000000E+00  0.00000000E+00  0.00000000E+00
  0.00000000E+00  0.00000000E+00  0.00000000E+00
  0.00000000E+00  0.00000000E+00  0.00000000E+00
  0.00000000E+00  0.00000000E+00  0.00000000E+00
  0.00000000E+00  0.00000000E+00  0.00000000E+00
  0.00000000E+00  0.00000000E+00  0.00000000E+00
  0.00000000E+00  0.00000000E+00  0.00000000E+00
  0.00000000E+00  0.00000000E+00  0.00000000E+00
  0.00000000E+00  0.00000000E+00  0.00000000E+00
  0.00000000E+00  0.00000000E+00  0.00000000E+00
  0.00000000E+00  0.00000000E+00  0.00000000E+00
  0.00000000E+00  0.00000000E+00  0.00000000E+00
  0.00000000E+00  0.00000000E+00  0.00000000E+00
  0.00000000E+00  0.00000000E+00  0.00000000E+00
  0.00000000E+00  0.00000000E+00  0.00000000E+00
  0.00000000E+00  0.00000000E+00  0.00000000E+00
  0.00000000E+00  0.00000000E+00  0.00000000E+00
  0.00000000E+00  0.00000000E+00  0.00000000E+00
  0.00000000E+00  0.00000000E+00  0.00000000E+00
  0.00000000E+00  0.00000000E+00  0.00000000E+00
  0.00000000E+00  0.00000000E+00  0.00000000E+00
  0.00000000E+00  0.00000000E+00  0.00000000E+00
  0.00000000E+00  0.00000000E+00  0.00000000E+00
  0.00000000E+00  0.00000000E+00  0.00000000E+00
  0.00000000E+00  0.00000000E+00  0.00000000E+00
  0.00000000E+00  0.00000000E+00  0.00000000E+00
  0.00000000E+00  0.00000000E+00  0.00000000E+00
  0.00000000E+00  0.00000000E+00  0.00000000E+00
  0.00000000E+00  0.00000000E+00  0.00000000E+00
  0.00000000E+00  0.00000000E+00  0.00000000E+00
  0.00000000E+00  0.00000000E+00  0.00000000E+00
  0.00000000E+00  0.00000000E+00  0.00000000E+00
  0.00000000E+00  0.00000000E+00  0.00000000E+00
  0.00000000E+00  0.00000000E+00  0.00000000E+00
  0.00000000E+00  0.00000000E+00  0.00000000E+00
  0.00000000E+00  0.00000000E+00  0.00000000E+00
  0.00000000E+00  0.00000000E+00  0.00000000E+00
  0.00000000E+00  0.00000000E+00  0.00000000E+00
  0.00000000E+00  0.00000000E+00  0.00000000E+00
  0.00000000E+00  0.00000000E+00  0.00000000E+00
  0.00000000E+00  0.00000000E+00  0.00000000E+00
  0.00000000E+00  0.00000000E+00  0.00000000E+00
  0.00000000E+00  0.00000000E+00  0.00000000E+00
  0.00000000E+00  0.00000000E+00  0.00000000E+00
  0.00000000E+00  0.00000000E+00  0.00000000E+00
  0.00000000E+00  0.00000000E+00  0.00000000E+00
  0.00000000E+00  0.00000000E+00  0.00000000E+00
  0.00000000E+00  0.00000000E+00  0.00000000E+00
  0.00000000E+00  0.00000000E+00  0.00000000E+00
