Bilayer WTe2/InSe TM_H2 (relaxed monolay
    1.000000000000000     
     3.7757747823739276    0.0000000000000000    0.0000000000000000
     1.8878873911869638    3.2699168805044816    0.0000000000000000
     0.0000000000000000    0.0000000000000000   20.0000000000000000
  W               Te              In              Se            
     1     2     2     2
Direct
    -0.0000000000000000    0.0000000000000000    0.4978144819739318
     0.3333333333333357    0.3333333333333357    0.4104178627991043
     0.3333333333333357    0.3333333333333357    0.5850472810269238
     0.6666666666666643    0.6666666666666643    0.8112060653370908
     0.6666666666666643    0.6666666666666643    0.9500614875674086
     0.0000000000000000   -0.0000000000000000    0.7385893505821698
    -0.0000000000000000    0.0000000000000000    0.0226285850700439
 
  0.00000000E+00  0.00000000E+00  0.00000000E+00
  0.00000000E+00  0.00000000E+00  0.00000000E+00
  0.00000000E+00  0.00000000E+00  0.00000000E+00
  0.00000000E+00  0.00000000E+00  0.00000000E+00
  0.00000000E+00  0.00000000E+00  0.00000000E+00
  0.00000000E+00  0.00000000E+00  0.00000000E+00
  0.00000000E+00  0.00000000E+00  0.00000000E+00
