       N       E                     dE             d eps       ncg     rms          rms(c)
DAV:   1     0.253401091332E+04    0.25340E+04   -0.14951E+05  5720   0.137E+03
DAV:   2    -0.532426253461E+02   -0.25873E+04   -0.25092E+04  6171   0.310E+02
DAV:   3    -0.327804117850E+03   -0.27456E+03   -0.27154E+03  5918   0.961E+01
DAV:   4    -0.339045946414E+03   -0.11242E+02   -0.11179E+02  6600   0.193E+01
DAV:   5    -0.339342399743E+03   -0.29645E+00   -0.29527E+00  6479   0.293E+00    0.768E+01
DAV:   6    -0.301686485600E+03    0.37656E+02   -0.23527E+02  5940   0.292E+01    0.306E+01
DAV:   7    -0.300496183283E+03    0.11903E+01   -0.52940E+01  5610   0.149E+01    0.186E+01
DAV:   8    -0.298466349521E+03    0.20298E+01   -0.73049E+00  5764   0.673E+00    0.737E+00
DAV:   9    -0.298355662558E+03    0.11069E+00   -0.10072E+00  6127   0.206E+00    0.307E+00
DAV:  10    -0.298274157768E+03    0.81505E-01   -0.22891E-01  6083   0.125E+00    0.120E+00
DAV:  11    -0.298245658558E+03    0.28499E-01   -0.50997E-02  6468   0.599E-01    0.602E-01
DAV:  12    -0.298230362558E+03    0.15296E-01   -0.17353E-02  5797   0.524E-01    0.377E-01
DAV:  13    -0.298220905264E+03    0.94573E-02   -0.65866E-03  5929   0.308E-01    0.232E-01
DAV:  14    -0.298207110647E+03    0.13795E-01   -0.10605E-02  5522   0.249E-01    0.202E-01
DAV:  15    -0.298203810837E+03    0.32998E-02   -0.35072E-03  6248   0.197E-01    0.200E-01
DAV:  16    -0.298201923287E+03    0.18876E-02   -0.17568E-03  5852   0.145E-01    0.132E-01
DAV:  17    -0.298199700128E+03    0.22232E-02   -0.61025E-03  5643   0.139E-01    0.856E-02
DAV:  18    -0.298201463629E+03   -0.17635E-02   -0.28505E-03  5797   0.958E-02    0.128E-01
DAV:  19    -0.298203226208E+03   -0.17626E-02   -0.17672E-03  5984   0.107E-01    0.795E-02
DAV:  20    -0.298203677090E+03   -0.45088E-03   -0.58057E-04  5885   0.792E-02    0.444E-02
DAV:  21    -0.298203944481E+03   -0.26739E-03   -0.27692E-04  6402   0.369E-02    0.263E-02
DAV:  22    -0.298204074073E+03   -0.12959E-03   -0.53716E-05  5566   0.182E-02    0.196E-02
DAV:  23    -0.298204191768E+03   -0.11770E-03   -0.26079E-05  5907   0.177E-02    0.139E-02
DAV:  24    -0.298204314856E+03   -0.12309E-03   -0.28435E-05  5742   0.154E-02    0.902E-03
DAV:  25    -0.298204385525E+03   -0.70668E-04   -0.10095E-05  5115   0.685E-03    0.938E-03
DAV:  26    -0.298204566581E+03   -0.18106E-03   -0.74614E-05  4895   0.888E-03    0.694E-03
DAV:  27    -0.298204519366E+03    0.47215E-04   -0.68164E-05  4961   0.869E-03    0.891E-03
DAV:  28    -0.298204494662E+03    0.24704E-04   -0.16929E-05  5368   0.927E-03    0.969E-03
DAV:  29    -0.298204503115E+03   -0.84527E-05   -0.49771E-06  5082   0.699E-03    0.702E-03
DAV:  30    -0.298204528751E+03   -0.25636E-04   -0.30722E-06  4213   0.339E-03    0.321E-03
DAV:  31    -0.298204547161E+03   -0.18410E-04   -0.16499E-06  4070   0.196E-03    0.196E-03
DAV:  32    -0.298204558255E+03   -0.11094E-04   -0.98060E-07  3795   0.133E-03    0.109E-03
DAV:  33    -0.298204560673E+03   -0.24183E-05   -0.46453E-07  3828   0.967E-04    0.689E-04
DAV:  34    -0.298204560857E+03   -0.18431E-06   -0.18863E-07  3289   0.839E-04
   1 F= -.30855549E+03 E0= -.30855549E+03  d E =-.598098E-28
