 vasp.6.5.1 10Mar25 (build Aug 29 2025 00:30:47) complex                        
  
 executed on             LinuxIFC date 2026.06.04  23:04:20
 running  264 mpi-ranks, with    1 threads/rank, on    6 nodes
 distrk:  each k-point on   44 cores,    6 groups
 distr:  one band on NCORE=   4 cores,   11 groups


--------------------------------------------------------------------------------------------------------


 INCAR:
   SYSTEM = MoSe2_WS2_2H phonon
   PREC = Accurate
   ENCUT = 520
   EDIFF = 1E-6
   ISMEAR = 0
   SIGMA = 0.05
   LREAL = Auto
   ALGO = Normal
   AMIN = 0.01
   NELM = 200
   NSW = 0
   IBRION = -1
   IVDW = 12
   KPAR = 6
   NCORE = 4
   LWAVE = .FALSE.
   LCHARG = .FALSE.

 POTCAR:    PAW_PBE Mo_sv 02Feb2006               
 POTCAR:    PAW_PBE Se 06Sep2000                  
 POTCAR:    PAW_PBE W_sv 04Sep2015                
 POTCAR:    PAW_PBE S 06Sep2000                   
 POTCAR:    PAW_PBE Mo_sv 02Feb2006               
   SHA256 =  2731df97e41766cc617548c5a8267718fdef1f509ac6bafa01e745abea2bdfaa Mo_sv/POTCAR          
   COPYR  = (c) Copyright 02Feb2006 Georg Kresse                                                    
   COPYR  = This file is part of the software VASP. Any use, copying, and all other rights are regul
   COPYR  = If you do not have a valid VASP license, you may not use, copy or distribute this file. 
   VRHFIN =Mo: 4p5s4d                                                                               
   LEXCH  = PE                                                                                      
   EATOM  =  1862.2866 eV,  136.8742 Ry                                                             
                                                                                                    
   TITEL  = PAW_PBE Mo_sv 02Feb2006                                                                 
   LULTRA =        F    use ultrasoft PP ?                                                          
   IUNSCR =        1    unscreen: 0-lin 1-nonlin 2-no                                               
   RPACOR =    2.200    partial core radius                                                         
   POMASS =   95.940; ZVAL   =   14.000    mass and valenz                                          
   RCORE  =    2.500    outmost cutoff radius                                                       
   RWIGS  =    2.750; RWIGS  =    1.455    wigner-seitz radius (au A)                               
   ENMAX  =  242.676; ENMIN  =  182.007 eV                                                          
   ICORE  =        3    local potential                                                             
   LCOR   =        T    correct aug charges                                                         
   LPAW   =        T    paw PP                                                                      
   EAUG   =  446.014                                                                                
   DEXC   =    0.000                                                                                
   RMAX   =    2.563    core radius for proj-oper                                                   
   RAUG   =    1.300    factor for augmentation sphere                                              
   RDEP   =    2.641    radius for radial grids                                                     
   RDEPT  =    2.031    core radius for aug-charge                                                  
                                                                                                    
   Atomic configuration                                                                             
   11 entries                                                                                       
     n  l   j            E        occ.                                                              
     1  0  0.50    -19819.0341   2.0000                                                             
     2  0  0.50     -2799.0127   2.0000                                                             
     2  1  1.50     -2502.0276   6.0000                                                             
     3  0  0.50      -476.4449   2.0000                                                             
     3  1  1.50      -379.1496   6.0000                                                             
     3  2  2.50      -220.9367  10.0000                                                             
     4  0  0.50       -64.3378   2.0000                                                             
     5  0  0.50        -4.0862   1.0000                                                             
     4  1  1.50       -38.4773   6.0000                                                             
     4  2  2.50        -3.7535   5.0000                                                             
     4  3  2.50        -1.3606   0.0000                                                             
   Description                                                                                      
     l       E           TYP  RCUT    TYP  RCUT                                                     
     0    -64.3377829     23  2.100                                                                 
     0     -4.0861640     23  2.400                                                                 
     1    -38.4772993     23  2.100                                                                 
     1     13.6058260     23  2.100                                                                 
     2     -3.7534941     23  2.400                                                                 
     2     -5.1140767     23  2.400                                                                 
     3     -4.0817478     23  2.500                                                                 
  local pseudopotential read in
  partial core-charges read in
  partial kinetic energy density read in
  atomic valenz-charges read in
  non local Contribution for L=           0  read in
    real space projection operators read in
  non local Contribution for L=           0  read in
    real space projection operators read in
  non local Contribution for L=           1  read in
    real space projection operators read in
  non local Contribution for L=           1  read in
    real space projection operators read in
  non local Contribution for L=           2  read in
    real space projection operators read in
  non local Contribution for L=           2  read in
    real space projection operators read in
    PAW grid and wavefunctions read in
 
   number of l-projection  operators is LMAX  =           6
   number of lm-projection operators is LMMAX =          18
 
 POTCAR:    PAW_PBE Se 06Sep2000                  
   SHA256 =  eabb916e6b4c819dc065ce039373bc328651da483898f08fb9e49c498452bf12 Se/POTCAR             
   COPYR  = (c) Copyright 06Sep2000 Georg Kresse                                                    
   COPYR  = This file is part of the software VASP. Any use, copying, and all other rights are regul
   COPYR  = If you do not have a valid VASP license, you may not use, copy or distribute this file. 
   VRHFIN =Se: s2p4                                                                                 
   LEXCH  = PE                                                                                      
   EATOM  =   257.1286 eV,   18.8984 Ry                                                             
                                                                                                    
   TITEL  = PAW_PBE Se 06Sep2000                                                                    
   LULTRA =        F    use ultrasoft PP ?                                                          
   IUNSCR =        1    unscreen: 0-lin 1-nonlin 2-no                                               
   RPACOR =    1.900    partial core radius                                                         
   POMASS =   78.960; ZVAL   =    6.000    mass and valenz                                          
   RCORE  =    2.100    outmost cutoff radius                                                       
   RWIGS  =    2.200; RWIGS  =    1.164    wigner-seitz radius (au A)                               
   ENMAX  =  211.555; ENMIN  =  158.666 eV                                                          
   ICORE  =        3    local potential                                                             
   LCOR   =        T    correct aug charges                                                         
   LPAW   =        T    paw PP                                                                      
   EAUG   =  446.842                                                                                
   DEXC   =    0.000                                                                                
   RMAX   =    2.147    core radius for proj-oper                                                   
   RAUG   =    1.300    factor for augmentation sphere                                              
   RDEP   =    2.177    radius for radial grids                                                     
   RDEPT  =    1.928    core radius for aug-charge                                                  
                                                                                                    
   Atomic configuration                                                                             
   10 entries                                                                                       
     n  l   j            E        occ.                                                              
     1  0  0.50    -12503.4787   2.0000                                                             
     2  0  0.50     -1606.9547   2.0000                                                             
     2  1  1.50     -1413.3140   6.0000                                                             
     3  0  0.50      -213.4885   2.0000                                                             
     3  1  1.50      -152.9538   6.0000                                                             
     3  2  2.50       -53.1221  10.0000                                                             
     4  0  0.50       -17.2865   2.0000                                                             
     4  1  0.50        -6.5110   4.0000                                                             
     4  2  2.50        -6.8029   0.0000                                                             
     4  3  2.50        -6.8029   0.0000                                                             
   Description                                                                                      
     l       E           TYP  RCUT    TYP  RCUT                                                     
     0    -17.2865377     23  2.100                                                                 
     0    -15.3094411     23  2.100                                                                 
     1     -6.5110275     23  2.100                                                                 
     1     -0.0695192     23  2.100                                                                 
     2     -6.8029130     23  2.100                                                                 
     3     -1.3605826      7  2.100                                                                 
  local pseudopotential read in
  partial core-charges read in
  partial kinetic energy density read in
  atomic valenz-charges read in
  non local Contribution for L=           0  read in
    real space projection operators read in
  non local Contribution for L=           0  read in
    real space projection operators read in
  non local Contribution for L=           1  read in
    real space projection operators read in
  non local Contribution for L=           1  read in
    real space projection operators read in
  non local Contribution for L=           2  read in
    real space projection operators read in
    PAW grid and wavefunctions read in
 
   number of l-projection  operators is LMAX  =           5
   number of lm-projection operators is LMMAX =          13
 
 POTCAR:    PAW_PBE W_sv 04Sep2015                
   SHA256 =  931c2d770f65867ef30f3db3421922900fc0890ebac5c3e12f63b6a2064023d7 W_sv/POTCAR           
   COPYR  = (c) Copyright 04Sep2015 Georg Kresse                                                    
   COPYR  = This file is part of the software VASP. Any use, copying, and all other rights are regul
   COPYR  = If you do not have a valid VASP license, you may not use, copy or distribute this file. 
   VRHFIN =W : 5p6s5d                                                                               
   LEXCH  = PE                                                                                      
   EATOM  =  1865.5791 eV,  137.1162 Ry                                                             
                                                                                                    
   TITEL  = PAW_PBE W_sv 04Sep2015                                                                  
   LULTRA =        F    use ultrasoft PP ?                                                          
   IUNSCR =        1    unscreen: 0-lin 1-nonlin 2-no                                               
   RPACOR =    2.330    partial core radius                                                         
   POMASS =  183.850; ZVAL   =   14.000    mass and valenz                                          
   RCORE  =    2.500    outmost cutoff radius                                                       
   RWIGS  =    2.750; RWIGS  =    1.455    wigner-seitz radius (au A)                               
   ENMAX  =  223.057; ENMIN  =  167.293 eV                                                          
   ICORE  =        3    local potential                                                             
   LCOR   =        T    correct aug charges                                                         
   LPAW   =        T    paw PP                                                                      
   EAUG   =  373.438                                                                                
   DEXC   =    0.000                                                                                
   RMAX   =    2.565    core radius for proj-oper                                                   
   RAUG   =    1.300    factor for augmentation sphere                                              
   RDEP   =    2.539    radius for radial grids                                                     
   RDEPT  =    2.126    core radius for aug-charge                                                  
                                                                                                    
   Atomic configuration                                                                             
   15 entries                                                                                       
     n  l   j            E        occ.                                                              
     1  0  0.50    -69465.5834   2.0000                                                             
     2  0  0.50    -11986.2640   2.0000                                                             
     2  1  1.50    -10479.8613   6.0000                                                             
     3  0  0.50     -2759.0756   2.0000                                                             
     3  1  1.50     -2313.1855   6.0000                                                             
     3  2  2.50     -1801.1183  10.0000                                                             
     4  0  0.50      -567.6789   2.0000                                                             
     4  1  1.50      -421.4692   6.0000                                                             
     4  2  2.50      -236.3471  10.0000                                                             
     4  3  3.50       -31.2665  14.0000                                                             
     5  0  0.50       -77.1084   2.0000                                                             
     6  0  0.50        -5.1438   1.0000                                                             
     5  1  1.50       -41.3856   6.0000                                                             
     5  2  2.50        -3.3185   5.0000                                                             
     5  3  2.50        -1.3606   0.0000                                                             
   Description                                                                                      
     l       E           TYP  RCUT    TYP  RCUT                                                     
     0    -77.1084470     23  2.100                                                                 
     0     -5.1437956     23  2.300                                                                 
     1    -41.3855615     23  2.500                                                                 
     1     -2.7211652     23  2.500                                                                 
     2     -3.3185025     23  2.500                                                                 
     2     -1.5965151     23  2.500                                                                 
     3     -1.3605826     23  2.500                                                                 
  local pseudopotential read in
  partial core-charges read in
  partial kinetic energy density read in
  kinetic energy density of atom read in
  atomic valenz-charges read in
  non local Contribution for L=           0  read in
    real space projection operators read in
  non local Contribution for L=           0  read in
    real space projection operators read in
  non local Contribution for L=           1  read in
    real space projection operators read in
  non local Contribution for L=           1  read in
    real space projection operators read in
  non local Contribution for L=           2  read in
    real space projection operators read in
  non local Contribution for L=           2  read in
    real space projection operators read in
    PAW grid and wavefunctions read in
 
   number of l-projection  operators is LMAX  =           6
   number of lm-projection operators is LMMAX =          18
 
 POTCAR:    PAW_PBE S 06Sep2000                   
   SHA256 =  0fc7481fb0695f01bdc6462160264c5c84044ae9ec85a907d398b887a2bc3132 S/POTCAR              
   COPYR  = (c) Copyright 06Sep2000 Georg Kresse                                                    
   COPYR  = This file is part of the software VASP. Any use, copying, and all other rights are regul
   COPYR  = If you do not have a valid VASP license, you may not use, copy or distribute this file. 
   VRHFIN =S : s2p4                                                                                 
   LEXCH  = PE                                                                                      
   EATOM  =   276.8230 eV,   20.3459 Ry                                                             
                                                                                                    
   TITEL  = PAW_PBE S 06Sep2000                                                                     
   LULTRA =        F    use ultrasoft PP ?                                                          
   IUNSCR =        1    unscreen: 0-lin 1-nonlin 2-no                                               
   RPACOR =    1.500    partial core radius                                                         
   POMASS =   32.066; ZVAL   =    6.000    mass and valenz                                          
   RCORE  =    1.900    outmost cutoff radius                                                       
   RWIGS  =    2.200; RWIGS  =    1.164    wigner-seitz radius (au A)                               
   ENMAX  =  258.689; ENMIN  =  194.016 eV                                                          
   ICORE  =        2    local potential                                                             
   LCOR   =        T    correct aug charges                                                         
   LPAW   =        T    paw PP                                                                      
   EAUG   =  335.092                                                                                
   DEXC   =    0.000                                                                                
   RMAX   =    1.942    core radius for proj-oper                                                   
   RAUG   =    1.300    factor for augmentation sphere                                              
   RDEP   =    1.954    radius for radial grids                                                     
   RDEPT  =    1.744    core radius for aug-charge                                                  
                                                                                                    
   Atomic configuration                                                                             
    6 entries                                                                                       
     n  l   j            E        occ.                                                              
     1  0  0.50     -2405.8406   2.0000                                                             
     2  0  0.50      -211.7007   2.0000                                                             
     2  1  1.50      -156.4958   6.0000                                                             
     3  0  0.50       -17.2562   2.0000                                                             
     3  1  0.50        -7.0085   4.0000                                                             
     3  2  1.50        -6.8029   0.0000                                                             
   Description                                                                                      
     l       E           TYP  RCUT    TYP  RCUT                                                     
     0    -17.2561641     23  1.900                                                                 
     0    -15.8743224     23  1.900                                                                 
     1     -7.0085400     23  1.900                                                                 
     1     -2.7779785     23  1.900                                                                 
     2     -6.8029130     23  1.900                                                                 
  local pseudopotential read in
  partial core-charges read in
  partial kinetic energy density read in
  atomic valenz-charges read in
  non local Contribution for L=           0  read in
    real space projection operators read in
  non local Contribution for L=           0  read in
    real space projection operators read in
  non local Contribution for L=           1  read in
    real space projection operators read in
  non local Contribution for L=           1  read in
    real space projection operators read in
    PAW grid and wavefunctions read in
 
   number of l-projection  operators is LMAX  =           4
   number of lm-projection operators is LMMAX =           8
 
 Optimization of the real space projectors (new method)

 maximal supplied QI-value         = 15.12
 optimisation between [QCUT,QGAM] = [ 11.64, 23.28] = [ 37.95,151.78] Ry 
 Optimized for a Real-space Cutoff    1.53 Angstroem

   l    n(q)    QCUT    max X(q) W(low)/X(q) W(high)/X(q)  e(spline) 
   0     11    11.641     3.559    0.80E-05    0.27E-04    0.27E-06
   0     11    11.641    20.730    0.39E-04    0.26E-04    0.29E-06
   1     10    11.641     3.279    0.18E-05    0.27E-05    0.28E-07
   1     10    11.641     4.693    0.11E-03    0.12E-04    0.28E-06
   2     10    11.641    67.616    0.19E-03    0.29E-03    0.91E-06
   2     10    11.641    62.420    0.19E-03    0.29E-03    0.92E-06
 Optimization of the real space projectors (new method)

 maximal supplied QI-value         = 17.95
 optimisation between [QCUT,QGAM] = [ 11.67, 23.34] = [ 38.13,152.52] Ry 
 Optimized for a Real-space Cutoff    1.25 Angstroem

   l    n(q)    QCUT    max X(q) W(low)/X(q) W(high)/X(q)  e(spline) 
   0      9    11.669   133.320    0.17E-03    0.44E-04    0.69E-07
   0      9    11.669   111.601    0.18E-03    0.46E-04    0.72E-07
   1      8    11.669    47.222    0.22E-03    0.37E-03    0.10E-06
   1      8    11.669    33.775    0.22E-03    0.36E-03    0.10E-06
   2      8    11.669     3.720    0.19E-03    0.46E-04    0.50E-07
 Optimization of the real space projectors (new method)

 maximal supplied QI-value         = 15.12
 optimisation between [QCUT,QGAM] = [ 11.64, 23.28] = [ 37.95,151.78] Ry 
 Optimized for a Real-space Cutoff    1.53 Angstroem

   l    n(q)    QCUT    max X(q) W(low)/X(q) W(high)/X(q)  e(spline) 
   0     11    11.641     3.377    0.18E-04    0.34E-04    0.29E-06
   0     11    11.641    17.603    0.39E-04    0.41E-04    0.35E-06
   1     10    11.641     4.278    0.12E-04    0.15E-04    0.63E-07
   1     10    11.641     5.278    0.15E-04    0.52E-04    0.18E-06
   2     10    11.641    67.938    0.89E-04    0.14E-03    0.15E-06
   2     10    11.641    59.529    0.87E-04    0.14E-03    0.15E-06
 Optimization of the real space projectors (new method)

 maximal supplied QI-value         = 19.84
 optimisation between [QCUT,QGAM] = [ 11.51, 23.22] = [ 37.09,150.92] Ry 
 Optimized for a Real-space Cutoff    1.21 Angstroem

   l    n(q)    QCUT    max X(q) W(low)/X(q) W(high)/X(q)  e(spline) 
   0      8    11.508   187.594    0.96E-04    0.18E-03    0.54E-07
   0      8    11.508   164.243    0.96E-04    0.18E-03    0.54E-07
   1      8    11.508    67.533    0.18E-03    0.65E-04    0.94E-07
   1      8    11.508    50.729    0.18E-03    0.63E-04    0.92E-07
  PAW_PBE Mo_sv 02Feb2006               :
 energy of atom  1       EATOM=-1862.2866
 kinetic energy error for atom=    0.0070 (will be added to EATOM!!)
  PAW_PBE Se 06Sep2000                  :
 energy of atom  2       EATOM= -257.1286
 kinetic energy error for atom=    0.0007 (will be added to EATOM!!)
  PAW_PBE W_sv 04Sep2015                :
 energy of atom  3       EATOM=-1865.5791
 kinetic energy error for atom=    0.0026 (will be added to EATOM!!)
  PAW_PBE S 06Sep2000                   :
 energy of atom  4       EATOM= -276.8230
 kinetic energy error for atom=    0.0016 (will be added to EATOM!!)
 
 
 POSCAR: generated by phonopy
  positions in direct lattice
  No initial velocities read in
 IVDW         = 12
 VDW_S6       =    1.0000
 VDW_S8       =    0.7875
 VDW_A1       =    0.4289
 VDW_A2       =    4.4407
 VDW_RADIUS   =   50.2022 A
 VDW_CNRADIUS =   21.1671 A


 exchange-correlation table for PE
   RHO(1)=    0.500       N(1)  =     2000
   RHO(2)=  100.500       N(2)  =     4000
 


--------------------------------------------------------------------------------------------------------


 ion  position               nearest neighbor table
   1  0.000  0.000  0.507-  21 2.52  25 2.52  19 2.52  16 2.52  12 2.52  10 2.53   2 3.25   3 3.25
                             4 3.25   6 3.25   7 3.25   8 3.25
   2  0.333  0.000  0.507-  19 2.52  20 2.52  26 2.52  17 2.52  11 2.52  10 2.53   3 3.25   9 3.25
                             8 3.25   1 3.25   4 3.25   5 3.25
   3  0.667  0.000  0.507-  20 2.52  27 2.52  21 2.52  18 2.52  11 2.52  12 2.52   2 3.25   5 3.25
                             7 3.25   9 3.25   1 3.25   6 3.25
   4  0.000  0.333  0.507-  19 2.52  22 2.52  24 2.52  15 2.52  13 2.52  10 2.53   7 3.25   9 3.25
                             1 3.25   2 3.25   5 3.25   6 3.25
   5  0.333  0.333  0.507-  23 2.52  22 2.52  20 2.52  14 2.52  11 2.52  13 2.52   8 3.25   6 3.25
                             7 3.25   3 3.25   4 3.25   2 3.25
   6  0.667  0.333  0.507-  21 2.52  23 2.52  24 2.52  12 2.52  14 2.52  15 2.52   8 3.25   9 3.25
                             5 3.25   1 3.25   3 3.25   4 3.25
   7  0.000  0.667  0.507-  22 2.52  27 2.52  25 2.52  18 2.52  13 2.52  16 2.52   4 3.25   5 3.25
                             8 3.25   9 3.25   1 3.25   3 3.25
   8  0.333  0.667  0.507-  23 2.52  25 2.52  26 2.52  14 2.52  16 2.52  17 2.52   5 3.25   6 3.25
                             9 3.25   2 3.25   7 3.25   1 3.25
   9  0.667  0.667  0.507-  24 2.52  26 2.52  27 2.52  17 2.52  15 2.52  18 2.52   6 3.25   8 3.25
                             2 3.25   4 3.25   7 3.25   3 3.25
  10  0.111  0.111  0.422-   1 2.53   4 2.53   2 2.53
  11  0.444  0.111  0.422-   2 2.52   3 2.52   5 2.52
  12  0.778  0.111  0.422-   1 2.52   6 2.52   3 2.52
  13  0.111  0.444  0.422-   4 2.52   5 2.52   7 2.52
  14  0.444  0.444  0.422-   5 2.52   6 2.52   8 2.52
  15  0.778  0.444  0.422-   4 2.52   6 2.52   9 2.52
  16  0.111  0.778  0.422-   1 2.52   8 2.52   7 2.52
  17  0.444  0.778  0.422-   2 2.52   8 2.52   9 2.52
  18  0.778  0.778  0.422-   3 2.52   7 2.52   9 2.52
  19  0.111  0.111  0.591-   2 2.52   4 2.52   1 2.52
  20  0.444  0.111  0.591-   2 2.52   3 2.52   5 2.52
  21  0.778  0.111  0.591-   1 2.52   6 2.52   3 2.52
  22  0.111  0.444  0.591-   4 2.52   5 2.52   7 2.52
  23  0.444  0.444  0.591-   5 2.52   6 2.52   8 2.52
  24  0.778  0.444  0.591-   4 2.52   6 2.52   9 2.52
  25  0.111  0.778  0.591-   1 2.52   8 2.52   7 2.52
  26  0.444  0.778  0.591-   2 2.52   8 2.52   9 2.52
  27  0.778  0.778  0.591-   3 2.52   7 2.52   9 2.52
  28  0.111  0.111  0.818-  38 2.43  40 2.43  37 2.43  47 2.43  49 2.43  46 2.43  31 3.25  29 3.25
                            33 3.25  35 3.25  34 3.25  30 3.25
  29  0.444  0.111  0.818-  38 2.43  39 2.43  41 2.43  47 2.43  48 2.43  50 2.43  31 3.25  32 3.25
                            28 3.25  30 3.25  35 3.25  36 3.25
  30  0.778  0.111  0.818-  37 2.43  42 2.43  39 2.43  46 2.43  51 2.43  48 2.43  33 3.25  32 3.25
                            34 3.25  36 3.25  28 3.25  29 3.25
  31  0.111  0.444  0.818-  40 2.43  41 2.43  43 2.43  49 2.43  50 2.43  52 2.43  28 3.25  29 3.25
                            32 3.25  33 3.25  34 3.25  36 3.25
  32  0.444  0.444  0.818-  41 2.43  42 2.43  44 2.43  50 2.43  51 2.43  53 2.43  29 3.25  31 3.25
                            30 3.25  34 3.25  33 3.25  35 3.25
  33  0.778  0.444  0.818-  40 2.43  42 2.43  45 2.43  49 2.43  51 2.43  54 2.43  30 3.25  28 3.25
                            35 3.25  36 3.25  31 3.25  32 3.25
  34  0.111  0.778  0.818-  37 2.43  44 2.43  43 2.43  46 2.43  53 2.43  52 2.43  35 3.25  32 3.25
                            30 3.25  36 3.25  31 3.25  28 3.25
  35  0.444  0.778  0.818-  38 2.43  44 2.43  45 2.43  47 2.43  53 2.43  54 2.43  34 3.25  28 3.25
                            29 3.25  36 3.25  32 3.25  33 3.25
  36  0.778  0.778  0.818-  39 2.43  43 2.43  45 2.43  48 2.43  52 2.43  54 2.43  29 3.25  30 3.25
                            31 3.25  33 3.25  34 3.25  35 3.25
  37  0.000  0.000  0.741-  30 2.43  34 2.43  28 2.43
  38  0.333  0.000  0.741-  28 2.43  29 2.43  35 2.43
  39  0.667  0.000  0.741-  29 2.43  36 2.43  30 2.43
  40  0.000  0.333  0.741-  28 2.43  31 2.43  33 2.43
  41  0.333  0.333  0.741-  32 2.43  31 2.43  29 2.43
  42  0.667  0.333  0.741-  30 2.43  32 2.43  33 2.43
  43  0.000  0.667  0.741-  31 2.43  36 2.43  34 2.43
  44  0.333  0.667  0.741-  32 2.43  34 2.43  35 2.43
  45  0.667  0.667  0.741-  33 2.43  35 2.43  36 2.43
  46  0.000  0.000  0.895-  30 2.43  34 2.43  28 2.43
  47  0.333  0.000  0.895-  28 2.43  29 2.43  35 2.43
  48  0.667  0.000  0.895-  29 2.43  36 2.43  30 2.43
  49  0.000  0.333  0.895-  28 2.43  31 2.43  33 2.43
  50  0.333  0.333  0.895-  32 2.43  31 2.43  29 2.43
  51  0.667  0.333  0.895-  30 2.43  32 2.43  33 2.43
  52  0.000  0.667  0.895-  31 2.43  36 2.43  34 2.43
  53  0.333  0.667  0.895-  32 2.43  34 2.43  35 2.43
  54  0.667  0.667  0.895-  33 2.43  35 2.43  36 2.43
 
  LATTYP: Found a hexagonal cell.
 ALAT       =     9.7597246245
 C/A-ratio  =     2.0492381465
  
  Lattice vectors:
  
 A1 = (  -4.8798623122,  -8.4521694587,   0.0000000000)
 A2 = (   9.7597246245,   0.0000000000,   0.0000000000)
 A3 = (   0.0000000000,   0.0000000000,  20.0000000000)


Analysis of symmetry for initial positions (statically):
=====================================================================
 Subroutine PRICEL returns:
 Original cell was already a primitive cell.
 

 Routine SETGRP: Setting up the symmetry group for a 
 hexagonal supercell.


 Subroutine GETGRP returns: Found  1 space group operations
 (whereof  1 operations were pure point group operations)
 out of a pool of 24 trial point group operations.


The static configuration has the point symmetry C_1 .


Analysis of symmetry for dynamics (positions and initial velocities):
=====================================================================
 Subroutine PRICEL returns:
 Original cell was already a primitive cell.
 

 Routine SETGRP: Setting up the symmetry group for a 
 hexagonal supercell.


 Subroutine GETGRP returns: Found  1 space group operations
 (whereof  1 operations were pure point group operations)
 out of a pool of 24 trial point group operations.


The dynamic configuration has the point symmetry C_1 .


 Subroutine INISYM returns: Found  1 space group operations
 (whereof  1 operations are pure point group operations),
 and found     1 'primitive' translations


----------------------------------------------------------------------------------------

                                     Primitive cell                                     

  volume of cell :    1649.8169

  direct lattice vectors                    reciprocal lattice vectors
     9.759724624  0.000000000  0.000000000     0.102461907 -0.059156410  0.000000000
     4.879862312  8.452169459  0.000000000     0.000000000  0.118312820  0.000000000
     0.000000000  0.000000000 20.000000000     0.000000000  0.000000000  0.050000000

  length of vectors
     9.759724624  9.759724624 20.000000000     0.118312820  0.118312820  0.050000000

  position of ions in fractional coordinates (direct lattice)
     0.000000000  0.000000000  0.506830194
     0.333333333  0.000000000  0.506830194
     0.666666667  0.000000000  0.506830194
     0.000000000  0.333333333  0.506830194
     0.333333333  0.333333333  0.506830194
     0.666666667  0.333333333  0.506830194
     0.000000000  0.666666667  0.506830194
     0.333333333  0.666666667  0.506830194
     0.666666667  0.666666667  0.506830194
     0.110661759  0.111111111  0.422029423
     0.444444444  0.111111111  0.422478775
     0.777777778  0.111111111  0.422478775
     0.111111111  0.444444444  0.422478775
     0.444444444  0.444444444  0.422478775
     0.777777778  0.444444444  0.422478775
     0.111111111  0.777777778  0.422478775
     0.444444444  0.777777778  0.422478775
     0.777777778  0.777777778  0.422478775
     0.111111111  0.111111111  0.591115511
     0.444444444  0.111111111  0.591115511
     0.777777778  0.111111111  0.591115511
     0.111111111  0.444444444  0.591115511
     0.444444444  0.444444444  0.591115511
     0.777777778  0.444444444  0.591115511
     0.111111111  0.777777778  0.591115511
     0.444444444  0.777777778  0.591115511
     0.777777778  0.777777778  0.591115511
     0.111111111  0.111111111  0.818182132
     0.444444444  0.111111111  0.818182132
     0.777777778  0.111111111  0.818182132
     0.111111111  0.444444444  0.818182132
     0.444444444  0.444444444  0.818182132
     0.777777778  0.444444444  0.818182132
     0.111111111  0.777777778  0.818182132
     0.444444444  0.777777778  0.818182132
     0.777777778  0.777777778  0.818182132
     0.000000000  0.000000000  0.741049210
     0.333333333  0.000000000  0.741049210
     0.666666667  0.000000000  0.741049210
     0.000000000  0.333333333  0.741049210
     0.333333333  0.333333333  0.741049210
     0.666666667  0.333333333  0.741049210
     0.000000000  0.666666667  0.741049210
     0.333333333  0.666666667  0.741049210
     0.666666667  0.666666667  0.741049210
     0.000000000  0.000000000  0.895344178
     0.333333333  0.000000000  0.895344178
     0.666666667  0.000000000  0.895344178
     0.000000000  0.333333333  0.895344178
     0.333333333  0.333333333  0.895344178
     0.666666667  0.333333333  0.895344178
     0.000000000  0.666666667  0.895344178
     0.333333333  0.666666667  0.895344178
     0.666666667  0.666666667  0.895344178

  ion indices of the primitive-cell ions
   primitive index   ion index
                 1           1
                 2           2
                 3           3
                 4           4
                 5           5
                 6           6
                 7           7
                 8           8
                 9           9
                10          10
                11          11
                12          12
                13          13
                14          14
                15          15
                16          16
                17          17
                18          18
                19          19
                20          20
                21          21
                22          22
                23          23
                24          24
                25          25
                26          26
                27          27
                28          28
                29          29
                30          30
                31          31
                32          32
                33          33
                34          34
                35          35
                36          36
                37          37
                38          38
                39          39
                40          40
                41          41
                42          42
                43          43
                44          44
                45          45
                46          46
                47          47
                48          48
                49          49
                50          50
                51          51
                52          52
                53          53
                54          54

----------------------------------------------------------------------------------------

 
 
 KPOINTS: Automatic mesh                          

Automatic generation of k-mesh.
 Grid dimensions read from file:
 generate k-points for:    5    5    1

 Generating k-lattice:

  Cartesian coordinates                     Fractional coordinates (reciprocal lattice)
     0.020492381 -0.011831282  0.000000000     0.200000000  0.000000000  0.000000000
     0.000000000  0.023662564  0.000000000     0.000000000  0.200000000  0.000000000
     0.000000000  0.000000000  0.050000000     0.000000000  0.000000000  1.000000000

  Length of vectors
     0.023662564  0.023662564  0.050000000

  Shift w.r.t. Gamma in fractional coordinates (k-lattice)
     0.000000000  0.000000000  0.000000000

 
 Subroutine IBZKPT returns following result:
 ===========================================
 
 Found     13 irreducible k-points:
 
 Following reciprocal coordinates:
            Coordinates               Weight
  0.000000  0.000000  0.000000      1.000000
  0.200000  0.000000  0.000000      2.000000
  0.200000  0.200000  0.000000      2.000000
  0.000000  0.200000  0.000000      2.000000
  0.400000  0.000000  0.000000      2.000000
  0.400000  0.400000  0.000000      2.000000
  0.000000  0.400000  0.000000      2.000000
  0.400000  0.200000  0.000000      2.000000
  0.200000  0.400000  0.000000      2.000000
 -0.200000  0.200000  0.000000      2.000000
 -0.400000  0.200000  0.000000      2.000000
  0.400000 -0.400000  0.000000      2.000000
 -0.200000  0.400000  0.000000      2.000000
 
 Following cartesian coordinates:
            Coordinates               Weight
  0.000000  0.000000  0.000000      1.000000
  0.020492 -0.011831  0.000000      2.000000
  0.020492  0.011831  0.000000      2.000000
  0.000000  0.023663  0.000000      2.000000
  0.040985 -0.023663  0.000000      2.000000
  0.040985  0.023663  0.000000      2.000000
  0.000000  0.047325  0.000000      2.000000
  0.040985  0.000000  0.000000      2.000000
  0.020492  0.035494  0.000000      2.000000
 -0.020492  0.035494  0.000000      2.000000
 -0.040985  0.047325  0.000000      2.000000
  0.040985 -0.070988  0.000000      2.000000
 -0.020492  0.059156  0.000000      2.000000
 


--------------------------------------------------------------------------------------------------------




 Dimension of arrays:
   k-points           NKPTS =     13   k-points in BZ     NKDIM =     13   number of bands    NBANDS=    286
   number of dos      NEDOS =    301   number of ions     NIONS =     54
   non local maximal  LDIM  =      6   non local SUM 2l+1 LMDIM =     18
   total plane-waves  NPLWV = 960000
   max r-space proj   IRMAX =   8845   max aug-charges    IRDMAX=  33410
   dimension x,y,z NGX =    80 NGY =   80 NGZ =  150
   dimension x,y,z NGXF=   160 NGYF=  160 NGZF=  300
   support grid    NGXF=   160 NGYF=  160 NGZF=  300
   ions per type =               9  18   9  18
   NGX,Y,Z   is equivalent  to a cutoff of  13.63, 13.63, 12.47 a.u.
   NGXF,Y,Z  is equivalent  to a cutoff of  27.25, 27.25, 24.94 a.u.

 SYSTEM =  MoSe2_WS2_2H phonon                     
 POSCAR =  generated by phonopy                    

 Startparameter for this run:
   NWRITE =      2    write-flag & timer
   PREC   = accura    normal or accurate (medium, high low for compatibility)
   ISTART =      0    job   : 0-new  1-cont  2-samecut
   ICHARG =      2    charge: 1-file 2-atom 10-const
   ISPIN  =      1    spin polarized calculation?
   LNONCOLLINEAR =      F non collinear calculations
   LSORBIT =      F    spin-orbit coupling
   INIWAV =      1    electr: 0-lowe 1-rand  2-diag
   LASPH  =      F    aspherical Exc in radial PAW
 Electronic Relaxation 1
   ENCUT  =  520.0 eV  38.22 Ry    6.18 a.u.  18.15 18.15 37.19*2*pi/ulx,y,z
   ENINI  =  520.0     initial cutoff
   ENAUG  =  446.8 eV  augmentation charge cutoff
   NELM   =    200;   NELMIN=  2; NELMDL= -5     # of ELM steps 
   EDIFF  = 0.1E-05   stopping-criterion for ELM
   LREAL  =      T    real-space projection
   NLSPLINE    = F    spline interpolate recip. space projectors
   LCOMPAT=      F    compatible to vasp.4.4
   GGA_COMPAT  = T    GGA compatible to vasp.4.4-vasp.4.6
   LMAXPAW     = -100 max onsite density
   LMAXMIX     =    2 max onsite mixed and CHGCAR
   VOSKOWN=      0    Vosko Wilk Nusair interpolation
   ROPT   =   -0.00025  -0.00025  -0.00025  -0.00025
 Ionic relaxation
   EDIFFG = 0.1E-04   stopping-criterion for IOM
   NSW    =      0    number of steps for IOM
   NBLOCK =      1;   KBLOCK =      1    inner block; outer block 
   IBRION =     -1    ionic relax: 0-MD 1-quasi-New 2-CG
   NFREE  =      0    steps in history (QN), initial steepest desc. (CG)
   ISIF   =      2    stress and relaxation
   IWAVPR =     10    prediction:  0-non 1-charg 2-wave 3-comb
   ISYM   =      2    0-nonsym 1-usesym 2-fastsym
   LCORR  =      T    Harris-Foulkes like correction to forces

   POTIM  = 0.5000    time-step for ionic-motion
   TEIN   =    0.0    initial temperature
   TEBEG  =    0.0;   TEEND  =   0.0 temperature during run
   SMASS  =  -3.00    Nose mass-parameter (am)
   estimated Nose-frequenzy (Omega)   =  0.10E-29 period in steps = 0.13E+47 mass=  -0.218E-26a.u.
   SCALEE = 1.0000    scale energy and forces
   NPACO  =    256;   APACO  = 10.0  distance and # of slots for P.C.
   PSTRESS=    0.0 pullay stress

  Mass of Ions in am
   POMASS =  95.94 78.96183.85 32.07
  Ionic Valenz
   ZVAL   =  14.00  6.00 14.00  6.00
  Atomic Wigner-Seitz radii
   RWIGS  =  -1.00 -1.00 -1.00 -1.00
  virtual crystal weights 
   VCA    =   1.00  1.00  1.00  1.00
   NELECT =     468.0000    total number of electrons
   NUPDOWN=      -1.0000    fix difference up-down

 DOS related values:
   EMIN   =  10.00;   EMAX   =-10.00  energy-range for DOS
   EFERMI =   0.00;   METHOD = LEGACY      
   ISMEAR =     0;   SIGMA  =   0.05  broadening in eV -4-tet -1-fermi 0-gaus
   EFERMI_NEDOS =   21; number of points for ismear=-14 and -15

 Electronic relaxation 2 (details)
   IALGO  =     38    algorithm
   LDIAG  =      T    sub-space diagonalisation (order eigenvalues)
   LSUBROT=      F    optimize rotation matrix (better conditioning)
   LROBUST=      F    robust break criterion during scf (extrapolated energy error)
   ISEARCH=      0    line search for conjugate gradient (0, 1=use gradient)
   TURBO    =      0    0=normal 1=particle mesh
   IRESTART =      0    0=no restart 2=restart with 2 vectors
   NREBOOT  =      0    no. of reboots
   NMIN     =      0    reboot dimension
   EREF     =   0.00    reference energy to select bands
   IMIX   =      4    mixing-type and parameters
     AMIX     =   0.40;   BMIX     =  1.00
     AMIX_MAG =   1.60;   BMIX_MAG =  1.00
     AMIN     =   0.01
     WC   =   100.;   INIMIX=   1;  MIXPRE=   1;  MAXMIX= -45

 Intra band minimization:
   WEIMIN = 0.0000     energy-eigenvalue tresh-hold
   EBREAK =  0.87E-09  absolut break condition
   DEPER  =   0.30     relativ break condition  

   TIME   =   0.40     timestep for ELM

  volume/ion in A,a.u.               =      30.55       206.18
  Fermi-wavevector in a.u.,A,eV,Ry     =   1.075668  2.032718 15.742776  1.157061
  Thomas-Fermi vector in A             =   2.211531
 
 Write flags
   LWAVE        =      F    write WAVECAR
   LDOWNSAMPLE  =      F    k-point downsampling of WAVECAR
   LCHARG       =      F    write CHGCAR
   LVTOT        =      F    write LOCPOT, total local potential
   LVHAR        =      F    write LOCPOT, Hartree potential only
   WRT_POTENTIAL= false  ! write potential to hdf5 file
   LELF         =      F    write electronic localiz. function (ELF)
   LORBIT       =      0    0 simple, 1 ext, 2 COOP (PROOUT), +10 PAW based schemes


 Python interface
   PLUGINS active      =      F    recompile with -DPLUGINS to activate
 
 Dipole corrections
   LMONO      =      F    monopole corrections only (constant potential shift)
   LDIPOL     =      F    correct potential (dipole corrections)
   IDIPOL     =      0    1-x, 2-y, 3-z, 4-all directions 
   EPSILON    =  1.0000000 bulk dielectric constant
   LVACPOTAV  =      F  vacuum potentials using an averaging scheme for the charge density
   VACPOTFLAT =  0.1000000 required flatness to determine vacuum potential
 
Coulomb truncation method
  LTRUNCATE          =      F  Coulomb kernel truncation to be used

 
 Exchange correlation treatment:
   GGA     = PE    functional components
   XC_C    = 1    coefficients multiplying the functional components
   LIBXC   =     F    Libxc                    
   VOSKOWN =     0    Vosko Wilk Nusair interpolation
   LHFCALC =     F    Hartree Fock is set to
   LHFONE  =     F    Hartree Fock one center treatment
   AEXX    =    0.0000 exact exchange contribution

 Parameters of functionals:
   PE:
     No parameter
 
 Van der Waals corrections
   IVDW    =    12    specifies the selected vdW correction

 Linear response parameters
   LEPSILON=     F    determine dielectric tensor
   LRPA    =     F    only Hartree local field effects (RPA)
   LNABLA  =     F    use nabla operator in PAW spheres
   LVEL    =     F    velocity operator in full k-point grid
   CSHIFT  =0.1000    complex shift for real part using Kramers Kronig
   OMEGAMAX=  -1.0    maximum frequency
   DEG_THRESHOLD= 0.2000000E-02 threshold for treating states as degnerate
   RTIME   =   -0.100 relaxation time in fs
  (WPLASMAI=    0.000 imaginary part of plasma frequency in eV, 0.658/RTIME)
   DFIELD  = 0.0000000 0.0000000 0.0000000 field for delta impulse in time
 
  Optional k-point grid parameters
   LKPOINTS_OPT  =     F    use optional k-point grid
   KPOINTS_OPT_MODE=     1    mode for optional k-point grid
 
 Orbital magnetization related:
   ORBITALMAG=     F  switch on orbital magnetization
   LCHIMAG   =     F  perturbation theory with respect to B field
   DQ        =  0.001000  dq finite difference perturbation B field
   LLRAUG    =     F  two centre corrections for induced B field
   LBONE     =     F  B-component reconstruction in AE one-centre
   LVGVCALC  =     T  calculate vGv susceptibility
   LVGVAPPL  =     F  apply vGv susceptibility instead of pGv for G=0

 Random number generation:
   RANDOM_GENERATOR = DEFAULT
   PCG_SEED         = not used


--------------------------------------------------------------------------------------------------------


 Static calculation
 charge density and potential will be updated during run
 non-spin polarized calculation
 Variant of blocked Davidson
 Davidson routine will perform the subspace rotation
 perform sub-space diagonalisation
    after iterative eigenvector-optimisation
 modified Broyden-mixing scheme, WC =      100.0
 initial mixing is a Kerker type mixing with AMIX =  0.4000 and BMIX =      1.0000
 Hartree-type preconditioning will be used
 using additional bands           52
 real space projection scheme for non local part
 use partial core corrections
 calculate Harris-corrections to forces 
   (improved forces if not selfconsistent)
 use gradient corrections 
 use of overlap-Matrix (Vanderbilt PP)
 Gauss-broadening in eV      SIGMA  =   0.05


--------------------------------------------------------------------------------------------------------


  energy-cutoff  :      520.00
  volume of cell :     1649.82
      direct lattice vectors                 reciprocal lattice vectors
     9.759724624  0.000000000  0.000000000     0.102461907 -0.059156410  0.000000000
     4.879862312  8.452169459  0.000000000     0.000000000  0.118312820  0.000000000
     0.000000000  0.000000000 20.000000000     0.000000000  0.000000000  0.050000000

  length of vectors
     9.759724624  9.759724624 20.000000000     0.118312820  0.118312820  0.050000000


 
 k-points in units of 2pi/SCALE and weight: Automatic mesh                          
   0.00000000  0.00000000  0.00000000       0.040
   0.02049238 -0.01183128  0.00000000       0.080
   0.02049238  0.01183128  0.00000000       0.080
   0.00000000  0.02366256  0.00000000       0.080
   0.04098476 -0.02366256  0.00000000       0.080
   0.04098476  0.02366256  0.00000000       0.080
   0.00000000  0.04732513  0.00000000       0.080
   0.04098476  0.00000000  0.00000000       0.080
   0.02049238  0.03549385  0.00000000       0.080
  -0.02049238  0.03549385  0.00000000       0.080
  -0.04098476  0.04732513  0.00000000       0.080
   0.04098476 -0.07098769  0.00000000       0.080
  -0.02049238  0.05915641  0.00000000       0.080
 
 k-points in reciprocal lattice and weights: Automatic mesh                          
   0.00000000  0.00000000  0.00000000       0.040
   0.20000000  0.00000000  0.00000000       0.080
   0.20000000  0.20000000  0.00000000       0.080
   0.00000000  0.20000000  0.00000000       0.080
   0.40000000  0.00000000  0.00000000       0.080
   0.40000000  0.40000000  0.00000000       0.080
   0.00000000  0.40000000  0.00000000       0.080
   0.40000000  0.20000000  0.00000000       0.080
   0.20000000  0.40000000  0.00000000       0.080
  -0.20000000  0.20000000  0.00000000       0.080
  -0.40000000  0.20000000  0.00000000       0.080
   0.40000000 -0.40000000  0.00000000       0.080
  -0.20000000  0.40000000  0.00000000       0.080
 
 position of ions in fractional coordinates (direct lattice) 
   0.00000000  0.00000000  0.50683019
   0.33333333  0.00000000  0.50683019
   0.66666667  0.00000000  0.50683019
   0.00000000  0.33333333  0.50683019
   0.33333333  0.33333333  0.50683019
   0.66666667  0.33333333  0.50683019
   0.00000000  0.66666667  0.50683019
   0.33333333  0.66666667  0.50683019
   0.66666667  0.66666667  0.50683019
   0.11066176  0.11111111  0.42202942
   0.44444444  0.11111111  0.42247878
   0.77777778  0.11111111  0.42247878
   0.11111111  0.44444444  0.42247878
   0.44444444  0.44444444  0.42247878
   0.77777778  0.44444444  0.42247878
   0.11111111  0.77777778  0.42247878
   0.44444444  0.77777778  0.42247878
   0.77777778  0.77777778  0.42247878
   0.11111111  0.11111111  0.59111551
   0.44444444  0.11111111  0.59111551
   0.77777778  0.11111111  0.59111551
   0.11111111  0.44444444  0.59111551
   0.44444444  0.44444444  0.59111551
   0.77777778  0.44444444  0.59111551
   0.11111111  0.77777778  0.59111551
   0.44444444  0.77777778  0.59111551
   0.77777778  0.77777778  0.59111551
   0.11111111  0.11111111  0.81818213
   0.44444444  0.11111111  0.81818213
   0.77777778  0.11111111  0.81818213
   0.11111111  0.44444444  0.81818213
   0.44444444  0.44444444  0.81818213
   0.77777778  0.44444444  0.81818213
   0.11111111  0.77777778  0.81818213
   0.44444444  0.77777778  0.81818213
   0.77777778  0.77777778  0.81818213
   0.00000000  0.00000000  0.74104921
   0.33333333  0.00000000  0.74104921
   0.66666667  0.00000000  0.74104921
   0.00000000  0.33333333  0.74104921
   0.33333333  0.33333333  0.74104921
   0.66666667  0.33333333  0.74104921
   0.00000000  0.66666667  0.74104921
   0.33333333  0.66666667  0.74104921
   0.66666667  0.66666667  0.74104921
   0.00000000  0.00000000  0.89534418
   0.33333333  0.00000000  0.89534418
   0.66666667  0.00000000  0.89534418
   0.00000000  0.33333333  0.89534418
   0.33333333  0.33333333  0.89534418
   0.66666667  0.33333333  0.89534418
   0.00000000  0.66666667  0.89534418
   0.33333333  0.66666667  0.89534418
   0.66666667  0.66666667  0.89534418
 
 position of ions in cartesian coordinates  (Angst):
   0.00000000  0.00000000 10.13660389
   3.25324154  0.00000000 10.13660389
   6.50648308  0.00000000 10.13660389
   1.62662077  2.81738982 10.13660389
   4.87986231  2.81738982 10.13660389
   8.13310385  2.81738982 10.13660389
   3.25324154  5.63477964 10.13660389
   6.50648308  5.63477964 10.13660389
   9.75972462  5.63477964 10.13660389
   1.62223522  0.93912994  8.44058846
   4.87986231  0.93912994  8.44957550
   8.13310385  0.93912994  8.44957550
   3.25324154  3.75651976  8.44957550
   6.50648308  3.75651976  8.44957550
   9.75972462  3.75651976  8.44957550
   4.87986231  6.57390958  8.44957550
   8.13310385  6.57390958  8.44957550
  11.38634540  6.57390958  8.44957550
   1.62662077  0.93912994 11.82231022
   4.87986231  0.93912994 11.82231022
   8.13310385  0.93912994 11.82231022
   3.25324154  3.75651976 11.82231022
   6.50648308  3.75651976 11.82231022
   9.75972462  3.75651976 11.82231022
   4.87986231  6.57390958 11.82231022
   8.13310385  6.57390958 11.82231022
  11.38634540  6.57390958 11.82231022
   1.62662077  0.93912994 16.36364264
   4.87986231  0.93912994 16.36364264
   8.13310385  0.93912994 16.36364264
   3.25324154  3.75651976 16.36364264
   6.50648308  3.75651976 16.36364264
   9.75972462  3.75651976 16.36364264
   4.87986231  6.57390958 16.36364264
   8.13310385  6.57390958 16.36364264
  11.38634540  6.57390958 16.36364264
   0.00000000  0.00000000 14.82098420
   3.25324154  0.00000000 14.82098420
   6.50648308  0.00000000 14.82098420
   1.62662077  2.81738982 14.82098420
   4.87986231  2.81738982 14.82098420
   8.13310385  2.81738982 14.82098420
   3.25324154  5.63477964 14.82098420
   6.50648308  5.63477964 14.82098420
   9.75972462  5.63477964 14.82098420
   0.00000000  0.00000000 17.90688355
   3.25324154  0.00000000 17.90688355
   6.50648308  0.00000000 17.90688355
   1.62662077  2.81738982 17.90688355
   4.87986231  2.81738982 17.90688355
   8.13310385  2.81738982 17.90688355
   3.25324154  5.63477964 17.90688355
   6.50648308  5.63477964 17.90688355
   9.75972462  5.63477964 17.90688355
 


--------------------------------------------------------------------------------------------------------


 k-point     1 :   0.0000 0.0000 0.0000  plane waves:   44367
 k-point     2 :   0.2000 0.0000 0.0000  plane waves:   44431
 k-point     3 :   0.2000 0.2000 0.0000  plane waves:   44431
 k-point     4 :   0.0000 0.2000 0.0000  plane waves:   44431
 k-point     5 :   0.4000 0.0000 0.0000  plane waves:   44438
 k-point     6 :   0.4000 0.4000 0.0000  plane waves:   44438
 k-point     7 :   0.0000 0.4000 0.0000  plane waves:   44438
 k-point     8 :   0.4000 0.2000 0.0000  plane waves:   44408
 k-point     9 :   0.2000 0.4000 0.0000  plane waves:   44408
 k-point    10 :  -0.2000 0.2000 0.0000  plane waves:   44408
 k-point    11 :  -0.4000 0.2000 0.0000  plane waves:   44432
 k-point    12 :   0.4000-0.4000 0.0000  plane waves:   44432
 k-point    13 :  -0.2000 0.4000 0.0000  plane waves:   44432

 maximum and minimum number of plane-waves per node :     11147    11056

 maximum number of plane-waves:     44438
 maximum index in each direction: 
   IXMAX=   18   IYMAX=   18   IZMAX=   37
   IXMIN=  -18   IYMIN=  -18   IZMIN=  -37


 real space projection operators:
  total allocation   :      34706.57 KBytes
  max/ min on nodes  :       8682.49       8672.88


 parallel 3D FFT for wavefunctions:
    minimum data exchange during FFTs selected (reduces bandwidth)
 parallel 3D FFT for charge:
    minimum data exchange during FFTs selected (reduces bandwidth)


 total amount of memory used by VASP MPI-rank0   147274. kBytes
=======================================================================

   base                                    :      30000. kBytes
   nonlr-proj                              :      18792. kBytes
   fftplans                                :      13412. kBytes
   grid                                    :      23521. kBytes
   one-center                              :        217. kBytes
   wavefun                                 :      61332. kBytes
 
     INWAV:  cpu time      0.0000: real time      0.0000
 Broyden mixing: mesh for mixing (old mesh)
   NGX = 37   NGY = 37   NGZ = 75
  (NGX  =160   NGY  =160   NGZ  =300)
  gives a total of 102675 points

 initial charge density was supplied:
 charge density of overlapping atoms calculated
 number of electron     468.0000000 magnetization 
 keeping initial charge density in first step


--------------------------------------------------------------------------------------------------------


 Maximum index for non-local projection operator         2151
 Maximum index for augmentation-charges          964 (set IRDMAX)


--------------------------------------------------------------------------------------------------------


 First call to EWALD:  gamma=   0.150
 Maximum number of real-space cells   4x   4x   2
 Maximum number of reciprocal cells   2x   2x   4

    FEWALD:  cpu time      0.0651: real time      0.0651


--------------------------------------- Ionic step        1  -------------------------------------------




--------------------------------------- Iteration      1(   1)  ---------------------------------------


    POTLOK:  cpu time      0.2405: real time      0.2412
    SETDIJ:  cpu time      0.0765: real time      0.0766
     EDDAV:  cpu time     11.7555: real time     11.8556
       DOS:  cpu time      0.0038: real time      0.0039
    --------------------------------------------
      LOOP:  cpu time     12.0764: real time     12.1773

 eigenvalue-minimisations  :  8855
 total energy-change (2. order) : 0.4573621E+04  (-0.2473767E+05)
 number of electron     468.0000000 magnetization 
 augmentation part      468.0000000 magnetization 

 Free energy of the ion-electron system (eV)
  ---------------------------------------------------
  alpha Z        PSCENC =      1198.06820637
  Ewald energy   TEWEN  =     42439.00455469
  -Hartree energ DENC   =    -82127.45149898
  -exchange      EXHF   =         0.00000000
  -V(xc)+E(xc)   XCENC  =      1333.17319554
  PAW double counting   =     34351.68047665   -33677.40238700
  entropy T*S    EENTRO =        -0.02503337
  eigenvalues    EBANDS =     -2105.21844766
  atomic energy  EATOM  =     43161.79194098
  Solvation  Ediel_sol  =         0.00000000
  ---------------------------------------------------
  free energy    TOTEN  =      4573.62100722 eV

  energy without entropy =     4573.64604059  energy(sigma->0) =     4573.63352390


--------------------------------------------------------------------------------------------------------




--------------------------------------- Iteration      1(   2)  ---------------------------------------


     EDDAV:  cpu time     11.5742: real time     11.6757
       DOS:  cpu time      0.0017: real time      0.0017
    --------------------------------------------
      LOOP:  cpu time     11.5758: real time     11.6774

 eigenvalue-minimisations  :  8822
 total energy-change (2. order) :-0.4610112E+04  (-0.4480967E+04)
 number of electron     468.0000000 magnetization 
 augmentation part      468.0000000 magnetization 

 Free energy of the ion-electron system (eV)
  ---------------------------------------------------
  alpha Z        PSCENC =      1198.06820637
  Ewald energy   TEWEN  =     42439.00455469
  -Hartree energ DENC   =    -82127.45149898
  -exchange      EXHF   =         0.00000000
  -V(xc)+E(xc)   XCENC  =      1333.17319554
  PAW double counting   =     34351.68047665   -33677.40238700
  entropy T*S    EENTRO =        -0.00000000
  eigenvalues    EBANDS =     -6715.35509757
  atomic energy  EATOM  =     43161.79194098
  Solvation  Ediel_sol  =         0.00000000
  ---------------------------------------------------
  free energy    TOTEN  =       -36.49060932 eV

  energy without entropy =      -36.49060932  energy(sigma->0) =      -36.49060932


--------------------------------------------------------------------------------------------------------




--------------------------------------- Iteration      1(   3)  ---------------------------------------


     EDDAV:  cpu time     11.5764: real time     11.6760
       DOS:  cpu time      0.0022: real time      0.0022
    --------------------------------------------
      LOOP:  cpu time     11.5786: real time     11.6782

 eigenvalue-minimisations  :  8833
 total energy-change (2. order) :-0.3606262E+03  (-0.3538666E+03)
 number of electron     468.0000000 magnetization 
 augmentation part      468.0000000 magnetization 

 Free energy of the ion-electron system (eV)
  ---------------------------------------------------
  alpha Z        PSCENC =      1198.06820637
  Ewald energy   TEWEN  =     42439.00455469
  -Hartree energ DENC   =    -82127.45149898
  -exchange      EXHF   =         0.00000000
  -V(xc)+E(xc)   XCENC  =      1333.17319554
  PAW double counting   =     34351.68047665   -33677.40238700
  entropy T*S    EENTRO =        -0.00000000
  eigenvalues    EBANDS =     -7075.98126714
  atomic energy  EATOM  =     43161.79194098
  Solvation  Ediel_sol  =         0.00000000
  ---------------------------------------------------
  free energy    TOTEN  =      -397.11677889 eV

  energy without entropy =     -397.11677889  energy(sigma->0) =     -397.11677889


--------------------------------------------------------------------------------------------------------




--------------------------------------- Iteration      1(   4)  ---------------------------------------


     EDDAV:  cpu time     12.6704: real time     12.7798
       DOS:  cpu time      0.0020: real time      0.0020
    --------------------------------------------
      LOOP:  cpu time     12.6724: real time     12.7818

 eigenvalue-minimisations  :  9900
 total energy-change (2. order) :-0.1625703E+02  (-0.1613130E+02)
 number of electron     468.0000000 magnetization 
 augmentation part      468.0000000 magnetization 

 Free energy of the ion-electron system (eV)
  ---------------------------------------------------
  alpha Z        PSCENC =      1198.06820637
  Ewald energy   TEWEN  =     42439.00455469
  -Hartree energ DENC   =    -82127.45149898
  -exchange      EXHF   =         0.00000000
  -V(xc)+E(xc)   XCENC  =      1333.17319554
  PAW double counting   =     34351.68047665   -33677.40238700
  entropy T*S    EENTRO =        -0.00000000
  eigenvalues    EBANDS =     -7092.23829315
  atomic energy  EATOM  =     43161.79194098
  Solvation  Ediel_sol  =         0.00000000
  ---------------------------------------------------
  free energy    TOTEN  =      -413.37380489 eV

  energy without entropy =     -413.37380489  energy(sigma->0) =     -413.37380489


--------------------------------------------------------------------------------------------------------




--------------------------------------- Iteration      1(   5)  ---------------------------------------


     EDDAV:  cpu time     12.9105: real time     13.0224
       DOS:  cpu time      0.0023: real time      0.0023
    CHARGE:  cpu time      0.8744: real time      0.8914
    MIXING:  cpu time      0.0333: real time      0.0333
    --------------------------------------------
      LOOP:  cpu time     13.8205: real time     13.9495

 eigenvalue-minimisations  : 10153
 total energy-change (2. order) :-0.4824456E+00  (-0.4805887E+00)
 number of electron     468.0000032 magnetization 
 augmentation part       18.7478692 magnetization 

 Broyden mixing:
  rms(total) = 0.91902E+01    rms(broyden)= 0.91902E+01
  rms(prec ) = 0.92979E+01
  weight for this iteration     100.00

 Free energy of the ion-electron system (eV)
  ---------------------------------------------------
  alpha Z        PSCENC =      1198.06820637
  Ewald energy   TEWEN  =     42439.00455469
  -Hartree energ DENC   =    -82127.45149898
  -exchange      EXHF   =         0.00000000
  -V(xc)+E(xc)   XCENC  =      1333.17319554
  PAW double counting   =     34351.68047665   -33677.40238700
  entropy T*S    EENTRO =        -0.00000000
  eigenvalues    EBANDS =     -7092.72073874
  atomic energy  EATOM  =     43161.79194098
  Solvation  Ediel_sol  =         0.00000000
  ---------------------------------------------------
  free energy    TOTEN  =      -413.85625048 eV

  energy without entropy =     -413.85625048  energy(sigma->0) =     -413.85625048


--------------------------------------------------------------------------------------------------------




--------------------------------------- Iteration      1(   6)  ---------------------------------------


    POTLOK:  cpu time      0.2284: real time      0.2295
    SETDIJ:  cpu time      0.0104: real time      0.0104
     EDDAV:  cpu time     14.4590: real time     14.5148
       DOS:  cpu time      0.0194: real time      0.0195
    CHARGE:  cpu time      0.8466: real time      0.8489
    MIXING:  cpu time      0.0279: real time      0.0280
    --------------------------------------------
      LOOP:  cpu time     15.5918: real time     15.6512

 eigenvalue-minimisations  :  8811
 total energy-change (2. order) : 0.1741379E+02  (-0.1178216E+02)
 number of electron     468.0000033 magnetization 
 augmentation part       27.4399766 magnetization 

 Broyden mixing:
  rms(total) = 0.37364E+01    rms(broyden)= 0.37364E+01
  rms(prec ) = 0.38329E+01
  weight for this iteration     100.00

 eigenvalues of (default mixing * dielectric matrix)
  average eigenvalue GAMMA=   1.2555
  1.2555

 Free energy of the ion-electron system (eV)
  ---------------------------------------------------
  alpha Z        PSCENC =      1198.06820637
  Ewald energy   TEWEN  =     42439.00455469
  -Hartree energ DENC   =    -81679.52939806
  -exchange      EXHF   =         0.00000000
  -V(xc)+E(xc)   XCENC  =      1320.98374752
  PAW double counting   =     42002.39614362   -41384.95936153
  entropy T*S    EENTRO =        -0.00000000
  eigenvalues    EBANDS =     -7454.19829796
  atomic energy  EATOM  =     43161.79194098
  Solvation  Ediel_sol  =         0.00000000
  ---------------------------------------------------
  free energy    TOTEN  =      -396.44246438 eV

  energy without entropy =     -396.44246438  energy(sigma->0) =     -396.44246438


--------------------------------------------------------------------------------------------------------




--------------------------------------- Iteration      1(   7)  ---------------------------------------


    POTLOK:  cpu time      0.2186: real time      0.2198
    SETDIJ:  cpu time      0.0069: real time      0.0069
     EDDAV:  cpu time     11.4903: real time     11.5896
       DOS:  cpu time      0.0114: real time      0.0114
    CHARGE:  cpu time      0.8540: real time      0.8631
    MIXING:  cpu time      0.0298: real time      0.0299
    --------------------------------------------
      LOOP:  cpu time     12.6110: real time     12.7207

 eigenvalue-minimisations  :  8712
 total energy-change (2. order) : 0.1441256E+01  (-0.5050949E+01)
 number of electron     468.0000033 magnetization 
 augmentation part       23.0150443 magnetization 

 Broyden mixing:
  rms(total) = 0.20576E+01    rms(broyden)= 0.20576E+01
  rms(prec ) = 0.21643E+01
  weight for this iteration     100.00

 eigenvalues of (default mixing * dielectric matrix)
  average eigenvalue GAMMA=   1.2628
  1.8483  0.6774

 Free energy of the ion-electron system (eV)
  ---------------------------------------------------
  alpha Z        PSCENC =      1198.06820637
  Ewald energy   TEWEN  =     42439.00455469
  -Hartree energ DENC   =    -81964.96351722
  -exchange      EXHF   =         0.00000000
  -V(xc)+E(xc)   XCENC  =      1325.06628905
  PAW double counting   =     48685.44103749   -48068.28103111
  entropy T*S    EENTRO =        -0.00000000
  eigenvalues    EBANDS =     -7171.12868862
  atomic energy  EATOM  =     43161.79194098
  Solvation  Ediel_sol  =         0.00000000
  ---------------------------------------------------
  free energy    TOTEN  =      -395.00120838 eV

  energy without entropy =     -395.00120838  energy(sigma->0) =     -395.00120838


--------------------------------------------------------------------------------------------------------




--------------------------------------- Iteration      1(   8)  ---------------------------------------


    POTLOK:  cpu time      0.2125: real time      0.2138
    SETDIJ:  cpu time      0.0069: real time      0.0069
     EDDAV:  cpu time     14.2163: real time     14.2697
       DOS:  cpu time      0.0013: real time      0.0013
    CHARGE:  cpu time      0.8378: real time      0.8401
    MIXING:  cpu time      0.0268: real time      0.0269
    --------------------------------------------
      LOOP:  cpu time     15.3016: real time     15.3587

 eigenvalue-minimisations  :  8437
 total energy-change (2. order) : 0.3185577E+01  (-0.1213531E+01)
 number of electron     468.0000033 magnetization 
 augmentation part       25.1904678 magnetization 

 Broyden mixing:
  rms(total) = 0.53912E+00    rms(broyden)= 0.53912E+00
  rms(prec ) = 0.56500E+00
  weight for this iteration     100.00

 eigenvalues of (default mixing * dielectric matrix)
  average eigenvalue GAMMA=   1.2084
  2.1381  0.8682  0.6190

 Free energy of the ion-electron system (eV)
  ---------------------------------------------------
  alpha Z        PSCENC =      1198.06820637
  Ewald energy   TEWEN  =     42439.00455469
  -Hartree energ DENC   =    -81821.39992641
  -exchange      EXHF   =         0.00000000
  -V(xc)+E(xc)   XCENC  =      1321.58222831
  PAW double counting   =     52813.91677211   -52216.81281793
  entropy T*S    EENTRO =        -0.00000000
  eigenvalues    EBANDS =     -7287.96658975
  atomic energy  EATOM  =     43161.79194098
  Solvation  Ediel_sol  =         0.00000000
  ---------------------------------------------------
  free energy    TOTEN  =      -391.81563163 eV

  energy without entropy =     -391.81563163  energy(sigma->0) =     -391.81563163


--------------------------------------------------------------------------------------------------------




--------------------------------------- Iteration      1(   9)  ---------------------------------------


    POTLOK:  cpu time      0.2141: real time      0.2169
    SETDIJ:  cpu time      0.1201: real time      0.1203
     EDDAV:  cpu time     11.9822: real time     12.0849
       DOS:  cpu time      0.0012: real time      0.0012
    CHARGE:  cpu time      0.8586: real time      0.8673
    MIXING:  cpu time      0.0294: real time      0.0295
    --------------------------------------------
      LOOP:  cpu time     13.2057: real time     13.3200

 eigenvalue-minimisations  :  9240
 total energy-change (2. order) : 0.8878160E-01  (-0.1295663E+00)
 number of electron     468.0000033 magnetization 
 augmentation part       25.4358740 magnetization 

 Broyden mixing:
  rms(total) = 0.22760E+00    rms(broyden)= 0.22760E+00
  rms(prec ) = 0.24327E+00
  weight for this iteration     100.00

 eigenvalues of (default mixing * dielectric matrix)
  average eigenvalue GAMMA=   1.1615
  2.2138  1.1540  0.6392  0.6392

 Free energy of the ion-electron system (eV)
  ---------------------------------------------------
  alpha Z        PSCENC =      1198.06820637
  Ewald energy   TEWEN  =     42439.00455469
  -Hartree energ DENC   =    -81827.84797053
  -exchange      EXHF   =         0.00000000
  -V(xc)+E(xc)   XCENC  =      1321.86367021
  PAW double counting   =     54228.94448910   -53635.24509532
  entropy T*S    EENTRO =        -0.00000000
  eigenvalues    EBANDS =     -7278.30664553
  atomic energy  EATOM  =     43161.79194098
  Solvation  Ediel_sol  =         0.00000000
  ---------------------------------------------------
  free energy    TOTEN  =      -391.72685003 eV

  energy without entropy =     -391.72685003  energy(sigma->0) =     -391.72685003


--------------------------------------------------------------------------------------------------------




--------------------------------------- Iteration      1(  10)  ---------------------------------------


    POTLOK:  cpu time      0.2109: real time      0.2118
    SETDIJ:  cpu time      0.0069: real time      0.0069
     EDDAV:  cpu time     15.2597: real time     15.3155
       DOS:  cpu time      0.0015: real time      0.0015
    CHARGE:  cpu time      0.8389: real time      0.8411
    MIXING:  cpu time      0.0259: real time      0.0259
    --------------------------------------------
      LOOP:  cpu time     16.3437: real time     16.4027

 eigenvalue-minimisations  :  9383
 total energy-change (2. order) : 0.2662525E-01  (-0.1176560E-01)
 number of electron     468.0000033 magnetization 
 augmentation part       25.3341543 magnetization 

 Broyden mixing:
  rms(total) = 0.11042E+00    rms(broyden)= 0.11042E+00
  rms(prec ) = 0.12737E+00
  weight for this iteration     100.00

 eigenvalues of (default mixing * dielectric matrix)
  average eigenvalue GAMMA=   1.2080
  2.2393  1.5872  0.7655  0.7655  0.6825

 Free energy of the ion-electron system (eV)
  ---------------------------------------------------
  alpha Z        PSCENC =      1198.06820637
  Ewald energy   TEWEN  =     42439.00455469
  -Hartree energ DENC   =    -81845.18254287
  -exchange      EXHF   =         0.00000000
  -V(xc)+E(xc)   XCENC  =      1322.35852599
  PAW double counting   =     54484.65219744   -53890.94352418
  entropy T*S    EENTRO =        -0.00000000
  eigenvalues    EBANDS =     -7261.44958321
  atomic energy  EATOM  =     43161.79194098
  Solvation  Ediel_sol  =         0.00000000
  ---------------------------------------------------
  free energy    TOTEN  =      -391.70022478 eV

  energy without entropy =     -391.70022478  energy(sigma->0) =     -391.70022478


--------------------------------------------------------------------------------------------------------




--------------------------------------- Iteration      1(  11)  ---------------------------------------


    POTLOK:  cpu time      0.2129: real time      0.2139
    SETDIJ:  cpu time      0.0069: real time      0.0069
     EDDAV:  cpu time     12.5734: real time     12.6801
       DOS:  cpu time      0.0019: real time      0.0019
    CHARGE:  cpu time      0.8566: real time      0.8654
    MIXING:  cpu time      0.0260: real time      0.0261
    --------------------------------------------
      LOOP:  cpu time     13.6776: real time     13.7943

 eigenvalue-minimisations  :  9823
 total energy-change (2. order) : 0.1834594E-01  (-0.3416635E-02)
 number of electron     468.0000033 magnetization 
 augmentation part       25.2354658 magnetization 

 Broyden mixing:
  rms(total) = 0.42733E-01    rms(broyden)= 0.42733E-01
  rms(prec ) = 0.66400E-01
  weight for this iteration     100.00

 eigenvalues of (default mixing * dielectric matrix)
  average eigenvalue GAMMA=   1.2022
  2.2489  1.8765  1.0000  0.6569  0.7154  0.7154

 Free energy of the ion-electron system (eV)
  ---------------------------------------------------
  alpha Z        PSCENC =      1198.06820637
  Ewald energy   TEWEN  =     42439.00455469
  -Hartree energ DENC   =    -81862.09714816
  -exchange      EXHF   =         0.00000000
  -V(xc)+E(xc)   XCENC  =      1322.73936993
  PAW double counting   =     54516.73025444   -53922.54257193
  entropy T*S    EENTRO =        -0.00000000
  eigenvalues    EBANDS =     -7245.37648516
  atomic energy  EATOM  =     43161.79194098
  Solvation  Ediel_sol  =         0.00000000
  ---------------------------------------------------
  free energy    TOTEN  =      -391.68187884 eV

  energy without entropy =     -391.68187884  energy(sigma->0) =     -391.68187884


--------------------------------------------------------------------------------------------------------




--------------------------------------- Iteration      1(  12)  ---------------------------------------


    POTLOK:  cpu time      0.2104: real time      0.2114
    SETDIJ:  cpu time      0.0073: real time      0.0073
     EDDAV:  cpu time     14.7567: real time     14.8102
       DOS:  cpu time      0.0019: real time      0.0019
    CHARGE:  cpu time      0.8368: real time      0.8391
    MIXING:  cpu time      0.0259: real time      0.0259
    --------------------------------------------
      LOOP:  cpu time     15.8390: real time     15.8959

 eigenvalue-minimisations  :  8987
 total energy-change (2. order) : 0.7785859E-02  (-0.1687737E-02)
 number of electron     468.0000033 magnetization 
 augmentation part       25.2259361 magnetization 

 Broyden mixing:
  rms(total) = 0.31975E-01    rms(broyden)= 0.31974E-01
  rms(prec ) = 0.56083E-01
  weight for this iteration     100.00

 eigenvalues of (default mixing * dielectric matrix)
  average eigenvalue GAMMA=   1.2043
  2.2784  2.2784  1.2624  0.7568  0.7568  0.6696  0.4277

 Free energy of the ion-electron system (eV)
  ---------------------------------------------------
  alpha Z        PSCENC =      1198.06820637
  Ewald energy   TEWEN  =     42439.00455469
  -Hartree energ DENC   =    -81870.15257630
  -exchange      EXHF   =         0.00000000
  -V(xc)+E(xc)   XCENC  =      1322.85678235
  PAW double counting   =     54517.36567675   -53923.09016813
  entropy T*S    EENTRO =        -0.00000000
  eigenvalues    EBANDS =     -7237.51850969
  atomic energy  EATOM  =     43161.79194098
  Solvation  Ediel_sol  =         0.00000000
  ---------------------------------------------------
  free energy    TOTEN  =      -391.67409298 eV

  energy without entropy =     -391.67409298  energy(sigma->0) =     -391.67409298


--------------------------------------------------------------------------------------------------------




--------------------------------------- Iteration      1(  13)  ---------------------------------------


    POTLOK:  cpu time      0.2134: real time      0.2144
    SETDIJ:  cpu time      0.0071: real time      0.0071
     EDDAV:  cpu time     12.1731: real time     12.2772
       DOS:  cpu time      0.0017: real time      0.0017
    CHARGE:  cpu time      0.8573: real time      0.8661
    MIXING:  cpu time      0.0264: real time      0.0265
    --------------------------------------------
      LOOP:  cpu time     13.2790: real time     13.3930

 eigenvalue-minimisations  :  9449
 total energy-change (2. order) : 0.9715981E-02  (-0.7179579E-03)
 number of electron     468.0000033 magnetization 
 augmentation part       25.2300741 magnetization 

 Broyden mixing:
  rms(total) = 0.15535E-01    rms(broyden)= 0.15534E-01
  rms(prec ) = 0.39406E-01
  weight for this iteration     100.00

 eigenvalues of (default mixing * dielectric matrix)
  average eigenvalue GAMMA=   1.2323
  2.4013  2.4013  1.4776  0.9577  0.8117  0.7034  0.7034  0.4021

 Free energy of the ion-electron system (eV)
  ---------------------------------------------------
  alpha Z        PSCENC =      1198.06820637
  Ewald energy   TEWEN  =     42439.00455469
  -Hartree energ DENC   =    -81879.33575906
  -exchange      EXHF   =         0.00000000
  -V(xc)+E(xc)   XCENC  =      1322.95277643
  PAW double counting   =     54499.87194678   -53905.55238421
  entropy T*S    EENTRO =        -0.00000000
  eigenvalues    EBANDS =     -7228.46565898
  atomic energy  EATOM  =     43161.79194098
  Solvation  Ediel_sol  =         0.00000000
  ---------------------------------------------------
  free energy    TOTEN  =      -391.66437700 eV

  energy without entropy =     -391.66437700  energy(sigma->0) =     -391.66437700


--------------------------------------------------------------------------------------------------------




--------------------------------------- Iteration      1(  14)  ---------------------------------------


    POTLOK:  cpu time      0.2109: real time      0.2119
    SETDIJ:  cpu time      0.0071: real time      0.0071
     EDDAV:  cpu time     15.0706: real time     15.1255
       DOS:  cpu time      0.0018: real time      0.0019
    CHARGE:  cpu time      0.8376: real time      0.8398
    MIXING:  cpu time      0.0260: real time      0.0261
    --------------------------------------------
      LOOP:  cpu time     16.1540: real time     16.2123

 eigenvalue-minimisations  :  9504
 total energy-change (2. order) : 0.7101857E-02  (-0.5224623E-03)
 number of electron     468.0000033 magnetization 
 augmentation part       25.2399541 magnetization 

 Broyden mixing:
  rms(total) = 0.15459E-01    rms(broyden)= 0.15459E-01
  rms(prec ) = 0.33027E-01
  weight for this iteration     100.00

 eigenvalues of (default mixing * dielectric matrix)
  average eigenvalue GAMMA=   1.2161
  2.5471  2.5471  1.6629  1.1275  0.7204  0.7204  0.7279  0.4959  0.3958

 Free energy of the ion-electron system (eV)
  ---------------------------------------------------
  alpha Z        PSCENC =      1198.06820637
  Ewald energy   TEWEN  =     42439.00455469
  -Hartree energ DENC   =    -81891.17699360
  -exchange      EXHF   =         0.00000000
  -V(xc)+E(xc)   XCENC  =      1323.02120072
  PAW double counting   =     54472.09218837   -53877.77749074
  entropy T*S    EENTRO =        -0.00000000
  eigenvalues    EBANDS =     -7216.68088193
  atomic energy  EATOM  =     43161.79194098
  Solvation  Ediel_sol  =         0.00000000
  ---------------------------------------------------
  free energy    TOTEN  =      -391.65727514 eV

  energy without entropy =     -391.65727514  energy(sigma->0) =     -391.65727514


--------------------------------------------------------------------------------------------------------




--------------------------------------- Iteration      1(  15)  ---------------------------------------


    POTLOK:  cpu time      0.2126: real time      0.2135
    SETDIJ:  cpu time      0.0069: real time      0.0070
     EDDAV:  cpu time     11.9829: real time     12.0867
       DOS:  cpu time      0.0022: real time      0.0022
    CHARGE:  cpu time      0.8578: real time      0.8666
    MIXING:  cpu time      0.0248: real time      0.0248
    --------------------------------------------
      LOOP:  cpu time     13.0871: real time     13.2008

 eigenvalue-minimisations  :  9097
 total energy-change (2. order) : 0.4032404E-02  (-0.5484886E-03)
 number of electron     468.0000033 magnetization 
 augmentation part       25.2467454 magnetization 

 Broyden mixing:
  rms(total) = 0.13861E-01    rms(broyden)= 0.13861E-01
  rms(prec ) = 0.26210E-01
  weight for this iteration     100.00

 eigenvalues of (default mixing * dielectric matrix)
  average eigenvalue GAMMA=   1.2301
  3.0972  2.4583  1.8415  1.2219  0.7610  0.7610  0.6713  0.6713  0.4319  0.3858

 Free energy of the ion-electron system (eV)
  ---------------------------------------------------
  alpha Z        PSCENC =      1198.06820637
  Ewald energy   TEWEN  =     42439.00455469
  -Hartree energ DENC   =    -81902.12565966
  -exchange      EXHF   =         0.00000000
  -V(xc)+E(xc)   XCENC  =      1323.08426540
  PAW double counting   =     54458.49778757   -53864.19797122
  entropy T*S    EENTRO =        -0.00000000
  eigenvalues    EBANDS =     -7205.77636687
  atomic energy  EATOM  =     43161.79194098
  Solvation  Ediel_sol  =         0.00000000
  ---------------------------------------------------
  free energy    TOTEN  =      -391.65324274 eV

  energy without entropy =     -391.65324274  energy(sigma->0) =     -391.65324274


--------------------------------------------------------------------------------------------------------




--------------------------------------- Iteration      1(  16)  ---------------------------------------


    POTLOK:  cpu time      0.2105: real time      0.2116
    SETDIJ:  cpu time      0.0070: real time      0.0070
     EDDAV:  cpu time     14.6389: real time     14.6923
       DOS:  cpu time      0.0017: real time      0.0017
    CHARGE:  cpu time      0.8382: real time      0.8405
    MIXING:  cpu time      0.0255: real time      0.0256
    --------------------------------------------
      LOOP:  cpu time     15.7217: real time     15.7786

 eigenvalue-minimisations  :  9108
 total energy-change (2. order) : 0.1775766E-02  (-0.3418034E-03)
 number of electron     468.0000033 magnetization 
 augmentation part       25.2510564 magnetization 

 Broyden mixing:
  rms(total) = 0.10659E-01    rms(broyden)= 0.10659E-01
  rms(prec ) = 0.17698E-01
  weight for this iteration     100.00

 eigenvalues of (default mixing * dielectric matrix)
  average eigenvalue GAMMA=   1.3360
  3.7229  2.2651  2.2651  1.2457  1.2457  1.0003  0.7324  0.7324  0.6878  0.4096
  0.3893

 Free energy of the ion-electron system (eV)
  ---------------------------------------------------
  alpha Z        PSCENC =      1198.06820637
  Ewald energy   TEWEN  =     42439.00455469
  -Hartree energ DENC   =    -81915.21450517
  -exchange      EXHF   =         0.00000000
  -V(xc)+E(xc)   XCENC  =      1323.15823039
  PAW double counting   =     54460.59207890   -53866.33244901
  entropy T*S    EENTRO =        -0.00000000
  eigenvalues    EBANDS =     -7192.71952413
  atomic energy  EATOM  =     43161.79194098
  Solvation  Ediel_sol  =         0.00000000
  ---------------------------------------------------
  free energy    TOTEN  =      -391.65146697 eV

  energy without entropy =     -391.65146697  energy(sigma->0) =     -391.65146697


--------------------------------------------------------------------------------------------------------




--------------------------------------- Iteration      1(  17)  ---------------------------------------


    POTLOK:  cpu time      0.2131: real time      0.2142
    SETDIJ:  cpu time      0.0070: real time      0.0071
     EDDAV:  cpu time     11.7788: real time     11.8795
       DOS:  cpu time      0.0015: real time      0.0015
    CHARGE:  cpu time      0.8576: real time      0.8665
    MIXING:  cpu time      0.0262: real time      0.0262
    --------------------------------------------
      LOOP:  cpu time     12.8842: real time     12.9950

 eigenvalue-minimisations  :  8976
 total energy-change (2. order) :-0.2363763E-02  (-0.2981179E-03)
 number of electron     468.0000033 magnetization 
 augmentation part       25.2532648 magnetization 

 Broyden mixing:
  rms(total) = 0.96154E-02    rms(broyden)= 0.96154E-02
  rms(prec ) = 0.13056E-01
  weight for this iteration     100.00

 eigenvalues of (default mixing * dielectric matrix)
  average eigenvalue GAMMA=   1.3792
  4.2381  2.4598  2.4598  1.4705  1.4705  0.8640  0.7458  0.7458  0.6509  0.6509
  0.4089  0.3854

 Free energy of the ion-electron system (eV)
  ---------------------------------------------------
  alpha Z        PSCENC =      1198.06820637
  Ewald energy   TEWEN  =     42439.00455469
  -Hartree energ DENC   =    -81925.89707466
  -exchange      EXHF   =         0.00000000
  -V(xc)+E(xc)   XCENC  =      1323.19362557
  PAW double counting   =     54479.63694276   -53885.43433519
  entropy T*S    EENTRO =        -0.00000000
  eigenvalues    EBANDS =     -7182.01769126
  atomic energy  EATOM  =     43161.79194098
  Solvation  Ediel_sol  =         0.00000000
  ---------------------------------------------------
  free energy    TOTEN  =      -391.65383074 eV

  energy without entropy =     -391.65383074  energy(sigma->0) =     -391.65383074


--------------------------------------------------------------------------------------------------------




--------------------------------------- Iteration      1(  18)  ---------------------------------------


    POTLOK:  cpu time      0.2107: real time      0.2118
    SETDIJ:  cpu time      0.0069: real time      0.0070
     EDDAV:  cpu time     14.9374: real time     14.9918
       DOS:  cpu time      0.0019: real time      0.0019
    CHARGE:  cpu time      0.8350: real time      0.8373
    MIXING:  cpu time      0.0259: real time      0.0259
    --------------------------------------------
      LOOP:  cpu time     16.0178: real time     16.0756

 eigenvalue-minimisations  :  9339
 total energy-change (2. order) :-0.2077073E-02  (-0.7659525E-04)
 number of electron     468.0000033 magnetization 
 augmentation part       25.2494290 magnetization 

 Broyden mixing:
  rms(total) = 0.75609E-02    rms(broyden)= 0.75609E-02
  rms(prec ) = 0.99362E-02
  weight for this iteration     100.00

 eigenvalues of (default mixing * dielectric matrix)
  average eigenvalue GAMMA=   1.4038
  5.0628  2.6904  2.1568  1.5387  1.5387  0.8475  0.8475  0.7670  0.7201  0.7201
  0.5634  0.4105  0.3861

 Free energy of the ion-electron system (eV)
  ---------------------------------------------------
  alpha Z        PSCENC =      1198.06820637
  Ewald energy   TEWEN  =     42439.00455469
  -Hartree energ DENC   =    -81930.34567030
  -exchange      EXHF   =         0.00000000
  -V(xc)+E(xc)   XCENC  =      1323.20373262
  PAW double counting   =     54476.36331661   -53882.14945301
  entropy T*S    EENTRO =        -0.00000000
  eigenvalues    EBANDS =     -7177.59253577
  atomic energy  EATOM  =     43161.79194098
  Solvation  Ediel_sol  =         0.00000000
  ---------------------------------------------------
  free energy    TOTEN  =      -391.65590781 eV

  energy without entropy =     -391.65590781  energy(sigma->0) =     -391.65590781


--------------------------------------------------------------------------------------------------------




--------------------------------------- Iteration      1(  19)  ---------------------------------------


    POTLOK:  cpu time      0.2134: real time      0.2146
    SETDIJ:  cpu time      0.0071: real time      0.0071
     EDDAV:  cpu time     11.6883: real time     11.7881
       DOS:  cpu time      0.0017: real time      0.0017
    CHARGE:  cpu time      0.8588: real time      0.8676
    MIXING:  cpu time      0.0262: real time      0.0263
    --------------------------------------------
      LOOP:  cpu time     12.7955: real time     12.9053

 eigenvalue-minimisations  :  8778
 total energy-change (2. order) :-0.1574500E-02  (-0.1930247E-04)
 number of electron     468.0000033 magnetization 
 augmentation part       25.2465618 magnetization 

 Broyden mixing:
  rms(total) = 0.46071E-02    rms(broyden)= 0.46071E-02
  rms(prec ) = 0.67259E-02
  weight for this iteration     100.00

 eigenvalues of (default mixing * dielectric matrix)
  average eigenvalue GAMMA=   1.6155
  7.3948  2.6813  2.1423  2.1423  1.8070  1.0593  1.0593  0.8314  0.7368  0.7368
  0.7136  0.5166  0.4097  0.3859

 Free energy of the ion-electron system (eV)
  ---------------------------------------------------
  alpha Z        PSCENC =      1198.06820637
  Ewald energy   TEWEN  =     42439.00455469
  -Hartree energ DENC   =    -81933.38820967
  -exchange      EXHF   =         0.00000000
  -V(xc)+E(xc)   XCENC  =      1323.21328567
  PAW double counting   =     54458.44875376   -53864.19930936
  entropy T*S    EENTRO =        -0.00000000
  eigenvalues    EBANDS =     -7174.59670475
  atomic energy  EATOM  =     43161.79194098
  Solvation  Ediel_sol  =         0.00000000
  ---------------------------------------------------
  free energy    TOTEN  =      -391.65748231 eV

  energy without entropy =     -391.65748231  energy(sigma->0) =     -391.65748231


--------------------------------------------------------------------------------------------------------




--------------------------------------- Iteration      1(  20)  ---------------------------------------


    POTLOK:  cpu time      0.2105: real time      0.2115
    SETDIJ:  cpu time      0.0070: real time      0.0070
     EDDAV:  cpu time     14.0121: real time     14.0635
       DOS:  cpu time      0.0013: real time      0.0014
    CHARGE:  cpu time      0.8385: real time      0.8407
    MIXING:  cpu time      0.0262: real time      0.0262
    --------------------------------------------
      LOOP:  cpu time     15.0956: real time     15.1503

 eigenvalue-minimisations  :  8525
 total energy-change (2. order) :-0.2647746E-02  (-0.2853336E-04)
 number of electron     468.0000033 magnetization 
 augmentation part       25.2479061 magnetization 

 Broyden mixing:
  rms(total) = 0.29320E-02    rms(broyden)= 0.29320E-02
  rms(prec ) = 0.41539E-02
  weight for this iteration     100.00

 eigenvalues of (default mixing * dielectric matrix)
  average eigenvalue GAMMA=   1.7128
  9.4359  2.7845  2.3008  2.3008  1.6421  1.2084  0.9404  0.7985  0.7985  0.7277
  0.7277  0.7178  0.5133  0.4098  0.3859

 Free energy of the ion-electron system (eV)
  ---------------------------------------------------
  alpha Z        PSCENC =      1198.06820637
  Ewald energy   TEWEN  =     42439.00455469
  -Hartree energ DENC   =    -81937.44950207
  -exchange      EXHF   =         0.00000000
  -V(xc)+E(xc)   XCENC  =      1323.22283582
  PAW double counting   =     54451.10438570   -53856.85748289
  entropy T*S    EENTRO =        -0.00000000
  eigenvalues    EBANDS =     -7170.54506865
  atomic energy  EATOM  =     43161.79194098
  Solvation  Ediel_sol  =         0.00000000
  ---------------------------------------------------
  free energy    TOTEN  =      -391.66013006 eV

  energy without entropy =     -391.66013006  energy(sigma->0) =     -391.66013006


--------------------------------------------------------------------------------------------------------




--------------------------------------- Iteration      1(  21)  ---------------------------------------


    POTLOK:  cpu time      0.2130: real time      0.2142
    SETDIJ:  cpu time      0.0070: real time      0.0070
     EDDAV:  cpu time     11.6315: real time     11.7323
       DOS:  cpu time      0.0014: real time      0.0014
    CHARGE:  cpu time      0.8590: real time      0.8679
    MIXING:  cpu time      0.0262: real time      0.0263
    --------------------------------------------
      LOOP:  cpu time     12.7381: real time     12.8492

 eigenvalue-minimisations  :  8910
 total energy-change (2. order) :-0.8776883E-03  (-0.8059116E-05)
 number of electron     468.0000033 magnetization 
 augmentation part       25.2470204 magnetization 

 Broyden mixing:
  rms(total) = 0.25031E-02    rms(broyden)= 0.25031E-02
  rms(prec ) = 0.33163E-02
  weight for this iteration     100.00

 eigenvalues of (default mixing * dielectric matrix)
  average eigenvalue GAMMA=   1.6855
  9.9354  2.9153  2.4210  2.1590  1.4128  1.4128  0.9900  0.8850  0.8850  0.7315
  0.7315  0.6963  0.5379  0.3860  0.4097  0.4593

 Free energy of the ion-electron system (eV)
  ---------------------------------------------------
  alpha Z        PSCENC =      1198.06820637
  Ewald energy   TEWEN  =     42439.00455469
  -Hartree energ DENC   =    -81938.63525094
  -exchange      EXHF   =         0.00000000
  -V(xc)+E(xc)   XCENC  =      1323.22486839
  PAW double counting   =     54454.74161528   -53860.50003885
  entropy T*S    EENTRO =        -0.00000000
  eigenvalues    EBANDS =     -7169.35690366
  atomic energy  EATOM  =     43161.79194098
  Solvation  Ediel_sol  =         0.00000000
  ---------------------------------------------------
  free energy    TOTEN  =      -391.66100774 eV

  energy without entropy =     -391.66100774  energy(sigma->0) =     -391.66100774


--------------------------------------------------------------------------------------------------------




--------------------------------------- Iteration      1(  22)  ---------------------------------------


    POTLOK:  cpu time      0.2107: real time      0.2118
    SETDIJ:  cpu time      0.0072: real time      0.0072
     EDDAV:  cpu time     14.3822: real time     14.4344
       DOS:  cpu time      0.0021: real time      0.0021
    CHARGE:  cpu time      0.8373: real time      0.8396
    MIXING:  cpu time      0.0261: real time      0.0261
    --------------------------------------------
      LOOP:  cpu time     15.4654: real time     15.5211

 eigenvalue-minimisations  :  8800
 total energy-change (2. order) :-0.2977567E-03  (-0.2786263E-05)
 number of electron     468.0000033 magnetization 
 augmentation part       25.2461823 magnetization 

 Broyden mixing:
  rms(total) = 0.15607E-02    rms(broyden)= 0.15607E-02
  rms(prec ) = 0.23219E-02
  weight for this iteration     100.00

 eigenvalues of (default mixing * dielectric matrix)
  average eigenvalue GAMMA=   1.7043
 10.2809  3.1002  2.5068  2.0435  1.6394  1.6394  1.1470  0.9853  0.9853  0.7553
  0.7553  0.6909  0.6909  0.5126  0.3859  0.4098  0.4441

 Free energy of the ion-electron system (eV)
  ---------------------------------------------------
  alpha Z        PSCENC =      1198.06820637
  Ewald energy   TEWEN  =     42439.00455469
  -Hartree energ DENC   =    -81938.94049514
  -exchange      EXHF   =         0.00000000
  -V(xc)+E(xc)   XCENC  =      1323.22465748
  PAW double counting   =     54458.67292276   -53864.43426376
  entropy T*S    EENTRO =        -0.00000000
  eigenvalues    EBANDS =     -7169.04882888
  atomic energy  EATOM  =     43161.79194098
  Solvation  Ediel_sol  =         0.00000000
  ---------------------------------------------------
  free energy    TOTEN  =      -391.66130550 eV

  energy without entropy =     -391.66130550  energy(sigma->0) =     -391.66130550


--------------------------------------------------------------------------------------------------------




--------------------------------------- Iteration      1(  23)  ---------------------------------------


    POTLOK:  cpu time      0.2135: real time      0.2144
    SETDIJ:  cpu time      0.0069: real time      0.0069
     EDDAV:  cpu time     11.5482: real time     11.6478
       DOS:  cpu time      0.0013: real time      0.0013
    CHARGE:  cpu time      0.8587: real time      0.8675
    MIXING:  cpu time      0.0265: real time      0.0265
    --------------------------------------------
      LOOP:  cpu time     12.6551: real time     12.7644

 eigenvalue-minimisations  :  8712
 total energy-change (2. order) :-0.3484697E-03  (-0.2945855E-05)
 number of electron     468.0000033 magnetization 
 augmentation part       25.2462673 magnetization 

 Broyden mixing:
  rms(total) = 0.12542E-02    rms(broyden)= 0.12542E-02
  rms(prec ) = 0.17336E-02
  weight for this iteration     100.00

 eigenvalues of (default mixing * dielectric matrix)
  average eigenvalue GAMMA=   1.8711
 12.4602  4.0749  2.4345  2.4345  1.8338  1.8338  1.2919  0.9249  0.9249  0.8111
  0.8111  0.7171  0.7171  0.6719  0.5137  0.3859  0.4098  0.4280

 Free energy of the ion-electron system (eV)
  ---------------------------------------------------
  alpha Z        PSCENC =      1198.06820637
  Ewald energy   TEWEN  =     42439.00455469
  -Hartree energ DENC   =    -81939.37578478
  -exchange      EXHF   =         0.00000000
  -V(xc)+E(xc)   XCENC  =      1323.22326086
  PAW double counting   =     54461.26929280   -53867.03256493
  entropy T*S    EENTRO =        -0.00000000
  eigenvalues    EBANDS =     -7168.61055995
  atomic energy  EATOM  =     43161.79194098
  Solvation  Ediel_sol  =         0.00000000
  ---------------------------------------------------
  free energy    TOTEN  =      -391.66165397 eV

  energy without entropy =     -391.66165397  energy(sigma->0) =     -391.66165397


--------------------------------------------------------------------------------------------------------




--------------------------------------- Iteration      1(  24)  ---------------------------------------


    POTLOK:  cpu time      0.2106: real time      0.2117
    SETDIJ:  cpu time      0.0069: real time      0.0069
     EDDAV:  cpu time     13.1599: real time     13.2088
       DOS:  cpu time      0.0011: real time      0.0011
    CHARGE:  cpu time      0.8381: real time      0.8404
    MIXING:  cpu time      0.0252: real time      0.0252
    --------------------------------------------
      LOOP:  cpu time     14.2418: real time     14.2941

 eigenvalue-minimisations  :  7854
 total energy-change (2. order) :-0.1008143E-03  (-0.6807595E-05)
 number of electron     468.0000033 magnetization 
 augmentation part       25.2469469 magnetization 

 Broyden mixing:
  rms(total) = 0.13461E-02    rms(broyden)= 0.13461E-02
  rms(prec ) = 0.15123E-02
  weight for this iteration     100.00

 eigenvalues of (default mixing * dielectric matrix)
  average eigenvalue GAMMA=   1.8754
 13.2822  4.3569  2.5573  2.5573  1.8821  1.5501  1.1860  1.0141  1.0141  1.0594
  0.7410  0.7410  0.7047  0.7047  0.5532  0.5109  0.3860  0.4097  0.4228

 Free energy of the ion-electron system (eV)
  ---------------------------------------------------
  alpha Z        PSCENC =      1198.06820637
  Ewald energy   TEWEN  =     42439.00455469
  -Hartree energ DENC   =    -81940.02631543
  -exchange      EXHF   =         0.00000000
  -V(xc)+E(xc)   XCENC  =      1323.22387585
  PAW double counting   =     54459.19976979   -53864.96153371
  entropy T*S    EENTRO =        -0.00000000
  eigenvalues    EBANDS =     -7167.96225332
  atomic energy  EATOM  =     43161.79194098
  Solvation  Ediel_sol  =         0.00000000
  ---------------------------------------------------
  free energy    TOTEN  =      -391.66175478 eV

  energy without entropy =     -391.66175478  energy(sigma->0) =     -391.66175478


--------------------------------------------------------------------------------------------------------




--------------------------------------- Iteration      1(  25)  ---------------------------------------


    POTLOK:  cpu time      0.2129: real time      0.2138
    SETDIJ:  cpu time      0.0069: real time      0.0069
     EDDAV:  cpu time     11.1303: real time     11.2237
       DOS:  cpu time      0.0013: real time      0.0013
    CHARGE:  cpu time      0.8568: real time      0.8655
    MIXING:  cpu time      0.0264: real time      0.0265
    --------------------------------------------
      LOOP:  cpu time     12.2346: real time     12.3378

 eigenvalue-minimisations  :  8283
 total energy-change (2. order) : 0.2341781E-04  (-0.1835974E-05)
 number of electron     468.0000033 magnetization 
 augmentation part       25.2471726 magnetization 

 Broyden mixing:
  rms(total) = 0.88969E-03    rms(broyden)= 0.88968E-03
  rms(prec ) = 0.10392E-02
  weight for this iteration     100.00

 eigenvalues of (default mixing * dielectric matrix)
  average eigenvalue GAMMA=   1.8500
 13.3924  4.5146  2.6250  2.6250  2.0947  1.5933  1.0773  1.0773  1.1165  1.1165
  0.7342  0.7342  0.6738  0.6738  0.6151  0.6151  0.4995  0.3859  0.4098  0.4264

 Free energy of the ion-electron system (eV)
  ---------------------------------------------------
  alpha Z        PSCENC =      1198.06820637
  Ewald energy   TEWEN  =     42439.00455469
  -Hartree energ DENC   =    -81940.28190323
  -exchange      EXHF   =         0.00000000
  -V(xc)+E(xc)   XCENC  =      1323.22537169
  PAW double counting   =     54457.11023026   -53862.87077814
  entropy T*S    EENTRO =        -0.00000000
  eigenvalues    EBANDS =     -7167.70935398
  atomic energy  EATOM  =     43161.79194098
  Solvation  Ediel_sol  =         0.00000000
  ---------------------------------------------------
  free energy    TOTEN  =      -391.66173137 eV

  energy without entropy =     -391.66173137  energy(sigma->0) =     -391.66173137


--------------------------------------------------------------------------------------------------------




--------------------------------------- Iteration      1(  26)  ---------------------------------------


    POTLOK:  cpu time      0.2101: real time      0.2113
    SETDIJ:  cpu time      0.0070: real time      0.0070
     EDDAV:  cpu time     11.0702: real time     11.1121
       DOS:  cpu time      0.0014: real time      0.0014
    CHARGE:  cpu time      0.8358: real time      0.8381
    MIXING:  cpu time      0.0265: real time      0.0265
    --------------------------------------------
      LOOP:  cpu time     12.1509: real time     12.1964

 eigenvalue-minimisations  :  6105
 total energy-change (2. order) : 0.4198817E-05  (-0.1369445E-06)
 number of electron     468.0000033 magnetization 
 augmentation part       25.2472056 magnetization 

 Broyden mixing:
  rms(total) = 0.53298E-03    rms(broyden)= 0.53297E-03
  rms(prec ) = 0.67415E-03
  weight for this iteration     100.00

 eigenvalues of (default mixing * dielectric matrix)
  average eigenvalue GAMMA=   1.8759
 13.5838  4.9264  2.7269  2.5487  2.3381  1.6655  1.3488  1.3488  1.0913  1.0913
  0.8155  0.8155  0.7257  0.7257  0.6892  0.6892  0.5385  0.5056  0.3859  0.4098
  0.4228

 Free energy of the ion-electron system (eV)
  ---------------------------------------------------
  alpha Z        PSCENC =      1198.06820637
  Ewald energy   TEWEN  =     42439.00455469
  -Hartree energ DENC   =    -81940.35940422
  -exchange      EXHF   =         0.00000000
  -V(xc)+E(xc)   XCENC  =      1323.22636377
  PAW double counting   =     54457.33410491   -53863.09601444
  entropy T*S    EENTRO =        -0.00000000
  eigenvalues    EBANDS =     -7167.63147922
  atomic energy  EATOM  =     43161.79194098
  Solvation  Ediel_sol  =         0.00000000
  ---------------------------------------------------
  free energy    TOTEN  =      -391.66172717 eV

  energy without entropy =     -391.66172717  energy(sigma->0) =     -391.66172717


--------------------------------------------------------------------------------------------------------




--------------------------------------- Iteration      1(  27)  ---------------------------------------


    POTLOK:  cpu time      0.2132: real time      0.2141
    SETDIJ:  cpu time      0.0069: real time      0.0069
     EDDAV:  cpu time      9.5978: real time      9.6777
       DOS:  cpu time      0.0018: real time      0.0018
    CHARGE:  cpu time      0.8588: real time      0.8677
    MIXING:  cpu time      0.0268: real time      0.0268
    --------------------------------------------
      LOOP:  cpu time     10.7052: real time     10.7951

 eigenvalue-minimisations  :  6787
 total energy-change (2. order) :-0.3435467E-05  (-0.1829920E-06)
 number of electron     468.0000033 magnetization 
 augmentation part       25.2471832 magnetization 

 Broyden mixing:
  rms(total) = 0.35645E-03    rms(broyden)= 0.35644E-03
  rms(prec ) = 0.46217E-03
  weight for this iteration     100.00

 eigenvalues of (default mixing * dielectric matrix)
  average eigenvalue GAMMA=   1.8719
 13.7619  5.4564  3.0409  2.4200  2.4200  1.8170  1.4443  1.4443  1.0182  1.0182
  0.8693  0.8693  0.7545  0.7545  0.7033  0.7033  0.5526  0.5084  0.3859  0.4247
  0.4099  0.4047

 Free energy of the ion-electron system (eV)
  ---------------------------------------------------
  alpha Z        PSCENC =      1198.06820637
  Ewald energy   TEWEN  =     42439.00455469
  -Hartree energ DENC   =    -81940.41980698
  -exchange      EXHF   =         0.00000000
  -V(xc)+E(xc)   XCENC  =      1323.22744655
  PAW double counting   =     54457.15509856   -53862.91775534
  entropy T*S    EENTRO =        -0.00000000
  eigenvalues    EBANDS =     -7167.57141544
  atomic energy  EATOM  =     43161.79194098
  Solvation  Ediel_sol  =         0.00000000
  ---------------------------------------------------
  free energy    TOTEN  =      -391.66173060 eV

  energy without entropy =     -391.66173060  energy(sigma->0) =     -391.66173060


--------------------------------------------------------------------------------------------------------




--------------------------------------- Iteration      1(  28)  ---------------------------------------


    POTLOK:  cpu time      0.2109: real time      0.2119
    SETDIJ:  cpu time      0.0070: real time      0.0070
     EDDAV:  cpu time     11.4443: real time     11.4883
       DOS:  cpu time      0.0011: real time      0.0011
    CHARGE:  cpu time      0.8367: real time      0.8390
    MIXING:  cpu time      0.0273: real time      0.0274
    --------------------------------------------
      LOOP:  cpu time     12.5273: real time     12.5748

 eigenvalue-minimisations  :  6578
 total energy-change (2. order) :-0.7721574E-05  (-0.1908439E-06)
 number of electron     468.0000033 magnetization 
 augmentation part       25.2471141 magnetization 

 Broyden mixing:
  rms(total) = 0.35181E-03    rms(broyden)= 0.35181E-03
  rms(prec ) = 0.39523E-03
  weight for this iteration     100.00

 eigenvalues of (default mixing * dielectric matrix)
  average eigenvalue GAMMA=   1.8268
 13.7715  5.6437  3.1904  2.4035  2.4035  1.7419  1.4872  1.4872  0.9745  0.9745
  0.9305  0.9305  0.7398  0.7398  0.6721  0.6721  0.5626  0.5626  0.4991  0.3859
  0.4105  0.4167  0.4167

 Free energy of the ion-electron system (eV)
  ---------------------------------------------------
  alpha Z        PSCENC =      1198.06820637
  Ewald energy   TEWEN  =     42439.00455469
  -Hartree energ DENC   =    -81940.46547964
  -exchange      EXHF   =         0.00000000
  -V(xc)+E(xc)   XCENC  =      1323.22813082
  PAW double counting   =     54456.64841393   -53862.41076241
  entropy T*S    EENTRO =        -0.00000000
  eigenvalues    EBANDS =     -7167.52674306
  atomic energy  EATOM  =     43161.79194098
  Solvation  Ediel_sol  =         0.00000000
  ---------------------------------------------------
  free energy    TOTEN  =      -391.66173832 eV

  energy without entropy =     -391.66173832  energy(sigma->0) =     -391.66173832


--------------------------------------------------------------------------------------------------------




--------------------------------------- Iteration      1(  29)  ---------------------------------------


    POTLOK:  cpu time      0.2129: real time      0.2138
    SETDIJ:  cpu time      0.0069: real time      0.0069
     EDDAV:  cpu time      8.8769: real time      8.9512
       DOS:  cpu time      0.0011: real time      0.0011
    CHARGE:  cpu time      0.8586: real time      0.8676
    MIXING:  cpu time      0.0269: real time      0.0269
    --------------------------------------------
      LOOP:  cpu time      9.9832: real time     10.0675

 eigenvalue-minimisations  :  6182
 total energy-change (2. order) :-0.1455894E-04  (-0.1220650E-06)
 number of electron     468.0000033 magnetization 
 augmentation part       25.2470731 magnetization 

 Broyden mixing:
  rms(total) = 0.33480E-03    rms(broyden)= 0.33480E-03
  rms(prec ) = 0.35527E-03
  weight for this iteration     100.00

 eigenvalues of (default mixing * dielectric matrix)
  average eigenvalue GAMMA=   1.8821
 13.8464  6.2118  3.5265  2.4722  1.9877  1.9877  1.8497  1.4282  1.4282  1.1732
  1.1732  0.8660  0.8660  0.7705  0.7705  0.7138  0.7138  0.6958  0.5586  0.5054
  0.3859  0.4237  0.4097  0.4050

 Free energy of the ion-electron system (eV)
  ---------------------------------------------------
  alpha Z        PSCENC =      1198.06820637
  Ewald energy   TEWEN  =     42439.00455469
  -Hartree energ DENC   =    -81940.48385111
  -exchange      EXHF   =         0.00000000
  -V(xc)+E(xc)   XCENC  =      1323.22827248
  PAW double counting   =     54456.37737378   -53862.13895767
  entropy T*S    EENTRO =        -0.00000000
  eigenvalues    EBANDS =     -7167.50929240
  atomic energy  EATOM  =     43161.79194098
  Solvation  Ediel_sol  =         0.00000000
  ---------------------------------------------------
  free energy    TOTEN  =      -391.66175288 eV

  energy without entropy =     -391.66175288  energy(sigma->0) =     -391.66175288


--------------------------------------------------------------------------------------------------------




--------------------------------------- Iteration      1(  30)  ---------------------------------------


    POTLOK:  cpu time      0.2105: real time      0.2114
    SETDIJ:  cpu time      0.0069: real time      0.0070
     EDDAV:  cpu time     11.1452: real time     11.1865
       DOS:  cpu time      0.0018: real time      0.0018
    CHARGE:  cpu time      0.8370: real time      0.8393
    MIXING:  cpu time      0.0275: real time      0.0276
    --------------------------------------------
      LOOP:  cpu time     12.2289: real time     12.2735

 eigenvalue-minimisations  :  6336
 total energy-change (2. order) :-0.2032112E-04  (-0.3022274E-06)
 number of electron     468.0000033 magnetization 
 augmentation part       25.2470605 magnetization 

 Broyden mixing:
  rms(total) = 0.19783E-03    rms(broyden)= 0.19783E-03
  rms(prec ) = 0.20811E-03
  weight for this iteration     100.00

 eigenvalues of (default mixing * dielectric matrix)
  average eigenvalue GAMMA=   1.9278
 13.8967  7.0425  3.9078  2.7234  2.3361  2.3361  1.6889  1.5026  1.5026  1.1044
  1.1044  0.9365  0.9365  0.7864  0.7864  0.7868  0.7147  0.7147  0.6969  0.5624
  0.5060  0.3859  0.4237  0.4098  0.4024

 Free energy of the ion-electron system (eV)
  ---------------------------------------------------
  alpha Z        PSCENC =      1198.06820637
  Ewald energy   TEWEN  =     42439.00455469
  -Hartree energ DENC   =    -81940.49216828
  -exchange      EXHF   =         0.00000000
  -V(xc)+E(xc)   XCENC  =      1323.22829961
  PAW double counting   =     54456.48296123   -53862.24450063
  entropy T*S    EENTRO =        -0.00000000
  eigenvalues    EBANDS =     -7167.50106717
  atomic energy  EATOM  =     43161.79194098
  Solvation  Ediel_sol  =         0.00000000
  ---------------------------------------------------
  free energy    TOTEN  =      -391.66177320 eV

  energy without entropy =     -391.66177320  energy(sigma->0) =     -391.66177320


--------------------------------------------------------------------------------------------------------




--------------------------------------- Iteration      1(  31)  ---------------------------------------


    POTLOK:  cpu time      0.2128: real time      0.2147
    SETDIJ:  cpu time      0.0071: real time      0.0071
     EDDAV:  cpu time      8.6903: real time      8.7652
       DOS:  cpu time      0.0021: real time      0.0021
    CHARGE:  cpu time      0.8588: real time      0.8677
    MIXING:  cpu time      0.0272: real time      0.0272
    --------------------------------------------
      LOOP:  cpu time      9.7983: real time      9.8841

 eigenvalue-minimisations  :  6083
 total energy-change (2. order) :-0.4032554E-05  (-0.7383122E-07)
 number of electron     468.0000033 magnetization 
 augmentation part       25.2470085 magnetization 

 Broyden mixing:
  rms(total) = 0.12453E-03    rms(broyden)= 0.12453E-03
  rms(prec ) = 0.13118E-03
  weight for this iteration     100.00

 eigenvalues of (default mixing * dielectric matrix)
  average eigenvalue GAMMA=   1.9002
 13.9027  7.2605  4.0508  2.7505  2.2643  2.2643  1.7996  1.5553  1.5553  1.0396
  1.0396  1.0111  1.0111  0.8343  0.8343  0.7479  0.7479  0.7014  0.7014  0.6492
  0.5563  0.5055  0.3859  0.4237  0.4098  0.4020

 Free energy of the ion-electron system (eV)
  ---------------------------------------------------
  alpha Z        PSCENC =      1198.06820637
  Ewald energy   TEWEN  =     42439.00455469
  -Hartree energ DENC   =    -81940.48875049
  -exchange      EXHF   =         0.00000000
  -V(xc)+E(xc)   XCENC  =      1323.22822638
  PAW double counting   =     54456.75496479   -53862.51678432
  entropy T*S    EENTRO =        -0.00000000
  eigenvalues    EBANDS =     -7167.50413564
  atomic energy  EATOM  =     43161.79194098
  Solvation  Ediel_sol  =         0.00000000
  ---------------------------------------------------
  free energy    TOTEN  =      -391.66177724 eV

  energy without entropy =     -391.66177724  energy(sigma->0) =     -391.66177724


--------------------------------------------------------------------------------------------------------




--------------------------------------- Iteration      1(  32)  ---------------------------------------


    POTLOK:  cpu time      0.2111: real time      0.2122
    SETDIJ:  cpu time      0.0070: real time      0.0070
     EDDAV:  cpu time      9.4218: real time      9.4576
       DOS:  cpu time      0.0018: real time      0.0018
    --------------------------------------------
      LOOP:  cpu time      9.6416: real time      9.6785

 eigenvalue-minimisations  :  4796
 total energy-change (2. order) :-0.4416870E-06  (-0.6339592E-08)
 number of electron     468.0000033 magnetization 
 augmentation part       25.2470085 magnetization 

 Free energy of the ion-electron system (eV)
  ---------------------------------------------------
  alpha Z        PSCENC =      1198.06820637
  Ewald energy   TEWEN  =     42439.00455469
  -Hartree energ DENC   =    -81940.48979374
  -exchange      EXHF   =         0.00000000
  -V(xc)+E(xc)   XCENC  =      1323.22816696
  PAW double counting   =     54456.84197449   -53862.60386307
  entropy T*S    EENTRO =        -0.00000000
  eigenvalues    EBANDS =     -7167.50296436
  atomic energy  EATOM  =     43161.79194098
  Solvation  Ediel_sol  =         0.00000000
  ---------------------------------------------------
  free energy    TOTEN  =      -391.66177768 eV

  energy without entropy =     -391.66177768  energy(sigma->0) =     -391.66177768


--------------------------------------------------------------------------------------------------------




 average (electrostatic) potential at core
  the test charge radii are     1.0818  1.0808  1.1823  0.9698
  (the norm of the test charge is              1.0000)
       1 -79.3932       2 -79.3940       3 -79.3917       4 -79.3936       5 -79.3915
       6 -79.3917       7 -79.3918       8 -79.3916       9 -79.3915      10 -55.9768
      11 -55.9786      12 -55.9799      13 -55.9790      14 -55.9787      15 -55.9796
      16 -55.9796      17 -55.9789      18 -55.9785      19 -55.9919      20 -55.9928
      21 -55.9924      22 -55.9925      23 -55.9922      24 -55.9927      25 -55.9924
      26 -55.9929      27 -55.9924      28 -70.5058      29 -70.5058      30 -70.5058
      31 -70.5058      32 -70.5058      33 -70.5058      34 -70.5058      35 -70.5058
      36 -70.5058      37 -89.8196      38 -89.8196      39 -89.8196      40 -89.8196
      41 -89.8196      42 -89.8196      43 -89.8196      44 -89.8196      45 -89.8196
      46 -89.7899      47 -89.7899      48 -89.7899      49 -89.7899      50 -89.7899
      51 -89.7899      52 -89.7899      53 -89.7899      54 -89.7899
 
 
 
 E-fermi :   2.6492     XC(G=0):  -7.2529     alpha+bet : -7.8559

 val. band max:        2.3061851925   @ k =   0.0000   0.0000   0.0000
 cond. band min:       3.1647136308   @ k =   0.0000   0.0000   0.0000
 fundamental gap:      0.8585284383
 Fermi energy:         2.6491807935

 k-point     1 :       0.0000    0.0000    0.0000
  band No.  band energies     occupation 
      1     -72.4545      2.00000
      2     -72.4455      2.00000
      3     -72.4455      2.00000
      4     -72.4455      2.00000
      5     -72.4455      2.00000
      6     -72.4454      2.00000
      7     -72.4454      2.00000
      8     -72.4410      2.00000
      9     -72.4409      2.00000
     10     -58.6507      2.00000
     11     -58.6303      2.00000
     12     -58.6301      2.00000
     13     -58.6300      2.00000
     14     -58.6293      2.00000
     15     -58.6292      2.00000
     16     -58.6291      2.00000
     17     -58.6191      2.00000
     18     -58.6190      2.00000
     19     -36.7608      2.00000
     20     -36.7608      2.00000
     21     -36.7608      2.00000
     22     -36.7608      2.00000
     23     -36.7608      2.00000
     24     -36.7608      2.00000
     25     -36.7604      2.00000
     26     -36.7604      2.00000
     27     -36.7320      2.00000
     28     -36.7320      2.00000
     29     -36.6396      2.00000
     30     -36.6096      2.00000
     31     -36.6096      2.00000
     32     -36.6096      2.00000
     33     -36.6096      2.00000
     34     -36.6096      2.00000
     35     -36.6096      2.00000
     36     -36.6038      2.00000
     37     -36.6038      2.00000
     38     -36.6038      2.00000
     39     -36.6038      2.00000
     40     -36.6038      2.00000
     41     -36.6038      2.00000
     42     -36.5858      2.00000
     43     -36.5858      2.00000
     44     -36.5626      2.00000
     45     -36.5626      2.00000
     46     -32.8376      2.00000
     47     -32.8309      2.00000
     48     -32.8309      2.00000
     49     -32.8302      2.00000
     50     -32.8302      2.00000
     51     -32.8301      2.00000
     52     -32.8299      2.00000
     53     -32.8298      2.00000
     54     -32.8289      2.00000
     55     -32.7966      2.00000
     56     -32.7965      2.00000
     57     -32.7912      2.00000
     58     -32.7910      2.00000
     59     -32.7907      2.00000
     60     -32.7904      2.00000
     61     -32.7903      2.00000
     62     -32.7902      2.00000
     63     -32.7671      2.00000
     64     -32.7670      2.00000
     65     -32.6606      2.00000
     66     -32.6598      2.00000
     67     -32.6597      2.00000
     68     -32.6596      2.00000
     69     -32.6594      2.00000
     70     -32.6594      2.00000
     71     -32.6085      2.00000
     72     -32.6084      2.00000
     73     -12.9434      2.00000
     74     -12.2470      2.00000
     75     -11.6079      2.00000
     76     -11.6079      2.00000
     77     -11.6079      2.00000
     78     -11.6079      2.00000
     79     -11.6079      2.00000
     80     -11.6078      2.00000
     81     -11.3833      2.00000
     82     -11.1378      2.00000
     83     -10.9546      2.00000
     84     -10.9545      2.00000
     85     -10.9543      2.00000
     86     -10.9542      2.00000
     87     -10.9542      2.00000
     88     -10.9499      2.00000
     89     -10.8027      2.00000
     90     -10.8026      2.00000
     91     -10.8024      2.00000
     92     -10.8024      2.00000
     93     -10.8023      2.00000
     94     -10.7994      2.00000
     95     -10.7555      2.00000
     96     -10.7555      2.00000
     97     -10.5142      2.00000
     98     -10.5142      2.00000
     99     -10.4986      2.00000
    100     -10.4983      2.00000
    101     -10.4979      2.00000
    102     -10.4978      2.00000
    103     -10.4978      2.00000
    104     -10.4946      2.00000
    105     -10.0384      2.00000
    106     -10.0374      2.00000
    107      -9.9985      2.00000
    108      -9.9950      2.00000
    109      -4.5914      2.00000
    110      -4.0370      2.00000
    111      -4.0370      2.00000
    112      -4.0370      2.00000
    113      -4.0370      2.00000
    114      -4.0370      2.00000
    115      -4.0369      2.00000
    116      -3.9275      2.00000
    117      -3.9275      2.00000
    118      -3.5955      2.00000
    119      -3.5954      2.00000
    120      -3.3762      2.00000
    121      -3.0541      2.00000
    122      -3.0529      2.00000
    123      -3.0311      2.00000
    124      -3.0310      2.00000
    125      -3.0310      2.00000
    126      -3.0304      2.00000
    127      -3.0300      2.00000
    128      -3.0284      2.00000
    129      -2.8028      2.00000
    130      -2.8026      2.00000
    131      -2.8025      2.00000
    132      -2.8012      2.00000
    133      -2.8009      2.00000
    134      -2.8002      2.00000
    135      -2.7144      2.00000
    136      -2.7143      2.00000
    137      -2.6751      2.00000
    138      -2.6750      2.00000
    139      -2.6750      2.00000
    140      -2.6745      2.00000
    141      -2.6745      2.00000
    142      -2.6741      2.00000
    143      -2.6451      2.00000
    144      -2.6434      2.00000
    145      -2.2057      2.00000
    146      -2.2048      2.00000
    147      -2.0161      2.00000
    148      -2.0156      2.00000
    149      -2.0149      2.00000
    150      -2.0136      2.00000
    151      -2.0130      2.00000
    152      -2.0125      2.00000
    153      -1.9502      2.00000
    154      -1.9477      2.00000
    155      -1.7009      2.00000
    156      -1.7007      2.00000
    157      -1.7001      2.00000
    158      -1.6990      2.00000
    159      -1.6986      2.00000
    160      -1.6972      2.00000
    161      -1.6396      2.00000
    162      -1.6391      2.00000
    163      -1.4887      2.00000
    164      -1.4887      2.00000
    165      -1.4887      2.00000
    166      -1.4887      2.00000
    167      -1.4887      2.00000
    168      -1.4887      2.00000
    169      -1.3483      2.00000
    170      -1.3483      2.00000
    171      -1.1522      2.00000
    172      -1.1506      2.00000
    173      -1.0416      2.00000
    174      -1.0395      2.00000
    175      -0.6405      2.00000
    176      -0.4312      2.00000
    177      -0.4308      2.00000
    178      -0.2767      2.00000
    179      -0.2765      2.00000
    180      -0.2764      2.00000
    181      -0.2760      2.00000
    182      -0.2727      2.00000
    183      -0.2705      2.00000
    184      -0.1754      2.00000
    185      -0.1753      2.00000
    186      -0.1753      2.00000
    187      -0.1753      2.00000
    188      -0.1748      2.00000
    189      -0.1745      2.00000
    190      -0.1471      2.00000
    191      -0.1471      2.00000
    192      -0.1404      2.00000
    193      -0.1401      2.00000
    194      -0.1400      2.00000
    195      -0.1400      2.00000
    196      -0.1398      2.00000
    197      -0.1397      2.00000
    198      -0.0928      2.00000
    199      -0.0916      2.00000
    200       0.0963      2.00000
    201       0.0967      2.00000
    202       0.3393      2.00000
    203       0.3431      2.00000
    204       0.3434      2.00000
    205       0.3440      2.00000
    206       0.3441      2.00000
    207       0.3442      2.00000
    208       0.5648      2.00000
    209       0.6060      2.00000
    210       0.6073      2.00000
    211       0.6074      2.00000
    212       0.6076      2.00000
    213       0.6076      2.00000
    214       0.6077      2.00000
    215       1.0736      2.00000
    216       1.0761      2.00000
    217       1.0762      2.00000
    218       1.0763      2.00000
    219       1.0768      2.00000
    220       1.0779      2.00000
    221       1.1047      2.00000
    222       1.1064      2.00000
    223       1.2636      2.00000
    224       1.2639      2.00000
    225       1.2639      2.00000
    226       1.2642      2.00000
    227       1.2691      2.00000
    228       1.2693      2.00000
    229       1.5970      2.00000
    230       1.6012      2.00000
    231       1.6012      2.00000
    232       2.1414      2.00000
    233       2.1415      2.00000
    234       2.3062      2.00000
    235       3.1647      0.00000
    236       3.1647      0.00000
    237       3.7991      0.00000
    238       3.7994      0.00000
    239       3.9843      0.00000
    240       3.9848      0.00000
    241       3.9855      0.00000
    242       3.9867      0.00000
    243       3.9869      0.00000
    244       3.9870      0.00000
    245       4.0322      0.00000
    246       4.0323      0.00000
    247       4.0323      0.00000
    248       4.0323      0.00000
    249       4.0324      0.00000
    250       4.0324      0.00000
    251       4.2478      0.00000
    252       4.2482      0.00000
    253       4.2500      0.00000
    254       4.2504      0.00000
    255       4.2508      0.00000
    256       4.2510      0.00000
    257       4.3647      0.00000
    258       4.3647      0.00000
    259       4.3744      0.00000
    260       4.3750      0.00000
    261       4.3755      0.00000
    262       4.3764      0.00000
    263       4.3764      0.00000
    264       4.3764      0.00000
    265       4.4486      0.00000
    266       4.4497      0.00000
    267       4.5888      0.00000
    268       4.5888      0.00000
    269       5.0343      0.00000
    270       5.0359      0.00000
    271       5.0362      0.00000
    272       5.0369      0.00000
    273       5.0371      0.00000
    274       5.0372      0.00000
    275       5.1317      0.00000
    276       5.1338      0.00000
    277       5.2523      0.00000
    278       5.2525      0.00000
    279       5.2757      0.00000
    280       5.2790      0.00000
    281       5.3460      0.00000
    282       5.3469      0.00000
    283       5.5378      0.00000
    284       5.5398      0.00000
    285       5.5407      0.00000
    286       5.5415      0.00000

 k-point     2 :       0.2000    0.0000    0.0000
  band No.  band energies     occupation 
      1     -72.4540      2.00000
      2     -72.4478      2.00000
      3     -72.4464      2.00000
      4     -72.4464      2.00000
      5     -72.4443      2.00000
      6     -72.4443      2.00000
      7     -72.4436      2.00000
      8     -72.4412      2.00000
      9     -72.4412      2.00000
     10     -58.6495      2.00000
     11     -58.6353      2.00000
     12     -58.6319      2.00000
     13     -58.6318      2.00000
     14     -58.6270      2.00000
     15     -58.6268      2.00000
     16     -58.6252      2.00000
     17     -58.6197      2.00000
     18     -58.6196      2.00000
     19     -36.8008      2.00000
     20     -36.7812      2.00000
     21     -36.7812      2.00000
     22     -36.7760      2.00000
     23     -36.7760      2.00000
     24     -36.7367      2.00000
     25     -36.7367      2.00000
     26     -36.7093      2.00000
     27     -36.7093      2.00000
     28     -36.7093      2.00000
     29     -36.6376      2.00000
     30     -36.6211      2.00000
     31     -36.6211      2.00000
     32     -36.6192      2.00000
     33     -36.6132      2.00000
     34     -36.6089      2.00000
     35     -36.6089      2.00000
     36     -36.6075      2.00000
     37     -36.6075      2.00000
     38     -36.5990      2.00000
     39     -36.5990      2.00000
     40     -36.5972      2.00000
     41     -36.5964      2.00000
     42     -36.5868      2.00000
     43     -36.5868      2.00000
     44     -36.5742      2.00000
     45     -36.5653      2.00000
     46     -32.8750      2.00000
     47     -32.8533      2.00000
     48     -32.8529      2.00000
     49     -32.8471      2.00000
     50     -32.8465      2.00000
     51     -32.8349      2.00000
     52     -32.8035      2.00000
     53     -32.8031      2.00000
     54     -32.8030      2.00000
     55     -32.7955      2.00000
     56     -32.7954      2.00000
     57     -32.7844      2.00000
     58     -32.7844      2.00000
     59     -32.7809      2.00000
     60     -32.7726      2.00000
     61     -32.7714      2.00000
     62     -32.7712      2.00000
     63     -32.7684      2.00000
     64     -32.7684      2.00000
     65     -32.6727      2.00000
     66     -32.6724      2.00000
     67     -32.6702      2.00000
     68     -32.6593      2.00000
     69     -32.6590      2.00000
     70     -32.6463      2.00000
     71     -32.6214      2.00000
     72     -32.6114      2.00000
     73     -12.8761      2.00000
     74     -12.1825      2.00000
     75     -12.0032      2.00000
     76     -11.7683      2.00000
     77     -11.7683      2.00000
     78     -11.3948      2.00000
     79     -11.3948      2.00000
     80     -11.3514      2.00000
     81     -11.3323      2.00000
     82     -11.2649      2.00000
     83     -11.1095      2.00000
     84     -11.1044      2.00000
     85     -11.1023      2.00000
     86     -10.9703      2.00000
     87     -10.8734      2.00000
     88     -10.8728      2.00000
     89     -10.8076      2.00000
     90     -10.8076      2.00000
     91     -10.7994      2.00000
     92     -10.7990      2.00000
     93     -10.7402      2.00000
     94     -10.7021      2.00000
     95     -10.6622      2.00000
     96     -10.6600      2.00000
     97     -10.5810      2.00000
     98     -10.5802      2.00000
     99     -10.5427      2.00000
    100     -10.5374      2.00000
    101     -10.5374      2.00000
    102     -10.3834      2.00000
    103     -10.3822      2.00000
    104     -10.3154      2.00000
    105     -10.0893      2.00000
    106     -10.0877      2.00000
    107     -10.0347      2.00000
    108     -10.0318      2.00000
    109      -4.5120      2.00000
    110      -4.4085      2.00000
    111      -4.1879      2.00000
    112      -4.1879      2.00000
    113      -3.8453      2.00000
    114      -3.8452      2.00000
    115      -3.8272      2.00000
    116      -3.8272      2.00000
    117      -3.8017      2.00000
    118      -3.8017      2.00000
    119      -3.7802      2.00000
    120      -3.3684      2.00000
    121      -3.2984      2.00000
    122      -3.1361      2.00000
    123      -3.1358      2.00000
    124      -3.0988      2.00000
    125      -3.0146      2.00000
    126      -3.0143      2.00000
    127      -2.9939      2.00000
    128      -2.9931      2.00000
    129      -2.9818      2.00000
    130      -2.9580      2.00000
    131      -2.9579      2.00000
    132      -2.8719      2.00000
    133      -2.8707      2.00000
    134      -2.8136      2.00000
    135      -2.7749      2.00000
    136      -2.7748      2.00000
    137      -2.6521      2.00000
    138      -2.6512      2.00000
    139      -2.6049      2.00000
    140      -2.5166      2.00000
    141      -2.5164      2.00000
    142      -2.4502      2.00000
    143      -2.4498      2.00000
    144      -2.4319      2.00000
    145      -2.2553      2.00000
    146      -2.2549      2.00000
    147      -2.1943      2.00000
    148      -2.1274      2.00000
    149      -2.1273      2.00000
    150      -1.7617      2.00000
    151      -1.7608      2.00000
    152      -1.7552      2.00000
    153      -1.7547      2.00000
    154      -1.7451      2.00000
    155      -1.7444      2.00000
    156      -1.7107      2.00000
    157      -1.7093      2.00000
    158      -1.6938      2.00000
    159      -1.6882      2.00000
    160      -1.6025      2.00000
    161      -1.5688      2.00000
    162      -1.5680      2.00000
    163      -1.5415      2.00000
    164      -1.5407      2.00000
    165      -1.5296      2.00000
    166      -1.4445      2.00000
    167      -1.4339      2.00000
    168      -1.4337      2.00000
    169      -1.2825      2.00000
    170      -1.2073      2.00000
    171      -1.1118      2.00000
    172      -1.1106      2.00000
    173      -0.9988      2.00000
    174      -0.9969      2.00000
    175      -0.8452      2.00000
    176      -0.6092      2.00000
    177      -0.6075      2.00000
    178      -0.4927      2.00000
    179      -0.4923      2.00000
    180      -0.4904      2.00000
    181      -0.4735      2.00000
    182      -0.4033      2.00000
    183      -0.4025      2.00000
    184      -0.4012      2.00000
    185      -0.4010      2.00000
    186      -0.3139      2.00000
    187      -0.3138      2.00000
    188      -0.2575      2.00000
    189      -0.2543      2.00000
    190      -0.1732      2.00000
    191      -0.1132      2.00000
    192      -0.1131      2.00000
    193      -0.0710      2.00000
    194       0.0239      2.00000
    195       0.0248      2.00000
    196       0.0272      2.00000
    197       0.0409      2.00000
    198       0.0570      2.00000
    199       0.0945      2.00000
    200       0.0947      2.00000
    201       0.1618      2.00000
    202       0.1679      2.00000
    203       0.3629      2.00000
    204       0.3642      2.00000
    205       0.4891      2.00000
    206       0.6176      2.00000
    207       0.6183      2.00000
    208       0.6204      2.00000
    209       0.6540      2.00000
    210       0.6696      2.00000
    211       0.6699      2.00000
    212       0.7378      2.00000
    213       0.7383      2.00000
    214       0.8162      2.00000
    215       0.8164      2.00000
    216       0.8244      2.00000
    217       0.8254      2.00000
    218       0.8438      2.00000
    219       0.9587      2.00000
    220       0.9968      2.00000
    221       1.1867      2.00000
    222       1.1920      2.00000
    223       1.1955      2.00000
    224       1.3366      2.00000
    225       1.3379      2.00000
    226       1.4280      2.00000
    227       1.4280      2.00000
    228       1.4870      2.00000
    229       1.5151      2.00000
    230       1.5159      2.00000
    231       1.5893      2.00000
    232       2.0353      2.00000
    233       2.0354      2.00000
    234       2.2025      2.00000
    235       3.4181      0.00000
    236       3.4181      0.00000
    237       3.7296      0.00000
    238       3.7301      0.00000
    239       3.8310      0.00000
    240       3.8982      0.00000
    241       3.8992      0.00000
    242       3.9101      0.00000
    243       3.9105      0.00000
    244       4.0301      0.00000
    245       4.0304      0.00000
    246       4.0542      0.00000
    247       4.1021      0.00000
    248       4.1238      0.00000
    249       4.1248      0.00000
    250       4.1983      0.00000
    251       4.2532      0.00000
    252       4.2593      0.00000
    253       4.2710      0.00000
    254       4.2716      0.00000
    255       4.3121      0.00000
    256       4.3397      0.00000
    257       4.3407      0.00000
    258       4.4154      0.00000
    259       4.4172      0.00000
    260       4.4182      0.00000
    261       4.4702      0.00000
    262       4.4704      0.00000
    263       4.4827      0.00000
    264       4.4902      0.00000
    265       4.5315      0.00000
    266       4.5319      0.00000
    267       4.5334      0.00000
    268       4.5347      0.00000
    269       4.6980      0.00000
    270       4.7654      0.00000
    271       4.7656      0.00000
    272       4.9336      0.00000
    273       5.0548      0.00000
    274       5.0966      0.00000
    275       5.0988      0.00000
    276       5.1117      0.00000
    277       5.1125      0.00000
    278       5.1549      0.00000
    279       5.2220      0.00000
    280       5.2222      0.00000
    281       5.2284      0.00000
    282       5.2484      0.00000
    283       5.2869      0.00000
    284       5.2873      0.00000
    285       5.3030      0.00000
    286       5.3676      0.00000

 k-point     3 :       0.2000    0.2000    0.0000
  band No.  band energies     occupation 
      1     -72.4540      2.00000
      2     -72.4478      2.00000
      3     -72.4464      2.00000
      4     -72.4464      2.00000
      5     -72.4443      2.00000
      6     -72.4443      2.00000
      7     -72.4436      2.00000
      8     -72.4412      2.00000
      9     -72.4412      2.00000
     10     -58.6495      2.00000
     11     -58.6353      2.00000
     12     -58.6320      2.00000
     13     -58.6317      2.00000
     14     -58.6269      2.00000
     15     -58.6269      2.00000
     16     -58.6252      2.00000
     17     -58.6197      2.00000
     18     -58.6196      2.00000
     19     -36.8008      2.00000
     20     -36.7812      2.00000
     21     -36.7812      2.00000
     22     -36.7760      2.00000
     23     -36.7760      2.00000
     24     -36.7367      2.00000
     25     -36.7367      2.00000
     26     -36.7093      2.00000
     27     -36.7093      2.00000
     28     -36.7093      2.00000
     29     -36.6376      2.00000
     30     -36.6211      2.00000
     31     -36.6211      2.00000
     32     -36.6192      2.00000
     33     -36.6132      2.00000
     34     -36.6089      2.00000
     35     -36.6089      2.00000
     36     -36.6075      2.00000
     37     -36.6075      2.00000
     38     -36.5990      2.00000
     39     -36.5990      2.00000
     40     -36.5972      2.00000
     41     -36.5964      2.00000
     42     -36.5868      2.00000
     43     -36.5868      2.00000
     44     -36.5742      2.00000
     45     -36.5653      2.00000
     46     -32.8751      2.00000
     47     -32.8533      2.00000
     48     -32.8528      2.00000
     49     -32.8471      2.00000
     50     -32.8465      2.00000
     51     -32.8349      2.00000
     52     -32.8035      2.00000
     53     -32.8032      2.00000
     54     -32.8029      2.00000
     55     -32.7955      2.00000
     56     -32.7954      2.00000
     57     -32.7844      2.00000
     58     -32.7844      2.00000
     59     -32.7809      2.00000
     60     -32.7727      2.00000
     61     -32.7715      2.00000
     62     -32.7711      2.00000
     63     -32.7684      2.00000
     64     -32.7684      2.00000
     65     -32.6728      2.00000
     66     -32.6723      2.00000
     67     -32.6702      2.00000
     68     -32.6594      2.00000
     69     -32.6590      2.00000
     70     -32.6462      2.00000
     71     -32.6215      2.00000
     72     -32.6114      2.00000
     73     -12.8761      2.00000
     74     -12.1825      2.00000
     75     -12.0032      2.00000
     76     -11.7683      2.00000
     77     -11.7683      2.00000
     78     -11.3948      2.00000
     79     -11.3948      2.00000
     80     -11.3514      2.00000
     81     -11.3322      2.00000
     82     -11.2649      2.00000
     83     -11.1095      2.00000
     84     -11.1044      2.00000
     85     -11.1025      2.00000
     86     -10.9704      2.00000
     87     -10.8734      2.00000
     88     -10.8728      2.00000
     89     -10.8076      2.00000
     90     -10.8076      2.00000
     91     -10.7994      2.00000
     92     -10.7990      2.00000
     93     -10.7402      2.00000
     94     -10.7023      2.00000
     95     -10.6622      2.00000
     96     -10.6601      2.00000
     97     -10.5811      2.00000
     98     -10.5799      2.00000
     99     -10.5425      2.00000
    100     -10.5374      2.00000
    101     -10.5374      2.00000
    102     -10.3835      2.00000
    103     -10.3819      2.00000
    104     -10.3157      2.00000
    105     -10.0893      2.00000
    106     -10.0878      2.00000
    107     -10.0347      2.00000
    108     -10.0318      2.00000
    109      -4.5120      2.00000
    110      -4.4085      2.00000
    111      -4.1879      2.00000
    112      -4.1879      2.00000
    113      -3.8453      2.00000
    114      -3.8452      2.00000
    115      -3.8272      2.00000
    116      -3.8272      2.00000
    117      -3.8017      2.00000
    118      -3.8017      2.00000
    119      -3.7802      2.00000
    120      -3.3686      2.00000
    121      -3.2984      2.00000
    122      -3.1363      2.00000
    123      -3.1355      2.00000
    124      -3.0988      2.00000
    125      -3.0147      2.00000
    126      -3.0143      2.00000
    127      -2.9939      2.00000
    128      -2.9931      2.00000
    129      -2.9818      2.00000
    130      -2.9579      2.00000
    131      -2.9578      2.00000
    132      -2.8719      2.00000
    133      -2.8707      2.00000
    134      -2.8136      2.00000
    135      -2.7749      2.00000
    136      -2.7748      2.00000
    137      -2.6522      2.00000
    138      -2.6512      2.00000
    139      -2.6048      2.00000
    140      -2.5166      2.00000
    141      -2.5164      2.00000
    142      -2.4501      2.00000
    143      -2.4498      2.00000
    144      -2.4316      2.00000
    145      -2.2553      2.00000
    146      -2.2548      2.00000
    147      -2.1943      2.00000
    148      -2.1274      2.00000
    149      -2.1273      2.00000
    150      -1.7614      2.00000
    151      -1.7613      2.00000
    152      -1.7551      2.00000
    153      -1.7548      2.00000
    154      -1.7451      2.00000
    155      -1.7446      2.00000
    156      -1.7110      2.00000
    157      -1.7094      2.00000
    158      -1.6933      2.00000
    159      -1.6882      2.00000
    160      -1.6022      2.00000
    161      -1.5688      2.00000
    162      -1.5683      2.00000
    163      -1.5417      2.00000
    164      -1.5406      2.00000
    165      -1.5296      2.00000
    166      -1.4449      2.00000
    167      -1.4339      2.00000
    168      -1.4338      2.00000
    169      -1.2825      2.00000
    170      -1.2073      2.00000
    171      -1.1119      2.00000
    172      -1.1107      2.00000
    173      -0.9985      2.00000
    174      -0.9972      2.00000
    175      -0.8452      2.00000
    176      -0.6091      2.00000
    177      -0.6085      2.00000
    178      -0.4927      2.00000
    179      -0.4923      2.00000
    180      -0.4904      2.00000
    181      -0.4728      2.00000
    182      -0.4033      2.00000
    183      -0.4024      2.00000
    184      -0.4013      2.00000
    185      -0.4011      2.00000
    186      -0.3139      2.00000
    187      -0.3139      2.00000
    188      -0.2575      2.00000
    189      -0.2543      2.00000
    190      -0.1733      2.00000
    191      -0.1132      2.00000
    192      -0.1132      2.00000
    193      -0.0707      2.00000
    194       0.0239      2.00000
    195       0.0250      2.00000
    196       0.0281      2.00000
    197       0.0409      2.00000
    198       0.0571      2.00000
    199       0.0946      2.00000
    200       0.0948      2.00000
    201       0.1615      2.00000
    202       0.1674      2.00000
    203       0.3637      2.00000
    204       0.3642      2.00000
    205       0.4888      2.00000
    206       0.6175      2.00000
    207       0.6181      2.00000
    208       0.6203      2.00000
    209       0.6540      2.00000
    210       0.6699      2.00000
    211       0.6702      2.00000
    212       0.7368      2.00000
    213       0.7389      2.00000
    214       0.8161      2.00000
    215       0.8164      2.00000
    216       0.8246      2.00000
    217       0.8259      2.00000
    218       0.8436      2.00000
    219       0.9584      2.00000
    220       0.9983      2.00000
    221       1.1859      2.00000
    222       1.1916      2.00000
    223       1.1945      2.00000
    224       1.3370      2.00000
    225       1.3387      2.00000
    226       1.4280      2.00000
    227       1.4280      2.00000
    228       1.4872      2.00000
    229       1.5146      2.00000
    230       1.5158      2.00000
    231       1.5893      2.00000
    232       2.0353      2.00000
    233       2.0355      2.00000
    234       2.2025      2.00000
    235       3.4181      0.00000
    236       3.4181      0.00000
    237       3.7293      0.00000
    238       3.7299      0.00000
    239       3.8310      0.00000
    240       3.8985      0.00000
    241       3.8993      0.00000
    242       3.9102      0.00000
    243       3.9104      0.00000
    244       4.0299      0.00000
    245       4.0303      0.00000
    246       4.0542      0.00000
    247       4.1021      0.00000
    248       4.1239      0.00000
    249       4.1248      0.00000
    250       4.1982      0.00000
    251       4.2536      0.00000
    252       4.2593      0.00000
    253       4.2712      0.00000
    254       4.2716      0.00000
    255       4.3121      0.00000
    256       4.3395      0.00000
    257       4.3403      0.00000
    258       4.4158      0.00000
    259       4.4169      0.00000
    260       4.4183      0.00000
    261       4.4701      0.00000
    262       4.4703      0.00000
    263       4.4827      0.00000
    264       4.4902      0.00000
    265       4.5315      0.00000
    266       4.5323      0.00000
    267       4.5330      0.00000
    268       4.5347      0.00000
    269       4.6983      0.00000
    270       4.7653      0.00000
    271       4.7657      0.00000
    272       4.9353      0.00000
    273       5.0541      0.00000
    274       5.0964      0.00000
    275       5.0987      0.00000
    276       5.1110      0.00000
    277       5.1125      0.00000
    278       5.1551      0.00000
    279       5.2221      0.00000
    280       5.2227      0.00000
    281       5.2271      0.00000
    282       5.2489      0.00000
    283       5.2869      0.00000
    284       5.2880      0.00000
    285       5.3034      0.00000
    286       5.3674      0.00000

 k-point     4 :       0.0000    0.2000    0.0000
  band No.  band energies     occupation 
      1     -72.4540      2.00000
      2     -72.4478      2.00000
      3     -72.4464      2.00000
      4     -72.4464      2.00000
      5     -72.4443      2.00000
      6     -72.4443      2.00000
      7     -72.4436      2.00000
      8     -72.4412      2.00000
      9     -72.4412      2.00000
     10     -58.6495      2.00000
     11     -58.6353      2.00000
     12     -58.6319      2.00000
     13     -58.6318      2.00000
     14     -58.6270      2.00000
     15     -58.6268      2.00000
     16     -58.6252      2.00000
     17     -58.6197      2.00000
     18     -58.6196      2.00000
     19     -36.8008      2.00000
     20     -36.7812      2.00000
     21     -36.7812      2.00000
     22     -36.7760      2.00000
     23     -36.7760      2.00000
     24     -36.7367      2.00000
     25     -36.7367      2.00000
     26     -36.7093      2.00000
     27     -36.7093      2.00000
     28     -36.7093      2.00000
     29     -36.6376      2.00000
     30     -36.6211      2.00000
     31     -36.6211      2.00000
     32     -36.6192      2.00000
     33     -36.6132      2.00000
     34     -36.6089      2.00000
     35     -36.6089      2.00000
     36     -36.6075      2.00000
     37     -36.6075      2.00000
     38     -36.5990      2.00000
     39     -36.5990      2.00000
     40     -36.5972      2.00000
     41     -36.5964      2.00000
     42     -36.5868      2.00000
     43     -36.5868      2.00000
     44     -36.5742      2.00000
     45     -36.5653      2.00000
     46     -32.8750      2.00000
     47     -32.8533      2.00000
     48     -32.8528      2.00000
     49     -32.8471      2.00000
     50     -32.8465      2.00000
     51     -32.8349      2.00000
     52     -32.8035      2.00000
     53     -32.8031      2.00000
     54     -32.8030      2.00000
     55     -32.7955      2.00000
     56     -32.7954      2.00000
     57     -32.7844      2.00000
     58     -32.7844      2.00000
     59     -32.7809      2.00000
     60     -32.7726      2.00000
     61     -32.7714      2.00000
     62     -32.7712      2.00000
     63     -32.7684      2.00000
     64     -32.7684      2.00000
     65     -32.6727      2.00000
     66     -32.6723      2.00000
     67     -32.6702      2.00000
     68     -32.6593      2.00000
     69     -32.6590      2.00000
     70     -32.6463      2.00000
     71     -32.6214      2.00000
     72     -32.6114      2.00000
     73     -12.8761      2.00000
     74     -12.1825      2.00000
     75     -12.0032      2.00000
     76     -11.7683      2.00000
     77     -11.7683      2.00000
     78     -11.3948      2.00000
     79     -11.3948      2.00000
     80     -11.3514      2.00000
     81     -11.3322      2.00000
     82     -11.2649      2.00000
     83     -11.1095      2.00000
     84     -11.1045      2.00000
     85     -11.1023      2.00000
     86     -10.9704      2.00000
     87     -10.8735      2.00000
     88     -10.8728      2.00000
     89     -10.8076      2.00000
     90     -10.8076      2.00000
     91     -10.7994      2.00000
     92     -10.7990      2.00000
     93     -10.7402      2.00000
     94     -10.7022      2.00000
     95     -10.6623      2.00000
     96     -10.6600      2.00000
     97     -10.5812      2.00000
     98     -10.5799      2.00000
     99     -10.5426      2.00000
    100     -10.5374      2.00000
    101     -10.5374      2.00000
    102     -10.3835      2.00000
    103     -10.3820      2.00000
    104     -10.3155      2.00000
    105     -10.0893      2.00000
    106     -10.0877      2.00000
    107     -10.0347      2.00000
    108     -10.0318      2.00000
    109      -4.5120      2.00000
    110      -4.4085      2.00000
    111      -4.1879      2.00000
    112      -4.1879      2.00000
    113      -3.8453      2.00000
    114      -3.8452      2.00000
    115      -3.8272      2.00000
    116      -3.8272      2.00000
    117      -3.8017      2.00000
    118      -3.8017      2.00000
    119      -3.7802      2.00000
    120      -3.3685      2.00000
    121      -3.2984      2.00000
    122      -3.1363      2.00000
    123      -3.1356      2.00000
    124      -3.0988      2.00000
    125      -3.0147      2.00000
    126      -3.0143      2.00000
    127      -2.9940      2.00000
    128      -2.9931      2.00000
    129      -2.9818      2.00000
    130      -2.9580      2.00000
    131      -2.9578      2.00000
    132      -2.8725      2.00000
    133      -2.8701      2.00000
    134      -2.8136      2.00000
    135      -2.7749      2.00000
    136      -2.7747      2.00000
    137      -2.6522      2.00000
    138      -2.6512      2.00000
    139      -2.6048      2.00000
    140      -2.5166      2.00000
    141      -2.5163      2.00000
    142      -2.4502      2.00000
    143      -2.4498      2.00000
    144      -2.4317      2.00000
    145      -2.2554      2.00000
    146      -2.2548      2.00000
    147      -2.1943      2.00000
    148      -2.1274      2.00000
    149      -2.1273      2.00000
    150      -1.7615      2.00000
    151      -1.7610      2.00000
    152      -1.7553      2.00000
    153      -1.7546      2.00000
    154      -1.7451      2.00000
    155      -1.7445      2.00000
    156      -1.7109      2.00000
    157      -1.7093      2.00000
    158      -1.6935      2.00000
    159      -1.6882      2.00000
    160      -1.6024      2.00000
    161      -1.5688      2.00000
    162      -1.5681      2.00000
    163      -1.5420      2.00000
    164      -1.5403      2.00000
    165      -1.5296      2.00000
    166      -1.4447      2.00000
    167      -1.4339      2.00000
    168      -1.4337      2.00000
    169      -1.2825      2.00000
    170      -1.2073      2.00000
    171      -1.1120      2.00000
    172      -1.1104      2.00000
    173      -0.9988      2.00000
    174      -0.9969      2.00000
    175      -0.8452      2.00000
    176      -0.6093      2.00000
    177      -0.6078      2.00000
    178      -0.4927      2.00000
    179      -0.4923      2.00000
    180      -0.4904      2.00000
    181      -0.4731      2.00000
    182      -0.4034      2.00000
    183      -0.4024      2.00000
    184      -0.4012      2.00000
    185      -0.4011      2.00000
    186      -0.3139      2.00000
    187      -0.3138      2.00000
    188      -0.2575      2.00000
    189      -0.2543      2.00000
    190      -0.1733      2.00000
    191      -0.1132      2.00000
    192      -0.1132      2.00000
    193      -0.0709      2.00000
    194       0.0238      2.00000
    195       0.0249      2.00000
    196       0.0277      2.00000
    197       0.0409      2.00000
    198       0.0571      2.00000
    199       0.0946      2.00000
    200       0.0948      2.00000
    201       0.1616      2.00000
    202       0.1677      2.00000
    203       0.3633      2.00000
    204       0.3642      2.00000
    205       0.4890      2.00000
    206       0.6175      2.00000
    207       0.6182      2.00000
    208       0.6203      2.00000
    209       0.6540      2.00000
    210       0.6696      2.00000
    211       0.6702      2.00000
    212       0.7373      2.00000
    213       0.7387      2.00000
    214       0.8160      2.00000
    215       0.8165      2.00000
    216       0.8242      2.00000
    217       0.8259      2.00000
    218       0.8437      2.00000
    219       0.9586      2.00000
    220       0.9976      2.00000
    221       1.1863      2.00000
    222       1.1918      2.00000
    223       1.1949      2.00000
    224       1.3367      2.00000
    225       1.3385      2.00000
    226       1.4280      2.00000
    227       1.4280      2.00000
    228       1.4871      2.00000
    229       1.5148      2.00000
    230       1.5159      2.00000
    231       1.5893      2.00000
    232       2.0353      2.00000
    233       2.0354      2.00000
    234       2.2025      2.00000
    235       3.4181      0.00000
    236       3.4181      0.00000
    237       3.7294      0.00000
    238       3.7301      0.00000
    239       3.8310      0.00000
    240       3.8983      0.00000
    241       3.8993      0.00000
    242       3.9101      0.00000
    243       3.9105      0.00000
    244       4.0299      0.00000
    245       4.0304      0.00000
    246       4.0542      0.00000
    247       4.1021      0.00000
    248       4.1238      0.00000
    249       4.1248      0.00000
    250       4.1983      0.00000
    251       4.2534      0.00000
    252       4.2593      0.00000
    253       4.2711      0.00000
    254       4.2716      0.00000
    255       4.3121      0.00000
    256       4.3396      0.00000
    257       4.3406      0.00000
    258       4.4155      0.00000
    259       4.4171      0.00000
    260       4.4183      0.00000
    261       4.4701      0.00000
    262       4.4704      0.00000
    263       4.4827      0.00000
    264       4.4902      0.00000
    265       4.5315      0.00000
    266       4.5320      0.00000
    267       4.5333      0.00000
    268       4.5347      0.00000
    269       4.6982      0.00000
    270       4.7652      0.00000
    271       4.7657      0.00000
    272       4.9344      0.00000
    273       5.0544      0.00000
    274       5.0965      0.00000
    275       5.0988      0.00000
    276       5.1113      0.00000
    277       5.1125      0.00000
    278       5.1550      0.00000
    279       5.2221      0.00000
    280       5.2225      0.00000
    281       5.2278      0.00000
    282       5.2487      0.00000
    283       5.2869      0.00000
    284       5.2882      0.00000
    285       5.3032      0.00000
    286       5.3676      0.00000

 k-point     5 :       0.4000    0.0000    0.0000
  band No.  band energies     occupation 
      1     -72.4525      2.00000
      2     -72.4503      2.00000
      3     -72.4469      2.00000
      4     -72.4469      2.00000
      5     -72.4430      2.00000
      6     -72.4430      2.00000
      7     -72.4426      2.00000
      8     -72.4419      2.00000
      9     -72.4419      2.00000
     10     -58.6461      2.00000
     11     -58.6410      2.00000
     12     -58.6331      2.00000
     13     -58.6330      2.00000
     14     -58.6242      2.00000
     15     -58.6240      2.00000
     16     -58.6229      2.00000
     17     -58.6214      2.00000
     18     -58.6213      2.00000
     19     -36.8226      2.00000
     20     -36.7919      2.00000
     21     -36.7919      2.00000
     22     -36.7901      2.00000
     23     -36.7901      2.00000
     24     -36.7187      2.00000
     25     -36.7187      2.00000
     26     -36.6752      2.00000
     27     -36.6752      2.00000
     28     -36.6548      2.00000
     29     -36.6440      2.00000
     30     -36.6440      2.00000
     31     -36.6317      2.00000
     32     -36.6244      2.00000
     33     -36.6231      2.00000
     34     -36.6134      2.00000
     35     -36.6134      2.00000
     36     -36.6095      2.00000
     37     -36.6095      2.00000
     38     -36.6070      2.00000
     39     -36.5941      2.00000
     40     -36.5941      2.00000
     41     -36.5923      2.00000
     42     -36.5898      2.00000
     43     -36.5898      2.00000
     44     -36.5843      2.00000
     45     -36.5730      2.00000
     46     -32.8993      2.00000
     47     -32.8652      2.00000
     48     -32.8647      2.00000
     49     -32.8630      2.00000
     50     -32.8624      2.00000
     51     -32.8273      2.00000
     52     -32.8160      2.00000
     53     -32.7982      2.00000
     54     -32.7981      2.00000
     55     -32.7834      2.00000
     56     -32.7829      2.00000
     57     -32.7780      2.00000
     58     -32.7779      2.00000
     59     -32.7755      2.00000
     60     -32.7722      2.00000
     61     -32.7722      2.00000
     62     -32.7332      2.00000
     63     -32.7330      2.00000
     64     -32.7116      2.00000
     65     -32.6982      2.00000
     66     -32.6979      2.00000
     67     -32.6760      2.00000
     68     -32.6644      2.00000
     69     -32.6641      2.00000
     70     -32.6580      2.00000
     71     -32.6322      2.00000
     72     -32.6198      2.00000
     73     -12.6810      2.00000
     74     -12.3783      2.00000
     75     -11.9946      2.00000
     76     -11.8539      2.00000
     77     -11.8539      2.00000
     78     -11.7005      2.00000
     79     -11.2606      2.00000
     80     -11.1883      2.00000
     81     -11.1861      2.00000
     82     -11.1627      2.00000
     83     -11.1627      2.00000
     84     -11.1264      2.00000
     85     -11.0603      2.00000
     86     -11.0250      2.00000
     87     -10.9533      2.00000
     88     -10.9533      2.00000
     89     -10.9071      2.00000
     90     -10.9066      2.00000
     91     -10.8863      2.00000
     92     -10.6895      2.00000
     93     -10.6894      2.00000
     94     -10.6640      2.00000
     95     -10.6241      2.00000
     96     -10.6233      2.00000
     97     -10.6005      2.00000
     98     -10.6005      2.00000
     99     -10.4462      2.00000
    100     -10.4439      2.00000
    101     -10.3372      2.00000
    102     -10.2525      2.00000
    103     -10.2511      2.00000
    104     -10.2362      2.00000
    105     -10.2339      2.00000
    106     -10.2058      2.00000
    107     -10.1277      2.00000
    108     -10.1255      2.00000
    109      -4.6359      2.00000
    110      -4.2879      2.00000
    111      -4.2157      2.00000
    112      -4.2157      2.00000
    113      -4.0865      2.00000
    114      -4.0865      2.00000
    115      -3.9761      2.00000
    116      -3.6665      2.00000
    117      -3.6628      2.00000
    118      -3.6627      2.00000
    119      -3.5849      2.00000
    120      -3.5849      2.00000
    121      -3.2840      2.00000
    122      -3.2718      2.00000
    123      -3.2717      2.00000
    124      -3.1823      2.00000
    125      -3.1819      2.00000
    126      -3.1268      2.00000
    127      -3.1261      2.00000
    128      -3.0824      2.00000
    129      -3.0218      2.00000
    130      -3.0216      2.00000
    131      -2.9249      2.00000
    132      -2.8252      2.00000
    133      -2.8237      2.00000
    134      -2.8062      2.00000
    135      -2.7532      2.00000
    136      -2.7525      2.00000
    137      -2.5876      2.00000
    138      -2.5329      2.00000
    139      -2.5326      2.00000
    140      -2.5304      2.00000
    141      -2.5137      2.00000
    142      -2.5136      2.00000
    143      -2.4482      2.00000
    144      -2.4478      2.00000
    145      -2.2552      2.00000
    146      -2.2547      2.00000
    147      -1.9872      2.00000
    148      -1.8677      2.00000
    149      -1.8672      2.00000
    150      -1.8463      2.00000
    151      -1.8458      2.00000
    152      -1.7911      2.00000
    153      -1.7837      2.00000
    154      -1.7825      2.00000
    155      -1.7157      2.00000
    156      -1.7146      2.00000
    157      -1.5750      2.00000
    158      -1.5739      2.00000
    159      -1.5248      2.00000
    160      -1.5248      2.00000
    161      -1.5099      2.00000
    162      -1.5083      2.00000
    163      -1.4420      2.00000
    164      -1.4401      2.00000
    165      -1.3482      2.00000
    166      -1.3469      2.00000
    167      -1.2507      2.00000
    168      -1.1020      2.00000
    169      -1.0948      2.00000
    170      -0.9896      2.00000
    171      -0.9879      2.00000
    172      -0.9499      2.00000
    173      -0.9488      2.00000
    174      -0.8991      2.00000
    175      -0.8734      2.00000
    176      -0.8112      2.00000
    177      -0.7818      2.00000
    178      -0.7814      2.00000
    179      -0.7760      2.00000
    180      -0.7752      2.00000
    181      -0.6762      2.00000
    182      -0.6757      2.00000
    183      -0.5799      2.00000
    184      -0.5432      2.00000
    185      -0.5420      2.00000
    186      -0.5271      2.00000
    187      -0.5208      2.00000
    188      -0.4402      2.00000
    189      -0.3023      2.00000
    190      -0.2540      2.00000
    191      -0.2538      2.00000
    192      -0.1538      2.00000
    193      -0.1537      2.00000
    194       0.0870      2.00000
    195       0.1552      2.00000
    196       0.2225      2.00000
    197       0.2234      2.00000
    198       0.2259      2.00000
    199       0.2261      2.00000
    200       0.2770      2.00000
    201       0.3128      2.00000
    202       0.3133      2.00000
    203       0.3486      2.00000
    204       0.3610      2.00000
    205       0.3618      2.00000
    206       0.3712      2.00000
    207       0.4203      2.00000
    208       0.4917      2.00000
    209       0.4932      2.00000
    210       0.6309      2.00000
    211       0.7210      2.00000
    212       0.7615      2.00000
    213       0.8210      2.00000
    214       0.8211      2.00000
    215       0.9135      2.00000
    216       0.9135      2.00000
    217       1.0013      2.00000
    218       1.0396      2.00000
    219       1.0400      2.00000
    220       1.1427      2.00000
    221       1.1427      2.00000
    222       1.2108      2.00000
    223       1.2581      2.00000
    224       1.3451      2.00000
    225       1.4044      2.00000
    226       1.4052      2.00000
    227       1.4809      2.00000
    228       1.5234      2.00000
    229       1.5953      2.00000
    230       1.6855      2.00000
    231       1.6864      2.00000
    232       1.8424      2.00000
    233       1.8428      2.00000
    234       1.8824      2.00000
    235       3.5373      0.00000
    236       3.5378      0.00000
    237       3.8451      0.00000
    238       3.8453      0.00000
    239       3.9200      0.00000
    240       3.9211      0.00000
    241       3.9217      0.00000
    242       3.9293      0.00000
    243       3.9297      0.00000
    244       4.0794      0.00000
    245       4.0806      0.00000
    246       4.1791      0.00000
    247       4.1794      0.00000
    248       4.2076      0.00000
    249       4.2086      0.00000
    250       4.2118      0.00000
    251       4.2205      0.00000
    252       4.2315      0.00000
    253       4.2785      0.00000
    254       4.2970      0.00000
    255       4.2979      0.00000
    256       4.3603      0.00000
    257       4.4302      0.00000
    258       4.4451      0.00000
    259       4.4456      0.00000
    260       4.4826      0.00000
    261       4.4836      0.00000
    262       4.4935      0.00000
    263       4.4936      0.00000
    264       4.5006      0.00000
    265       4.5269      0.00000
    266       4.5763      0.00000
    267       4.5773      0.00000
    268       4.6655      0.00000
    269       4.6663      0.00000
    270       4.6730      0.00000
    271       4.6817      0.00000
    272       4.7134      0.00000
    273       4.8166      0.00000
    274       4.8293      0.00000
    275       4.8395      0.00000
    276       4.8406      0.00000
    277       4.9226      0.00000
    278       4.9232      0.00000
    279       4.9512      0.00000
    280       4.9516      0.00000
    281       5.0070      0.00000
    282       5.0539      0.00000
    283       5.0554      0.00000
    284       5.2668      0.00000
    285       5.4289      0.00000
    286       5.4582      0.00000

 k-point     6 :       0.4000    0.4000    0.0000
  band No.  band energies     occupation 
      1     -72.4525      2.00000
      2     -72.4503      2.00000
      3     -72.4469      2.00000
      4     -72.4469      2.00000
      5     -72.4430      2.00000
      6     -72.4430      2.00000
      7     -72.4426      2.00000
      8     -72.4419      2.00000
      9     -72.4419      2.00000
     10     -58.6461      2.00000
     11     -58.6410      2.00000
     12     -58.6331      2.00000
     13     -58.6329      2.00000
     14     -58.6241      2.00000
     15     -58.6240      2.00000
     16     -58.6228      2.00000
     17     -58.6214      2.00000
     18     -58.6213      2.00000
     19     -36.8226      2.00000
     20     -36.7919      2.00000
     21     -36.7919      2.00000
     22     -36.7901      2.00000
     23     -36.7901      2.00000
     24     -36.7187      2.00000
     25     -36.7187      2.00000
     26     -36.6752      2.00000
     27     -36.6752      2.00000
     28     -36.6548      2.00000
     29     -36.6440      2.00000
     30     -36.6440      2.00000
     31     -36.6317      2.00000
     32     -36.6244      2.00000
     33     -36.6231      2.00000
     34     -36.6134      2.00000
     35     -36.6134      2.00000
     36     -36.6095      2.00000
     37     -36.6095      2.00000
     38     -36.6070      2.00000
     39     -36.5941      2.00000
     40     -36.5941      2.00000
     41     -36.5923      2.00000
     42     -36.5898      2.00000
     43     -36.5898      2.00000
     44     -36.5843      2.00000
     45     -36.5730      2.00000
     46     -32.8994      2.00000
     47     -32.8652      2.00000
     48     -32.8647      2.00000
     49     -32.8630      2.00000
     50     -32.8624      2.00000
     51     -32.8273      2.00000
     52     -32.8160      2.00000
     53     -32.7982      2.00000
     54     -32.7981      2.00000
     55     -32.7833      2.00000
     56     -32.7828      2.00000
     57     -32.7780      2.00000
     58     -32.7779      2.00000
     59     -32.7755      2.00000
     60     -32.7722      2.00000
     61     -32.7722      2.00000
     62     -32.7333      2.00000
     63     -32.7329      2.00000
     64     -32.7117      2.00000
     65     -32.6983      2.00000
     66     -32.6979      2.00000
     67     -32.6760      2.00000
     68     -32.6645      2.00000
     69     -32.6641      2.00000
     70     -32.6581      2.00000
     71     -32.6321      2.00000
     72     -32.6198      2.00000
     73     -12.6810      2.00000
     74     -12.3783      2.00000
     75     -11.9946      2.00000
     76     -11.8539      2.00000
     77     -11.8539      2.00000
     78     -11.7004      2.00000
     79     -11.2607      2.00000
     80     -11.1883      2.00000
     81     -11.1863      2.00000
     82     -11.1627      2.00000
     83     -11.1627      2.00000
     84     -11.1264      2.00000
     85     -11.0603      2.00000
     86     -11.0250      2.00000
     87     -10.9533      2.00000
     88     -10.9533      2.00000
     89     -10.9071      2.00000
     90     -10.9066      2.00000
     91     -10.8864      2.00000
     92     -10.6895      2.00000
     93     -10.6894      2.00000
     94     -10.6640      2.00000
     95     -10.6241      2.00000
     96     -10.6230      2.00000
     97     -10.6005      2.00000
     98     -10.6005      2.00000
     99     -10.4462      2.00000
    100     -10.4440      2.00000
    101     -10.3370      2.00000
    102     -10.2525      2.00000
    103     -10.2509      2.00000
    104     -10.2362      2.00000
    105     -10.2340      2.00000
    106     -10.2062      2.00000
    107     -10.1277      2.00000
    108     -10.1255      2.00000
    109      -4.6359      2.00000
    110      -4.2879      2.00000
    111      -4.2157      2.00000
    112      -4.2157      2.00000
    113      -4.0865      2.00000
    114      -4.0865      2.00000
    115      -3.9761      2.00000
    116      -3.6667      2.00000
    117      -3.6628      2.00000
    118      -3.6627      2.00000
    119      -3.5849      2.00000
    120      -3.5849      2.00000
    121      -3.2840      2.00000
    122      -3.2718      2.00000
    123      -3.2716      2.00000
    124      -3.1823      2.00000
    125      -3.1818      2.00000
    126      -3.1267      2.00000
    127      -3.1261      2.00000
    128      -3.0824      2.00000
    129      -3.0219      2.00000
    130      -3.0217      2.00000
    131      -2.9247      2.00000
    132      -2.8248      2.00000
    133      -2.8240      2.00000
    134      -2.8061      2.00000
    135      -2.7529      2.00000
    136      -2.7526      2.00000
    137      -2.5874      2.00000
    138      -2.5329      2.00000
    139      -2.5325      2.00000
    140      -2.5305      2.00000
    141      -2.5138      2.00000
    142      -2.5136      2.00000
    143      -2.4481      2.00000
    144      -2.4478      2.00000
    145      -2.2551      2.00000
    146      -2.2547      2.00000
    147      -1.9872      2.00000
    148      -1.8676      2.00000
    149      -1.8674      2.00000
    150      -1.8463      2.00000
    151      -1.8460      2.00000
    152      -1.7911      2.00000
    153      -1.7837      2.00000
    154      -1.7825      2.00000
    155      -1.7156      2.00000
    156      -1.7144      2.00000
    157      -1.5752      2.00000
    158      -1.5741      2.00000
    159      -1.5248      2.00000
    160      -1.5248      2.00000
    161      -1.5097      2.00000
    162      -1.5088      2.00000
    163      -1.4417      2.00000
    164      -1.4407      2.00000
    165      -1.3484      2.00000
    166      -1.3470      2.00000
    167      -1.2508      2.00000
    168      -1.1017      2.00000
    169      -1.0948      2.00000
    170      -0.9897      2.00000
    171      -0.9884      2.00000
    172      -0.9498      2.00000
    173      -0.9494      2.00000
    174      -0.8998      2.00000
    175      -0.8734      2.00000
    176      -0.8112      2.00000
    177      -0.7819      2.00000
    178      -0.7816      2.00000
    179      -0.7762      2.00000
    180      -0.7752      2.00000
    181      -0.6763      2.00000
    182      -0.6757      2.00000
    183      -0.5793      2.00000
    184      -0.5432      2.00000
    185      -0.5418      2.00000
    186      -0.5271      2.00000
    187      -0.5202      2.00000
    188      -0.4408      2.00000
    189      -0.3023      2.00000
    190      -0.2539      2.00000
    191      -0.2538      2.00000
    192      -0.1539      2.00000
    193      -0.1538      2.00000
    194       0.0863      2.00000
    195       0.1552      2.00000
    196       0.2230      2.00000
    197       0.2240      2.00000
    198       0.2261      2.00000
    199       0.2263      2.00000
    200       0.2770      2.00000
    201       0.3130      2.00000
    202       0.3134      2.00000
    203       0.3483      2.00000
    204       0.3615      2.00000
    205       0.3620      2.00000
    206       0.3723      2.00000
    207       0.4201      2.00000
    208       0.4919      2.00000
    209       0.4930      2.00000
    210       0.6307      2.00000
    211       0.7222      2.00000
    212       0.7615      2.00000
    213       0.8209      2.00000
    214       0.8210      2.00000
    215       0.9135      2.00000
    216       0.9135      2.00000
    217       1.0013      2.00000
    218       1.0384      2.00000
    219       1.0407      2.00000
    220       1.1427      2.00000
    221       1.1427      2.00000
    222       1.2104      2.00000
    223       1.2581      2.00000
    224       1.3445      2.00000
    225       1.4049      2.00000
    226       1.4059      2.00000
    227       1.4806      2.00000
    228       1.5233      2.00000
    229       1.5955      2.00000
    230       1.6854      2.00000
    231       1.6864      2.00000
    232       1.8424      2.00000
    233       1.8428      2.00000
    234       1.8823      2.00000
    235       3.5371      0.00000
    236       3.5376      0.00000
    237       3.8452      0.00000
    238       3.8453      0.00000
    239       3.9204      0.00000
    240       3.9208      0.00000
    241       3.9216      0.00000
    242       3.9288      0.00000
    243       3.9297      0.00000
    244       4.0795      0.00000
    245       4.0806      0.00000
    246       4.1791      0.00000
    247       4.1793      0.00000
    248       4.2076      0.00000
    249       4.2086      0.00000
    250       4.2117      0.00000
    251       4.2204      0.00000
    252       4.2317      0.00000
    253       4.2784      0.00000
    254       4.2975      0.00000
    255       4.2979      0.00000
    256       4.3603      0.00000
    257       4.4306      0.00000
    258       4.4447      0.00000
    259       4.4452      0.00000
    260       4.4832      0.00000
    261       4.4836      0.00000
    262       4.4935      0.00000
    263       4.4935      0.00000
    264       4.5006      0.00000
    265       4.5275      0.00000
    266       4.5760      0.00000
    267       4.5771      0.00000
    268       4.6656      0.00000
    269       4.6661      0.00000
    270       4.6730      0.00000
    271       4.6822      0.00000
    272       4.7136      0.00000
    273       4.8168      0.00000
    274       4.8293      0.00000
    275       4.8393      0.00000
    276       4.8400      0.00000
    277       4.9230      0.00000
    278       4.9237      0.00000
    279       4.9514      0.00000
    280       4.9515      0.00000
    281       5.0076      0.00000
    282       5.0533      0.00000
    283       5.0550      0.00000
    284       5.2673      0.00000
    285       5.4253      0.00000
    286       5.4580      0.00000

 k-point     7 :       0.0000    0.4000    0.0000
  band No.  band energies     occupation 
      1     -72.4525      2.00000
      2     -72.4503      2.00000
      3     -72.4469      2.00000
      4     -72.4469      2.00000
      5     -72.4430      2.00000
      6     -72.4430      2.00000
      7     -72.4426      2.00000
      8     -72.4419      2.00000
      9     -72.4419      2.00000
     10     -58.6461      2.00000
     11     -58.6410      2.00000
     12     -58.6331      2.00000
     13     -58.6330      2.00000
     14     -58.6242      2.00000
     15     -58.6240      2.00000
     16     -58.6228      2.00000
     17     -58.6214      2.00000
     18     -58.6213      2.00000
     19     -36.8226      2.00000
     20     -36.7919      2.00000
     21     -36.7919      2.00000
     22     -36.7901      2.00000
     23     -36.7901      2.00000
     24     -36.7187      2.00000
     25     -36.7187      2.00000
     26     -36.6752      2.00000
     27     -36.6752      2.00000
     28     -36.6548      2.00000
     29     -36.6440      2.00000
     30     -36.6440      2.00000
     31     -36.6317      2.00000
     32     -36.6244      2.00000
     33     -36.6231      2.00000
     34     -36.6134      2.00000
     35     -36.6134      2.00000
     36     -36.6095      2.00000
     37     -36.6095      2.00000
     38     -36.6070      2.00000
     39     -36.5941      2.00000
     40     -36.5941      2.00000
     41     -36.5923      2.00000
     42     -36.5898      2.00000
     43     -36.5898      2.00000
     44     -36.5843      2.00000
     45     -36.5730      2.00000
     46     -32.8994      2.00000
     47     -32.8652      2.00000
     48     -32.8647      2.00000
     49     -32.8630      2.00000
     50     -32.8624      2.00000
     51     -32.8273      2.00000
     52     -32.8160      2.00000
     53     -32.7982      2.00000
     54     -32.7981      2.00000
     55     -32.7833      2.00000
     56     -32.7829      2.00000
     57     -32.7780      2.00000
     58     -32.7779      2.00000
     59     -32.7755      2.00000
     60     -32.7722      2.00000
     61     -32.7722      2.00000
     62     -32.7333      2.00000
     63     -32.7329      2.00000
     64     -32.7117      2.00000
     65     -32.6983      2.00000
     66     -32.6979      2.00000
     67     -32.6760      2.00000
     68     -32.6645      2.00000
     69     -32.6641      2.00000
     70     -32.6581      2.00000
     71     -32.6321      2.00000
     72     -32.6198      2.00000
     73     -12.6810      2.00000
     74     -12.3783      2.00000
     75     -11.9946      2.00000
     76     -11.8539      2.00000
     77     -11.8539      2.00000
     78     -11.7005      2.00000
     79     -11.2606      2.00000
     80     -11.1885      2.00000
     81     -11.1861      2.00000
     82     -11.1627      2.00000
     83     -11.1627      2.00000
     84     -11.1264      2.00000
     85     -11.0603      2.00000
     86     -11.0250      2.00000
     87     -10.9533      2.00000
     88     -10.9533      2.00000
     89     -10.9072      2.00000
     90     -10.9065      2.00000
     91     -10.8864      2.00000
     92     -10.6895      2.00000
     93     -10.6894      2.00000
     94     -10.6640      2.00000
     95     -10.6242      2.00000
     96     -10.6229      2.00000
     97     -10.6005      2.00000
     98     -10.6005      2.00000
     99     -10.4463      2.00000
    100     -10.4439      2.00000
    101     -10.3371      2.00000
    102     -10.2526      2.00000
    103     -10.2510      2.00000
    104     -10.2362      2.00000
    105     -10.2339      2.00000
    106     -10.2060      2.00000
    107     -10.1277      2.00000
    108     -10.1255      2.00000
    109      -4.6359      2.00000
    110      -4.2879      2.00000
    111      -4.2157      2.00000
    112      -4.2157      2.00000
    113      -4.0865      2.00000
    114      -4.0865      2.00000
    115      -3.9761      2.00000
    116      -3.6666      2.00000
    117      -3.6628      2.00000
    118      -3.6627      2.00000
    119      -3.5849      2.00000
    120      -3.5849      2.00000
    121      -3.2840      2.00000
    122      -3.2718      2.00000
    123      -3.2716      2.00000
    124      -3.1825      2.00000
    125      -3.1817      2.00000
    126      -3.1271      2.00000
    127      -3.1258      2.00000
    128      -3.0824      2.00000
    129      -3.0219      2.00000
    130      -3.0216      2.00000
    131      -2.9248      2.00000
    132      -2.8252      2.00000
    133      -2.8237      2.00000
    134      -2.8062      2.00000
    135      -2.7531      2.00000
    136      -2.7525      2.00000
    137      -2.5875      2.00000
    138      -2.5329      2.00000
    139      -2.5326      2.00000
    140      -2.5304      2.00000
    141      -2.5138      2.00000
    142      -2.5136      2.00000
    143      -2.4482      2.00000
    144      -2.4477      2.00000
    145      -2.2551      2.00000
    146      -2.2547      2.00000
    147      -1.9872      2.00000
    148      -1.8677      2.00000
    149      -1.8673      2.00000
    150      -1.8463      2.00000
    151      -1.8459      2.00000
    152      -1.7911      2.00000
    153      -1.7837      2.00000
    154      -1.7825      2.00000
    155      -1.7157      2.00000
    156      -1.7145      2.00000
    157      -1.5752      2.00000
    158      -1.5739      2.00000
    159      -1.5248      2.00000
    160      -1.5248      2.00000
    161      -1.5098      2.00000
    162      -1.5085      2.00000
    163      -1.4419      2.00000
    164      -1.4404      2.00000
    165      -1.3484      2.00000
    166      -1.3469      2.00000
    167      -1.2508      2.00000
    168      -1.1018      2.00000
    169      -1.0948      2.00000
    170      -0.9897      2.00000
    171      -0.9881      2.00000
    172      -0.9500      2.00000
    173      -0.9490      2.00000
    174      -0.8994      2.00000
    175      -0.8734      2.00000
    176      -0.8112      2.00000
    177      -0.7819      2.00000
    178      -0.7814      2.00000
    179      -0.7761      2.00000
    180      -0.7752      2.00000
    181      -0.6763      2.00000
    182      -0.6757      2.00000
    183      -0.5796      2.00000
    184      -0.5438      2.00000
    185      -0.5413      2.00000
    186      -0.5271      2.00000
    187      -0.5205      2.00000
    188      -0.4405      2.00000
    189      -0.3023      2.00000
    190      -0.2540      2.00000
    191      -0.2538      2.00000
    192      -0.1539      2.00000
    193      -0.1537      2.00000
    194       0.0867      2.00000
    195       0.1552      2.00000
    196       0.2223      2.00000
    197       0.2241      2.00000
    198       0.2259      2.00000
    199       0.2264      2.00000
    200       0.2770      2.00000
    201       0.3129      2.00000
    202       0.3134      2.00000
    203       0.3484      2.00000
    204       0.3612      2.00000
    205       0.3620      2.00000
    206       0.3718      2.00000
    207       0.4202      2.00000
    208       0.4916      2.00000
    209       0.4932      2.00000
    210       0.6308      2.00000
    211       0.7216      2.00000
    212       0.7615      2.00000
    213       0.8210      2.00000
    214       0.8210      2.00000
    215       0.9135      2.00000
    216       0.9135      2.00000
    217       1.0013      2.00000
    218       1.0390      2.00000
    219       1.0403      2.00000
    220       1.1427      2.00000
    221       1.1427      2.00000
    222       1.2106      2.00000
    223       1.2581      2.00000
    224       1.3448      2.00000
    225       1.4045      2.00000
    226       1.4057      2.00000
    227       1.4807      2.00000
    228       1.5233      2.00000
    229       1.5954      2.00000
    230       1.6854      2.00000
    231       1.6864      2.00000
    232       1.8424      2.00000
    233       1.8428      2.00000
    234       1.8824      2.00000
    235       3.5371      0.00000
    236       3.5378      0.00000
    237       3.8451      0.00000
    238       3.8453      0.00000
    239       3.9202      0.00000
    240       3.9208      0.00000
    241       3.9217      0.00000
    242       3.9290      0.00000
    243       3.9297      0.00000
    244       4.0794      0.00000
    245       4.0806      0.00000
    246       4.1791      0.00000
    247       4.1793      0.00000
    248       4.2076      0.00000
    249       4.2086      0.00000
    250       4.2117      0.00000
    251       4.2204      0.00000
    252       4.2316      0.00000
    253       4.2785      0.00000
    254       4.2972      0.00000
    255       4.2979      0.00000
    256       4.3603      0.00000
    257       4.4304      0.00000
    258       4.4447      0.00000
    259       4.4456      0.00000
    260       4.4829      0.00000
    261       4.4836      0.00000
    262       4.4935      0.00000
    263       4.4936      0.00000
    264       4.5006      0.00000
    265       4.5272      0.00000
    266       4.5761      0.00000
    267       4.5773      0.00000
    268       4.6655      0.00000
    269       4.6662      0.00000
    270       4.6730      0.00000
    271       4.6820      0.00000
    272       4.7135      0.00000
    273       4.8167      0.00000
    274       4.8293      0.00000
    275       4.8392      0.00000
    276       4.8406      0.00000
    277       4.9231      0.00000
    278       4.9231      0.00000
    279       4.9513      0.00000
    280       4.9515      0.00000
    281       5.0073      0.00000
    282       5.0535      0.00000
    283       5.0553      0.00000
    284       5.2668      0.00000
    285       5.4305      0.00000
    286       5.4606      0.00000

 k-point     8 :       0.4000    0.2000    0.0000
  band No.  band energies     occupation 
      1     -72.4530      2.00000
      2     -72.4488      2.00000
      3     -72.4488      2.00000
      4     -72.4447      2.00000
      5     -72.4447      2.00000
      6     -72.4428      2.00000
      7     -72.4428      2.00000
      8     -72.4419      2.00000
      9     -72.4415      2.00000
     10     -58.6472      2.00000
     11     -58.6378      2.00000
     12     -58.6373      2.00000
     13     -58.6282      2.00000
     14     -58.6277      2.00000
     15     -58.6238      2.00000
     16     -58.6233      2.00000
     17     -58.6212      2.00000
     18     -58.6204      2.00000
     19     -36.8113      2.00000
     20     -36.8113      2.00000
     21     -36.7953      2.00000
     22     -36.7788      2.00000
     23     -36.7600      2.00000
     24     -36.7600      2.00000
     25     -36.6882      2.00000
     26     -36.6851      2.00000
     27     -36.6851      2.00000
     28     -36.6812      2.00000
     29     -36.6336      2.00000
     30     -36.6305      2.00000
     31     -36.6305      2.00000
     32     -36.6294      2.00000
     33     -36.6293      2.00000
     34     -36.6172      2.00000
     35     -36.6172      2.00000
     36     -36.6008      2.00000
     37     -36.6008      2.00000
     38     -36.5960      2.00000
     39     -36.5949      2.00000
     40     -36.5949      2.00000
     41     -36.5933      2.00000
     42     -36.5933      2.00000
     43     -36.5895      2.00000
     44     -36.5881      2.00000
     45     -36.5709      2.00000
     46     -32.8868      2.00000
     47     -32.8865      2.00000
     48     -32.8686      2.00000
     49     -32.8500      2.00000
     50     -32.8297      2.00000
     51     -32.8295      2.00000
     52     -32.8290      2.00000
     53     -32.8083      2.00000
     54     -32.8080      2.00000
     55     -32.7870      2.00000
     56     -32.7866      2.00000
     57     -32.7771      2.00000
     58     -32.7767      2.00000
     59     -32.7719      2.00000
     60     -32.7700      2.00000
     61     -32.7477      2.00000
     62     -32.7457      2.00000
     63     -32.7454      2.00000
     64     -32.7398      2.00000
     65     -32.6834      2.00000
     66     -32.6831      2.00000
     67     -32.6817      2.00000
     68     -32.6814      2.00000
     69     -32.6458      2.00000
     70     -32.6439      2.00000
     71     -32.6436      2.00000
     72     -32.6175      2.00000
     73     -12.7449      2.00000
     74     -12.1559      2.00000
     75     -12.1559      2.00000
     76     -12.0563      2.00000
     77     -11.4837      2.00000
     78     -11.4823      2.00000
     79     -11.4823      2.00000
     80     -11.4816      2.00000
     81     -11.2900      2.00000
     82     -11.1154      2.00000
     83     -11.1154      2.00000
     84     -11.0531      2.00000
     85     -11.0325      2.00000
     86     -11.0321      2.00000
     87     -10.9468      2.00000
     88     -10.8656      2.00000
     89     -10.8530      2.00000
     90     -10.8522      2.00000
     91     -10.7784      2.00000
     92     -10.7781      2.00000
     93     -10.7265      2.00000
     94     -10.7250      2.00000
     95     -10.6797      2.00000
     96     -10.6797      2.00000
     97     -10.5933      2.00000
     98     -10.5676      2.00000
     99     -10.4264      2.00000
    100     -10.4254      2.00000
    101     -10.3959      2.00000
    102     -10.3937      2.00000
    103     -10.2335      2.00000
    104     -10.2324      2.00000
    105     -10.2294      2.00000
    106     -10.1452      2.00000
    107     -10.1192      2.00000
    108     -10.0750      2.00000
    109      -4.4886      2.00000
    110      -4.4886      2.00000
    111      -4.3596      2.00000
    112      -4.1252      2.00000
    113      -3.9192      2.00000
    114      -3.9192      2.00000
    115      -3.9182      2.00000
    116      -3.7907      2.00000
    117      -3.7906      2.00000
    118      -3.6985      2.00000
    119      -3.6275      2.00000
    120      -3.4961      2.00000
    121      -3.4947      2.00000
    122      -3.2531      2.00000
    123      -3.2530      2.00000
    124      -3.1917      2.00000
    125      -3.1507      2.00000
    126      -2.9767      2.00000
    127      -2.9761      2.00000
    128      -2.9662      2.00000
    129      -2.9481      2.00000
    130      -2.8624      2.00000
    131      -2.8616      2.00000
    132      -2.8553      2.00000
    133      -2.8550      2.00000
    134      -2.8198      2.00000
    135      -2.8197      2.00000
    136      -2.7716      2.00000
    137      -2.6652      2.00000
    138      -2.6645      2.00000
    139      -2.6171      2.00000
    140      -2.6147      2.00000
    141      -2.5620      2.00000
    142      -2.5372      2.00000
    143      -2.5366      2.00000
    144      -2.4309      2.00000
    145      -2.0505      2.00000
    146      -2.0494      2.00000
    147      -1.9496      2.00000
    148      -1.9490      2.00000
    149      -1.9327      2.00000
    150      -1.8504      2.00000
    151      -1.8498      2.00000
    152      -1.8450      2.00000
    153      -1.8184      2.00000
    154      -1.8179      2.00000
    155      -1.8150      2.00000
    156      -1.7681      2.00000
    157      -1.6273      2.00000
    158      -1.6257      2.00000
    159      -1.5721      2.00000
    160      -1.5027      2.00000
    161      -1.5022      2.00000
    162      -1.4640      2.00000
    163      -1.4195      2.00000
    164      -1.4187      2.00000
    165      -1.3580      2.00000
    166      -1.2937      2.00000
    167      -1.2932      2.00000
    168      -1.1600      2.00000
    169      -1.1185      2.00000
    170      -1.0807      2.00000
    171      -1.0798      2.00000
    172      -1.0488      2.00000
    173      -0.9591      2.00000
    174      -0.9437      2.00000
    175      -0.9088      2.00000
    176      -0.9070      2.00000
    177      -0.7502      2.00000
    178      -0.7497      2.00000
    179      -0.6800      2.00000
    180      -0.6800      2.00000
    181      -0.6761      2.00000
    182      -0.6744      2.00000
    183      -0.5655      2.00000
    184      -0.4968      2.00000
    185      -0.3782      2.00000
    186      -0.3473      2.00000
    187      -0.3124      2.00000
    188      -0.2545      2.00000
    189      -0.2543      2.00000
    190      -0.2520      2.00000
    191      -0.2085      2.00000
    192      -0.2084      2.00000
    193      -0.1398      2.00000
    194      -0.1380      2.00000
    195       0.0664      2.00000
    196       0.0667      2.00000
    197       0.0961      2.00000
    198       0.1789      2.00000
    199       0.1802      2.00000
    200       0.2538      2.00000
    201       0.2830      2.00000
    202       0.2989      2.00000
    203       0.3007      2.00000
    204       0.3150      2.00000
    205       0.3153      2.00000
    206       0.4693      2.00000
    207       0.6481      2.00000
    208       0.6501      2.00000
    209       0.7178      2.00000
    210       0.7188      2.00000
    211       0.7427      2.00000
    212       0.8080      2.00000
    213       0.8086      2.00000
    214       0.8187      2.00000
    215       0.8193      2.00000
    216       0.9282      2.00000
    217       0.9295      2.00000
    218       0.9811      2.00000
    219       0.9821      2.00000
    220       1.0586      2.00000
    221       1.0606      2.00000
    222       1.1661      2.00000
    223       1.2709      2.00000
    224       1.2795      2.00000
    225       1.3493      2.00000
    226       1.3508      2.00000
    227       1.5233      2.00000
    228       1.5248      2.00000
    229       1.5546      2.00000
    230       1.6833      2.00000
    231       1.6855      2.00000
    232       1.8369      2.00000
    233       1.9524      2.00000
    234       1.9918      2.00000
    235       3.6489      0.00000
    236       3.6493      0.00000
    237       3.7106      0.00000
    238       3.7390      0.00000
    239       3.7396      0.00000
    240       3.7628      0.00000
    241       4.0340      0.00000
    242       4.0444      0.00000
    243       4.0450      0.00000
    244       4.0479      0.00000
    245       4.0592      0.00000
    246       4.0596      0.00000
    247       4.1141      0.00000
    248       4.1148      0.00000
    249       4.1911      0.00000
    250       4.1916      0.00000
    251       4.2349      0.00000
    252       4.2525      0.00000
    253       4.2534      0.00000
    254       4.2970      0.00000
    255       4.3834      0.00000
    256       4.3836      0.00000
    257       4.4212      0.00000
    258       4.4446      0.00000
    259       4.4456      0.00000
    260       4.4703      0.00000
    261       4.4707      0.00000
    262       4.4974      0.00000
    263       4.4986      0.00000
    264       4.5032      0.00000
    265       4.5044      0.00000
    266       4.5562      0.00000
    267       4.6164      0.00000
    268       4.6170      0.00000
    269       4.6379      0.00000
    270       4.7480      0.00000
    271       4.7545      0.00000
    272       4.7551      0.00000
    273       4.7606      0.00000
    274       4.7761      0.00000
    275       4.8262      0.00000
    276       4.8805      0.00000
    277       4.8808      0.00000
    278       4.9566      0.00000
    279       4.9609      0.00000
    280       5.0563      0.00000
    281       5.1216      0.00000
    282       5.2074      0.00000
    283       5.2081      0.00000
    284       5.3306      0.00000
    285       5.4009      0.00000
    286       5.4045      0.00000

 k-point     9 :       0.2000    0.4000    0.0000
  band No.  band energies     occupation 
      1     -72.4530      2.00000
      2     -72.4488      2.00000
      3     -72.4488      2.00000
      4     -72.4447      2.00000
      5     -72.4447      2.00000
      6     -72.4428      2.00000
      7     -72.4428      2.00000
      8     -72.4419      2.00000
      9     -72.4415      2.00000
     10     -58.6472      2.00000
     11     -58.6378      2.00000
     12     -58.6373      2.00000
     13     -58.6282      2.00000
     14     -58.6277      2.00000
     15     -58.6238      2.00000
     16     -58.6233      2.00000
     17     -58.6212      2.00000
     18     -58.6204      2.00000
     19     -36.8113      2.00000
     20     -36.8113      2.00000
     21     -36.7953      2.00000
     22     -36.7788      2.00000
     23     -36.7600      2.00000
     24     -36.7600      2.00000
     25     -36.6882      2.00000
     26     -36.6851      2.00000
     27     -36.6851      2.00000
     28     -36.6812      2.00000
     29     -36.6336      2.00000
     30     -36.6305      2.00000
     31     -36.6305      2.00000
     32     -36.6294      2.00000
     33     -36.6293      2.00000
     34     -36.6172      2.00000
     35     -36.6172      2.00000
     36     -36.6008      2.00000
     37     -36.6008      2.00000
     38     -36.5960      2.00000
     39     -36.5949      2.00000
     40     -36.5949      2.00000
     41     -36.5933      2.00000
     42     -36.5933      2.00000
     43     -36.5895      2.00000
     44     -36.5881      2.00000
     45     -36.5709      2.00000
     46     -32.8868      2.00000
     47     -32.8865      2.00000
     48     -32.8685      2.00000
     49     -32.8500      2.00000
     50     -32.8298      2.00000
     51     -32.8294      2.00000
     52     -32.8290      2.00000
     53     -32.8084      2.00000
     54     -32.8079      2.00000
     55     -32.7871      2.00000
     56     -32.7865      2.00000
     57     -32.7772      2.00000
     58     -32.7766      2.00000
     59     -32.7719      2.00000
     60     -32.7700      2.00000
     61     -32.7477      2.00000
     62     -32.7457      2.00000
     63     -32.7454      2.00000
     64     -32.7398      2.00000
     65     -32.6834      2.00000
     66     -32.6831      2.00000
     67     -32.6816      2.00000
     68     -32.6814      2.00000
     69     -32.6459      2.00000
     70     -32.6439      2.00000
     71     -32.6436      2.00000
     72     -32.6175      2.00000
     73     -12.7449      2.00000
     74     -12.1559      2.00000
     75     -12.1559      2.00000
     76     -12.0563      2.00000
     77     -11.4839      2.00000
     78     -11.4823      2.00000
     79     -11.4823      2.00000
     80     -11.4815      2.00000
     81     -11.2900      2.00000
     82     -11.1154      2.00000
     83     -11.1154      2.00000
     84     -11.0531      2.00000
     85     -11.0326      2.00000
     86     -11.0321      2.00000
     87     -10.9468      2.00000
     88     -10.8656      2.00000
     89     -10.8530      2.00000
     90     -10.8522      2.00000
     91     -10.7786      2.00000
     92     -10.7778      2.00000
     93     -10.7266      2.00000
     94     -10.7250      2.00000
     95     -10.6797      2.00000
     96     -10.6797      2.00000
     97     -10.5933      2.00000
     98     -10.5676      2.00000
     99     -10.4265      2.00000
    100     -10.4252      2.00000
    101     -10.3959      2.00000
    102     -10.3935      2.00000
    103     -10.2335      2.00000
    104     -10.2325      2.00000
    105     -10.2294      2.00000
    106     -10.1453      2.00000
    107     -10.1193      2.00000
    108     -10.0749      2.00000
    109      -4.4886      2.00000
    110      -4.4886      2.00000
    111      -4.3596      2.00000
    112      -4.1252      2.00000
    113      -3.9192      2.00000
    114      -3.9192      2.00000
    115      -3.9182      2.00000
    116      -3.7907      2.00000
    117      -3.7906      2.00000
    118      -3.6985      2.00000
    119      -3.6275      2.00000
    120      -3.4962      2.00000
    121      -3.4946      2.00000
    122      -3.2531      2.00000
    123      -3.2530      2.00000
    124      -3.1916      2.00000
    125      -3.1507      2.00000
    126      -2.9767      2.00000
    127      -2.9761      2.00000
    128      -2.9663      2.00000
    129      -2.9482      2.00000
    130      -2.8624      2.00000
    131      -2.8615      2.00000
    132      -2.8553      2.00000
    133      -2.8550      2.00000
    134      -2.8198      2.00000
    135      -2.8197      2.00000
    136      -2.7714      2.00000
    137      -2.6655      2.00000
    138      -2.6642      2.00000
    139      -2.6171      2.00000
    140      -2.6147      2.00000
    141      -2.5620      2.00000
    142      -2.5371      2.00000
    143      -2.5365      2.00000
    144      -2.4309      2.00000
    145      -2.0506      2.00000
    146      -2.0493      2.00000
    147      -1.9496      2.00000
    148      -1.9490      2.00000
    149      -1.9327      2.00000
    150      -1.8505      2.00000
    151      -1.8499      2.00000
    152      -1.8450      2.00000
    153      -1.8185      2.00000
    154      -1.8177      2.00000
    155      -1.8151      2.00000
    156      -1.7681      2.00000
    157      -1.6274      2.00000
    158      -1.6254      2.00000
    159      -1.5721      2.00000
    160      -1.5030      2.00000
    161      -1.5021      2.00000
    162      -1.4641      2.00000
    163      -1.4193      2.00000
    164      -1.4190      2.00000
    165      -1.3581      2.00000
    166      -1.2937      2.00000
    167      -1.2933      2.00000
    168      -1.1600      2.00000
    169      -1.1185      2.00000
    170      -1.0806      2.00000
    171      -1.0800      2.00000
    172      -1.0490      2.00000
    173      -0.9592      2.00000
    174      -0.9434      2.00000
    175      -0.9088      2.00000
    176      -0.9073      2.00000
    177      -0.7502      2.00000
    178      -0.7498      2.00000
    179      -0.6800      2.00000
    180      -0.6800      2.00000
    181      -0.6761      2.00000
    182      -0.6744      2.00000
    183      -0.5655      2.00000
    184      -0.4969      2.00000
    185      -0.3780      2.00000
    186      -0.3474      2.00000
    187      -0.3127      2.00000
    188      -0.2545      2.00000
    189      -0.2543      2.00000
    190      -0.2520      2.00000
    191      -0.2085      2.00000
    192      -0.2084      2.00000
    193      -0.1397      2.00000
    194      -0.1379      2.00000
    195       0.0663      2.00000
    196       0.0668      2.00000
    197       0.0964      2.00000
    198       0.1788      2.00000
    199       0.1801      2.00000
    200       0.2538      2.00000
    201       0.2828      2.00000
    202       0.2988      2.00000
    203       0.3011      2.00000
    204       0.3150      2.00000
    205       0.3155      2.00000
    206       0.4692      2.00000
    207       0.6481      2.00000
    208       0.6502      2.00000
    209       0.7179      2.00000
    210       0.7186      2.00000
    211       0.7433      2.00000
    212       0.8081      2.00000
    213       0.8086      2.00000
    214       0.8188      2.00000
    215       0.8193      2.00000
    216       0.9283      2.00000
    217       0.9295      2.00000
    218       0.9810      2.00000
    219       0.9822      2.00000
    220       1.0584      2.00000
    221       1.0608      2.00000
    222       1.1661      2.00000
    223       1.2709      2.00000
    224       1.2792      2.00000
    225       1.3494      2.00000
    226       1.3509      2.00000
    227       1.5235      2.00000
    228       1.5248      2.00000
    229       1.5545      2.00000
    230       1.6832      2.00000
    231       1.6854      2.00000
    232       1.8370      2.00000
    233       1.9524      2.00000
    234       1.9917      2.00000
    235       3.6491      0.00000
    236       3.6492      0.00000
    237       3.7106      0.00000
    238       3.7389      0.00000
    239       3.7395      0.00000
    240       3.7628      0.00000
    241       4.0340      0.00000
    242       4.0444      0.00000
    243       4.0449      0.00000
    244       4.0480      0.00000
    245       4.0593      0.00000
    246       4.0595      0.00000
    247       4.1142      0.00000
    248       4.1148      0.00000
    249       4.1911      0.00000
    250       4.1915      0.00000
    251       4.2349      0.00000
    252       4.2526      0.00000
    253       4.2534      0.00000
    254       4.2970      0.00000
    255       4.3834      0.00000
    256       4.3836      0.00000
    257       4.4212      0.00000
    258       4.4449      0.00000
    259       4.4455      0.00000
    260       4.4702      0.00000
    261       4.4706      0.00000
    262       4.4972      0.00000
    263       4.4987      0.00000
    264       4.5034      0.00000
    265       4.5042      0.00000
    266       4.5562      0.00000
    267       4.6164      0.00000
    268       4.6170      0.00000
    269       4.6384      0.00000
    270       4.7480      0.00000
    271       4.7545      0.00000
    272       4.7550      0.00000
    273       4.7606      0.00000
    274       4.7760      0.00000
    275       4.8258      0.00000
    276       4.8806      0.00000
    277       4.8809      0.00000
    278       4.9568      0.00000
    279       4.9609      0.00000
    280       5.0565      0.00000
    281       5.1216      0.00000
    282       5.2076      0.00000
    283       5.2080      0.00000
    284       5.3230      0.00000
    285       5.4010      0.00000
    286       5.4037      0.00000

 k-point    10 :      -0.2000    0.2000    0.0000
  band No.  band energies     occupation 
      1     -72.4530      2.00000
      2     -72.4488      2.00000
      3     -72.4488      2.00000
      4     -72.4447      2.00000
      5     -72.4447      2.00000
      6     -72.4428      2.00000
      7     -72.4428      2.00000
      8     -72.4419      2.00000
      9     -72.4415      2.00000
     10     -58.6472      2.00000
     11     -58.6378      2.00000
     12     -58.6373      2.00000
     13     -58.6283      2.00000
     14     -58.6277      2.00000
     15     -58.6238      2.00000
     16     -58.6232      2.00000
     17     -58.6212      2.00000
     18     -58.6204      2.00000
     19     -36.8113      2.00000
     20     -36.8113      2.00000
     21     -36.7953      2.00000
     22     -36.7788      2.00000
     23     -36.7600      2.00000
     24     -36.7600      2.00000
     25     -36.6882      2.00000
     26     -36.6851      2.00000
     27     -36.6851      2.00000
     28     -36.6812      2.00000
     29     -36.6336      2.00000
     30     -36.6305      2.00000
     31     -36.6305      2.00000
     32     -36.6293      2.00000
     33     -36.6293      2.00000
     34     -36.6172      2.00000
     35     -36.6172      2.00000
     36     -36.6008      2.00000
     37     -36.6008      2.00000
     38     -36.5960      2.00000
     39     -36.5949      2.00000
     40     -36.5949      2.00000
     41     -36.5933      2.00000
     42     -36.5933      2.00000
     43     -36.5895      2.00000
     44     -36.5881      2.00000
     45     -36.5709      2.00000
     46     -32.8868      2.00000
     47     -32.8864      2.00000
     48     -32.8686      2.00000
     49     -32.8500      2.00000
     50     -32.8297      2.00000
     51     -32.8295      2.00000
     52     -32.8291      2.00000
     53     -32.8083      2.00000
     54     -32.8080      2.00000
     55     -32.7870      2.00000
     56     -32.7866      2.00000
     57     -32.7771      2.00000
     58     -32.7767      2.00000
     59     -32.7720      2.00000
     60     -32.7700      2.00000
     61     -32.7477      2.00000
     62     -32.7457      2.00000
     63     -32.7453      2.00000
     64     -32.7398      2.00000
     65     -32.6833      2.00000
     66     -32.6831      2.00000
     67     -32.6817      2.00000
     68     -32.6814      2.00000
     69     -32.6458      2.00000
     70     -32.6440      2.00000
     71     -32.6436      2.00000
     72     -32.6175      2.00000
     73     -12.7449      2.00000
     74     -12.1559      2.00000
     75     -12.1559      2.00000
     76     -12.0563      2.00000
     77     -11.4839      2.00000
     78     -11.4823      2.00000
     79     -11.4823      2.00000
     80     -11.4815      2.00000
     81     -11.2900      2.00000
     82     -11.1154      2.00000
     83     -11.1154      2.00000
     84     -11.0531      2.00000
     85     -11.0326      2.00000
     86     -11.0321      2.00000
     87     -10.9468      2.00000
     88     -10.8656      2.00000
     89     -10.8530      2.00000
     90     -10.8521      2.00000
     91     -10.7786      2.00000
     92     -10.7778      2.00000
     93     -10.7266      2.00000
     94     -10.7249      2.00000
     95     -10.6797      2.00000
     96     -10.6797      2.00000
     97     -10.5933      2.00000
     98     -10.5676      2.00000
     99     -10.4265      2.00000
    100     -10.4255      2.00000
    101     -10.3959      2.00000
    102     -10.3938      2.00000
    103     -10.2336      2.00000
    104     -10.2322      2.00000
    105     -10.2294      2.00000
    106     -10.1451      2.00000
    107     -10.1191      2.00000
    108     -10.0751      2.00000
    109      -4.4886      2.00000
    110      -4.4886      2.00000
    111      -4.3596      2.00000
    112      -4.1252      2.00000
    113      -3.9192      2.00000
    114      -3.9192      2.00000
    115      -3.9182      2.00000
    116      -3.7907      2.00000
    117      -3.7906      2.00000
    118      -3.6985      2.00000
    119      -3.6275      2.00000
    120      -3.4959      2.00000
    121      -3.4947      2.00000
    122      -3.2531      2.00000
    123      -3.2530      2.00000
    124      -3.1918      2.00000
    125      -3.1508      2.00000
    126      -2.9766      2.00000
    127      -2.9761      2.00000
    128      -2.9662      2.00000
    129      -2.9480      2.00000
    130      -2.8623      2.00000
    131      -2.8618      2.00000
    132      -2.8553      2.00000
    133      -2.8550      2.00000
    134      -2.8197      2.00000
    135      -2.8197      2.00000
    136      -2.7718      2.00000
    137      -2.6650      2.00000
    138      -2.6648      2.00000
    139      -2.6171      2.00000
    140      -2.6147      2.00000
    141      -2.5619      2.00000
    142      -2.5373      2.00000
    143      -2.5367      2.00000
    144      -2.4309      2.00000
    145      -2.0507      2.00000
    146      -2.0491      2.00000
    147      -1.9496      2.00000
    148      -1.9490      2.00000
    149      -1.9326      2.00000
    150      -1.8504      2.00000
    151      -1.8497      2.00000
    152      -1.8450      2.00000
    153      -1.8183      2.00000
    154      -1.8180      2.00000
    155      -1.8150      2.00000
    156      -1.7681      2.00000
    157      -1.6271      2.00000
    158      -1.6261      2.00000
    159      -1.5721      2.00000
    160      -1.5025      2.00000
    161      -1.5022      2.00000
    162      -1.4638      2.00000
    163      -1.4198      2.00000
    164      -1.4185      2.00000
    165      -1.3579      2.00000
    166      -1.2939      2.00000
    167      -1.2930      2.00000
    168      -1.1600      2.00000
    169      -1.1184      2.00000
    170      -1.0808      2.00000
    171      -1.0795      2.00000
    172      -1.0487      2.00000
    173      -0.9589      2.00000
    174      -0.9440      2.00000
    175      -0.9090      2.00000
    176      -0.9067      2.00000
    177      -0.7502      2.00000
    178      -0.7496      2.00000
    179      -0.6800      2.00000
    180      -0.6800      2.00000
    181      -0.6760      2.00000
    182      -0.6746      2.00000
    183      -0.5655      2.00000
    184      -0.4968      2.00000
    185      -0.3784      2.00000
    186      -0.3473      2.00000
    187      -0.3122      2.00000
    188      -0.2545      2.00000
    189      -0.2544      2.00000
    190      -0.2520      2.00000
    191      -0.2084      2.00000
    192      -0.2084      2.00000
    193      -0.1401      2.00000
    194      -0.1378      2.00000
    195       0.0664      2.00000
    196       0.0666      2.00000
    197       0.0958      2.00000
    198       0.1792      2.00000
    199       0.1801      2.00000
    200       0.2539      2.00000
    201       0.2831      2.00000
    202       0.2991      2.00000
    203       0.3004      2.00000
    204       0.3150      2.00000
    205       0.3152      2.00000
    206       0.4694      2.00000
    207       0.6481      2.00000
    208       0.6500      2.00000
    209       0.7178      2.00000
    210       0.7191      2.00000
    211       0.7421      2.00000
    212       0.8080      2.00000
    213       0.8087      2.00000
    214       0.8187      2.00000
    215       0.8193      2.00000
    216       0.9281      2.00000
    217       0.9296      2.00000
    218       0.9812      2.00000
    219       0.9820      2.00000
    220       1.0587      2.00000
    221       1.0605      2.00000
    222       1.1661      2.00000
    223       1.2708      2.00000
    224       1.2797      2.00000
    225       1.3492      2.00000
    226       1.3508      2.00000
    227       1.5232      2.00000
    228       1.5247      2.00000
    229       1.5546      2.00000
    230       1.6835      2.00000
    231       1.6857      2.00000
    232       1.8369      2.00000
    233       1.9524      2.00000
    234       1.9918      2.00000
    235       3.6488      0.00000
    236       3.6495      0.00000
    237       3.7106      0.00000
    238       3.7391      0.00000
    239       3.7397      0.00000
    240       3.7628      0.00000
    241       4.0341      0.00000
    242       4.0444      0.00000
    243       4.0451      0.00000
    244       4.0479      0.00000
    245       4.0590      0.00000
    246       4.0598      0.00000
    247       4.1141      0.00000
    248       4.1148      0.00000
    249       4.1910      0.00000
    250       4.1916      0.00000
    251       4.2349      0.00000
    252       4.2524      0.00000
    253       4.2535      0.00000
    254       4.2970      0.00000
    255       4.3834      0.00000
    256       4.3836      0.00000
    257       4.4212      0.00000
    258       4.4444      0.00000
    259       4.4456      0.00000
    260       4.4703      0.00000
    261       4.4709      0.00000
    262       4.4976      0.00000
    263       4.4985      0.00000
    264       4.5029      0.00000
    265       4.5047      0.00000
    266       4.5562      0.00000
    267       4.6164      0.00000
    268       4.6171      0.00000
    269       4.6375      0.00000
    270       4.7480      0.00000
    271       4.7544      0.00000
    272       4.7552      0.00000
    273       4.7606      0.00000
    274       4.7761      0.00000
    275       4.8265      0.00000
    276       4.8803      0.00000
    277       4.8807      0.00000
    278       4.9564      0.00000
    279       4.9609      0.00000
    280       5.0560      0.00000
    281       5.1216      0.00000
    282       5.2074      0.00000
    283       5.2081      0.00000
    284       5.3261      0.00000
    285       5.4015      0.00000
    286       5.4052      0.00000

 k-point    11 :      -0.4000    0.2000    0.0000
  band No.  band energies     occupation 
      1     -72.4512      2.00000
      2     -72.4511      2.00000
      3     -72.4492      2.00000
      4     -72.4449      2.00000
      5     -72.4431      2.00000
      6     -72.4431      2.00000
      7     -72.4423      2.00000
      8     -72.4421      2.00000
      9     -72.4421      2.00000
     10     -58.6432      2.00000
     11     -58.6427      2.00000
     12     -58.6383      2.00000
     13     -58.6284      2.00000
     14     -58.6245      2.00000
     15     -58.6240      2.00000
     16     -58.6225      2.00000
     17     -58.6218      2.00000
     18     -58.6215      2.00000
     19     -36.8218      2.00000
     20     -36.8093      2.00000
     21     -36.8093      2.00000
     22     -36.7746      2.00000
     23     -36.7746      2.00000
     24     -36.7499      2.00000
     25     -36.6747      2.00000
     26     -36.6589      2.00000
     27     -36.6589      2.00000
     28     -36.6514      2.00000
     29     -36.6514      2.00000
     30     -36.6364      2.00000
     31     -36.6353      2.00000
     32     -36.6353      2.00000
     33     -36.6323      2.00000
     34     -36.6264      2.00000
     35     -36.6264      2.00000
     36     -36.6185      2.00000
     37     -36.6015      2.00000
     38     -36.5958      2.00000
     39     -36.5945      2.00000
     40     -36.5945      2.00000
     41     -36.5913      2.00000
     42     -36.5904      2.00000
     43     -36.5904      2.00000
     44     -36.5814      2.00000
     45     -36.5814      2.00000
     46     -32.8985      2.00000
     47     -32.8845      2.00000
     48     -32.8842      2.00000
     49     -32.8456      2.00000
     50     -32.8452      2.00000
     51     -32.8205      2.00000
     52     -32.8200      2.00000
     53     -32.8180      2.00000
     54     -32.8100      2.00000
     55     -32.7876      2.00000
     56     -32.7788      2.00000
     57     -32.7782      2.00000
     58     -32.7743      2.00000
     59     -32.7732      2.00000
     60     -32.7728      2.00000
     61     -32.7340      2.00000
     62     -32.7150      2.00000
     63     -32.7148      2.00000
     64     -32.7064      2.00000
     65     -32.7061      2.00000
     66     -32.6901      2.00000
     67     -32.6898      2.00000
     68     -32.6895      2.00000
     69     -32.6848      2.00000
     70     -32.6449      2.00000
     71     -32.6292      2.00000
     72     -32.6289      2.00000
     73     -12.4957      2.00000
     74     -12.4957      2.00000
     75     -12.2087      2.00000
     76     -11.8163      2.00000
     77     -11.8138      2.00000
     78     -11.5348      2.00000
     79     -11.5130      2.00000
     80     -11.1900      2.00000
     81     -11.1900      2.00000
     82     -11.1777      2.00000
     83     -11.1771      2.00000
     84     -11.0539      2.00000
     85     -11.0103      2.00000
     86     -10.9739      2.00000
     87     -10.9739      2.00000
     88     -10.9415      2.00000
     89     -10.9408      2.00000
     90     -10.8754      2.00000
     91     -10.8039      2.00000
     92     -10.7442      2.00000
     93     -10.6943      2.00000
     94     -10.6943      2.00000
     95     -10.6426      2.00000
     96     -10.6191      2.00000
     97     -10.6191      2.00000
     98     -10.4749      2.00000
     99     -10.4728      2.00000
    100     -10.4408      2.00000
    101     -10.2871      2.00000
    102     -10.2622      2.00000
    103     -10.2609      2.00000
    104     -10.2539      2.00000
    105     -10.2514      2.00000
    106     -10.1755      2.00000
    107     -10.1481      2.00000
    108     -10.1461      2.00000
    109      -4.6015      2.00000
    110      -4.3905      2.00000
    111      -4.3905      2.00000
    112      -4.0846      2.00000
    113      -4.0845      2.00000
    114      -3.9667      2.00000
    115      -3.9667      2.00000
    116      -3.8020      2.00000
    117      -3.7829      2.00000
    118      -3.6470      2.00000
    119      -3.4893      2.00000
    120      -3.4890      2.00000
    121      -3.4198      2.00000
    122      -3.4190      2.00000
    123      -3.3560      2.00000
    124      -3.2636      2.00000
    125      -3.2636      2.00000
    126      -2.9697      2.00000
    127      -2.9692      2.00000
    128      -2.9480      2.00000
    129      -2.9417      2.00000
    130      -2.9126      2.00000
    131      -2.9109      2.00000
    132      -2.8947      2.00000
    133      -2.8923      2.00000
    134      -2.7794      2.00000
    135      -2.7762      2.00000
    136      -2.6376      2.00000
    137      -2.6017      2.00000
    138      -2.6009      2.00000
    139      -2.5963      2.00000
    140      -2.5722      2.00000
    141      -2.5718      2.00000
    142      -2.5592      2.00000
    143      -2.3638      2.00000
    144      -2.3620      2.00000
    145      -2.3408      2.00000
    146      -2.3408      2.00000
    147      -1.9716      2.00000
    148      -1.9248      2.00000
    149      -1.9245      2.00000
    150      -1.8578      2.00000
    151      -1.8566      2.00000
    152      -1.8558      2.00000
    153      -1.8424      2.00000
    154      -1.7841      2.00000
    155      -1.6529      2.00000
    156      -1.5475      2.00000
    157      -1.5454      2.00000
    158      -1.4985      2.00000
    159      -1.4982      2.00000
    160      -1.4815      2.00000
    161      -1.4292      2.00000
    162      -1.4280      2.00000
    163      -1.4181      2.00000
    164      -1.3120      2.00000
    165      -1.3117      2.00000
    166      -1.3089      2.00000
    167      -1.0635      2.00000
    168      -1.0318      2.00000
    169      -1.0310      2.00000
    170      -0.9461      2.00000
    171      -0.9460      2.00000
    172      -0.9358      2.00000
    173      -0.9284      2.00000
    174      -0.9279      2.00000
    175      -0.9137      2.00000
    176      -0.8945      2.00000
    177      -0.8944      2.00000
    178      -0.8745      2.00000
    179      -0.8718      2.00000
    180      -0.7746      2.00000
    181      -0.7621      2.00000
    182      -0.7617      2.00000
    183      -0.6912      2.00000
    184      -0.6413      2.00000
    185      -0.6401      2.00000
    186      -0.3894      2.00000
    187      -0.3882      2.00000
    188      -0.3223      2.00000
    189      -0.3014      2.00000
    190      -0.2960      2.00000
    191      -0.2959      2.00000
    192      -0.1631      2.00000
    193      -0.0188      2.00000
    194      -0.0187      2.00000
    195      -0.0084      2.00000
    196       0.1129      2.00000
    197       0.1647      2.00000
    198       0.1664      2.00000
    199       0.2342      2.00000
    200       0.2367      2.00000
    201       0.2381      2.00000
    202       0.2868      2.00000
    203       0.2888      2.00000
    204       0.4561      2.00000
    205       0.4568      2.00000
    206       0.4574      2.00000
    207       0.4982      2.00000
    208       0.5014      2.00000
    209       0.5111      2.00000
    210       0.5130      2.00000
    211       0.6062      2.00000
    212       0.7476      2.00000
    213       0.8910      2.00000
    214       0.9196      2.00000
    215       0.9347      2.00000
    216       0.9347      2.00000
    217       0.9673      2.00000
    218       1.0699      2.00000
    219       1.0699      2.00000
    220       1.0894      2.00000
    221       1.2437      2.00000
    222       1.2472      2.00000
    223       1.2592      2.00000
    224       1.4043      2.00000
    225       1.4071      2.00000
    226       1.4155      2.00000
    227       1.5175      2.00000
    228       1.6263      2.00000
    229       1.6271      2.00000
    230       1.6501      2.00000
    231       1.6512      2.00000
    232       1.7608      2.00000
    233       1.8364      2.00000
    234       1.8381      2.00000
    235       3.5512      0.00000
    236       3.6765      0.00000
    237       3.7824      0.00000
    238       3.7830      0.00000
    239       3.9740      0.00000
    240       3.9742      0.00000
    241       4.0097      0.00000
    242       4.0159      0.00000
    243       4.0323      0.00000
    244       4.0323      0.00000
    245       4.1737      0.00000
    246       4.1741      0.00000
    247       4.1785      0.00000
    248       4.1930      0.00000
    249       4.1936      0.00000
    250       4.2052      0.00000
    251       4.2054      0.00000
    252       4.2115      0.00000
    253       4.2539      0.00000
    254       4.2541      0.00000
    255       4.2597      0.00000
    256       4.2935      0.00000
    257       4.3513      0.00000
    258       4.3538      0.00000
    259       4.3926      0.00000
    260       4.4546      0.00000
    261       4.4549      0.00000
    262       4.4956      0.00000
    263       4.5133      0.00000
    264       4.5667      0.00000
    265       4.5826      0.00000
    266       4.6002      0.00000
    267       4.6006      0.00000
    268       4.6557      0.00000
    269       4.6562      0.00000
    270       4.6651      0.00000
    271       4.6660      0.00000
    272       4.7289      0.00000
    273       4.7405      0.00000
    274       4.7424      0.00000
    275       4.7448      0.00000
    276       4.7583      0.00000
    277       4.7605      0.00000
    278       4.8146      0.00000
    279       4.8148      0.00000
    280       5.0423      0.00000
    281       5.1889      0.00000
    282       5.1890      0.00000
    283       5.2469      0.00000
    284       5.2475      0.00000
    285       5.2586      0.00000
    286       5.2611      0.00000

 k-point    12 :       0.4000   -0.4000    0.0000
  band No.  band energies     occupation 
      1     -72.4512      2.00000
      2     -72.4511      2.00000
      3     -72.4492      2.00000
      4     -72.4449      2.00000
      5     -72.4431      2.00000
      6     -72.4431      2.00000
      7     -72.4423      2.00000
      8     -72.4421      2.00000
      9     -72.4421      2.00000
     10     -58.6433      2.00000
     11     -58.6427      2.00000
     12     -58.6383      2.00000
     13     -58.6284      2.00000
     14     -58.6245      2.00000
     15     -58.6240      2.00000
     16     -58.6225      2.00000
     17     -58.6218      2.00000
     18     -58.6215      2.00000
     19     -36.8218      2.00000
     20     -36.8093      2.00000
     21     -36.8093      2.00000
     22     -36.7746      2.00000
     23     -36.7746      2.00000
     24     -36.7499      2.00000
     25     -36.6747      2.00000
     26     -36.6589      2.00000
     27     -36.6589      2.00000
     28     -36.6514      2.00000
     29     -36.6514      2.00000
     30     -36.6364      2.00000
     31     -36.6353      2.00000
     32     -36.6353      2.00000
     33     -36.6323      2.00000
     34     -36.6264      2.00000
     35     -36.6264      2.00000
     36     -36.6185      2.00000
     37     -36.6015      2.00000
     38     -36.5958      2.00000
     39     -36.5945      2.00000
     40     -36.5945      2.00000
     41     -36.5913      2.00000
     42     -36.5904      2.00000
     43     -36.5904      2.00000
     44     -36.5814      2.00000
     45     -36.5814      2.00000
     46     -32.8985      2.00000
     47     -32.8845      2.00000
     48     -32.8841      2.00000
     49     -32.8457      2.00000
     50     -32.8452      2.00000
     51     -32.8204      2.00000
     52     -32.8201      2.00000
     53     -32.8179      2.00000
     54     -32.8100      2.00000
     55     -32.7876      2.00000
     56     -32.7787      2.00000
     57     -32.7783      2.00000
     58     -32.7743      2.00000
     59     -32.7731      2.00000
     60     -32.7728      2.00000
     61     -32.7339      2.00000
     62     -32.7150      2.00000
     63     -32.7147      2.00000
     64     -32.7065      2.00000
     65     -32.7061      2.00000
     66     -32.6902      2.00000
     67     -32.6899      2.00000
     68     -32.6896      2.00000
     69     -32.6847      2.00000
     70     -32.6450      2.00000
     71     -32.6291      2.00000
     72     -32.6289      2.00000
     73     -12.4957      2.00000
     74     -12.4957      2.00000
     75     -12.2087      2.00000
     76     -11.8163      2.00000
     77     -11.8137      2.00000
     78     -11.5348      2.00000
     79     -11.5130      2.00000
     80     -11.1900      2.00000
     81     -11.1900      2.00000
     82     -11.1777      2.00000
     83     -11.1771      2.00000
     84     -11.0538      2.00000
     85     -11.0103      2.00000
     86     -10.9739      2.00000
     87     -10.9739      2.00000
     88     -10.9415      2.00000
     89     -10.9408      2.00000
     90     -10.8755      2.00000
     91     -10.8039      2.00000
     92     -10.7442      2.00000
     93     -10.6943      2.00000
     94     -10.6943      2.00000
     95     -10.6426      2.00000
     96     -10.6191      2.00000
     97     -10.6191      2.00000
     98     -10.4749      2.00000
     99     -10.4727      2.00000
    100     -10.4406      2.00000
    101     -10.2869      2.00000
    102     -10.2621      2.00000
    103     -10.2609      2.00000
    104     -10.2538      2.00000
    105     -10.2517      2.00000
    106     -10.1758      2.00000
    107     -10.1481      2.00000
    108     -10.1459      2.00000
    109      -4.6015      2.00000
    110      -4.3905      2.00000
    111      -4.3905      2.00000
    112      -4.0846      2.00000
    113      -4.0845      2.00000
    114      -3.9667      2.00000
    115      -3.9667      2.00000
    116      -3.8020      2.00000
    117      -3.7829      2.00000
    118      -3.6473      2.00000
    119      -3.4892      2.00000
    120      -3.4890      2.00000
    121      -3.4196      2.00000
    122      -3.4191      2.00000
    123      -3.3560      2.00000
    124      -3.2636      2.00000
    125      -3.2636      2.00000
    126      -2.9698      2.00000
    127      -2.9691      2.00000
    128      -2.9477      2.00000
    129      -2.9417      2.00000
    130      -2.9128      2.00000
    131      -2.9109      2.00000
    132      -2.8948      2.00000
    133      -2.8921      2.00000
    134      -2.7794      2.00000
    135      -2.7762      2.00000
    136      -2.6377      2.00000
    137      -2.6016      2.00000
    138      -2.6009      2.00000
    139      -2.5961      2.00000
    140      -2.5724      2.00000
    141      -2.5718      2.00000
    142      -2.5592      2.00000
    143      -2.3639      2.00000
    144      -2.3616      2.00000
    145      -2.3408      2.00000
    146      -2.3407      2.00000
    147      -1.9717      2.00000
    148      -1.9248      2.00000
    149      -1.9246      2.00000
    150      -1.8582      2.00000
    151      -1.8565      2.00000
    152      -1.8561      2.00000
    153      -1.8423      2.00000
    154      -1.7840      2.00000
    155      -1.6526      2.00000
    156      -1.5473      2.00000
    157      -1.5459      2.00000
    158      -1.4986      2.00000
    159      -1.4982      2.00000
    160      -1.4818      2.00000
    161      -1.4291      2.00000
    162      -1.4282      2.00000
    163      -1.4180      2.00000
    164      -1.3120      2.00000
    165      -1.3118      2.00000
    166      -1.3092      2.00000
    167      -1.0632      2.00000
    168      -1.0319      2.00000
    169      -1.0316      2.00000
    170      -0.9461      2.00000
    171      -0.9460      2.00000
    172      -0.9356      2.00000
    173      -0.9286      2.00000
    174      -0.9282      2.00000
    175      -0.9132      2.00000
    176      -0.8945      2.00000
    177      -0.8943      2.00000
    178      -0.8747      2.00000
    179      -0.8712      2.00000
    180      -0.7746      2.00000
    181      -0.7622      2.00000
    182      -0.7619      2.00000
    183      -0.6907      2.00000
    184      -0.6413      2.00000
    185      -0.6410      2.00000
    186      -0.3892      2.00000
    187      -0.3880      2.00000
    188      -0.3231      2.00000
    189      -0.3014      2.00000
    190      -0.2960      2.00000
    191      -0.2959      2.00000
    192      -0.1631      2.00000
    193      -0.0188      2.00000
    194      -0.0187      2.00000
    195      -0.0083      2.00000
    196       0.1121      2.00000
    197       0.1655      2.00000
    198       0.1666      2.00000
    199       0.2341      2.00000
    200       0.2367      2.00000
    201       0.2383      2.00000
    202       0.2864      2.00000
    203       0.2904      2.00000
    204       0.4561      2.00000
    205       0.4568      2.00000
    206       0.4576      2.00000
    207       0.4983      2.00000
    208       0.5010      2.00000
    209       0.5117      2.00000
    210       0.5128      2.00000
    211       0.6063      2.00000
    212       0.7475      2.00000
    213       0.8908      2.00000
    214       0.9195      2.00000
    215       0.9347      2.00000
    216       0.9347      2.00000
    217       0.9672      2.00000
    218       1.0699      2.00000
    219       1.0699      2.00000
    220       1.0894      2.00000
    221       1.2440      2.00000
    222       1.2469      2.00000
    223       1.2591      2.00000
    224       1.4047      2.00000
    225       1.4066      2.00000
    226       1.4160      2.00000
    227       1.5177      2.00000
    228       1.6262      2.00000
    229       1.6269      2.00000
    230       1.6498      2.00000
    231       1.6515      2.00000
    232       1.7607      2.00000
    233       1.8365      2.00000
    234       1.8380      2.00000
    235       3.5511      0.00000
    236       3.6763      0.00000
    237       3.7825      0.00000
    238       3.7830      0.00000
    239       3.9738      0.00000
    240       3.9741      0.00000
    241       4.0095      0.00000
    242       4.0159      0.00000
    243       4.0323      0.00000
    244       4.0323      0.00000
    245       4.1737      0.00000
    246       4.1744      0.00000
    247       4.1785      0.00000
    248       4.1930      0.00000
    249       4.1936      0.00000
    250       4.2048      0.00000
    251       4.2058      0.00000
    252       4.2113      0.00000
    253       4.2540      0.00000
    254       4.2541      0.00000
    255       4.2597      0.00000
    256       4.2933      0.00000
    257       4.3525      0.00000
    258       4.3536      0.00000
    259       4.3927      0.00000
    260       4.4546      0.00000
    261       4.4550      0.00000
    262       4.4952      0.00000
    263       4.5133      0.00000
    264       4.5666      0.00000
    265       4.5830      0.00000
    266       4.6000      0.00000
    267       4.6004      0.00000
    268       4.6558      0.00000
    269       4.6560      0.00000
    270       4.6654      0.00000
    271       4.6660      0.00000
    272       4.7289      0.00000
    273       4.7398      0.00000
    274       4.7423      0.00000
    275       4.7451      0.00000
    276       4.7590      0.00000
    277       4.7604      0.00000
    278       4.8145      0.00000
    279       4.8148      0.00000
    280       5.0426      0.00000
    281       5.1889      0.00000
    282       5.1890      0.00000
    283       5.2469      0.00000
    284       5.2474      0.00000
    285       5.2583      0.00000
    286       5.2608      0.00000

 k-point    13 :      -0.2000    0.4000    0.0000
  band No.  band energies     occupation 
      1     -72.4512      2.00000
      2     -72.4511      2.00000
      3     -72.4492      2.00000
      4     -72.4449      2.00000
      5     -72.4431      2.00000
      6     -72.4431      2.00000
      7     -72.4423      2.00000
      8     -72.4421      2.00000
      9     -72.4421      2.00000
     10     -58.6433      2.00000
     11     -58.6427      2.00000
     12     -58.6383      2.00000
     13     -58.6284      2.00000
     14     -58.6245      2.00000
     15     -58.6240      2.00000
     16     -58.6225      2.00000
     17     -58.6218      2.00000
     18     -58.6215      2.00000
     19     -36.8218      2.00000
     20     -36.8093      2.00000
     21     -36.8093      2.00000
     22     -36.7746      2.00000
     23     -36.7746      2.00000
     24     -36.7499      2.00000
     25     -36.6747      2.00000
     26     -36.6589      2.00000
     27     -36.6589      2.00000
     28     -36.6514      2.00000
     29     -36.6514      2.00000
     30     -36.6364      2.00000
     31     -36.6353      2.00000
     32     -36.6353      2.00000
     33     -36.6323      2.00000
     34     -36.6264      2.00000
     35     -36.6264      2.00000
     36     -36.6185      2.00000
     37     -36.6015      2.00000
     38     -36.5958      2.00000
     39     -36.5945      2.00000
     40     -36.5945      2.00000
     41     -36.5913      2.00000
     42     -36.5904      2.00000
     43     -36.5904      2.00000
     44     -36.5814      2.00000
     45     -36.5814      2.00000
     46     -32.8985      2.00000
     47     -32.8845      2.00000
     48     -32.8842      2.00000
     49     -32.8456      2.00000
     50     -32.8452      2.00000
     51     -32.8205      2.00000
     52     -32.8201      2.00000
     53     -32.8179      2.00000
     54     -32.8100      2.00000
     55     -32.7876      2.00000
     56     -32.7787      2.00000
     57     -32.7783      2.00000
     58     -32.7743      2.00000
     59     -32.7731      2.00000
     60     -32.7728      2.00000
     61     -32.7339      2.00000
     62     -32.7150      2.00000
     63     -32.7148      2.00000
     64     -32.7064      2.00000
     65     -32.7061      2.00000
     66     -32.6901      2.00000
     67     -32.6898      2.00000
     68     -32.6896      2.00000
     69     -32.6848      2.00000
     70     -32.6449      2.00000
     71     -32.6291      2.00000
     72     -32.6289      2.00000
     73     -12.4957      2.00000
     74     -12.4957      2.00000
     75     -12.2087      2.00000
     76     -11.8161      2.00000
     77     -11.8139      2.00000
     78     -11.5348      2.00000
     79     -11.5130      2.00000
     80     -11.1900      2.00000
     81     -11.1900      2.00000
     82     -11.1776      2.00000
     83     -11.1773      2.00000
     84     -11.0538      2.00000
     85     -11.0103      2.00000
     86     -10.9739      2.00000
     87     -10.9739      2.00000
     88     -10.9412      2.00000
     89     -10.9411      2.00000
     90     -10.8755      2.00000
     91     -10.8039      2.00000
     92     -10.7442      2.00000
     93     -10.6943      2.00000
     94     -10.6943      2.00000
     95     -10.6426      2.00000
     96     -10.6191      2.00000
     97     -10.6191      2.00000
     98     -10.4749      2.00000
     99     -10.4728      2.00000
    100     -10.4407      2.00000
    101     -10.2870      2.00000
    102     -10.2621      2.00000
    103     -10.2609      2.00000
    104     -10.2538      2.00000
    105     -10.2516      2.00000
    106     -10.1757      2.00000
    107     -10.1481      2.00000
    108     -10.1460      2.00000
    109      -4.6015      2.00000
    110      -4.3905      2.00000
    111      -4.3905      2.00000
    112      -4.0846      2.00000
    113      -4.0845      2.00000
    114      -3.9667      2.00000
    115      -3.9667      2.00000
    116      -3.8020      2.00000
    117      -3.7829      2.00000
    118      -3.6472      2.00000
    119      -3.4892      2.00000
    120      -3.4890      2.00000
    121      -3.4197      2.00000
    122      -3.4190      2.00000
    123      -3.3560      2.00000
    124      -3.2636      2.00000
    125      -3.2636      2.00000
    126      -2.9697      2.00000
    127      -2.9692      2.00000
    128      -2.9479      2.00000
    129      -2.9417      2.00000
    130      -2.9127      2.00000
    131      -2.9109      2.00000
    132      -2.8947      2.00000
    133      -2.8922      2.00000
    134      -2.7794      2.00000
    135      -2.7762      2.00000
    136      -2.6376      2.00000
    137      -2.6016      2.00000
    138      -2.6009      2.00000
    139      -2.5962      2.00000
    140      -2.5723      2.00000
    141      -2.5718      2.00000
    142      -2.5592      2.00000
    143      -2.3638      2.00000
    144      -2.3618      2.00000
    145      -2.3408      2.00000
    146      -2.3408      2.00000
    147      -1.9716      2.00000
    148      -1.9248      2.00000
    149      -1.9245      2.00000
    150      -1.8580      2.00000
    151      -1.8565      2.00000
    152      -1.8559      2.00000
    153      -1.8424      2.00000
    154      -1.7841      2.00000
    155      -1.6527      2.00000
    156      -1.5474      2.00000
    157      -1.5457      2.00000
    158      -1.4985      2.00000
    159      -1.4982      2.00000
    160      -1.4816      2.00000
    161      -1.4291      2.00000
    162      -1.4281      2.00000
    163      -1.4181      2.00000
    164      -1.3120      2.00000
    165      -1.3118      2.00000
    166      -1.3091      2.00000
    167      -1.0634      2.00000
    168      -1.0318      2.00000
    169      -1.0313      2.00000
    170      -0.9461      2.00000
    171      -0.9460      2.00000
    172      -0.9357      2.00000
    173      -0.9285      2.00000
    174      -0.9280      2.00000
    175      -0.9134      2.00000
    176      -0.8945      2.00000
    177      -0.8944      2.00000
    178      -0.8746      2.00000
    179      -0.8715      2.00000
    180      -0.7746      2.00000
    181      -0.7621      2.00000
    182      -0.7618      2.00000
    183      -0.6910      2.00000
    184      -0.6413      2.00000
    185      -0.6405      2.00000
    186      -0.3893      2.00000
    187      -0.3881      2.00000
    188      -0.3227      2.00000
    189      -0.3014      2.00000
    190      -0.2960      2.00000
    191      -0.2959      2.00000
    192      -0.1631      2.00000
    193      -0.0188      2.00000
    194      -0.0187      2.00000
    195      -0.0083      2.00000
    196       0.1125      2.00000
    197       0.1650      2.00000
    198       0.1666      2.00000
    199       0.2342      2.00000
    200       0.2367      2.00000
    201       0.2382      2.00000
    202       0.2867      2.00000
    203       0.2896      2.00000
    204       0.4561      2.00000
    205       0.4568      2.00000
    206       0.4575      2.00000
    207       0.4983      2.00000
    208       0.5012      2.00000
    209       0.5114      2.00000
    210       0.5129      2.00000
    211       0.6062      2.00000
    212       0.7475      2.00000
    213       0.8909      2.00000
    214       0.9195      2.00000
    215       0.9347      2.00000
    216       0.9347      2.00000
    217       0.9672      2.00000
    218       1.0699      2.00000
    219       1.0699      2.00000
    220       1.0894      2.00000
    221       1.2439      2.00000
    222       1.2470      2.00000
    223       1.2591      2.00000
    224       1.4045      2.00000
    225       1.4068      2.00000
    226       1.4158      2.00000
    227       1.5176      2.00000
    228       1.6263      2.00000
    229       1.6269      2.00000
    230       1.6500      2.00000
    231       1.6513      2.00000
    232       1.7607      2.00000
    233       1.8365      2.00000
    234       1.8380      2.00000
    235       3.5511      0.00000
    236       3.6764      0.00000
    237       3.7825      0.00000
    238       3.7830      0.00000
    239       3.9740      0.00000
    240       3.9741      0.00000
    241       4.0096      0.00000
    242       4.0159      0.00000
    243       4.0323      0.00000
    244       4.0323      0.00000
    245       4.1737      0.00000
    246       4.1742      0.00000
    247       4.1785      0.00000
    248       4.1931      0.00000
    249       4.1936      0.00000
    250       4.2050      0.00000
    251       4.2056      0.00000
    252       4.2114      0.00000
    253       4.2539      0.00000
    254       4.2541      0.00000
    255       4.2597      0.00000
    256       4.2934      0.00000
    257       4.3521      0.00000
    258       4.3535      0.00000
    259       4.3926      0.00000
    260       4.4546      0.00000
    261       4.4549      0.00000
    262       4.4954      0.00000
    263       4.5133      0.00000
    264       4.5666      0.00000
    265       4.5828      0.00000
    266       4.6001      0.00000
    267       4.6005      0.00000
    268       4.6557      0.00000
    269       4.6561      0.00000
    270       4.6651      0.00000
    271       4.6661      0.00000
    272       4.7289      0.00000
    273       4.7402      0.00000
    274       4.7424      0.00000
    275       4.7449      0.00000
    276       4.7587      0.00000
    277       4.7604      0.00000
    278       4.8145      0.00000
    279       4.8148      0.00000
    280       5.0424      0.00000
    281       5.1889      0.00000
    282       5.1890      0.00000
    283       5.2469      0.00000
    284       5.2474      0.00000
    285       5.2585      0.00000
    286       5.2609      0.00000


--------------------------------------------------------------------------------------------------------


 soft charge-density along one line, spin component           1
         0         1         2         3         4         5         6         7         8         9
 total charge-density along one line
 
 pseudopotential strength for first ion, spin component:           1
 -4.876  12.211   0.000  -0.000   0.000  -0.000   0.000  -0.000
 12.211   3.227  -0.000   0.000  -0.000   0.000  -0.000   0.000
  0.000  -0.000 -19.015   0.000   0.000   9.912  -0.000  -0.000
 -0.000   0.000   0.000 -19.019   0.000  -0.000   9.917  -0.000
  0.000  -0.000   0.000   0.000 -19.015  -0.000  -0.000   9.912
 -0.000   0.000   9.912  -0.000  -0.000   5.190   0.000   0.000
  0.000  -0.000  -0.000   9.917  -0.000   0.000   5.186   0.000
 -0.000   0.000  -0.000  -0.000   9.912   0.000   0.000   5.190
  0.000  -0.000   0.000  -0.000  -0.008  -0.000   0.000   0.004
  0.000  -0.000  -0.000   0.000  -0.000   0.000  -0.000   0.000
 -0.002   0.001  -0.000  -0.000  -0.000   0.000   0.000   0.000
  0.000  -0.000  -0.000   0.000  -0.000   0.000  -0.000   0.000
  0.000  -0.000  -0.008  -0.000   0.000   0.004   0.000  -0.000
  0.000  -0.000   0.000  -0.000  -0.008  -0.000   0.000   0.004
  0.000  -0.000  -0.000   0.000  -0.000   0.000  -0.000   0.000
 -0.002   0.001  -0.000  -0.001  -0.000   0.000   0.000   0.000
  0.000  -0.000  -0.000   0.000  -0.000   0.000  -0.000   0.000
  0.000  -0.000  -0.008  -0.000   0.000   0.004   0.000  -0.000
 total augmentation occupancy for first ion, spin component:           1
  1.996  -0.036   0.000   0.000   0.000  -0.000   0.000  -0.000  -0.000  -0.000  -0.004  -0.000  -0.000   0.000   0.000   0.003
 -0.036   1.135   0.000   0.000   0.000  -0.000   0.001  -0.000   0.002  -0.001  -0.138  -0.002   0.002  -0.002   0.001   0.224
  0.000   0.000   1.998   0.000  -0.000  -0.039   0.000   0.000   0.000   0.000   0.000  -0.000  -0.010  -0.000   0.000  -0.000
  0.000   0.000   0.000   1.999   0.000   0.000  -0.043  -0.000  -0.000   0.000   0.000   0.000  -0.000   0.000   0.000  -0.000
  0.000   0.000  -0.000   0.000   1.998   0.000  -0.000  -0.039  -0.010  -0.000   0.000   0.000   0.000   0.001   0.000  -0.000
 -0.000  -0.000  -0.039   0.000   0.000   0.090   0.000  -0.000   0.001  -0.001  -0.000  -0.000  -0.147  -0.001   0.001   0.000
  0.000   0.001   0.000  -0.043  -0.000   0.000   0.111   0.000  -0.000   0.000   0.001   0.001  -0.000   0.000  -0.000  -0.000
 -0.000  -0.000   0.000  -0.000  -0.039  -0.000   0.000   0.089  -0.146  -0.000  -0.001  -0.002   0.001   0.171   0.000   0.001
 -0.000   0.002   0.000  -0.000  -0.010   0.001  -0.000  -0.146   1.928   0.004   0.002   0.008  -0.003  -2.190  -0.004  -0.003
 -0.000  -0.001   0.000   0.000  -0.000  -0.001   0.000  -0.000   0.004   3.114  -0.001  -0.004   0.004  -0.004  -3.918   0.002
 -0.004  -0.138   0.000   0.000   0.000  -0.000   0.001  -0.001   0.002  -0.001   1.519  -0.001   0.001  -0.003   0.002  -1.678
 -0.000  -0.002  -0.000   0.000   0.000  -0.000   0.001  -0.002   0.008  -0.004  -0.001   3.108   0.005  -0.009   0.004   0.003
 -0.000   0.002  -0.010  -0.000   0.000  -0.147  -0.000   0.001  -0.003   0.004   0.001   0.005   1.930   0.003  -0.004  -0.002
  0.000  -0.002  -0.000   0.000   0.001  -0.001   0.000   0.171  -2.190  -0.004  -0.003  -0.009   0.003   3.256   0.005   0.003
  0.000   0.001   0.000   0.000   0.000   0.001  -0.000   0.000  -0.004  -3.918   0.002   0.004  -0.004   0.005   5.412  -0.002
  0.003   0.224  -0.000  -0.000  -0.000   0.000  -0.000   0.001  -0.003   0.002  -1.678   0.003  -0.002   0.003  -0.002   2.682
  0.000   0.003   0.000  -0.000   0.000   0.000  -0.001   0.002  -0.009   0.004   0.003  -3.910  -0.006   0.010  -0.005  -0.003
  0.000  -0.002   0.001   0.000  -0.000   0.172   0.000  -0.001   0.003  -0.004  -0.002  -0.006  -2.192  -0.003   0.004   0.002


------------------------ aborting loop because EDIFF is reached ----------------------------------------


    CHARGE:  cpu time      0.8379: real time      0.8401
    FORLOC:  cpu time      0.0341: real time      0.0342
    FORNL :  cpu time      4.5317: real time      4.5433
    STRESS:  cpu time     13.6700: real time     13.7066
    FORCOR:  cpu time      0.2191: real time      0.2197
    FORHAR:  cpu time      0.0787: real time      0.0789
    MIXING:  cpu time      0.0294: real time      0.0295
    OFIELD:  cpu time      0.0001: real time      0.0001

 ---------------------------------------------------------------------------------------------

         DFTD3 V3.0 Rev 1        
 DF pbe       
 parameters
 k1-k3        =   16.0000    1.3333   -4.0000
 Edisp (eV)  -20.73736

 E6    (eV) :   -11.6358
 E8    (eV) :    -9.1016
 % E8        : 43.89
    FORVDW:  cpu time      0.3397: real time      0.3405

  FORCE on cell =-STRESS in cart. coord.  units (eV):
  Direction    XX          YY          ZZ          XY          YZ          ZX
  --------------------------------------------------------------------------------------
  Alpha Z  1198.06821  1198.06821  1198.06821
  Ewald   67162.84237 67162.84380-91886.81487     0.49585    -0.00184    -0.37675
  Hartree 77571.12478 77571.12569-73201.75203     0.16732    -0.00044    -0.10631
  E(xc)   -1989.28077 -1989.28078 -1993.01510     0.00056    -0.00000    -0.00012
  Local  ************************156895.81227    -0.64692     0.00212     0.48591
  n-local  1792.86322  1792.86464  1886.09331     0.01463     0.00110    -0.02724
  augment   514.74644   514.74652   499.85901    -0.00037     0.00002     0.00103
  Kinetic  6582.37447  6582.37444  6616.07116    -0.01738     0.00002    -0.03395
  Fock        0.00000     0.00000     0.00000     0.00000     0.00000     0.00000
  vdW       -21.42426   -21.42426   -15.49490    -0.00012     0.00000     0.00009
  -------------------------------------------------------------------------------------
  Total     -19.53522   -19.53396    -1.17295     0.01357     0.00098    -0.05734
  in kB     -18.97113   -18.96991    -1.13908     0.01317     0.00096    -0.05568
  external pressure =      -13.03 kB  Pullay stress =        0.00 kB


 VOLUME and BASIS-vectors are now :
 -----------------------------------------------------------------------------
  energy-cutoff  :      520.00
  volume of cell :     1649.82
      direct lattice vectors                 reciprocal lattice vectors
     9.759724624  0.000000000  0.000000000     0.102461907 -0.059156410  0.000000000
     4.879862312  8.452169459  0.000000000     0.000000000  0.118312820  0.000000000
     0.000000000  0.000000000 20.000000000     0.000000000  0.000000000  0.050000000

  length of vectors
     9.759724624  9.759724624 20.000000000     0.118312820  0.118312820  0.050000000


 FORCES acting on ions
    electron-ion (+dipol)            ewald-force                    non-local-force                 convergence-correction
 -----------------------------------------------------------------------------------------------
   -.745E+00 -.256E+00 0.136E+04   0.752E+00 0.262E+00 -.136E+04   0.261E-02 0.288E-02 -.663E-02   0.353E-03 -.187E-03 -.253E-03
   0.946E+00 -.719E+00 0.136E+04   -.969E+00 0.730E+00 -.136E+04   -.202E-01 0.105E-01 -.202E-01   0.863E-04 -.399E-03 -.249E-03
   0.121E+00 -.153E-01 0.136E+04   -.121E+00 0.161E-01 -.136E+04   -.356E-03 -.517E-03 0.923E-02   -.436E-03 -.166E-03 -.258E-03
   -.300E+00 0.976E+00 0.136E+04   0.297E+00 -.993E+00 -.136E+04   -.214E-02 -.131E-01 -.124E-01   0.730E-04 -.178E-03 -.245E-03
   0.222E+00 0.148E+00 0.136E+04   -.224E+00 -.150E+00 -.136E+04   0.136E-02 0.815E-03 0.917E-02   0.324E-04 -.195E-03 -.246E-03
   -.291E-01 -.309E-02 0.136E+04   0.304E-01 0.328E-02 -.136E+04   -.105E-02 0.637E-03 0.763E-02   -.101E-03 0.238E-03 -.244E-03
   0.257E-02 0.682E-01 0.136E+04   -.241E-02 -.686E-01 -.136E+04   -.549E-03 -.627E-04 0.908E-02   -.141E-05 0.131E-03 -.257E-03
   -.343E-01 -.145E+00 0.136E+04   0.359E-01 0.147E+00 -.136E+04   -.577E-05 -.156E-02 0.804E-02   0.374E-03 0.305E-03 -.255E-03
   0.298E-01 -.531E-01 0.136E+04   -.304E-01 0.524E-01 -.136E+04   0.592E-03 0.372E-03 0.100E-01   -.371E-03 0.443E-03 -.251E-03
   -.558E+00 -.997E-03 0.119E+04   0.577E+00 0.108E-02 -.119E+04   0.275E-01 -.193E-03 0.247E+01   0.103E-03 -.148E-03 -.353E-03
   0.151E+00 -.389E-04 0.119E+04   -.152E+00 -.180E-10 -.120E+04   -.120E-02 -.809E-03 0.241E+01   -.822E-04 -.769E-04 -.285E-03
   0.148E+00 -.238E-03 0.119E+04   -.152E+00 -.147E-10 -.120E+04   -.197E-02 0.974E-03 0.241E+01   -.220E-04 -.896E-04 -.464E-03
   -.196E-02 0.892E-01 0.119E+04   0.208E-02 -.896E-01 -.120E+04   -.134E-02 -.110E-03 0.241E+01   0.762E-04 -.120E-03 -.518E-03
   0.284E-01 -.113E-03 0.119E+04   -.283E-01 0.531E-04 -.120E+04   0.992E-03 0.462E-03 0.241E+01   -.672E-04 0.955E-04 -.399E-03
   -.364E-02 -.862E-01 0.119E+04   0.283E-02 0.887E-01 -.120E+04   -.236E-03 0.936E-03 0.241E+01   -.933E-05 0.193E-03 -.436E-03
   -.395E-02 0.865E-01 0.119E+04   0.283E-02 -.887E-01 -.120E+04   -.197E-03 -.178E-02 0.241E+01   0.191E-03 0.533E-04 -.428E-03
   -.173E-02 -.892E-01 0.119E+04   0.208E-02 0.896E-01 -.120E+04   0.273E-03 -.233E-04 0.241E+01   0.487E-04 0.396E-04 -.156E-03
   0.288E-01 0.944E-04 0.119E+04   -.283E-01 -.531E-04 -.120E+04   -.979E-03 -.593E-03 0.241E+01   -.240E-03 0.546E-04 -.381E-03
   -.480E-01 0.343E-04 -.318E+02   0.489E-01 -.803E-11 0.343E+02   0.148E-05 -.307E-04 -.248E+01   0.104E-03 -.149E-03 -.401E-04
   0.728E-01 -.441E-03 -.320E+02   -.741E-01 -.208E-10 0.345E+02   -.445E-03 -.490E-02 -.248E+01   -.823E-04 -.740E-04 -.103E-03
   -.312E-01 -.263E-03 -.321E+02   0.325E-01 -.171E-10 0.345E+02   -.299E-04 -.664E-03 -.247E+01   -.228E-04 -.863E-04 0.758E-04
   0.208E-01 0.599E-01 -.320E+02   -.220E-01 -.609E-01 0.345E+02   -.357E-02 0.220E-02 -.248E+01   0.787E-04 -.123E-03 0.128E-03
   0.104E-01 -.692E-04 -.321E+02   -.102E-01 0.172E-04 0.345E+02   0.316E-02 0.192E-02 -.248E+01   -.666E-04 0.924E-04 0.589E-05
   -.306E-01 0.304E-01 -.321E+02   0.313E-01 -.315E-01 0.345E+02   0.140E-02 0.217E-02 -.248E+01   -.120E-04 0.191E-03 0.412E-04
   -.311E-01 -.300E-01 -.321E+02   0.313E-01 0.315E-01 0.345E+02   -.320E-03 -.200E-03 -.247E+01   0.192E-03 0.541E-04 0.368E-04
   0.216E-01 -.596E-01 -.320E+02   -.220E-01 0.609E-01 0.345E+02   0.263E-02 0.464E-03 -.248E+01   0.488E-04 0.393E-04 -.237E-03
   0.105E-01 0.522E-04 -.321E+02   -.102E-01 -.172E-04 0.345E+02   -.172E-02 -.957E-03 -.248E+01   -.241E-03 0.551E-04 -.116E-04
   -.271E-02 -.176E-04 -.136E+04   0.268E-02 -.258E-10 0.136E+04   -.108E-04 -.114E-04 -.463E-01   0.368E-04 0.272E-04 0.234E-03
   0.627E-02 -.372E-04 -.136E+04   -.621E-02 -.673E-10 0.136E+04   -.303E-04 -.640E-06 -.485E-01   -.213E-04 0.649E-04 0.212E-03
   -.357E-02 -.104E-04 -.136E+04   0.353E-02 -.513E-10 0.136E+04   0.461E-04 -.142E-04 -.462E-01   -.171E-04 0.284E-04 0.252E-03
   0.180E-02 0.544E-02 -.136E+04   -.181E-02 -.535E-02 0.136E+04   -.707E-05 -.253E-04 -.485E-01   0.449E-04 -.721E-04 0.232E-03
   0.130E-02 0.356E-04 -.136E+04   -.125E-02 0.182E-05 0.136E+04   -.101E-04 -.309E-05 -.485E-01   -.501E-04 -.466E-04 0.243E-03
   -.310E-02 0.319E-02 -.136E+04   0.306E-02 -.308E-02 0.136E+04   0.247E-04 -.560E-03 -.485E-01   0.689E-05 -.501E-04 0.224E-03
   -.309E-02 -.312E-02 -.136E+04   0.306E-02 0.308E-02 0.136E+04   0.154E-04 0.419E-04 -.462E-01   0.125E-04 -.125E-04 0.221E-03
   0.187E-02 -.545E-02 -.136E+04   -.181E-02 0.535E-02 0.136E+04   -.473E-03 0.304E-03 -.485E-01   -.207E-04 0.398E-04 0.213E-03
   0.123E-02 -.334E-04 -.136E+04   -.125E-02 -.182E-05 0.136E+04   0.473E-03 0.270E-03 -.484E-01   0.567E-05 0.217E-04 0.189E-03
   -.842E-02 -.330E-02 0.571E+02   0.841E-02 0.330E-02 -.620E+02   -.287E-04 -.133E-04 0.497E+01   0.220E-04 0.766E-05 0.812E-04
   0.532E-02 -.465E-02 0.571E+02   -.538E-02 0.465E-02 -.621E+02   -.878E-03 -.157E-03 0.497E+01   0.367E-05 0.246E-04 0.605E-04
   0.311E-02 -.119E-02 0.571E+02   -.304E-02 0.114E-02 -.620E+02   0.924E-03 -.821E-04 0.497E+01   -.254E-04 -.180E-05 0.861E-04
   -.272E-02 0.793E-02 0.571E+02   0.269E-02 -.795E-02 -.621E+02   -.571E-03 -.702E-03 0.497E+01   0.240E-04 -.214E-04 0.897E-04
   0.624E-02 0.398E-02 0.571E+02   -.628E-02 -.398E-02 -.620E+02   0.343E-04 0.768E-05 0.497E+01   -.209E-05 -.108E-04 0.870E-04
   -.353E-02 0.166E-02 0.571E+02   0.360E-02 -.171E-02 -.620E+02   0.543E-03 -.718E-03 0.497E+01   -.205E-04 0.334E-05 0.884E-04
   -.720E-03 0.223E-02 0.571E+02   0.673E-03 -.215E-02 -.620E+02   0.415E-03 0.830E-03 0.497E+01   -.743E-05 -.905E-05 0.983E-04
   -.656E-03 -.563E-02 0.571E+02   0.625E-03 0.570E-02 -.620E+02   -.336E-03 0.835E-03 0.497E+01   -.454E-05 -.108E-04 0.515E-04
   0.133E-02 -.102E-02 0.571E+02   -.130E-02 0.101E-02 -.620E+02   -.191E-04 -.144E-05 0.497E+01   0.120E-04 0.182E-04 0.404E-04
   -.582E-03 -.129E-03 -.122E+04   0.597E-03 0.125E-03 0.122E+04   -.309E-04 -.185E-04 -.496E+01   0.116E-04 0.183E-04 -.302E-03
   0.114E-03 -.311E-03 -.122E+04   -.137E-03 0.298E-03 0.122E+04   -.713E-03 -.511E-04 -.495E+01   -.510E-05 0.358E-04 -.305E-03
   0.462E-03 -.124E-03 -.122E+04   -.460E-03 0.727E-04 0.122E+04   0.744E-03 0.992E-05 -.495E+01   -.492E-05 0.137E-04 -.306E-03
   -.404E-03 0.421E-03 -.122E+04   0.380E-03 -.423E-03 0.122E+04   -.390E-03 -.594E-03 -.495E+01   0.200E-04 -.290E-04 -.302E-03
   0.495E-03 0.338E-03 -.122E+04   -.480E-03 -.327E-03 0.122E+04   -.188E-04 -.583E-05 -.495E+01   0.308E-05 -.688E-05 -.314E-03
   -.846E-04 0.230E-04 -.122E+04   0.100E-03 -.721E-05 0.122E+04   0.405E-03 -.632E-03 -.495E+01   -.227E-04 -.121E-04 -.288E-03
   -.535E-04 0.312E-03 -.122E+04   0.197E-04 -.277E-03 0.122E+04   0.379E-03 0.632E-03 -.495E+01   -.111E-05 -.889E-05 -.298E-03
   -.830E-04 -.328E-03 -.122E+04   0.870E-04 0.335E-03 0.122E+04   -.336E-03 0.673E-03 -.495E+01   -.116E-04 -.205E-04 -.287E-03
   0.135E-03 -.192E-03 -.122E+04   -.107E-03 0.204E-03 0.122E+04   -.429E-04 -.183E-04 -.495E+01   0.116E-04 0.601E-05 -.285E-03
 -----------------------------------------------------------------------------------------------
   -.609E-02 0.399E-05 0.868E+00   0.680E-13 -.200E-12 -.500E-11   0.432E-02 -.117E-02 -.862E+00   0.587E-05 -.828E-05 -.577E-02
 
 
 POSITION                                       TOTAL-FORCE (eV/Angst)
 -----------------------------------------------------------------------------------
      0.00000      0.00000     10.13660         0.009738      0.008638     -0.029050
      3.25324      0.00000     10.13660        -0.042636      0.021878     -0.051862
      6.50648      0.00000     10.13660        -0.000660      0.000088     -0.002566
      1.62662      2.81739     10.13660        -0.004985     -0.030262     -0.039552
      4.87986      2.81739     10.13660        -0.000903     -0.001555     -0.003117
      8.13310      2.81739     10.13660         0.000189      0.001086     -0.003013
      3.25324      5.63478     10.13660        -0.000356     -0.000327     -0.002718
      6.50648      5.63478     10.13660         0.001929      0.000480     -0.003433
      9.75972      5.63478     10.13660        -0.000276      0.000071     -0.001750
      1.62224      0.93913      8.44059         0.045860     -0.000233      0.114345
      4.87986      0.93913      8.44958        -0.002838     -0.000903      0.002420
      8.13310      0.93913      8.44958        -0.005995      0.000669      0.003609
      3.25324      3.75652      8.44958        -0.001127     -0.000600      0.002621
      6.50648      3.75652      8.44958         0.001070      0.000519     -0.000332
      9.75972      3.75652      8.44958        -0.001042      0.003672      0.002280
      4.87986      6.57391      8.44958        -0.001118     -0.003969      0.003375
      8.13310      6.57391      8.44958         0.000678      0.000452      0.001843
     11.38635      6.57391      8.44958        -0.000652     -0.000475     -0.001137
      1.62662      0.93913     11.82231         0.001074     -0.000123     -0.005261
      4.87986      0.93913     11.82231        -0.001730     -0.005397      0.002568
      8.13310      0.93913     11.82231         0.001254     -0.000991      0.006290
      3.25324      3.75652     11.82231        -0.004651      0.001229      0.003358
      6.50648      3.75652     11.82231         0.003276      0.001978      0.004540
      9.75972      3.75652     11.82231         0.002160      0.001325      0.000193
      4.87986      6.57391     11.82231         0.000114      0.001300      0.006416
      8.13310      6.57391     11.82231         0.002302      0.001710     -0.000470
     11.38635      6.57391     11.82231        -0.001623     -0.000846      0.001599
      1.62662      0.93913     16.36364         0.000028      0.000020     -0.005215
      4.87986      0.93913     16.36364         0.000043      0.000049     -0.007532
      8.13310      0.93913     16.36364         0.000020      0.000026     -0.005262
      3.25324      3.75652     16.36364         0.000062      0.000011     -0.007546
      6.50648      3.75652     16.36364         0.000023      0.000009     -0.007570
      9.75972      3.75652     16.36364         0.000022     -0.000475     -0.007514
      4.87986      6.57391     16.36364         0.000036      0.000014     -0.005274
      8.13310      6.57391     16.36364        -0.000403      0.000263     -0.007511
     11.38635      6.57391     16.36364         0.000485      0.000278     -0.007529
      0.00000      0.00000     14.82098         0.000011      0.000009      0.006871
      3.25324      0.00000     14.82098        -0.000891     -0.000107      0.005052
      6.50648      0.00000     14.82098         0.001000     -0.000118      0.005065
      1.62662      2.81739     14.82098        -0.000540     -0.000718      0.005040
      4.87986      2.81739     14.82098         0.000031      0.000017      0.003417
      8.13310      2.81739     14.82098         0.000616     -0.000750      0.005062
      3.25324      5.63478     14.82098         0.000393      0.000922      0.005059
      6.50648      5.63478     14.82098        -0.000339      0.000910      0.005077
      9.75972      5.63478     14.82098         0.000062      0.000031      0.003578
      0.00000      0.00000     17.90688         0.000028      0.000018     -0.000966
      3.25324      0.00000     17.90688        -0.000708     -0.000006      0.000781
      6.50648      0.00000     17.90688         0.000772     -0.000006      0.000791
      1.62662      2.81739     17.90688        -0.000361     -0.000603      0.000780
      4.87986      2.81739     17.90688         0.000032      0.000020      0.000873
      8.13310      2.81739     17.90688         0.000431     -0.000607      0.000799
      3.25324      5.63478     17.90688         0.000377      0.000679      0.000794
      6.50648      5.63478     17.90688        -0.000311      0.000681      0.000802
      9.75972      5.63478     17.90688         0.000029      0.000021      0.000880
 -----------------------------------------------------------------------------------
    total drift:                               -0.001763     -0.001172      0.000421


--------------------------------------------------------------------------------------------------------



  FREE ENERGIE OF THE ION-ELECTRON SYSTEM (eV)
  ---------------------------------------------------
  free  energy   TOTEN  =      -412.39913811 eV

  energy  without entropy=     -412.39913811  energy(sigma->0) =     -412.39913811
 


--------------------------------------------------------------------------------------------------------


    POTLOK:  cpu time      0.2334: real time      0.2340


--------------------------------------------------------------------------------------------------------


     LOOP+:  cpu time    443.7288: real time    446.4429
    4ORBIT:  cpu time      0.0000: real time      0.0000

 total amount of memory used by VASP MPI-rank0   147274. kBytes
=======================================================================

   base                                    :      30000. kBytes
   nonlr-proj                              :      18792. kBytes
   fftplans                                :      13412. kBytes
   grid                                    :      23521. kBytes
   one-center                              :        217. kBytes
   wavefun                                 :      61332. kBytes
 
  
  
 General timing and accounting informations for this job:
 ========================================================
  
                  Total CPU time used (sec):      450.848
                            User time (sec):      443.983
                          System time (sec):        6.865
                         Elapsed time (sec):      454.760
  
                   Maximum memory used (kb):      433228.
                   Average memory used (kb):          N/A
  
                          Minor page faults:        77706
                          Major page faults:           66
                 Voluntary context switches:         1853
