MoS2_bilayer_3R relaxation              
           1
     3.192238    0.000000    0.000000
     1.596119    2.764559    0.000000
     0.000000    0.000000   20.000000
   Mo   S 
     2     4
Direct configuration=     1
   0.00000000  0.00000000  0.50000000
   0.33333333  0.33333333  0.82500000
   0.33333333  0.33333333  0.42229739
   0.33333333  0.33333333  0.57770261
   0.66666667  0.66666667  0.74729739
   0.66666667  0.66666667  0.90270261
Direct configuration=     2
   0.00000000 -0.00000000  0.50011701
   0.33333333  0.33333333  0.82489943
   0.33333333  0.33333333  0.42231372
   0.33333333  0.33333333  0.57784970
   0.66666667  0.66666667  0.74714042
   0.66666667  0.66666667  0.90267971
Direct configuration=     3
   0.00000000  0.00000000  0.50017752
   0.33333333  0.33333333  0.82481714
   0.33333333  0.33333333  0.42241096
   0.33333333  0.33333333  0.57795640
   0.66666667  0.66666667  0.74704425
   0.66666667  0.66666667  0.90259373
Direct configuration=     4
   0.00000000  0.00000000  0.50023629
   0.33333333  0.33333333  0.82476899
   0.33333333  0.33333333  0.42245061
   0.33333333  0.33333333  0.57799731
   0.66666667  0.66666667  0.74699700
   0.66666667  0.66666667  0.90254979
Direct configuration=     5
   0.00000000  0.00000000  0.50035925
   0.33333333  0.33333333  0.82464386
   0.33333333  0.33333333  0.42257929
   0.33333333  0.33333333  0.57811533
   0.66666667  0.66666667  0.74687032
   0.66666667  0.66666667  0.90243196
Direct configuration=     6
   0.00000000  0.00000000  0.50038727
   0.33333333  0.33333333  0.82461614
   0.33333333  0.33333333  0.42260682
   0.33333333  0.33333333  0.57814373
   0.66666667  0.66666667  0.74684272
   0.66666667  0.66666667  0.90240332
Direct configuration=     7
  -0.00000000 -0.00000000  0.50183986
   0.33333333  0.33333333  0.82316133
   0.33333333  0.33333333  0.42394472
   0.33333333  0.33333333  0.57957468
   0.66666667  0.66666667  0.74546232
   0.66666667  0.66666667  0.90101708
Direct configuration=     8
  -0.00000000 -0.00000000  0.50318961
   0.33333333  0.33333333  0.82180795
   0.33333333  0.33333333  0.42531669
   0.33333333  0.33333333  0.58097842
   0.66666667  0.66666667  0.74408821
   0.66666667  0.66666667  0.89961913
Direct configuration=     9
  -0.00000000 -0.00000000  0.50373475
   0.33333333  0.33333333  0.82128349
   0.33333333  0.33333333  0.42596704
   0.33333333  0.33333333  0.58146028
   0.66666667  0.66666667  0.74351625
   0.66666667  0.66666667  0.89903819
Direct configuration=    10
  -0.00000000 -0.00000000  0.50381792
   0.33333333  0.33333333  0.82118174
   0.33333333  0.33333333  0.42603541
   0.33333333  0.33333333  0.58151825
   0.66666667  0.66666667  0.74347196
   0.66666667  0.66666667  0.89897472
Direct configuration=    11
  -0.00000000 -0.00000000  0.50399804
   0.33333333  0.33333333  0.82101398
   0.33333333  0.33333333  0.42622362
   0.33333333  0.33333333  0.58169708
   0.66666667  0.66666667  0.74328577
   0.66666667  0.66666667  0.89878151
Direct configuration=    12
  -0.00000000 -0.00000000  0.50387581
   0.33333333  0.33333333  0.82114417
   0.33333333  0.33333333  0.42610901
   0.33333333  0.33333333  0.58158812
   0.66666667  0.66666667  0.74339125
   0.66666667  0.66666667  0.89889164
Direct configuration=    13
  -0.00000000 -0.00000000  0.50401247
   0.33333333  0.33333333  0.82098949
   0.33333333  0.33333333  0.42623911
   0.33333333  0.33333333  0.58171830
   0.66666667  0.66666667  0.74326488
   0.66666667  0.66666667  0.89877575
Direct configuration=    14
  -0.00000000 -0.00000000  0.50401671
   0.33333333  0.33333333  0.82098969
   0.33333333  0.33333333  0.42624212
   0.33333333  0.33333333  0.58171952
   0.66666667  0.66666667  0.74326021
   0.66666667  0.66666667  0.89877175
Direct configuration=    15
  -0.00000000 -0.00000000  0.50402107
   0.33333333  0.33333333  0.82098271
   0.33333333  0.33333333  0.42624892
   0.33333333  0.33333333  0.58172811
   0.66666667  0.66666667  0.74325409
   0.66666667  0.66666667  0.89876511
Direct configuration=    16
  -0.00000000 -0.00000000  0.50382994
   0.33333333  0.33333333  0.82117097
   0.33333333  0.33333333  0.42611742
   0.33333333  0.33333333  0.58147957
   0.66666667  0.66666667  0.74344349
   0.66666667  0.66666667  0.89895861
Direct configuration=    17
  -0.00000000 -0.00000000  0.50224905
   0.33333333  0.33333333  0.82283858
   0.33333333  0.33333333  0.42466838
   0.33333333  0.33333333  0.57952283
   0.66666667  0.66666667  0.74507668
   0.66666667  0.66666667  0.90064448
Direct configuration=    18
  -0.00000000 -0.00000000  0.50418294
   0.33333333  0.33333333  0.82084726
   0.33333333  0.33333333  0.42639315
   0.33333333  0.33333333  0.58186688
   0.66666667  0.66666667  0.74310038
   0.66666667  0.66666667  0.89860938
Direct configuration=    19
  -0.00000000 -0.00000000  0.50436421
   0.33333333  0.33333333  0.82062458
   0.33333333  0.33333333  0.42661077
   0.33333333  0.33333333  0.58210019
   0.66666667  0.66666667  0.74288949
   0.66666667  0.66666667  0.89841075
Direct configuration=    20
  -0.00000000 -0.00000000  0.50441191
   0.33333333  0.33333333  0.82060393
   0.33333333  0.33333333  0.42662243
   0.33333333  0.33333333  0.58211309
   0.66666667  0.66666667  0.74286611
   0.66666667  0.66666667  0.89838254
Direct configuration=    21
  -0.00000000 -0.00000000  0.50492649
   0.33333333  0.33333333  0.82010222
   0.33333333  0.33333333  0.42712830
   0.33333333  0.33333333  0.58262484
   0.66666667  0.66666667  0.74237761
   0.66666667  0.66666667  0.89784054
Direct configuration=    22
   0.00000000 -0.00000000  0.51180949
   0.33333333  0.33333333  0.81323529
   0.33333333  0.33333333  0.43391036
   0.33333333  0.33333333  0.58945397
   0.66666667  0.66666667  0.73577119
   0.66666667  0.66666667  0.89081971
Direct configuration=    23
  -0.00000000 -0.00000000  0.50726164
   0.33333333  0.33333333  0.81773933
   0.33333333  0.33333333  0.42951611
   0.33333333  0.33333333  0.58494665
   0.66666667  0.66666667  0.74006433
   0.66666667  0.66666667  0.89547193
Direct configuration=    24
  -0.00000000 -0.00000000  0.50855830
   0.33333333  0.33333333  0.81647141
   0.33333333  0.33333333  0.43079325
   0.33333333  0.33333333  0.58619201
   0.66666667  0.66666667  0.73879982
   0.66666667  0.66666667  0.89418521
Direct configuration=    25
  -0.00000000 -0.00000000  0.50926726
   0.33333333  0.33333333  0.81572697
   0.33333333  0.33333333  0.43153571
   0.33333333  0.33333333  0.58690949
   0.66666667  0.66666667  0.73810597
   0.66666667  0.66666667  0.89345461
Direct configuration=    26
  -0.00000000 -0.00000000  0.50912819
   0.33333333  0.33333333  0.81591479
   0.33333333  0.33333333  0.43136170
   0.33333333  0.33333333  0.58673053
   0.66666667  0.66666667  0.73824603
   0.66666667  0.66666667  0.89361876
Direct configuration=    27
  -0.00000000 -0.00000000  0.50923295
   0.33333333  0.33333333  0.81579246
   0.33333333  0.33333333  0.43148344
   0.33333333  0.33333333  0.58685057
   0.66666667  0.66666667  0.73813543
   0.66666667  0.66666667  0.89350515
Direct configuration=    28
  -0.00000000 -0.00000000  0.50922341
   0.33333333  0.33333333  0.81580193
   0.33333333  0.33333333  0.43147498
   0.33333333  0.33333333  0.58684246
   0.66666667  0.66666667  0.73814404
   0.66666667  0.66666667  0.89351318
Direct configuration=    29
  -0.00000000 -0.00000000  0.50907370
   0.33333333  0.33333333  0.81593719
   0.33333333  0.33333333  0.43132776
   0.33333333  0.33333333  0.58669078
   0.66666667  0.66666667  0.73832078
   0.66666667  0.66666667  0.89364979
Direct configuration=    30
  -0.00000000 -0.00000000  0.50818252
   0.33333333  0.33333333  0.81684765
   0.33333333  0.33333333  0.43044548
   0.33333333  0.33333333  0.58583809
   0.66666667  0.66666667  0.73925032
   0.66666667  0.66666667  0.89443593
Direct configuration=    31
  -0.00000000 -0.00000000  0.50943082
   0.33333333  0.33333333  0.81559958
   0.33333333  0.33333333  0.43168005
   0.33333333  0.33333333  0.58703964
   0.66666667  0.66666667  0.73794067
   0.66666667  0.66666667  0.89330924
Direct configuration=    32
  -0.00000000 -0.00000000  0.50971369
   0.33333333  0.33333333  0.81530246
   0.33333333  0.33333333  0.43198750
   0.33333333  0.33333333  0.58731396
   0.66666667  0.66666667  0.73765376
   0.66666667  0.66666667  0.89302864
Direct configuration=    33
  -0.00000000 -0.00000000  0.50997217
   0.33333333  0.33333333  0.81506040
   0.33333333  0.33333333  0.43223672
   0.33333333  0.33333333  0.58756826
   0.66666667  0.66666667  0.73739445
   0.66666667  0.66666667  0.89276800
Direct configuration=    34
  -0.00000000 -0.00000000  0.50995456
   0.33333333  0.33333333  0.81505590
   0.33333333  0.33333333  0.43222805
   0.33333333  0.33333333  0.58755418
   0.66666667  0.66666667  0.73742363
   0.66666667  0.66666667  0.89278368
Direct configuration=    35
  -0.00000000 -0.00000000  0.51000157
   0.33333333  0.33333333  0.81501386
   0.33333333  0.33333333  0.43227273
   0.33333333  0.33333333  0.58759652
   0.66666667  0.66666667  0.73737937
   0.66666667  0.66666667  0.89273595
Direct configuration=    36
  -0.00000000 -0.00000000  0.51018128
   0.33333333  0.33333333  0.81483753
   0.33333333  0.33333333  0.43243940
   0.33333333  0.33333333  0.58776447
   0.66666667  0.66666667  0.73720233
   0.66666667  0.66666667  0.89257499
Direct configuration=    37
   0.00000000 -0.00000000  0.51073508
   0.33333333  0.33333333  0.81428429
   0.33333333  0.33333333  0.43299510
   0.33333333  0.33333333  0.58830451
   0.66666667  0.66666667  0.73664796
   0.66666667  0.66666667  0.89203305
Direct configuration=    38
   0.00000000 -0.00000000  0.51075663
   0.33333333  0.33333333  0.81427063
   0.33333333  0.33333333  0.43304810
   0.33333333  0.33333333  0.58834141
   0.66666667  0.66666667  0.73662279
   0.66666667  0.66666667  0.89196045
Direct configuration=    39
   0.00000000 -0.00000000  0.51077738
   0.33333333  0.33333333  0.81424505
   0.33333333  0.33333333  0.43305084
   0.33333333  0.33333333  0.58834470
   0.66666667  0.66666667  0.73662257
   0.66666667  0.66666667  0.89195945
Direct configuration=    40
   0.00000000 -0.00000000  0.51081106
   0.33333333  0.33333333  0.81421251
   0.33333333  0.33333333  0.43308657
   0.33333333  0.33333333  0.58838001
   0.66666667  0.66666667  0.73658784
   0.66666667  0.66666667  0.89192201
Direct configuration=    41
  -0.00000000 -0.00000000  0.51147736
   0.33333333  0.33333333  0.81355627
   0.33333333  0.33333333  0.43372825
   0.33333333  0.33333333  0.58899480
   0.66666667  0.66666667  0.73596323
   0.66666667  0.66666667  0.89128009
Direct configuration=    42
  -0.00000000 -0.00000000  0.51174576
   0.33333333  0.33333333  0.81327032
   0.33333333  0.33333333  0.43401478
   0.33333333  0.33333333  0.58930064
   0.66666667  0.66666667  0.73569195
   0.66666667  0.66666667  0.89097656
Direct configuration=    43
  -0.00000000 -0.00000000  0.51178318
   0.33333333  0.33333333  0.81326617
   0.33333333  0.33333333  0.43404954
   0.33333333  0.33333333  0.58932907
   0.66666667  0.66666667  0.73564633
   0.66666667  0.66666667  0.89092571
Direct configuration=    44
  -0.00000000 -0.00000000  0.51178725
   0.33333333  0.33333333  0.81324407
   0.33333333  0.33333333  0.43405507
   0.33333333  0.33333333  0.58933430
   0.66666667  0.66666667  0.73564992
   0.66666667  0.66666667  0.89092938
Direct configuration=    45
  -0.00000000 -0.00000000  0.51180062
   0.33333333  0.33333333  0.81322992
   0.33333333  0.33333333  0.43407038
   0.33333333  0.33333333  0.58934852
   0.66666667  0.66666667  0.73563589
   0.66666667  0.66666667  0.89091467
Direct configuration=    46
  -0.00000000 -0.00000000  0.51179772
   0.33333333  0.33333333  0.81323236
   0.33333333  0.33333333  0.43406815
   0.33333333  0.33333333  0.58934636
   0.66666667  0.66666667  0.73563855
   0.66666667  0.66666667  0.89091685
Direct configuration=    47
  -0.00000000 -0.00000000  0.51178827
   0.33333333  0.33333333  0.81324138
   0.33333333  0.33333333  0.43405631
   0.33333333  0.33333333  0.58933663
   0.66666667  0.66666667  0.73563966
   0.66666667  0.66666667  0.89093775
Direct configuration=    48
  -0.00000000 -0.00000000  0.51181476
   0.33333333  0.33333333  0.81321842
   0.33333333  0.33333333  0.43408185
   0.33333333  0.33333333  0.58935941
   0.66666667  0.66666667  0.73562366
   0.66666667  0.66666667  0.89090191
Direct configuration=    49
  -0.00000000 -0.00000000  0.51185882
   0.33333333  0.33333333  0.81316661
   0.33333333  0.33333333  0.43412780
   0.33333333  0.33333333  0.58940489
   0.66666667  0.66666667  0.73557551
   0.66666667  0.66666667  0.89086636
Direct configuration=    50
  -0.00000000 -0.00000000  0.51182916
   0.33333333  0.33333333  0.81320154
   0.33333333  0.33333333  0.43409645
   0.33333333  0.33333333  0.58937374
   0.66666667  0.66666667  0.73560874
   0.66666667  0.66666667  0.89089036
Direct configuration=    51
  -0.00000000 -0.00000000  0.51184159
   0.33333333  0.33333333  0.81318990
   0.33333333  0.33333333  0.43411138
   0.33333333  0.33333333  0.58939472
   0.66666667  0.66666667  0.73559116
   0.66666667  0.66666667  0.89087125
Direct configuration=    52
  -0.00000000 -0.00000000  0.51185698
   0.33333333  0.33333333  0.81317658
   0.33333333  0.33333333  0.43412076
   0.33333333  0.33333333  0.58940417
   0.66666667  0.66666667  0.73558233
   0.66666667  0.66666667  0.89085917
Direct configuration=    53
  -0.00000000 -0.00000000  0.51182360
   0.33333333  0.33333333  0.81320649
   0.33333333  0.33333333  0.43409020
   0.33333333  0.33333333  0.58937402
   0.66666667  0.66666667  0.73561611
   0.66666667  0.66666667  0.89088959
Direct configuration=    54
  -0.00000000 -0.00000000  0.51191303
   0.33333333  0.33333333  0.81311985
   0.33333333  0.33333333  0.43417178
   0.33333333  0.33333333  0.58945416
   0.66666667  0.66666667  0.73552696
   0.66666667  0.66666667  0.89081423
Direct configuration=    55
  -0.00000000 -0.00000000  0.51220842
   0.33333333  0.33333333  0.81282541
   0.33333333  0.33333333  0.43446485
   0.33333333  0.33333333  0.58973728
   0.66666667  0.66666667  0.73522307
   0.66666667  0.66666667  0.89054097
Direct configuration=    56
  -0.00000000 -0.00000000  0.51196286
   0.33333333  0.33333333  0.81307156
   0.33333333  0.33333333  0.43423647
   0.33333333  0.33333333  0.58951246
   0.66666667  0.66666667  0.73547008
   0.66666667  0.66666667  0.89074657
Direct configuration=    57
  -0.00000000 -0.00000000  0.51208547
   0.33333333  0.33333333  0.81294677
   0.33333333  0.33333333  0.43435634
   0.33333333  0.33333333  0.58961713
   0.66666667  0.66666667  0.73536235
   0.66666667  0.66666667  0.89063193
Direct configuration=    58
  -0.00000000 -0.00000000  0.51210343
   0.33333333  0.33333333  0.81292984
   0.33333333  0.33333333  0.43438053
   0.33333333  0.33333333  0.58963961
   0.66666667  0.66666667  0.73534066
   0.66666667  0.66666667  0.89060593
Direct configuration=    59
  -0.00000000 -0.00000000  0.51227250
   0.33333333  0.33333333  0.81276645
   0.33333333  0.33333333  0.43455065
   0.33333333  0.33333333  0.58979710
   0.66666667  0.66666667  0.73518973
   0.66666667  0.66666667  0.89042358
Direct configuration=    60
  -0.00000000 -0.00000000  0.51218274
   0.33333333  0.33333333  0.81284764
   0.33333333  0.33333333  0.43446039
   0.33333333  0.33333333  0.58971160
   0.66666667  0.66666667  0.73526799
   0.66666667  0.66666667  0.89052963
Direct configuration=    61
  -0.00000000 -0.00000000  0.51222594
   0.33333333  0.33333333  0.81280821
   0.33333333  0.33333333  0.43450452
   0.33333333  0.33333333  0.58975092
   0.66666667  0.66666667  0.73522520
   0.66666667  0.66666667  0.89048520
Direct configuration=    62
  -0.00000000 -0.00000000  0.51226142
   0.33333333  0.33333333  0.81277088
   0.33333333  0.33333333  0.43453772
   0.33333333  0.33333333  0.58978457
   0.66666667  0.66666667  0.73519333
   0.66666667  0.66666667  0.89045208
Direct configuration=    63
  -0.00000000 -0.00000000  0.51231965
   0.33333333  0.33333333  0.81271088
   0.33333333  0.33333333  0.43460418
   0.33333333  0.33333333  0.58984346
   0.66666667  0.66666667  0.73513288
   0.66666667  0.66666667  0.89038896
Direct configuration=    64
  -0.00000000 -0.00000000  0.51230857
   0.33333333  0.33333333  0.81272990
   0.33333333  0.33333333  0.43458700
   0.33333333  0.33333333  0.58982724
   0.66666667  0.66666667  0.73514250
   0.66666667  0.66666667  0.89040479
Direct configuration=    65
  -0.00000000 -0.00000000  0.51232068
   0.33333333  0.33333333  0.81271572
   0.33333333  0.33333333  0.43460019
   0.33333333  0.33333333  0.58983958
   0.66666667  0.66666667  0.73512997
   0.66666667  0.66666667  0.89039386
Direct configuration=    66
  -0.00000000 -0.00000000  0.51234620
   0.33333333  0.33333333  0.81269089
   0.33333333  0.33333333  0.43462425
   0.33333333  0.33333333  0.58986361
   0.66666667  0.66666667  0.73510524
   0.66666667  0.66666667  0.89036981
Direct configuration=    67
  -0.00000000 -0.00000000  0.51236985
   0.33333333  0.33333333  0.81266554
   0.33333333  0.33333333  0.43464800
   0.33333333  0.33333333  0.58989008
   0.66666667  0.66666667  0.73508133
   0.66666667  0.66666667  0.89034521
Direct configuration=    68
  -0.00000000 -0.00000000  0.51231943
   0.33333333  0.33333333  0.81271373
   0.33333333  0.33333333  0.43460438
   0.33333333  0.33333333  0.58983664
   0.66666667  0.66666667  0.73513066
   0.66666667  0.66666667  0.89039516
Direct configuration=    69
  -0.00000000 -0.00000000  0.51231212
   0.33333333  0.33333333  0.81272240
   0.33333333  0.33333333  0.43459732
   0.33333333  0.33333333  0.58982771
   0.66666667  0.66666667  0.73513790
   0.66666667  0.66666667  0.89040255
Direct configuration=    70
  -0.00000000 -0.00000000  0.51231477
   0.33333333  0.33333333  0.81272036
   0.33333333  0.33333333  0.43459825
   0.33333333  0.33333333  0.58983714
   0.66666667  0.66666667  0.73513267
   0.66666667  0.66666667  0.89039682
Direct configuration=    71
  -0.00000000 -0.00000000  0.51232055
   0.33333333  0.33333333  0.81271406
   0.33333333  0.33333333  0.43460092
   0.33333333  0.33333333  0.58983949
   0.66666667  0.66666667  0.73513043
   0.66666667  0.66666667  0.89039455
Direct configuration=    72
  -0.00000000 -0.00000000  0.51231508
   0.33333333  0.33333333  0.81271773
   0.33333333  0.33333333  0.43459824
   0.33333333  0.33333333  0.58983797
   0.66666667  0.66666667  0.73513308
   0.66666667  0.66666667  0.89039791
Direct configuration=    73
  -0.00000000 -0.00000000  0.51232468
   0.33333333  0.33333333  0.81270767
   0.33333333  0.33333333  0.43460877
   0.33333333  0.33333333  0.58984755
   0.66666667  0.66666667  0.73512362
   0.66666667  0.66666667  0.89038771
Direct configuration=    74
  -0.00000000 -0.00000000  0.51235434
   0.33333333  0.33333333  0.81268059
   0.33333333  0.33333333  0.43463510
   0.33333333  0.33333333  0.58987397
   0.66666667  0.66666667  0.73509609
   0.66666667  0.66666667  0.89035992
Direct configuration=    75
  -0.00000000 -0.00000000  0.51237538
   0.33333333  0.33333333  0.81265812
   0.33333333  0.33333333  0.43465226
   0.33333333  0.33333333  0.58989559
   0.66666667  0.66666667  0.73507779
   0.66666667  0.66666667  0.89034086
Direct configuration=    76
  -0.00000000 -0.00000000  0.51239178
   0.33333333  0.33333333  0.81264201
   0.33333333  0.33333333  0.43466828
   0.33333333  0.33333333  0.58991413
   0.66666667  0.66666667  0.73506059
   0.66666667  0.66666667  0.89032322
Direct configuration=    77
  -0.00000000 -0.00000000  0.51225642
   0.33333333  0.33333333  0.81278255
   0.33333333  0.33333333  0.43454397
   0.33333333  0.33333333  0.58975778
   0.66666667  0.66666667  0.73519600
   0.66666667  0.66666667  0.89046327
Direct configuration=    78
  -0.00000000 -0.00000000  0.51249768
   0.33333333  0.33333333  0.81253148
   0.33333333  0.33333333  0.43476985
   0.33333333  0.33333333  0.59003677
   0.66666667  0.66666667  0.73495052
   0.66666667  0.66666667  0.89021370
Direct configuration=    79
  -0.00000000 -0.00000000  0.51243372
   0.33333333  0.33333333  0.81260088
   0.33333333  0.33333333  0.43471394
   0.33333333  0.33333333  0.58996419
   0.66666667  0.66666667  0.73500999
   0.66666667  0.66666667  0.89027729
Direct configuration=    80
  -0.00000000 -0.00000000  0.51244524
   0.33333333  0.33333333  0.81258863
   0.33333333  0.33333333  0.43472294
   0.33333333  0.33333333  0.58997486
   0.66666667  0.66666667  0.73499990
   0.66666667  0.66666667  0.89026844
Direct configuration=    81
  -0.00000000 -0.00000000  0.51245789
   0.33333333  0.33333333  0.81257559
   0.33333333  0.33333333  0.43473240
   0.33333333  0.33333333  0.58998689
   0.66666667  0.66666667  0.73498636
   0.66666667  0.66666667  0.89026088
Direct configuration=    82
  -0.00000000 -0.00000000  0.51246160
   0.33333333  0.33333333  0.81257108
   0.33333333  0.33333333  0.43473711
   0.33333333  0.33333333  0.58999109
   0.66666667  0.66666667  0.73498345
   0.66666667  0.66666667  0.89025567
Direct configuration=    83
  -0.00000000 -0.00000000  0.51247537
   0.33333333  0.33333333  0.81255902
   0.33333333  0.33333333  0.43475056
   0.33333333  0.33333333  0.59000318
   0.66666667  0.66666667  0.73497192
   0.66666667  0.66666667  0.89023995
Direct configuration=    84
  -0.00000000 -0.00000000  0.51251086
   0.33333333  0.33333333  0.81252186
   0.33333333  0.33333333  0.43478658
   0.33333333  0.33333333  0.59003798
   0.66666667  0.66666667  0.73493768
   0.66666667  0.66666667  0.89020504
Direct configuration=    85
  -0.00000000 -0.00000000  0.51253396
   0.33333333  0.33333333  0.81250091
   0.33333333  0.33333333  0.43480452
   0.33333333  0.33333333  0.59005595
   0.66666667  0.66666667  0.73491777
   0.66666667  0.66666667  0.89018689
Direct configuration=    86
  -0.00000000 -0.00000000  0.51251588
   0.33333333  0.33333333  0.81251801
   0.33333333  0.33333333  0.43478814
   0.33333333  0.33333333  0.59004020
   0.66666667  0.66666667  0.73493363
   0.66666667  0.66666667  0.89020415
Direct configuration=    87
  -0.00000000 -0.00000000  0.51251068
   0.33333333  0.33333333  0.81252205
   0.33333333  0.33333333  0.43478492
   0.33333333  0.33333333  0.59003687
   0.66666667  0.66666667  0.73493890
   0.66666667  0.66666667  0.89020658
Direct configuration=    88
  -0.00000000 -0.00000000  0.51250593
   0.33333333  0.33333333  0.81252668
   0.33333333  0.33333333  0.43478250
   0.33333333  0.33333333  0.59003436
   0.66666667  0.66666667  0.73494216
   0.66666667  0.66666667  0.89020837
Direct configuration=    89
  -0.00000000 -0.00000000  0.51251313
   0.33333333  0.33333333  0.81251821
   0.33333333  0.33333333  0.43479077
   0.33333333  0.33333333  0.59004191
   0.66666667  0.66666667  0.73493342
   0.66666667  0.66666667  0.89020255
Direct configuration=    90
  -0.00000000 -0.00000000  0.51252152
   0.33333333  0.33333333  0.81251193
   0.33333333  0.33333333  0.43479683
   0.33333333  0.33333333  0.59004790
   0.66666667  0.66666667  0.73492663
   0.66666667  0.66666667  0.89019519
Direct configuration=    91
  -0.00000000 -0.00000000  0.51253195
   0.33333333  0.33333333  0.81250520
   0.33333333  0.33333333  0.43480338
   0.33333333  0.33333333  0.59005473
   0.66666667  0.66666667  0.73491551
   0.66666667  0.66666667  0.89018922
Direct configuration=    92
  -0.00000000 -0.00000000  0.51254425
   0.33333333  0.33333333  0.81249134
   0.33333333  0.33333333  0.43481826
   0.33333333  0.33333333  0.59006913
   0.66666667  0.66666667  0.73489989
   0.66666667  0.66666667  0.89017713
Direct configuration=    93
  -0.00000000 -0.00000000  0.51255475
   0.33333333  0.33333333  0.81248009
   0.33333333  0.33333333  0.43482771
   0.33333333  0.33333333  0.59007799
   0.66666667  0.66666667  0.73488997
   0.66666667  0.66666667  0.89016950
Direct configuration=    94
  -0.00000000 -0.00000000  0.51257054
   0.33333333  0.33333333  0.81246564
   0.33333333  0.33333333  0.43484357
   0.33333333  0.33333333  0.59009317
   0.66666667  0.66666667  0.73487228
   0.66666667  0.66666667  0.89015481
Direct configuration=    95
  -0.00000000 -0.00000000  0.51258394
   0.33333333  0.33333333  0.81245218
   0.33333333  0.33333333  0.43485653
   0.33333333  0.33333333  0.59010675
   0.66666667  0.66666667  0.73485898
   0.66666667  0.66666667  0.89014162
Direct configuration=    96
  -0.00000000 -0.00000000  0.51256721
   0.33333333  0.33333333  0.81246768
   0.33333333  0.33333333  0.43484141
   0.33333333  0.33333333  0.59008872
   0.66666667  0.66666667  0.73487480
   0.66666667  0.66666667  0.89016018
Direct configuration=    97
  -0.00000000 -0.00000000  0.51255747
   0.33333333  0.33333333  0.81247807
   0.33333333  0.33333333  0.43483604
   0.33333333  0.33333333  0.59007552
   0.66666667  0.66666667  0.73488066
   0.66666667  0.66666667  0.89017224
Direct configuration=    98
  -0.00000000 -0.00000000  0.51251789
   0.33333333  0.33333333  0.81251937
   0.33333333  0.33333333  0.43479631
   0.33333333  0.33333333  0.59003285
   0.66666667  0.66666667  0.73491915
   0.66666667  0.66666667  0.89021442
Direct configuration=    99
  -0.00000000 -0.00000000  0.51260276
   0.33333333  0.33333333  0.81243721
   0.33333333  0.33333333  0.43487500
   0.33333333  0.33333333  0.59012349
   0.66666667  0.66666667  0.73483870
   0.66666667  0.66666667  0.89012285
Direct configuration=   100
  -0.00000000 -0.00000000  0.51262155
   0.33333333  0.33333333  0.81240788
   0.33333333  0.33333333  0.43489578
   0.33333333  0.33333333  0.59015683
   0.66666667  0.66666667  0.73482302
   0.66666667  0.66666667  0.89009494
Direct configuration=   101
  -0.00000000 -0.00000000  0.51269484
   0.33333333  0.33333333  0.81233968
   0.33333333  0.33333333  0.43496071
   0.33333333  0.33333333  0.59022892
   0.66666667  0.66666667  0.73475748
   0.66666667  0.66666667  0.89001838
Direct configuration=   102
  -0.00000000 -0.00000000  0.51268976
   0.33333333  0.33333333  0.81234404
   0.33333333  0.33333333  0.43495911
   0.33333333  0.33333333  0.59022334
   0.66666667  0.66666667  0.73476123
   0.66666667  0.66666667  0.89002251
Direct configuration=   103
  -0.00000000 -0.00000000  0.51260509
   0.33333333  0.33333333  0.81242860
   0.33333333  0.33333333  0.43487874
   0.33333333  0.33333333  0.59014169
   0.66666667  0.66666667  0.73483783
   0.66666667  0.66666667  0.89010805
Direct configuration=   104
  -0.00000000 -0.00000000  0.51256536
   0.33333333  0.33333333  0.81246921
   0.33333333  0.33333333  0.43482710
   0.33333333  0.33333333  0.59010010
   0.66666667  0.66666667  0.73488099
   0.66666667  0.66666667  0.89015723
Direct configuration=   105
  -0.00000000 -0.00000000  0.51259734
   0.33333333  0.33333333  0.81243970
   0.33333333  0.33333333  0.43486573
   0.33333333  0.33333333  0.59012588
   0.66666667  0.66666667  0.73484928
   0.66666667  0.66666667  0.89012207
Direct configuration=   106
  -0.00000000 -0.00000000  0.51259946
   0.33333333  0.33333333  0.81243391
   0.33333333  0.33333333  0.43487050
   0.33333333  0.33333333  0.59013090
   0.66666667  0.66666667  0.73484553
   0.66666667  0.66666667  0.89011970
Direct configuration=   107
  -0.00000000 -0.00000000  0.51260150
   0.33333333  0.33333333  0.81243319
   0.33333333  0.33333333  0.43487273
   0.33333333  0.33333333  0.59013287
   0.66666667  0.66666667  0.73484367
   0.66666667  0.66666667  0.89011604
Direct configuration=   108
  -0.00000000 -0.00000000  0.51259793
   0.33333333  0.33333333  0.81243680
   0.33333333  0.33333333  0.43486850
   0.33333333  0.33333333  0.59013007
   0.66666667  0.66666667  0.73484590
   0.66666667  0.66666667  0.89012080
Direct configuration=   109
  -0.00000000 -0.00000000  0.51260852
   0.33333333  0.33333333  0.81242828
   0.33333333  0.33333333  0.43487784
   0.33333333  0.33333333  0.59013786
   0.66666667  0.66666667  0.73483794
   0.66666667  0.66666667  0.89010956
Direct configuration=   110
  -0.00000000 -0.00000000  0.51260028
   0.33333333  0.33333333  0.81243658
   0.33333333  0.33333333  0.43486977
   0.33333333  0.33333333  0.59012836
   0.66666667  0.66666667  0.73484527
   0.66666667  0.66666667  0.89011974
Direct configuration=   111
  -0.00000000 -0.00000000  0.51259158
   0.33333333  0.33333333  0.81244468
   0.33333333  0.33333333  0.43486712
   0.33333333  0.33333333  0.59011743
   0.66666667  0.66666667  0.73485416
   0.66666667  0.66666667  0.89012503
Direct configuration=   112
  -0.00000000 -0.00000000  0.51259743
   0.33333333  0.33333333  0.81243836
   0.33333333  0.33333333  0.43486863
   0.33333333  0.33333333  0.59012323
   0.66666667  0.66666667  0.73484957
   0.66666667  0.66666667  0.89012279
Direct configuration=   113
  -0.00000000 -0.00000000  0.51259478
   0.33333333  0.33333333  0.81244013
   0.33333333  0.33333333  0.43486751
   0.33333333  0.33333333  0.59012406
   0.66666667  0.66666667  0.73484859
   0.66666667  0.66666667  0.89012493
Direct configuration=   114
  -0.00000000 -0.00000000  0.51259577
   0.33333333  0.33333333  0.81243893
   0.33333333  0.33333333  0.43486944
   0.33333333  0.33333333  0.59012495
   0.66666667  0.66666667  0.73484856
   0.66666667  0.66666667  0.89012235
Direct configuration=   115
  -0.00000000 -0.00000000  0.51259974
   0.33333333  0.33333333  0.81243540
   0.33333333  0.33333333  0.43487061
   0.33333333  0.33333333  0.59013103
   0.66666667  0.66666667  0.73484390
   0.66666667  0.66666667  0.89011933
Direct configuration=   116
  -0.00000000 -0.00000000  0.51260157
   0.33333333  0.33333333  0.81243463
   0.33333333  0.33333333  0.43487042
   0.33333333  0.33333333  0.59013039
   0.66666667  0.66666667  0.73484439
   0.66666667  0.66666667  0.89011859
Direct configuration=   117
  -0.00000000 -0.00000000  0.51260176
   0.33333333  0.33333333  0.81243466
   0.33333333  0.33333333  0.43487015
   0.33333333  0.33333333  0.59013000
   0.66666667  0.66666667  0.73484463
   0.66666667  0.66666667  0.89011880
Direct configuration=   118
  -0.00000000 -0.00000000  0.51260666
   0.33333333  0.33333333  0.81242979
   0.33333333  0.33333333  0.43487569
   0.33333333  0.33333333  0.59014080
   0.66666667  0.66666667  0.73483646
   0.66666667  0.66666667  0.89011061
Direct configuration=   119
  -0.00000000 -0.00000000  0.51260187
   0.33333333  0.33333333  0.81243502
   0.33333333  0.33333333  0.43487054
   0.33333333  0.33333333  0.59013309
   0.66666667  0.66666667  0.73484168
   0.66666667  0.66666667  0.89011780
Direct configuration=   120
  -0.00000000 -0.00000000  0.51262255
   0.33333333  0.33333333  0.81241046
   0.33333333  0.33333333  0.43488965
   0.33333333  0.33333333  0.59016048
   0.66666667  0.66666667  0.73482398
   0.66666667  0.66666667  0.89009288
Direct configuration=   121
  -0.00000000 -0.00000000  0.51262533
   0.33333333  0.33333333  0.81240813
   0.33333333  0.33333333  0.43489172
   0.33333333  0.33333333  0.59016325
   0.66666667  0.66666667  0.73482165
   0.66666667  0.66666667  0.89008993
Direct configuration=   122
  -0.00000000  0.00000000  0.51264722
   0.33333333  0.33333333  0.81238555
   0.33333333  0.33333333  0.43491549
   0.33333333  0.33333333  0.59018940
   0.66666667  0.66666667  0.73480023
   0.66666667  0.66666667  0.89006210
Direct configuration=   123
  -0.00000000  0.00000000  0.51264163
   0.33333333  0.33333333  0.81239144
   0.33333333  0.33333333  0.43490297
   0.33333333  0.33333333  0.59019135
   0.66666667  0.66666667  0.73480648
   0.66666667  0.66666667  0.89006614
Direct configuration=   124
  -0.00000000  0.00000000  0.51268210
   0.33333333  0.33333333  0.81235409
   0.33333333  0.33333333  0.43495510
   0.33333333  0.33333333  0.59021245
   0.66666667  0.66666667  0.73477054
   0.66666667  0.66666667  0.89002571
Direct configuration=   125
  -0.00000000  0.00000000  0.51267553
   0.33333333  0.33333333  0.81235903
   0.33333333  0.33333333  0.43495008
   0.33333333  0.33333333  0.59020340
   0.66666667  0.66666667  0.73477640
   0.66666667  0.66666667  0.89003555
Direct configuration=   126
  -0.00000000  0.00000000  0.51269251
   0.33333333  0.33333333  0.81234094
   0.33333333  0.33333333  0.43496673
   0.33333333  0.33333333  0.59021723
   0.66666667  0.66666667  0.73476210
   0.66666667  0.66666667  0.89002049
Direct configuration=   127
  -0.00000000  0.00000000  0.51272551
   0.33333333  0.33333333  0.81231172
   0.33333333  0.33333333  0.43499696
   0.33333333  0.33333333  0.59024829
   0.66666667  0.66666667  0.73472974
   0.66666667  0.66666667  0.88998778
Direct configuration=   128
  -0.00000000  0.00000000  0.51275969
   0.33333333  0.33333333  0.81227269
   0.33333333  0.33333333  0.43504125
   0.33333333  0.33333333  0.59028707
   0.66666667  0.66666667  0.73469244
   0.66666667  0.66666667  0.88994686
Direct configuration=   129
  -0.00000000  0.00000000  0.51280399
   0.33333333  0.33333333  0.81223209
   0.33333333  0.33333333  0.43508043
   0.33333333  0.33333333  0.59032245
   0.66666667  0.66666667  0.73465423
   0.66666667  0.66666667  0.88990682
Direct configuration=   130
  -0.00000000  0.00000000  0.51278338
   0.33333333  0.33333333  0.81225205
   0.33333333  0.33333333  0.43506472
   0.33333333  0.33333333  0.59030136
   0.66666667  0.66666667  0.73467303
   0.66666667  0.66666667  0.88992545
Direct configuration=   131
  -0.00000000  0.00000000  0.51278442
   0.33333333  0.33333333  0.81225162
   0.33333333  0.33333333  0.43506414
   0.33333333  0.33333333  0.59030216
   0.66666667  0.66666667  0.73467264
   0.66666667  0.66666667  0.88992501
Direct configuration=   132
  -0.00000000  0.00000000  0.51278569
   0.33333333  0.33333333  0.81225085
   0.33333333  0.33333333  0.43506559
   0.33333333  0.33333333  0.59030387
   0.66666667  0.66666667  0.73467098
   0.66666667  0.66666667  0.88992301
Direct configuration=   133
  -0.00000000  0.00000000  0.51282490
   0.33333333  0.33333333  0.81220864
   0.33333333  0.33333333  0.43511655
   0.33333333  0.33333333  0.59035263
   0.66666667  0.66666667  0.73462598
   0.66666667  0.66666667  0.88987130
Direct configuration=   134
  -0.00000000  0.00000000  0.51279255
   0.33333333  0.33333333  0.81223843
   0.33333333  0.33333333  0.43508219
   0.33333333  0.33333333  0.59031412
   0.66666667  0.66666667  0.73466147
   0.66666667  0.66666667  0.88991123
Direct configuration=   135
  -0.00000000  0.00000000  0.51278590
   0.33333333  0.33333333  0.81224626
   0.33333333  0.33333333  0.43507338
   0.33333333  0.33333333  0.59030526
   0.66666667  0.66666667  0.73466661
   0.66666667  0.66666667  0.88992259
Direct configuration=   136
  -0.00000000  0.00000000  0.51277502
   0.33333333  0.33333333  0.81225665
   0.33333333  0.33333333  0.43506232
   0.33333333  0.33333333  0.59029581
   0.66666667  0.66666667  0.73467521
   0.66666667  0.66666667  0.88993498
Direct configuration=   137
  -0.00000000  0.00000000  0.51283683
   0.33333333  0.33333333  0.81219689
   0.33333333  0.33333333  0.43512292
   0.33333333  0.33333333  0.59035087
   0.66666667  0.66666667  0.73462214
   0.66666667  0.66666667  0.88987035
Direct configuration=   138
  -0.00000000  0.00000000  0.51281661
   0.33333333  0.33333333  0.81222073
   0.33333333  0.33333333  0.43510450
   0.33333333  0.33333333  0.59033259
   0.66666667  0.66666667  0.73464113
   0.66666667  0.66666667  0.88988444
Direct configuration=   139
  -0.00000000  0.00000000  0.51282779
   0.33333333  0.33333333  0.81220676
   0.33333333  0.33333333  0.43511682
   0.33333333  0.33333333  0.59034409
   0.66666667  0.66666667  0.73463182
   0.66666667  0.66666667  0.88987272
Direct configuration=   140
  -0.00000000  0.00000000  0.51282609
   0.33333333  0.33333333  0.81220774
   0.33333333  0.33333333  0.43511599
   0.33333333  0.33333333  0.59034322
   0.66666667  0.66666667  0.73463250
   0.66666667  0.66666667  0.88987446
Direct configuration=   141
  -0.00000000  0.00000000  0.51284792
   0.33333333  0.33333333  0.81218755
   0.33333333  0.33333333  0.43513113
   0.33333333  0.33333333  0.59035969
   0.66666667  0.66666667  0.73461890
   0.66666667  0.66666667  0.88985481
Direct configuration=   142
  -0.00000000  0.00000000  0.51285191
   0.33333333  0.33333333  0.81218395
   0.33333333  0.33333333  0.43513502
   0.33333333  0.33333333  0.59036355
   0.66666667  0.66666667  0.73461571
   0.66666667  0.66666667  0.88984986
Direct configuration=   143
  -0.00000000  0.00000000  0.51285615
   0.33333333  0.33333333  0.81218012
   0.33333333  0.33333333  0.43513936
   0.33333333  0.33333333  0.59036782
   0.66666667  0.66666667  0.73461325
   0.66666667  0.66666667  0.88984331
Direct configuration=   144
  -0.00000000  0.00000000  0.51283006
   0.33333333  0.33333333  0.81220607
   0.33333333  0.33333333  0.43511231
   0.33333333  0.33333333  0.59034089
   0.66666667  0.66666667  0.73462932
   0.66666667  0.66666667  0.88988135
Direct configuration=   145
  -0.00000000  0.00000000  0.51280818
   0.33333333  0.33333333  0.81222349
   0.33333333  0.33333333  0.43509205
   0.33333333  0.33333333  0.59032137
   0.66666667  0.66666667  0.73464465
   0.66666667  0.66666667  0.88991027
Direct configuration=   146
  -0.00000000  0.00000000  0.51287645
   0.33333333  0.33333333  0.81216167
   0.33333333  0.33333333  0.43516856
   0.33333333  0.33333333  0.59039373
   0.66666667  0.66666667  0.73459032
   0.66666667  0.66666667  0.88980927
Direct configuration=   147
  -0.00000000  0.00000000  0.51285464
   0.33333333  0.33333333  0.81218160
   0.33333333  0.33333333  0.43514185
   0.33333333  0.33333333  0.59036797
   0.66666667  0.66666667  0.73460924
   0.66666667  0.66666667  0.88984470
Direct configuration=   148
  -0.00000000  0.00000000  0.51286943
   0.33333333  0.33333333  0.81216808
   0.33333333  0.33333333  0.43515592
   0.33333333  0.33333333  0.59038119
   0.66666667  0.66666667  0.73459893
   0.66666667  0.66666667  0.88982645
Direct configuration=   149
  -0.00000000  0.00000000  0.51287607
   0.33333333  0.33333333  0.81216088
   0.33333333  0.33333333  0.43516315
   0.33333333  0.33333333  0.59038851
   0.66666667  0.66666667  0.73459183
   0.66666667  0.66666667  0.88981956
Direct configuration=   150
  -0.00000000  0.00000000  0.51291355
   0.33333333  0.33333333  0.81212543
   0.33333333  0.33333333  0.43520007
   0.33333333  0.33333333  0.59042280
   0.66666667  0.66666667  0.73455689
   0.66666667  0.66666667  0.88978127
Direct configuration=   151
  -0.00000000  0.00000000  0.51290752
   0.33333333  0.33333333  0.81213017
   0.33333333  0.33333333  0.43519893
   0.33333333  0.33333333  0.59041851
   0.66666667  0.66666667  0.73456019
   0.66666667  0.66666667  0.88978467
Direct configuration=   152
  -0.00000000  0.00000000  0.51290682
   0.33333333  0.33333333  0.81213089
   0.33333333  0.33333333  0.43519818
   0.33333333  0.33333333  0.59041795
   0.66666667  0.66666667  0.73456082
   0.66666667  0.66666667  0.88978534
Direct configuration=   153
  -0.00000000  0.00000000  0.51290874
   0.33333333  0.33333333  0.81212860
   0.33333333  0.33333333  0.43519884
   0.33333333  0.33333333  0.59041947
   0.66666667  0.66666667  0.73455920
   0.66666667  0.66666667  0.88978515
Direct configuration=   154
  -0.00000000  0.00000000  0.51291133
   0.33333333  0.33333333  0.81212613
   0.33333333  0.33333333  0.43520223
   0.33333333  0.33333333  0.59042125
   0.66666667  0.66666667  0.73455684
   0.66666667  0.66666667  0.88978221
Direct configuration=   155
  -0.00000000  0.00000000  0.51291256
   0.33333333  0.33333333  0.81212485
   0.33333333  0.33333333  0.43520365
   0.33333333  0.33333333  0.59042234
   0.66666667  0.66666667  0.73455566
   0.66666667  0.66666667  0.88978094
Direct configuration=   156
  -0.00000000  0.00000000  0.51291094
   0.33333333  0.33333333  0.81212380
   0.33333333  0.33333333  0.43520339
   0.33333333  0.33333333  0.59041922
   0.66666667  0.66666667  0.73455834
   0.66666667  0.66666667  0.88978430
Direct configuration=   157
  -0.00000000  0.00000000  0.51290026
   0.33333333  0.33333333  0.81213670
   0.33333333  0.33333333  0.43518847
   0.33333333  0.33333333  0.59040741
   0.66666667  0.66666667  0.73457009
   0.66666667  0.66666667  0.88979707
Direct configuration=   158
  -0.00000000  0.00000000  0.51288804
   0.33333333  0.33333333  0.81214810
   0.33333333  0.33333333  0.43517593
   0.33333333  0.33333333  0.59039698
   0.66666667  0.66666667  0.73458160
   0.66666667  0.66666667  0.88980936
Direct configuration=   159
  -0.00000000  0.00000000  0.51288483
   0.33333333  0.33333333  0.81215483
   0.33333333  0.33333333  0.43517440
   0.33333333  0.33333333  0.59040001
   0.66666667  0.66666667  0.73457979
   0.66666667  0.66666667  0.88980614
Direct configuration=   160
  -0.00000000  0.00000000  0.51288521
   0.33333333  0.33333333  0.81215276
   0.33333333  0.33333333  0.43517151
   0.33333333  0.33333333  0.59039778
   0.66666667  0.66666667  0.73458309
   0.66666667  0.66666667  0.88980965
Direct configuration=   161
  -0.00000000  0.00000000  0.51288790
   0.33333333  0.33333333  0.81214885
   0.33333333  0.33333333  0.43517653
   0.33333333  0.33333333  0.59040072
   0.66666667  0.66666667  0.73457982
   0.66666667  0.66666667  0.88980619
Direct configuration=   162
  -0.00000000  0.00000000  0.51289287
   0.33333333  0.33333333  0.81214636
   0.33333333  0.33333333  0.43517866
   0.33333333  0.33333333  0.59040306
   0.66666667  0.66666667  0.73457634
   0.66666667  0.66666667  0.88980270
Direct configuration=   163
  -0.00000000  0.00000000  0.51289504
   0.33333333  0.33333333  0.81214211
   0.33333333  0.33333333  0.43518292
   0.33333333  0.33333333  0.59040699
   0.66666667  0.66666667  0.73457334
   0.66666667  0.66666667  0.88979960
Direct configuration=   164
  -0.00000000  0.00000000  0.51288934
   0.33333333  0.33333333  0.81214799
   0.33333333  0.33333333  0.43517616
   0.33333333  0.33333333  0.59040266
   0.66666667  0.66666667  0.73457874
   0.66666667  0.66666667  0.88980511
Direct configuration=   165
  -0.00000000  0.00000000  0.51289068
   0.33333333  0.33333333  0.81214476
   0.33333333  0.33333333  0.43518039
   0.33333333  0.33333333  0.59040550
   0.66666667  0.66666667  0.73457623
   0.66666667  0.66666667  0.88980245
Direct configuration=   166
  -0.00000000  0.00000000  0.51289731
   0.33333333  0.33333333  0.81213932
   0.33333333  0.33333333  0.43518684
   0.33333333  0.33333333  0.59040808
   0.66666667  0.66666667  0.73457116
   0.66666667  0.66666667  0.88979728
Direct configuration=   167
  -0.00000000  0.00000000  0.51289709
   0.33333333  0.33333333  0.81214102
   0.33333333  0.33333333  0.43518643
   0.33333333  0.33333333  0.59040731
   0.66666667  0.66666667  0.73457107
   0.66666667  0.66666667  0.88979708
Direct configuration=   168
  -0.00000000  0.00000000  0.51289702
   0.33333333  0.33333333  0.81214180
   0.33333333  0.33333333  0.43518640
   0.33333333  0.33333333  0.59040718
   0.66666667  0.66666667  0.73457080
   0.66666667  0.66666667  0.88979680
Direct configuration=   169
  -0.00000000  0.00000000  0.51289661
   0.33333333  0.33333333  0.81213964
   0.33333333  0.33333333  0.43518741
   0.33333333  0.33333333  0.59040707
   0.66666667  0.66666667  0.73457178
   0.66666667  0.66666667  0.88979749
Direct configuration=   170
  -0.00000000  0.00000000  0.51289863
   0.33333333  0.33333333  0.81213803
   0.33333333  0.33333333  0.43519207
   0.33333333  0.33333333  0.59040988
   0.66666667  0.66666667  0.73456769
   0.66666667  0.66666667  0.88979371
Direct configuration=   171
  -0.00000000  0.00000000  0.51290302
   0.33333333  0.33333333  0.81213481
   0.33333333  0.33333333  0.43519468
   0.33333333  0.33333333  0.59041033
   0.66666667  0.66666667  0.73456567
   0.66666667  0.66666667  0.88979149
Direct configuration=   172
  -0.00000000  0.00000000  0.51290287
   0.33333333  0.33333333  0.81213201
   0.33333333  0.33333333  0.43519765
   0.33333333  0.33333333  0.59041285
   0.66666667  0.66666667  0.73456446
   0.66666667  0.66666667  0.88979017
Direct configuration=   173
  -0.00000000  0.00000000  0.51290431
   0.33333333  0.33333333  0.81213228
   0.33333333  0.33333333  0.43519823
   0.33333333  0.33333333  0.59041347
   0.66666667  0.66666667  0.73456300
   0.66666667  0.66666667  0.88978871
Direct configuration=   174
  -0.00000000  0.00000000  0.51290576
   0.33333333  0.33333333  0.81213094
   0.33333333  0.33333333  0.43520003
   0.33333333  0.33333333  0.59041505
   0.66666667  0.66666667  0.73456130
   0.66666667  0.66666667  0.88978692
Direct configuration=   175
  -0.00000000  0.00000000  0.51290863
   0.33333333  0.33333333  0.81212848
   0.33333333  0.33333333  0.43520143
   0.33333333  0.33333333  0.59041628
   0.66666667  0.66666667  0.73455982
   0.66666667  0.66666667  0.88978537
Direct configuration=   176
  -0.00000000  0.00000000  0.51292658
   0.33333333  0.33333333  0.81211055
   0.33333333  0.33333333  0.43521802
   0.33333333  0.33333333  0.59043240
   0.66666667  0.66666667  0.73454369
   0.66666667  0.66666667  0.88976876
Direct configuration=   177
  -0.00000000  0.00000000  0.51291088
   0.33333333  0.33333333  0.81212464
   0.33333333  0.33333333  0.43520642
   0.33333333  0.33333333  0.59042107
   0.66666667  0.66666667  0.73455581
   0.66666667  0.66666667  0.88978117
Direct configuration=   178
  -0.00000000  0.00000000  0.51291005
   0.33333333  0.33333333  0.81212540
   0.33333333  0.33333333  0.43520564
   0.33333333  0.33333333  0.59042034
   0.66666667  0.66666667  0.73455658
   0.66666667  0.66666667  0.88978198
Direct configuration=   179
  -0.00000000  0.00000000  0.51291364
   0.33333333  0.33333333  0.81212261
   0.33333333  0.33333333  0.43521183
   0.33333333  0.33333333  0.59042496
   0.66666667  0.66666667  0.73455159
   0.66666667  0.66666667  0.88977536
Direct configuration=   180
  -0.00000000  0.00000000  0.51291698
   0.33333333  0.33333333  0.81211761
   0.33333333  0.33333333  0.43521615
   0.33333333  0.33333333  0.59042856
   0.66666667  0.66666667  0.73454884
   0.66666667  0.66666667  0.88977187
Direct configuration=   181
  -0.00000000  0.00000000  0.51291964
   0.33333333  0.33333333  0.81211617
   0.33333333  0.33333333  0.43521790
   0.33333333  0.33333333  0.59043024
   0.66666667  0.66666667  0.73454659
   0.66666667  0.66666667  0.88976946
Direct configuration=   182
  -0.00000000  0.00000000  0.51294041
   0.33333333  0.33333333  0.81209559
   0.33333333  0.33333333  0.43523570
   0.33333333  0.33333333  0.59044779
   0.66666667  0.66666667  0.73452916
   0.66666667  0.66666667  0.88975134
Direct configuration=   183
  -0.00000000  0.00000000  0.51295141
   0.33333333  0.33333333  0.81208509
   0.33333333  0.33333333  0.43524551
   0.33333333  0.33333333  0.59045771
   0.66666667  0.66666667  0.73451879
   0.66666667  0.66666667  0.88974148
Direct configuration=   184
  -0.00000000  0.00000000  0.51294862
   0.33333333  0.33333333  0.81208766
   0.33333333  0.33333333  0.43524413
   0.33333333  0.33333333  0.59045650
   0.66666667  0.66666667  0.73451994
   0.66666667  0.66666667  0.88974314
Direct configuration=   185
  -0.00000000  0.00000000  0.51294684
   0.33333333  0.33333333  0.81208917
   0.33333333  0.33333333  0.43524161
   0.33333333  0.33333333  0.59045428
   0.66666667  0.66666667  0.73452229
   0.66666667  0.66666667  0.88974581
Direct configuration=   186
  -0.00000000  0.00000000  0.51295651
   0.33333333  0.33333333  0.81207980
   0.33333333  0.33333333  0.43525100
   0.33333333  0.33333333  0.59046321
   0.66666667  0.66666667  0.73451322
   0.66666667  0.66666667  0.88973626
Direct configuration=   187
  -0.00000000  0.00000000  0.51295198
   0.33333333  0.33333333  0.81208425
   0.33333333  0.33333333  0.43524617
   0.33333333  0.33333333  0.59045867
   0.66666667  0.66666667  0.73451821
   0.66666667  0.66666667  0.88974071
Direct configuration=   188
  -0.00000000  0.00000000  0.51295310
   0.33333333  0.33333333  0.81208433
   0.33333333  0.33333333  0.43524815
   0.33333333  0.33333333  0.59046046
   0.66666667  0.66666667  0.73451523
   0.66666667  0.66666667  0.88973873
Direct configuration=   189
  -0.00000000  0.00000000  0.51295139
   0.33333333  0.33333333  0.81208522
   0.33333333  0.33333333  0.43524594
   0.33333333  0.33333333  0.59045822
   0.66666667  0.66666667  0.73451787
   0.66666667  0.66666667  0.88974136
Direct configuration=   190
  -0.00000000  0.00000000  0.51295410
   0.33333333  0.33333333  0.81208338
   0.33333333  0.33333333  0.43524813
   0.33333333  0.33333333  0.59046038
   0.66666667  0.66666667  0.73451441
   0.66666667  0.66666667  0.88973960
Direct configuration=   191
  -0.00000000  0.00000000  0.51295381
   0.33333333  0.33333333  0.81208289
   0.33333333  0.33333333  0.43524871
   0.33333333  0.33333333  0.59046096
   0.66666667  0.66666667  0.73451341
   0.66666667  0.66666667  0.88974022
Direct configuration=   192
  -0.00000000  0.00000000  0.51295502
   0.33333333  0.33333333  0.81208262
   0.33333333  0.33333333  0.43524903
   0.33333333  0.33333333  0.59046121
   0.66666667  0.66666667  0.73451256
   0.66666667  0.66666667  0.88973956
Direct configuration=   193
  -0.00000000  0.00000000  0.51295435
   0.33333333  0.33333333  0.81208313
   0.33333333  0.33333333  0.43524834
   0.33333333  0.33333333  0.59046059
   0.66666667  0.66666667  0.73451369
   0.66666667  0.66666667  0.88973990
Direct configuration=   194
  -0.00000000  0.00000000  0.51295427
   0.33333333  0.33333333  0.81208295
   0.33333333  0.33333333  0.43524847
   0.33333333  0.33333333  0.59046075
   0.66666667  0.66666667  0.73451384
   0.66666667  0.66666667  0.88973972
Direct configuration=   195
  -0.00000000  0.00000000  0.51295466
   0.33333333  0.33333333  0.81208274
   0.33333333  0.33333333  0.43524921
   0.33333333  0.33333333  0.59046145
   0.66666667  0.66666667  0.73451266
   0.66666667  0.66666667  0.88973928
Direct configuration=   196
  -0.00000000  0.00000000  0.51295481
   0.33333333  0.33333333  0.81208246
   0.33333333  0.33333333  0.43524919
   0.33333333  0.33333333  0.59046144
   0.66666667  0.66666667  0.73451265
   0.66666667  0.66666667  0.88973945
Direct configuration=   197
  -0.00000000  0.00000000  0.51295523
   0.33333333  0.33333333  0.81208245
   0.33333333  0.33333333  0.43524927
   0.33333333  0.33333333  0.59046153
   0.66666667  0.66666667  0.73451265
   0.66666667  0.66666667  0.88973887
Direct configuration=   198
  -0.00000000  0.00000000  0.51295529
   0.33333333  0.33333333  0.81208172
   0.33333333  0.33333333  0.43524970
   0.33333333  0.33333333  0.59046199
   0.66666667  0.66666667  0.73451261
   0.66666667  0.66666667  0.88973870
Direct configuration=   199
  -0.00000000  0.00000000  0.51295571
   0.33333333  0.33333333  0.81208183
   0.33333333  0.33333333  0.43524950
   0.33333333  0.33333333  0.59046175
   0.66666667  0.66666667  0.73451231
   0.66666667  0.66666667  0.88973889
Direct configuration=   200
  -0.00000000  0.00000000  0.51295571
   0.33333333  0.33333333  0.81208195
   0.33333333  0.33333333  0.43525031
   0.33333333  0.33333333  0.59046245
   0.66666667  0.66666667  0.73451078
   0.66666667  0.66666667  0.88973880
Direct configuration=   201
  -0.00000000  0.00000000  0.51295648
   0.33333333  0.33333333  0.81208132
   0.33333333  0.33333333  0.43525041
   0.33333333  0.33333333  0.59046255
   0.66666667  0.66666667  0.73451083
   0.66666667  0.66666667  0.88973841
Direct configuration=   202
  -0.00000000  0.00000000  0.51295700
   0.33333333  0.33333333  0.81208016
   0.33333333  0.33333333  0.43525197
   0.33333333  0.33333333  0.59046392
   0.66666667  0.66666667  0.73450882
   0.66666667  0.66666667  0.88973814
Direct configuration=   203
  -0.00000000  0.00000000  0.51295780
   0.33333333  0.33333333  0.81207974
   0.33333333  0.33333333  0.43525261
   0.33333333  0.33333333  0.59046450
   0.66666667  0.66666667  0.73450799
   0.66666667  0.66666667  0.88973736
Direct configuration=   204
  -0.00000000  0.00000000  0.51295710
   0.33333333  0.33333333  0.81207949
   0.33333333  0.33333333  0.43525233
   0.33333333  0.33333333  0.59046441
   0.66666667  0.66666667  0.73450961
   0.66666667  0.66666667  0.88973706
Direct configuration=   205
  -0.00000000  0.00000000  0.51295785
   0.33333333  0.33333333  0.81207879
   0.33333333  0.33333333  0.43525292
   0.33333333  0.33333333  0.59046491
   0.66666667  0.66666667  0.73450880
   0.66666667  0.66666667  0.88973673
Direct configuration=   206
  -0.00000000  0.00000000  0.51295916
   0.33333333  0.33333333  0.81207788
   0.33333333  0.33333333  0.43525406
   0.33333333  0.33333333  0.59046601
   0.66666667  0.66666667  0.73450769
   0.66666667  0.66666667  0.88973519
Direct configuration=   207
  -0.00000000  0.00000000  0.51295993
   0.33333333  0.33333333  0.81207741
   0.33333333  0.33333333  0.43525404
   0.33333333  0.33333333  0.59046611
   0.66666667  0.66666667  0.73450810
   0.66666667  0.66666667  0.88973441
Direct configuration=   208
  -0.00000000  0.00000000  0.51295978
   0.33333333  0.33333333  0.81207716
   0.33333333  0.33333333  0.43525467
   0.33333333  0.33333333  0.59046667
   0.66666667  0.66666667  0.73450748
   0.66666667  0.66666667  0.88973423
Direct configuration=   209
  -0.00000000  0.00000000  0.51296075
   0.33333333  0.33333333  0.81207731
   0.33333333  0.33333333  0.43525470
   0.33333333  0.33333333  0.59046661
   0.66666667  0.66666667  0.73450665
   0.66666667  0.66666667  0.88973398
Direct configuration=   210
  -0.00000000  0.00000000  0.51296069
   0.33333333  0.33333333  0.81207674
   0.33333333  0.33333333  0.43525496
   0.33333333  0.33333333  0.59046693
   0.66666667  0.66666667  0.73450691
   0.66666667  0.66666667  0.88973376
Direct configuration=   211
  -0.00000000  0.00000000  0.51296089
   0.33333333  0.33333333  0.81207659
   0.33333333  0.33333333  0.43525504
   0.33333333  0.33333333  0.59046702
   0.66666667  0.66666667  0.73450688
   0.66666667  0.66666667  0.88973358
Direct configuration=   212
  -0.00000000  0.00000000  0.51296107
   0.33333333  0.33333333  0.81207665
   0.33333333  0.33333333  0.43525522
   0.33333333  0.33333333  0.59046716
   0.66666667  0.66666667  0.73450628
   0.66666667  0.66666667  0.88973361
Direct configuration=   213
  -0.00000000  0.00000000  0.51296139
   0.33333333  0.33333333  0.81207630
   0.33333333  0.33333333  0.43525572
   0.33333333  0.33333333  0.59046760
   0.66666667  0.66666667  0.73450596
   0.66666667  0.66666667  0.88973303
Direct configuration=   214
  -0.00000000  0.00000000  0.51296143
   0.33333333  0.33333333  0.81207610
   0.33333333  0.33333333  0.43525573
   0.33333333  0.33333333  0.59046769
   0.66666667  0.66666667  0.73450581
   0.66666667  0.66666667  0.88973324
Direct configuration=   215
  -0.00000000  0.00000000  0.51296170
   0.33333333  0.33333333  0.81207591
   0.33333333  0.33333333  0.43525619
   0.33333333  0.33333333  0.59046805
   0.66666667  0.66666667  0.73450548
   0.66666667  0.66666667  0.88973266
Direct configuration=   216
  -0.00000000  0.00000000  0.51296185
   0.33333333  0.33333333  0.81207511
   0.33333333  0.33333333  0.43525647
   0.33333333  0.33333333  0.59046840
   0.66666667  0.66666667  0.73450553
   0.66666667  0.66666667  0.88973265
Direct configuration=   217
  -0.00000000  0.00000000  0.51296223
   0.33333333  0.33333333  0.81207518
   0.33333333  0.33333333  0.43525654
   0.33333333  0.33333333  0.59046851
   0.66666667  0.66666667  0.73450502
   0.66666667  0.66666667  0.88973252
Direct configuration=   218
  -0.00000000  0.00000000  0.51296198
   0.33333333  0.33333333  0.81207553
   0.33333333  0.33333333  0.43525625
   0.33333333  0.33333333  0.59046821
   0.66666667  0.66666667  0.73450531
   0.66666667  0.66666667  0.88973271
Direct configuration=   219
  -0.00000000  0.00000000  0.51296176
   0.33333333  0.33333333  0.81207567
   0.33333333  0.33333333  0.43525628
   0.33333333  0.33333333  0.59046818
   0.66666667  0.66666667  0.73450550
   0.66666667  0.66666667  0.88973260
Direct configuration=   220
  -0.00000000  0.00000000  0.51296223
   0.33333333  0.33333333  0.81207517
   0.33333333  0.33333333  0.43525662
   0.33333333  0.33333333  0.59046848
   0.66666667  0.66666667  0.73450535
   0.66666667  0.66666667  0.88973216
Direct configuration=   221
  -0.00000000  0.00000000  0.51296215
   0.33333333  0.33333333  0.81207521
   0.33333333  0.33333333  0.43525669
   0.33333333  0.33333333  0.59046856
   0.66666667  0.66666667  0.73450520
   0.66666667  0.66666667  0.88973220
Direct configuration=   222
  -0.00000000  0.00000000  0.51296256
   0.33333333  0.33333333  0.81207514
   0.33333333  0.33333333  0.43525703
   0.33333333  0.33333333  0.59046877
   0.66666667  0.66666667  0.73450495
   0.66666667  0.66666667  0.88973156
Direct configuration=   223
  -0.00000000  0.00000000  0.51296256
   0.33333333  0.33333333  0.81207482
   0.33333333  0.33333333  0.43525712
   0.33333333  0.33333333  0.59046889
   0.66666667  0.66666667  0.73450499
   0.66666667  0.66666667  0.88973161
Direct configuration=   224
  -0.00000000  0.00000000  0.51296296
   0.33333333  0.33333333  0.81207439
   0.33333333  0.33333333  0.43525765
   0.33333333  0.33333333  0.59046957
   0.66666667  0.66666667  0.73450402
   0.66666667  0.66666667  0.88973141
Direct configuration=   225
  -0.00000000  0.00000000  0.51296326
   0.33333333  0.33333333  0.81207431
   0.33333333  0.33333333  0.43525780
   0.33333333  0.33333333  0.59046958
   0.66666667  0.66666667  0.73450414
   0.66666667  0.66666667  0.88973091
Direct configuration=   226
  -0.00000000  0.00000000  0.51296340
   0.33333333  0.33333333  0.81207383
   0.33333333  0.33333333  0.43525786
   0.33333333  0.33333333  0.59046968
   0.66666667  0.66666667  0.73450425
   0.66666667  0.66666667  0.88973099
Direct configuration=   227
  -0.00000000  0.00000000  0.51296348
   0.33333333  0.33333333  0.81207381
   0.33333333  0.33333333  0.43525797
   0.33333333  0.33333333  0.59046977
   0.66666667  0.66666667  0.73450412
   0.66666667  0.66666667  0.88973085
Direct configuration=   228
  -0.00000000  0.00000000  0.51296282
   0.33333333  0.33333333  0.81207467
   0.33333333  0.33333333  0.43525750
   0.33333333  0.33333333  0.59046942
   0.66666667  0.66666667  0.73450423
   0.66666667  0.66666667  0.88973137
Direct configuration=   229
  -0.00000000  0.00000000  0.51296378
   0.33333333  0.33333333  0.81207303
   0.33333333  0.33333333  0.43525863
   0.33333333  0.33333333  0.59047049
   0.66666667  0.66666667  0.73450352
   0.66666667  0.66666667  0.88973055
Direct configuration=   230
  -0.00000000  0.00000000  0.51296426
   0.33333333  0.33333333  0.81207282
   0.33333333  0.33333333  0.43525866
   0.33333333  0.33333333  0.59047050
   0.66666667  0.66666667  0.73450341
   0.66666667  0.66666667  0.88973035
Direct configuration=   231
  -0.00000000  0.00000000  0.51296452
   0.33333333  0.33333333  0.81207327
   0.33333333  0.33333333  0.43525906
   0.33333333  0.33333333  0.59047081
   0.66666667  0.66666667  0.73450270
   0.66666667  0.66666667  0.88972964
Direct configuration=   232
  -0.00000000  0.00000000  0.51296466
   0.33333333  0.33333333  0.81207248
   0.33333333  0.33333333  0.43525920
   0.33333333  0.33333333  0.59047100
   0.66666667  0.66666667  0.73450281
   0.66666667  0.66666667  0.88972986
Direct configuration=   233
  -0.00000000  0.00000000  0.51296518
   0.33333333  0.33333333  0.81207229
   0.33333333  0.33333333  0.43525948
   0.33333333  0.33333333  0.59047118
   0.66666667  0.66666667  0.73450258
   0.66666667  0.66666667  0.88972929
Direct configuration=   234
  -0.00000000  0.00000000  0.51296497
   0.33333333  0.33333333  0.81207217
   0.33333333  0.33333333  0.43525972
   0.33333333  0.33333333  0.59047148
   0.66666667  0.66666667  0.73450233
   0.66666667  0.66666667  0.88972933
Direct configuration=   235
  -0.00000000  0.00000000  0.51296530
   0.33333333  0.33333333  0.81207189
   0.33333333  0.33333333  0.43525989
   0.33333333  0.33333333  0.59047165
   0.66666667  0.66666667  0.73450212
   0.66666667  0.66666667  0.88972915
Direct configuration=   236
  -0.00000000  0.00000000  0.51296524
   0.33333333  0.33333333  0.81207206
   0.33333333  0.33333333  0.43525999
   0.33333333  0.33333333  0.59047172
   0.66666667  0.66666667  0.73450203
   0.66666667  0.66666667  0.88972896
Direct configuration=   237
  -0.00000000  0.00000000  0.51296544
   0.33333333  0.33333333  0.81207183
   0.33333333  0.33333333  0.43526040
   0.33333333  0.33333333  0.59047205
   0.66666667  0.66666667  0.73450176
   0.66666667  0.66666667  0.88972853
Direct configuration=   238
  -0.00000000  0.00000000  0.51296557
   0.33333333  0.33333333  0.81207173
   0.33333333  0.33333333  0.43526036
   0.33333333  0.33333333  0.59047208
   0.66666667  0.66666667  0.73450164
   0.66666667  0.66666667  0.88972862
Direct configuration=   239
  -0.00000000  0.00000000  0.51296613
   0.33333333  0.33333333  0.81207161
   0.33333333  0.33333333  0.43526068
   0.33333333  0.33333333  0.59047224
   0.66666667  0.66666667  0.73450142
   0.66666667  0.66666667  0.88972793
Direct configuration=   240
  -0.00000000  0.00000000  0.51296600
   0.33333333  0.33333333  0.81207137
   0.33333333  0.33333333  0.43526089
   0.33333333  0.33333333  0.59047248
   0.66666667  0.66666667  0.73450134
   0.66666667  0.66666667  0.88972793
Direct configuration=   241
  -0.00000000  0.00000000  0.51296636
   0.33333333  0.33333333  0.81207075
   0.33333333  0.33333333  0.43526086
   0.33333333  0.33333333  0.59047252
   0.66666667  0.66666667  0.73450135
   0.66666667  0.66666667  0.88972815
Direct configuration=   242
  -0.00000000  0.00000000  0.51296639
   0.33333333  0.33333333  0.81207087
   0.33333333  0.33333333  0.43526111
   0.33333333  0.33333333  0.59047277
   0.66666667  0.66666667  0.73450099
   0.66666667  0.66666667  0.88972787
Direct configuration=   243
  -0.00000000  0.00000000  0.51296707
   0.33333333  0.33333333  0.81207048
   0.33333333  0.33333333  0.43526140
   0.33333333  0.33333333  0.59047294
   0.66666667  0.66666667  0.73450080
   0.66666667  0.66666667  0.88972731
Direct configuration=   244
  -0.00000000  0.00000000  0.51296673
   0.33333333  0.33333333  0.81207033
   0.33333333  0.33333333  0.43526154
   0.33333333  0.33333333  0.59047321
   0.66666667  0.66666667  0.73450065
   0.66666667  0.66666667  0.88972755
Direct configuration=   245
  -0.00000000  0.00000000  0.51296699
   0.33333333  0.33333333  0.81207034
   0.33333333  0.33333333  0.43526163
   0.33333333  0.33333333  0.59047330
   0.66666667  0.66666667  0.73450043
   0.66666667  0.66666667  0.88972731
Direct configuration=   246
  -0.00000000  0.00000000  0.51296731
   0.33333333  0.33333333  0.81206965
   0.33333333  0.33333333  0.43526207
   0.33333333  0.33333333  0.59047359
   0.66666667  0.66666667  0.73450035
   0.66666667  0.66666667  0.88972702
Direct configuration=   247
  -0.00000000  0.00000000  0.51296722
   0.33333333  0.33333333  0.81206998
   0.33333333  0.33333333  0.43526207
   0.33333333  0.33333333  0.59047373
   0.66666667  0.66666667  0.73450000
   0.66666667  0.66666667  0.88972700
Direct configuration=   248
  -0.00000000  0.00000000  0.51296714
   0.33333333  0.33333333  0.81207019
   0.33333333  0.33333333  0.43526194
   0.33333333  0.33333333  0.59047355
   0.66666667  0.66666667  0.73450016
   0.66666667  0.66666667  0.88972702
Direct configuration=   249
  -0.00000000  0.00000000  0.51296701
   0.33333333  0.33333333  0.81207025
   0.33333333  0.33333333  0.43526177
   0.33333333  0.33333333  0.59047328
   0.66666667  0.66666667  0.73450054
   0.66666667  0.66666667  0.88972713
Direct configuration=   250
  -0.00000000  0.00000000  0.51296772
   0.33333333  0.33333333  0.81206958
   0.33333333  0.33333333  0.43526218
   0.33333333  0.33333333  0.59047402
   0.66666667  0.66666667  0.73449955
   0.66666667  0.66666667  0.88972695
Direct configuration=   251
  -0.00000000  0.00000000  0.51296784
   0.33333333  0.33333333  0.81206963
   0.33333333  0.33333333  0.43526257
   0.33333333  0.33333333  0.59047389
   0.66666667  0.66666667  0.73449995
   0.66666667  0.66666667  0.88972612
Direct configuration=   252
  -0.00000000  0.00000000  0.51296790
   0.33333333  0.33333333  0.81206947
   0.33333333  0.33333333  0.43526239
   0.33333333  0.33333333  0.59047407
   0.66666667  0.66666667  0.73449964
   0.66666667  0.66666667  0.88972653
Direct configuration=   253
  -0.00000000  0.00000000  0.51296834
   0.33333333  0.33333333  0.81206902
   0.33333333  0.33333333  0.43526293
   0.33333333  0.33333333  0.59047446
   0.66666667  0.66666667  0.73449922
   0.66666667  0.66666667  0.88972603
