Bilayer WTe2/TiS2 2H (relaxed monolayers
   1.00000000000000     
     3.4053270000000002    0.0000000000000000    0.0000000000000000
     1.7026635000000001    2.9490996901930511    0.0000000000000000
     0.0000000000000000    0.0000000000000000   20.0000000000000000
   W    Te   Ti   S 
     1     2     1     2
Direct
     0.0000000000000000    0.0000000000000000    0.5020296621332723
     0.3333333333333357    0.3333333333333357    0.4084532563169275
     0.3333333333333357    0.3333333333333357    0.5960327881226226
     0.3333333333333357    0.3333333333333357    0.8189406405391559
     0.0000000000000000    0.0000000000000000    0.7441099977519843
     0.0000000000000000    0.0000000000000000    0.8924828455506220
 
  0.00000000E+00  0.00000000E+00  0.00000000E+00
  0.00000000E+00  0.00000000E+00  0.00000000E+00
  0.00000000E+00  0.00000000E+00  0.00000000E+00
  0.00000000E+00  0.00000000E+00  0.00000000E+00
  0.00000000E+00  0.00000000E+00  0.00000000E+00
  0.00000000E+00  0.00000000E+00  0.00000000E+00
