    4    4  600    1
  0.3482337E+02  0.2835862E-09  0.2835862E-09  0.2000000E-08  0.5000000E-15
  1.000000000000000E-004
  CAR 
 graphene_GaN_AA_prime relaxation        
     16     27     22
 
  0.1276756E-14  0.1276756E-14  0.1276756E-14  0.4444444E-02
      1        -18.969933   1.000000
      2        -18.595431   1.000000
      3         -7.380805   1.000000
      4         -7.007793   1.000000
      5         -5.159551   1.000000
      6         -5.159551   1.000000
      7         -2.102203   0.114679
      8         -2.102203   0.114676
      9          0.424320   0.000000
     10          1.658964   0.000000
     11          2.225721   0.000000
     12          2.271992   0.000000
     13          3.188874   0.000000
     14          3.597726   0.000000
     15          3.747548   0.000000
     16          3.747549   0.000000
     17          4.966297   0.000000
     18          5.155796   0.000000
     19          5.699652   0.000000
     20          7.448886   0.000000
     21          8.549562   0.000000
     22         11.007421   0.000000
 
  0.6666667E-01  0.8385688E-14  0.1276756E-14  0.2666667E-01
      1        -18.893937   1.000000
      2        -18.515028   1.000000
      3         -7.292777   1.000000
      4         -6.905806   1.000000
      5         -5.562947   1.000000
      6         -5.300620   1.000000
      7         -2.544282   1.000000
      8         -2.267774   0.999750
      9          0.601226   0.000000
     10          1.753455   0.000000
     11          2.339990   0.000000
     12          2.504142   0.000000
     13          3.301564   0.000000
     14          3.731892   0.000000
     15          3.820060   0.000000
     16          4.037370   0.000000
     17          4.768932   0.000000
     18          5.231247   0.000000
     19          5.821761   0.000000
     20          7.576822   0.000000
     21          8.591521   0.000000
     22         10.990589   0.000000
 
  0.1333333E+00  0.8398763E-14  0.1276756E-14  0.2666667E-01
      1        -18.667499   1.000000
      2        -18.274548   1.000000
      3         -7.030698   1.000000
      4         -6.605594   1.000000
      5         -6.575252   1.000000
      6         -5.664672   1.000000
      7         -3.628185   1.000000
      8         -2.712731   1.000000
      9          1.015586   0.000000
     10          2.029185   0.000000
     11          2.669481   0.000000
     12          2.690875   0.000000
     13          3.613756   0.000000
     14          4.102852   0.000000
     15          4.208185   0.000000
     16          4.390433   0.000000
     17          4.839564   0.000000
     18          5.423476   0.000000
     19          6.170076   0.000000
     20          7.921750   0.000000
     21          8.699925   0.000000
     22         10.500980   0.000000
 
  0.2000000E+00  0.1307549E-14  0.1276756E-14  0.2666667E-01
      1        -18.297055   1.000000
      2        -17.876853   1.000000
      3         -7.881601   1.000000
      4         -6.601224   1.000000
      5         -6.130573   1.000000
      6         -6.125740   1.000000
      7         -5.032879   1.000000
      8         -3.317057   1.000000
      9          1.588758   0.000000
     10          2.449393   0.000000
     11          2.497358   0.000000
     12          3.208054   0.000000
     13          3.362006   0.000000
     14          4.090044   0.000000
     15          4.645686   0.000000
     16          5.555916   0.000000
     17          5.679134   0.000000
     18          6.004820   0.000000
     19          6.680242   0.000000
     20          8.309369   0.000000
     21          8.846009   0.000000
     22          9.973210   0.000000
 
  0.2666667E+00  0.1298927E-14  0.1276756E-14  0.2666667E-01
      1        -17.799150   1.000000
      2        -17.327966   1.000000
      3         -9.281710   1.000000
      4         -6.592670   1.000000
      5         -6.546073   1.000000
      6         -6.018214   1.000000
      7         -5.502422   1.000000
      8         -3.952234   1.000000
      9          2.187694   0.000000
     10          2.291455   0.000000
     11          2.339555   0.000000
     12          2.927995   0.000000
     13          3.954533   0.000000
     14          4.674542   0.000000
     15          5.289586   0.000000
     16          6.024724   0.000000
     17          6.922000   0.000000
     18          7.230765   0.000000
     19          7.371221   0.000000
     20          8.434690   0.000000
     21          9.092608   0.000000
     22         10.010686   0.000000
 
  0.3333333E+00  0.8432446E-14  0.1276756E-14  0.2666667E-01
      1        -17.213492   1.000000
      2        -16.640818   1.000000
      3        -10.662946   1.000000
      4         -7.996566   1.000000
      5         -6.982239   1.000000
      6         -5.310518   1.000000
      7         -4.801245   1.000000
      8         -4.513726   1.000000
      9          1.181525   0.000000
     10          1.905254   0.000000
     11          3.124883   0.000000
     12          3.253082   0.000000
     13          4.875809   0.000000
     14          5.333841   0.000000
     15          5.978789   0.000000
     16          6.629021   0.000000
     17          7.588048   0.000000
     18          8.254205   0.000000
     19          8.664712   0.000000
     20          8.766007   0.000000
     21          9.401493   0.000000
     22         10.277911   0.000000
 
  0.4000000E+00  0.8396068E-14  0.1276756E-14  0.2666667E-01
      1        -16.630501   1.000000
      2        -15.850769   1.000000
      3        -11.937857   1.000000
      4         -9.203488   1.000000
      5         -7.259371   1.000000
      6         -4.927025   1.000000
      7         -4.547733   1.000000
      8         -4.139596   1.000000
      9          0.099724   0.000000
     10          1.696172   0.000000
     11          2.986699   0.000000
     12          4.196203   0.000000
     13          5.924924   0.000000
     14          6.226198   0.000000
     15          6.579820   0.000000
     16          7.440070   0.000000
     17          7.966115   0.000000
     18          9.013102   0.000000
     19          9.150761   0.000000
     20          9.526840   0.000000
     21          9.970519   0.000000
     22         10.202828   0.000000
 
  0.4666667E+00  0.1290977E-14  0.1276756E-14  0.2666667E-01
      1        -16.230817   1.000000
      2        -15.114044   1.000000
      3        -12.922945   1.000000
      4         -9.928947   1.000000
      5         -7.402609   1.000000
      6         -5.145050   1.000000
      7         -3.937624   1.000000
      8         -3.709514   1.000000
      9         -0.681699   0.000000
     10          1.586429   0.000000
     11          2.706488   0.000000
     12          5.046757   0.000000
     13          6.592460   0.000000
     14          7.054304   0.000000
     15          7.465193   0.000000
     16          8.049169   0.000000
     17          8.355512   0.000000
     18          8.728300   0.000000
     19          9.079122   0.000000
     20          9.388185   0.000000
     21          9.895334   0.000000
     22         10.273022   0.000000
 
  0.1333333E+00  0.6666667E-01  0.1276756E-14  0.2666667E-01
      1        -18.742644   1.000000
      2        -18.354552   1.000000
      3         -7.117698   1.000000
      4         -6.704666   1.000000
      5         -6.237417   1.000000
      6         -5.585118   1.000000
      7         -3.269601   1.000000
      8         -2.604045   1.000000
      9          0.890282   0.000000
     10          1.938760   0.000000
     11          2.563451   0.000000
     12          2.806943   0.000000
     13          3.513232   0.000000
     14          3.874362   0.000000
     15          3.987122   0.000000
     16          4.390727   0.000000
     17          4.753744   0.000000
     18          5.364074   0.000000
     19          6.060423   0.000000
     20          7.820306   0.000000
     21          8.667751   0.000000
     22         10.690458   0.000000
 
  0.2000000E+00  0.6666667E-01  0.1276756E-14  0.5333333E-01
      1        -18.443732   1.000000
      2        -18.035375   1.000000
      3         -7.332480   1.000000
      4         -6.771688   1.000000
      5         -6.314275   1.000000
      6         -6.062544   1.000000
      7         -4.441815   1.000000
      8         -3.193528   1.000000
      9          1.375873   0.000000
     10          2.290770   0.000000
     11          2.927005   0.000000
     12          3.000573   0.000000
     13          3.690647   0.000000
     14          3.906707   0.000000
     15          4.383677   0.000000
     16          4.448919   0.000000
     17          5.583849   0.000000
     18          5.973674   0.000000
     19          6.507713   0.000000
     20          8.240729   0.000000
     21          8.798301   0.000000
     22         10.062810   0.000000
 
  0.2666667E+00  0.6666667E-01  0.1276756E-14  0.5333333E-01
      1        -18.007817   1.000000
      2        -17.561763   1.000000
      3         -8.634611   1.000000
      4         -6.579109   1.000000
      5         -6.264448   1.000000
      6         -5.845596   1.000000
      7         -5.760919   1.000000
      8         -3.870505   1.000000
      9          2.027589   0.000000
     10          2.693891   0.000000
     11          2.734122   0.000000
     12          2.772882   0.000000
     13          3.641432   0.000000
     14          4.439678   0.000000
     15          5.053471   0.000000
     16          5.498078   0.000000
     17          5.873143   0.000000
     18          7.086156   0.000000
     19          7.390928   0.000000
     20          8.539601   0.000000
     21          9.001088   0.000000
     22          9.810580   0.000000
 
  0.3333333E+00  0.6666667E-01  0.1276756E-14  0.5333333E-01
      1        -17.460875   1.000000
      2        -16.942393   1.000000
      3         -9.994230   1.000000
      4         -7.297127   1.000000
      5         -7.040140   1.000000
      6         -5.615427   1.000000
      7         -5.094698   1.000000
      8         -4.506308   1.000000
      9          1.678368   0.000000
     10          2.405560   0.000000
     11          2.837940   0.000000
     12          3.140979   0.000000
     13          4.475137   0.000000
     14          5.052940   0.000000
     15          5.737147   0.000000
     16          6.357550   0.000000
     17          6.830394   0.000000
     18          7.613782   0.000000
     19          8.565865   0.000000
     20          8.822828   0.000000
     21          9.307773   0.000000
     22         10.124366   0.000000
 
  0.4000000E+00  0.6666667E-01  0.1276756E-14  0.5333333E-01
      1        -16.863410   1.000000
      2        -16.197580   1.000000
      3        -11.309973   1.000000
      4         -8.619576   1.000000
      5         -7.394689   1.000000
      6         -5.014470   1.000000
      7         -4.867413   1.000000
      8         -4.402445   1.000000
      9          0.573316   0.000000
     10          2.160618   0.000000
     11          3.143674   0.000000
     12          3.814334   0.000000
     13          5.474176   0.000000
     14          5.822321   0.000000
     15          6.458832   0.000000
     16          7.109789   0.000000
     17          7.843138   0.000000
     18          8.139496   0.000000
     19          8.900844   0.000000
     20          9.524008   0.000000
     21         10.061468   0.000000
     22         10.286188   0.000000
 
  0.4666667E+00  0.6666667E-01  0.1276756E-14  0.5333333E-01
      1        -16.346856   1.000000
      2        -15.395653   1.000000
      3        -12.469120   1.000000
      4         -9.601465   1.000000
      5         -7.616001   1.000000
      6         -5.339921   1.000000
      7         -4.136312   1.000000
      8         -3.837140   1.000000
      9         -0.394406   0.000000
     10          2.001831   0.000000
     11          2.874115   0.000000
     12          4.819025   0.000000
     13          6.525146   0.000000
     14          6.759511   0.000000
     15          6.992847   0.000000
     16          7.923472   0.000000
     17          8.229075   0.000000
     18          8.832265   0.000000
     19          9.179489   0.000000
     20          9.375501   0.000000
     21         10.060190   0.000000
     22         10.375681   0.000000
 
 -0.4666667E+00  0.6666667E-01  0.1276756E-14  0.2666667E-01
      1        -16.129026   1.000000
      2        -14.908093   1.000000
      3        -13.078030   1.000000
      4         -9.979362   1.000000
      5         -7.691071   1.000000
      6         -5.451753   1.000000
      7         -3.769598   1.000000
      8         -3.609185   1.000000
      9         -0.843839   0.000000
     10          1.947159   0.000000
     11          2.713936   0.000000
     12          5.416095   0.000000
     13          6.676116   0.000000
     14          7.335990   0.000000
     15          7.860368   0.000000
     16          8.185901   0.000000
     17          8.331054   0.000000
     18          8.630320   0.000000
     19          9.127269   0.000000
     20          9.249398   0.000000
     21          9.844064   0.000000
     22         10.113332   0.000000
 
  0.2666667E+00  0.1333333E+00  0.1276756E-14  0.2666667E-01
      1        -18.078145   1.000000
      2        -17.640079   1.000000
      3         -8.320880   1.000000
      4         -6.693295   1.000000
      5         -6.347219   1.000000
      6         -5.849834   1.000000
      7         -5.501400   1.000000
      8         -3.966310   1.000000
      9          1.937202   0.000000
     10          2.682556   0.000000
     11          2.917339   0.000000
     12          3.463745   0.000000
     13          3.535940   0.000000
     14          4.357621   0.000000
     15          4.386064   0.000000
     16          4.982158   0.000000
     17          5.828519   0.000000
     18          7.057264   0.000000
     19          7.463708   0.000000
     20          8.719616   0.000000
     21          8.984276   0.000000
     22          9.622497   0.000000
 
  0.3333333E+00  0.1333333E+00  0.1276756E-14  0.5333333E-01
      1        -17.587990   1.000000
      2        -17.094804   1.000000
      3         -9.472454   1.000000
      4         -7.323131   1.000000
      5         -6.723724   1.000000
      6         -5.770604   1.000000
      7         -5.249180   1.000000
      8         -4.773141   1.000000
      9          1.969360   0.000000
     10          2.675920   0.000000
     11          3.088466   0.000000
     12          3.461089   0.000000
     13          4.273211   0.000000
     14          4.922078   0.000000
     15          5.261916   0.000000
     16          5.641499   0.000000
     17          6.243313   0.000000
     18          7.735800   0.000000
     19          8.805826   0.000000
     20          8.976028   0.000000
     21          9.299351   0.000000
     22          9.772623   0.000000
 
  0.4000000E+00  0.1333333E+00  0.1276756E-14  0.5333333E-01
      1        -17.013952   1.000000
      2        -16.412429   1.000000
      3        -10.698510   1.000000
      4         -7.981012   1.000000
      5         -7.826616   1.000000
      6         -5.441998   1.000000
      7         -5.068690   1.000000
      8         -4.578825   1.000000
      9          0.931996   0.000000
     10          3.233716   0.000000
     11          3.250257   0.000000
     12          3.604514   0.000000
     13          5.194277   0.000000
     14          5.610615   0.000000
     15          6.394238   0.000000
     16          6.559057   0.000000
     17          6.961150   0.000000
     18          8.192303   0.000000
     19          8.794149   0.000000
     20          9.525040   0.000000
     21         10.274044   0.000000
     22         10.347975   0.000000
 
  0.4666667E+00  0.1333333E+00  0.1276756E-14  0.5333333E-01
      1        -16.446642   1.000000
      2        -15.626808   1.000000
      3        -11.887837   1.000000
      4         -9.072443   1.000000
      5         -8.168193   1.000000
      6         -5.907179   1.000000
      7         -4.304823   1.000000
      8         -3.954104   1.000000
      9         -0.084926   0.000000
     10          3.045679   0.000000
     11          3.114865   0.000000
     12          4.640977   0.000000
     13          6.251412   0.000000
     14          6.540151   0.000000
     15          7.149358   0.000000
     16          7.733288   0.000000
     17          7.803312   0.000000
     18          8.242801   0.000000
     19          8.979048   0.000000
     20          9.652604   0.000000
     21         10.064757   0.000000
     22         10.937297   0.000000
 
 -0.4666667E+00  0.1333333E+00  0.1276756E-14  0.5333333E-01
      1        -16.061325   1.000000
      2        -14.886394   1.000000
      3        -12.841542   1.000000
      4         -9.740031   1.000000
      5         -8.339945   1.000000
      6         -6.144700   1.000000
      7         -3.676815   1.000000
      8         -3.554065   1.000000
      9         -0.849060   0.000000
     10          2.901979   0.000000
     11          2.943844   0.000000
     12          5.676603   0.000000
     13          7.004890   0.000000
     14          7.234328   0.000000
     15          7.656724   0.000000
     16          8.280611   0.000000
     17          8.396443   0.000000
     18          8.764263   0.000000
     19          9.040785   0.000000
     20          9.543923   0.000000
     21          9.708660   0.000000
     22         10.130699   0.000000
 
  0.4000000E+00  0.2000000E+00  0.1276756E-14  0.2666667E-01
      1        -17.065749   1.000000
      2        -16.485032   1.000000
      3        -10.396714   1.000000
      4         -8.091919   1.000000
      5         -7.634499   1.000000
      6         -5.737679   1.000000
      7         -5.137277   1.000000
      8         -4.640670   1.000000
      9          1.068807   0.000000
     10          3.279857   0.000000
     11          3.536526   0.000000
     12          4.277482   0.000000
     13          5.097992   0.000000
     14          5.360656   0.000000
     15          5.550204   0.000000
     16          6.360503   0.000000
     17          6.910978   0.000000
     18          8.518898   0.000000
     19          8.772393   0.000000
     20          9.546231   0.000000
     21         10.162762   0.000000
     22         10.452027   0.000000
 
  0.4666667E+00  0.2000000E+00  0.1276756E-14  0.5333333E-01
      1        -16.503676   1.000000
      2        -15.751833   1.000000
      3        -11.406340   1.000000
      4         -8.683987   1.000000
      5         -8.544617   1.000000
      6         -6.501205   1.000000
      7         -4.399439   1.000000
      8         -4.023241   1.000000
      9          0.118560   0.000000
     10          3.284775   0.000000
     11          4.376673   0.000000
     12          4.527090   0.000000
     13          6.077886   0.000000
     14          6.380351   0.000000
     15          6.402820   0.000000
     16          7.189062   0.000000
     17          7.788493   0.000000
     18          8.506651   0.000000
     19          8.923846   0.000000
     20          9.527371   0.000000
     21         10.087681   0.000000
     22         10.971299   0.000000
 
 -0.4666667E+00  0.2000000E+00  0.1276756E-14  0.5333333E-01
      1        -16.028236   1.000000
      2        -14.954448   1.000000
      3        -12.405174   1.000000
      4         -9.285650   1.000000
      5         -9.035386   1.000000
      6         -6.956156   1.000000
      7         -3.649695   1.000000
      8         -3.534974   1.000000
      9         -0.768152   0.000000
     10          3.157265   0.000000
     11          4.284058   0.000000
     12          5.641108   0.000000
     13          7.039600   0.000000
     14          7.309251   0.000000
     15          7.586127   0.000000
     16          7.713547   0.000000
     17          8.248326   0.000000
     18          8.427174   0.000000
     19          9.075144   0.000000
     20          9.684524   0.000000
     21         10.003720   0.000000
     22         10.697669   0.000000
 
 -0.4000000E+00  0.2000000E+00  0.1276756E-14  0.2666667E-01
      1        -15.831848   1.000000
      2        -14.445225   1.000000
      3        -12.988542   1.000000
      4         -9.582405   1.000000
      5         -9.150281   1.000000
      6         -7.104487   1.000000
      7         -3.344092   1.000000
      8         -3.237638   1.000000
      9         -1.227182   0.000000
     10          3.084083   0.000000
     11          4.243681   0.000000
     12          6.510936   0.000000
     13          7.183302   0.000000
     14          7.315132   0.000000
     15          7.765212   0.000000
     16          8.219388   0.000000
     17          8.864601   0.000000
     18          9.072368   0.000000
     19          9.254291   0.000000
     20          9.365397   0.000000
     21          9.587363   0.000000
     22         10.354284   0.000000
 
 -0.4666667E+00  0.2666667E+00  0.1276756E-14  0.2666667E-01
      1        -16.019168   1.000000
      2        -14.989401   1.000000
      3        -12.163528   1.000000
      4         -9.365605   1.000000
      5         -8.961015   1.000000
      6         -7.413276   1.000000
      7         -3.647373   1.000000
      8         -3.531804   1.000000
      9         -0.721560   0.000000
     10          3.280694   0.000000
     11          5.327597   0.000000
     12          5.597830   0.000000
     13          6.503354   0.000000
     14          7.069199   0.000000
     15          7.280770   0.000000
     16          7.914776   0.000000
     17          8.137821   0.000000
     18          8.497567   0.000000
     19          9.028770   0.000000
     20          9.580699   0.000000
     21         10.199895   0.000000
     22         11.244509   0.000000
 
 -0.4000000E+00  0.2666667E+00  0.1276756E-14  0.5333333E-01
      1        -15.705760   1.000000
      2        -14.228004   1.000000
      3        -12.922243   1.000000
      4         -9.725368   1.000000
      5         -9.199432   1.000000
      6         -7.938678   1.000000
      7         -3.235358   1.000000
      8         -2.935740   1.000000
      9         -1.473489   0.000000
     10          3.287501   0.000000
     11          5.574418   0.000000
     12          6.681203   0.000000
     13          7.060667   0.000000
     14          7.119289   0.000000
     15          7.748908   0.000000
     16          8.095812   0.000000
     17          8.696838   0.000000
     18          9.068423   0.000000
     19          9.402384   0.000000
     20          9.982702   0.000000
     21         10.155546   0.000000
     22         10.615480   0.000000
 
 -0.3333333E+00  0.3333333E+00  0.1276756E-14  0.8888889E-02
      1        -15.582600   1.000000
      2        -13.525296   1.000000
      3        -13.525295   1.000000
      4         -9.993120   1.000000
      5         -8.900194   1.000000
      6         -8.562925   1.000000
      7         -3.126376   1.000000
      8         -2.200619   0.943130
      9         -2.200561   0.942941
     10          3.372634   0.000000
     11          6.563893   0.000000
     12          6.564856   0.000000
     13          6.843425   0.000000
     14          7.258158   0.000000
     15          7.722577   0.000000
     16          8.344416   0.000000
     17          8.787775   0.000000
     18          9.610880   0.000000
     19          9.664160   0.000000
     20         10.293404   0.000000
     21         10.466968   0.000000
     22         10.542289   0.000000
