Bilayer graphene/GaN AA_prime (relaxed monolayers)
 1.0000000000000000
  2.8358620900767075   0.0000000000000000   0.0000000000000000
  1.4179310450383538   2.4559286116356627   0.0000000000000000
  0.0000000000000000   0.0000000000000000  20.0000000000000000
   C   Ga   N
     2     1     1
Direct
  0.0000000000000000   0.0000000000000000   0.5000000000000000
  0.3333333333333357   0.3333333333333357   0.5000000000000000
  0.3333333333333333   0.3333333333333333   0.8250000000000000
  0.9999999999999976   0.9999999999999976   0.8250000000000000
