Bilayer WS2/WS2 3R (relaxed monolayers) 
   1.00000000000000     
     3.1617440000000001    0.0000000000000000    0.0000000000000000
     1.5808720000000001    2.7381506242630262    0.0000000000000000
     0.0000000000000000    0.0000000000000000   20.0000000000000000
   W    S 
     2     4
Direct
     0.0000000000000000   -0.0000000000000000    0.5002228951460531
     0.3333333333333357    0.3333333333333357    0.8040140787998411
     0.3333333333333357    0.3333333333333357    0.4214408233541834
     0.3333333333333357    0.3333333333333357    0.5788163846038948
     0.6666666666666714    0.6666666666666714    0.7253859243949000
     0.6666666666666714    0.6666666666666714    0.8827584823403294
 
  0.00000000E+00  0.00000000E+00  0.00000000E+00
  0.00000000E+00  0.00000000E+00  0.00000000E+00
  0.00000000E+00  0.00000000E+00  0.00000000E+00
  0.00000000E+00  0.00000000E+00  0.00000000E+00
  0.00000000E+00  0.00000000E+00  0.00000000E+00
  0.00000000E+00  0.00000000E+00  0.00000000E+00
