Bilayer WSe2/GaSe TM_H2 (relaxed monolay
    1.000000000000000     
     3.5345879999999998    0.0000000000000000    0.0000000000000000
     1.7672939999999999    3.0610429999116313    0.0000000000000000
     0.0000000000000000    0.0000000000000000   20.0000000000000000
  W               Se              Ga            
     1     4     2
Direct
    -0.0000000000000000    0.0000000000000000    0.5047832860550825
     0.3333333333333357    0.3333333333333357    0.4246091787810318
     0.3333333333333357    0.3333333333333357    0.5848432406949262
    -0.0000000000000000    0.0000000000000000    0.7398259461764521
     0.0000000000000000   -0.0000000000000000    0.9920370310967354
     0.6666666666666643    0.6666666666666643    0.8048860944698614
     0.6666666666666643    0.6666666666666643    0.9268628381192402
 
  0.00000000E+00  0.00000000E+00  0.00000000E+00
  0.00000000E+00  0.00000000E+00  0.00000000E+00
  0.00000000E+00  0.00000000E+00  0.00000000E+00
  0.00000000E+00  0.00000000E+00  0.00000000E+00
  0.00000000E+00  0.00000000E+00  0.00000000E+00
  0.00000000E+00  0.00000000E+00  0.00000000E+00
  0.00000000E+00  0.00000000E+00  0.00000000E+00
