generated by phonopy
   1.0
    10.1368387071583523    0.0000000000000000    0.0000000000000000
     5.0684193535791762    8.7787598344645392    0.0000000000000000
     0.0000000000000000    0.0000000000000000   20.0000000000000000
Mo S Te
  18   18   18
Direct
  0.0004459863690049  0.0000000000000000  0.5044316131313464
  0.3333333333333333  0.0000000000000000  0.5039856267623416
  0.6666666666666666  0.0000000000000000  0.5039856267623416
  0.0000000000000000  0.3333333333333333  0.5039856267623416
  0.3333333333333333  0.3333333333333333  0.5039856267623416
  0.6666666666666667  0.3333333333333333  0.5039856267623416
  0.0000000000000000  0.6666666666666666  0.5039856267623416
  0.3333333333333333  0.6666666666666666  0.5039856267623416
  0.6666666666666666  0.6666666666666666  0.5039856267623416
  0.1111111111111119  0.1111111111111119  0.8210369186521693
  0.4444444444444451  0.1111111111111119  0.8210369186521693
  0.7777777777777787  0.1111111111111119  0.8210369186521693
  0.1111111111111119  0.4444444444444452  0.8210369186521693
  0.4444444444444451  0.4444444444444452  0.8210369186521693
  0.7777777777777785  0.4444444444444452  0.8210369186521693
  0.1111111111111118  0.7777777777777786  0.8210369186521693
  0.4444444444444451  0.7777777777777786  0.8210369186521693
  0.7777777777777786  0.7777777777777786  0.8210369186521693
  0.1111111111111119  0.1111111111111119  0.4291294085492641
  0.4444444444444451  0.1111111111111119  0.4291294085492641
  0.7777777777777787  0.1111111111111119  0.4291294085492641
  0.1111111111111119  0.4444444444444452  0.4291294085492641
  0.4444444444444451  0.4444444444444452  0.4291294085492641
  0.7777777777777785  0.4444444444444452  0.4291294085492641
  0.1111111111111118  0.7777777777777786  0.4291294085492641
  0.4444444444444451  0.7777777777777786  0.4291294085492641
  0.7777777777777786  0.7777777777777786  0.4291294085492641
  0.1111111111111119  0.1111111111111119  0.5787769616829839
  0.4444444444444451  0.1111111111111119  0.5787769616829839
  0.7777777777777787  0.1111111111111119  0.5787769616829839
  0.1111111111111119  0.4444444444444452  0.5787769616829839
  0.4444444444444451  0.4444444444444452  0.5787769616829839
  0.7777777777777785  0.4444444444444452  0.5787769616829839
  0.1111111111111118  0.7777777777777786  0.5787769616829839
  0.4444444444444451  0.7777777777777786  0.5787769616829839
  0.7777777777777786  0.7777777777777786  0.5787769616829839
  0.2222222222222238  0.2222222222222238  0.7276579239031173
  0.5555555555555571  0.2222222222222238  0.7276579239031173
  0.8888888888888903  0.2222222222222238  0.7276579239031173
  0.2222222222222238  0.5555555555555571  0.7276579239031173
  0.5555555555555570  0.5555555555555571  0.7276579239031173
  0.8888888888888904  0.5555555555555571  0.7276579239031173
  0.2222222222222238  0.8888888888888904  0.7276579239031173
  0.5555555555555570  0.8888888888888904  0.7276579239031173
  0.8888888888888903  0.8888888888888904  0.7276579239031173
  0.2222222222222238  0.2222222222222238  0.9144131604501461
  0.5555555555555571  0.2222222222222238  0.9144131604501461
  0.8888888888888903  0.2222222222222238  0.9144131604501461
  0.2222222222222238  0.5555555555555571  0.9144131604501461
  0.5555555555555570  0.5555555555555571  0.9144131604501461
  0.8888888888888904  0.5555555555555571  0.9144131604501461
  0.2222222222222238  0.8888888888888904  0.9144131604501461
  0.5555555555555570  0.8888888888888904  0.9144131604501461
  0.8888888888888903  0.8888888888888904  0.9144131604501461
