Bilayer MoSe2/WS2 3R (relaxed monolayers
   1.00000000000000     
     3.2173200000000000    0.0000000000000000    0.0000000000000000
     1.6086600000000000    2.7862808521037499    0.0000000000000000
     0.0000000000000000    0.0000000000000000   20.0000000000000000
   Mo   Se   W    S 
     1     2     1     2
Direct
     0.0000000000000000   -0.0000000000000000    0.4992505431979042
     0.3333333333333357    0.3333333333333357    0.4142231286919487
     0.3333333333333357    0.3333333333333357    0.5840892738403612
     0.3333333333333357    0.3333333333333357    0.8107172166665430
     0.6666666666666714    0.6666666666666714    0.7330287165321053
     0.6666666666666714    0.6666666666666714    0.8884679067975289
 
  0.00000000E+00  0.00000000E+00  0.00000000E+00
  0.00000000E+00  0.00000000E+00  0.00000000E+00
  0.00000000E+00  0.00000000E+00  0.00000000E+00
  0.00000000E+00  0.00000000E+00  0.00000000E+00
  0.00000000E+00  0.00000000E+00  0.00000000E+00
  0.00000000E+00  0.00000000E+00  0.00000000E+00
