    2    2  600    1
  0.5271952E+02  0.2467291E-09  0.2467291E-09  0.2000000E-08  0.5000000E-15
  1.000000000000000E-004
  CAR 
 graphene relaxation                     
      8     27     11
 
  0.1276756E-14  0.1276756E-14  0.1276756E-14  0.4444444E-02
      1        -22.254139   1.000000
      2        -10.358630   1.000000
      3         -5.783379   1.000000
      4         -5.783378   1.000000
      5          0.519456   0.000000
      6          1.315944   0.000000
      7          1.669248   0.000000
      8          2.584653   0.000000
      9          3.037756   0.000000
     10          4.719908   0.000000
     11          5.324536   0.000000
 
  0.6666667E-01  0.8392319E-14  0.1276756E-14  0.2666667E-01
      1        -22.149208   1.000000
      2        -10.233419   1.000000
      3         -6.207796   1.000000
      4         -6.005060   1.000000
      5          0.661825   0.000000
      6          1.460163   0.000000
      7          1.815214   0.000000
      8          2.729292   0.000000
      9          3.182016   0.000000
     10          4.863106   0.000000
     11          5.447923   0.000000
 
  0.1333333E+00  0.8385202E-14  0.1276756E-14  0.2666667E-01
      1        -21.835057   1.000000
      2         -9.859861   1.000000
      3         -7.335185   1.000000
      4         -6.566882   1.000000
      5          1.088989   0.000000
      6          1.892341   0.000000
      7          2.253133   0.000000
      8          3.162817   0.000000
      9          3.614789   0.000000
     10          5.291663   0.000000
     11          5.590853   0.000000
 
  0.2000000E+00  0.1293217E-14  0.1276756E-14  0.2666667E-01
      1        -21.313975   1.000000
      2         -9.244992   1.000000
      3         -8.881093   1.000000
      4         -7.269423   1.000000
      5          1.800377   0.000000
      6          2.610018   0.000000
      7          2.982949   0.000000
      8          3.882597   0.000000
      9          4.334201   0.000000
     10          5.464978   0.000000
     11          5.765214   0.000000
 
  0.2666667E+00  0.1332597E-14  0.1276756E-14  0.2666667E-01
      1        -20.590249   1.000000
      2        -10.610725   1.000000
      3         -8.403978   1.000000
      4         -7.953059   1.000000
      5          2.793749   0.000000
      6          3.564651   0.000000
      7          4.004126   0.000000
      8          4.059701   0.000000
      9          4.913140   0.000000
     10          5.160933   0.000000
     11          5.401735   0.000000
 
  0.3333333E+00  0.8392713E-14  0.1276756E-14  0.2666667E-01
      1        -19.671526   1.000000
      2        -12.372642   1.000000
      3         -8.521803   1.000000
      4         -7.369936   1.000000
      5          2.144926   0.000000
      6          4.059059   0.000000
      7          4.926158   0.000000
      8          4.946019   0.000000
      9          5.324066   0.000000
     10          6.198461   0.000000
     11          6.659027   0.000000
 
  0.4000000E+00  0.8401094E-14  0.1276756E-14  0.2666667E-01
      1        -18.574308   1.000000
      2        -14.067814   1.000000
      3         -8.923020   1.000000
      4         -6.229313   1.000000
      5          0.402816   0.000000
      6          4.717124   0.000000
      7          5.641787   0.000000
      8          6.487289   0.000000
      9          6.925146   0.000000
     10          7.772855   0.000000
     11          8.240592   0.000000
 
  0.4666667E+00  0.1340107E-14  0.1276756E-14  0.2666667E-01
      1        -17.377865   1.000000
      2        -15.573079   1.000000
      3         -9.129453   1.000000
      4         -5.275913   1.000000
      5         -0.870768   0.000000
      6          4.619273   0.000000
      7          7.441782   0.000000
      8          8.308580   0.000000
      9          8.819741   0.000000
     10          9.483234   0.000000
     11          9.604432   0.000000
 
  0.1333333E+00  0.6666667E-01  0.1276756E-14  0.2666667E-01
      1        -21.939658   1.000000
      2         -9.984008   1.000000
      3         -6.932192   1.000000
      4         -6.448948   1.000000
      5          0.946666   0.000000
      6          1.748389   0.000000
      7          2.107169   0.000000
      8          3.018406   0.000000
      9          3.470673   0.000000
     10          5.149138   0.000000
     11          5.675835   0.000000
 
  0.2000000E+00  0.6666667E-01  0.1276756E-14  0.5333333E-01
      1        -21.522025   1.000000
      2         -9.489525   1.000000
      3         -8.179691   1.000000
      4         -7.172304   1.000000
      5          1.516266   0.000000
      6          2.323747   0.000000
      7          2.691103   0.000000
      8          3.595720   0.000000
      9          4.047926   0.000000
     10          5.717967   0.000000
     11          5.883293   0.000000
 
  0.2666667E+00  0.6666667E-01  0.1276756E-14  0.5333333E-01
      1        -20.899632   1.000000
      2         -9.758857   1.000000
      3         -8.760403   1.000000
      4         -7.925821   1.000000
      5          2.369360   0.000000
      6          3.180175   0.000000
      7          3.566867   0.000000
      8          4.443681   0.000000
      9          4.806926   0.000000
     10          4.909868   0.000000
     11          5.780615   0.000000
 
  0.3333333E+00  0.6666667E-01  0.1276756E-14  0.5333333E-01
      1        -20.078273   1.000000
      2        -11.473910   1.000000
      3         -8.583531   1.000000
      4         -7.818526   1.000000
      5          2.980953   0.000000
      6          3.502489   0.000000
      7          4.352756   0.000000
      8          4.733367   0.000000
      9          5.519257   0.000000
     10          5.619222   0.000000
     11          6.092152   0.000000
 
  0.4000000E+00  0.6666667E-01  0.1276756E-14  0.5333333E-01
      1        -19.068920   1.000000
      2        -13.188434   1.000000
      3         -9.083693   1.000000
      4         -6.714859   1.000000
      5          1.200629   0.000000
      6          4.889575   0.000000
      7          5.321943   0.000000
      8          5.768337   0.000000
      9          6.196659   0.000000
     10          7.050607   0.000000
     11          7.522013   0.000000
 
  0.4666667E+00  0.6666667E-01  0.1276756E-14  0.5333333E-01
      1        -17.902416   1.000000
      2        -14.801234   1.000000
      3         -9.394167   1.000000
      4         -5.601672   1.000000
      5         -0.359521   0.000000
      6          5.125064   0.000000
      7          6.611745   0.000000
      8          7.453624   0.000000
      9          7.945509   0.000000
     10          8.750110   0.000000
     11          9.243150   0.000000
 
 -0.4666667E+00  0.6666667E-01  0.1276756E-14  0.2666667E-01
      1        -16.951987   1.000000
      2        -15.904028   1.000000
      3         -9.499235   1.000000
      4         -5.015138   1.000000
      5         -1.101255   0.000000
      6          5.073818   0.000000
      7          8.453951   0.000000
      8          8.613402   0.000000
      9          9.201494   0.000000
     10          9.518725   0.000000
     11          9.980276   0.000000
 
  0.2666667E+00  0.1333333E+00  0.1276756E-14  0.2666667E-01
      1        -21.003090   1.000000
      2         -9.278704   1.000000
      3         -8.880019   1.000000
      4         -8.130701   1.000000
      5          2.228026   0.000000
      6          3.040843   0.000000
      7          3.421090   0.000000
      8          4.315846   0.000000
      9          4.770304   0.000000
     10          5.079486   0.000000
     11          6.427806   0.000000
 
  0.3333333E+00  0.1333333E+00  0.1276756E-14  0.5333333E-01
      1        -20.282960   1.000000
      2        -10.670507   1.000000
      3         -9.033252   1.000000
      4         -8.046125   1.000000
      5          3.221967   0.000000
      6          3.524942   0.000000
      7          4.047754   0.000000
      8          4.442843   0.000000
      9          5.321404   0.000000
     10          5.778197   0.000000
     11          6.813505   0.000000
 
  0.4000000E+00  0.1333333E+00  0.1276756E-14  0.5333333E-01
      1        -19.370080   1.000000
      2        -12.257366   1.000000
      3         -9.705060   1.000000
      4         -7.019093   1.000000
      5          1.862050   0.000000
      6          4.493294   0.000000
      7          5.319458   0.000000
      8          5.755395   0.000000
      9          6.605088   0.000000
     10          6.636714   0.000000
     11          7.103323   0.000000
 
  0.4666667E+00  0.1333333E+00  0.1276756E-14  0.5333333E-01
      1        -18.282300   1.000000
      2        -13.864867   1.000000
      3        -10.148188   1.000000
      4         -5.878380   1.000000
      5          0.239506   0.000000
      6          6.018677   0.000000
      7          6.480022   0.000000
      8          6.848206   0.000000
      9          7.362892   0.000000
     10          8.147695   0.000000
     11          8.669344   0.000000
 
 -0.4666667E+00  0.1333333E+00  0.1276756E-14  0.5333333E-01
      1        -17.100945   1.000000
      2        -15.323754   1.000000
      3        -10.369524   1.000000
      4         -4.902820   1.000000
      5         -0.994963   0.000000
      6          6.342616   0.000000
      7          7.840395   0.000000
      8          8.520991   0.000000
      9          9.254840   0.000000
     10          9.776390   0.000000
     11          9.811704   0.000000
 
  0.4000000E+00  0.2000000E+00  0.1276756E-14  0.2666667E-01
      1        -19.471120   1.000000
      2        -11.683842   1.000000
      3        -10.201221   1.000000
      4         -7.122475   1.000000
      5          2.133074   0.000000
      6          4.353849   0.000000
      7          5.163032   0.000000
      8          5.610388   0.000000
      9          6.452694   0.000000
     10          6.931919   0.000000
     11          8.061963   0.000000
 
  0.4666667E+00  0.2000000E+00  0.1276756E-14  0.5333333E-01
      1        -18.477236   1.000000
      2        -12.964137   1.000000
      3        -11.018931   1.000000
      4         -6.032626   1.000000
      5          0.661713   0.000000
      6          5.756555   0.000000
      7          6.523314   0.000000
      8          7.068448   0.000000
      9          7.829944   0.000000
     10          8.217863   0.000000
     11          8.428694   0.000000
 
 -0.4666667E+00  0.2000000E+00  0.1276756E-14  0.5333333E-01
      1        -17.335740   1.000000
      2        -14.384849   1.000000
      3        -11.445343   1.000000
      4         -4.899958   1.000000
      5         -0.722350   0.000000
      6          7.403499   0.000000
      7          7.938849   0.000000
      8          8.128885   0.000000
      9          8.819007   0.000000
     10          9.275588   0.000000
     11         10.084963   0.000000
 
 -0.4000000E+00  0.2000000E+00  0.1276756E-14  0.2666667E-01
      1        -16.412280   1.000000
      2        -15.417229   1.000000
      3        -11.578079   1.000000
      4         -4.253479   1.000000
      5         -1.457227   0.000000
      6          8.046940   0.000000
      7          8.572927   0.000000
      8          9.151643   0.000000
      9          9.379883   0.000000
     10         10.841208   0.000000
     11         10.856992   0.000000
 
 -0.4666667E+00  0.2666667E+00  0.1276756E-14  0.2666667E-01
      1        -17.423093   1.000000
      2        -13.746977   1.000000
      3        -12.137548   1.000000
      4         -4.912548   1.000000
      5         -0.580187   0.000000
      6          7.271384   0.000000
      7          7.706095   0.000000
      8          8.669905   0.000000
      9          9.080987   0.000000
     10          9.799894   0.000000
     11         10.063319   0.000000
 
 -0.4000000E+00  0.2666667E+00  0.1276756E-14  0.5333333E-01
      1        -16.289557   1.000000
      2        -14.789486   1.000000
      3        -12.677232   1.000000
      4         -3.836069   1.000000
      5         -1.711756   0.000000
      6          8.055134   0.000000
      7          8.955907   0.000000
      8          9.795414   0.000000
      9         10.455172   0.000000
     10         10.457219   0.000000
     11         10.584122   0.000000
 
 -0.3333333E+00  0.3333333E+00  0.1276756E-14  0.8888889E-02
      1        -15.338359   1.000000
      2        -15.338359   1.000000
      3        -13.286673   1.000000
      4         -2.754579   0.500000
      5         -2.754579   0.500000
      6          7.861802   0.000000
      7         10.122478   0.000000
      8         10.122478   0.000000
      9         10.732866   0.000000
     10         12.113612   0.000000
     11         12.114245   0.000000
