       N       E                     dE             d eps       ncg     rms          rms(c)
DAV:   1     0.505575878839E+02    0.50558E+02   -0.35109E+03   605   0.524E+02
DAV:   2    -0.162747122887E+02   -0.66832E+02   -0.54386E+02   737   0.991E+01
DAV:   3    -0.196917315737E+02   -0.34170E+01   -0.34165E+01   924   0.346E+01
DAV:   4    -0.197149356324E+02   -0.23204E-01   -0.23204E-01   792   0.292E+00
DAV:   5    -0.197151767087E+02   -0.24108E-03   -0.24108E-03  1001   0.221E-01    0.630E+00
DAV:   6    -0.188099734969E+02    0.90520E+00   -0.87954E-01   748   0.491E+00    0.371E+00
DAV:   7    -0.184601584447E+02    0.34982E+00   -0.11549E+00   847   0.550E+00    0.945E-01
DAV:   8    -0.184515889907E+02    0.85695E-02   -0.98094E-03   880   0.700E-01    0.957E-02
DAV:   9    -0.184497227282E+02    0.18663E-02   -0.71775E-04   814   0.119E-01    0.758E-02
DAV:  10    -0.184446862723E+02    0.50365E-02   -0.34100E-03   792   0.218E-01    0.467E-02
DAV:  11    -0.184441752775E+02    0.51099E-03   -0.23537E-04   704   0.687E-02    0.786E-02
DAV:  12    -0.184443449770E+02   -0.16970E-03   -0.11871E-04   693   0.518E-02    0.220E-02
DAV:  13    -0.184451294823E+02   -0.78451E-03   -0.74615E-04   693   0.800E-02    0.220E-02
DAV:  14    -0.184451439821E+02   -0.14500E-04   -0.22817E-05   649   0.180E-02    0.184E-02
DAV:  15    -0.184454218017E+02   -0.27782E-03   -0.53423E-05   715   0.256E-02    0.133E-02
DAV:  16    -0.184457269822E+02   -0.30518E-03   -0.18415E-05   715   0.217E-02    0.793E-03
DAV:  17    -0.184457487185E+02   -0.21736E-04   -0.13790E-06   825   0.518E-03    0.252E-03
DAV:  18    -0.184457923801E+02   -0.43662E-04   -0.91087E-07   682   0.427E-03    0.587E-04
DAV:  19    -0.184457949095E+02   -0.25293E-05   -0.51880E-08   748   0.967E-04    0.468E-04
DAV:  20    -0.184457966079E+02   -0.16984E-05   -0.25526E-08   671   0.504E-04    0.267E-05
DAV:  21    -0.184457966701E+02   -0.62199E-07   -0.29249E-10   825   0.794E-05
   1 F= -.18622971E+02 E0= -.18622720E+02  d E =-.186230E+02
