Bilayer WTe2/GaSe TM_H (relaxed monolaye
   1.00000000000000     
     3.6411950546479019    0.0000000000000000    0.0000000000000000
     1.8205975273239510    3.1533674174593505    0.0000000000000000
     0.0000000000000000    0.0000000000000000   20.0000000000000000
   W    Te   Ga   Se
     1     2     2     2
Direct
    -0.0000000000000000   -0.0000000000000000    0.4959271101106431
     0.3333333333333357    0.3333333333333357    0.4070573555007921
     0.3333333333333357    0.3333333333333357    0.5847652895426875
     0.3333333333333357    0.3333333333333357    0.9760979950330835
     0.3333333333333357    0.3333333333333357    0.0986814237163211
     0.6666666666666714    0.6666666666666714    0.9132952447170308
     0.6666666666666714    0.6666666666666714    0.1615910520596638
 
  0.00000000E+00  0.00000000E+00  0.00000000E+00
  0.00000000E+00  0.00000000E+00  0.00000000E+00
  0.00000000E+00  0.00000000E+00  0.00000000E+00
  0.00000000E+00  0.00000000E+00  0.00000000E+00
  0.00000000E+00  0.00000000E+00  0.00000000E+00
  0.00000000E+00  0.00000000E+00  0.00000000E+00
  0.00000000E+00  0.00000000E+00  0.00000000E+00
