Bilayer WTe2/InSe TM_H (relaxed monolaye
    1.000000000000000     
     3.7874520000000000    0.0000000000000000    0.0000000000000000
     1.8937260000000000    3.2800296476141795    0.0000000000000000
     0.0000000000000000    0.0000000000000000   20.0000000000000000
  W               Te              In              Se            
     1     2     2     2
Direct
    -0.0000000000000000    0.0000000000000000    0.4988857101394995
     0.3333333333333357    0.3333333333333357    0.4122257716507536
     0.3333333333333357    0.3333333333333357    0.5851480484110532
     0.3333333333333357    0.3333333333333357    0.8105297768714346
     0.3333333333333357    0.3333333333333357    0.9493248462268941
     0.6666666666666714    0.6666666666666714    0.7381274990056385
     0.6666666666666714    0.6666666666666714    0.0215234620515944
 
  0.00000000E+00  0.00000000E+00  0.00000000E+00
  0.00000000E+00  0.00000000E+00  0.00000000E+00
  0.00000000E+00  0.00000000E+00  0.00000000E+00
  0.00000000E+00  0.00000000E+00  0.00000000E+00
  0.00000000E+00  0.00000000E+00  0.00000000E+00
  0.00000000E+00  0.00000000E+00  0.00000000E+00
  0.00000000E+00  0.00000000E+00  0.00000000E+00
