Ga2 Se2                                 
   1.00000000000000     
     3.7725747120102913    0.0000000000000000    0.0000000000000000
     1.8862873560051456    3.2671455382756744    0.0000000000000000
     0.0000000000000000    0.0000000000000000   20.0000000000000000
   Ga   Se
     2     2
Direct
     0.0000000000000000    0.0000000000000000    0.4387756631607982
     0.0000000000000000    0.0000000000000000    0.5612243368392065
     0.3333333333333357    0.3333333333333357    0.3792532806533362
     0.3333333333333357    0.3333333333333357    0.6207467193466668
 
  0.00000000E+00  0.00000000E+00  0.00000000E+00
  0.00000000E+00  0.00000000E+00  0.00000000E+00
  0.00000000E+00  0.00000000E+00  0.00000000E+00
  0.00000000E+00  0.00000000E+00  0.00000000E+00
