Bilayer WS2/WSe2 2H (relaxed monolayers)
   1.00000000000000     
     3.2195571291794183    0.0000000000000000    0.0000000000000000
     1.6097785645897091    2.7882182628046737    0.0000000000000000
     0.0000000000000000    0.0000000000000000   20.0000000000000000
   W    S    Se
     2     2     2
Direct
    -0.0000000000000000   -0.0000000000000000    0.5061123495586245
     0.3333333333333357    0.3333333333333357    0.8189025955958725
     0.3333333333333357    0.3333333333333357    0.4283799321796386
     0.3333333333333357    0.3333333333333357    0.5837732770877476
    -0.0000000000000000   -0.0000000000000000    0.7333274563825426
     0.0000000000000000    0.0000000000000000    0.9045043891957917
 
  0.00000000E+00  0.00000000E+00  0.00000000E+00
  0.00000000E+00  0.00000000E+00  0.00000000E+00
  0.00000000E+00  0.00000000E+00  0.00000000E+00
  0.00000000E+00  0.00000000E+00  0.00000000E+00
  0.00000000E+00  0.00000000E+00  0.00000000E+00
  0.00000000E+00  0.00000000E+00  0.00000000E+00
