generated by phonopy                    
   1.00000000000000     
    10.2638999999999996    0.0000000000000000    0.0000000000000000
     5.1319499999999998    8.8887981419031004    0.0000000000000000
     0.0000000000000000    0.0000000000000000   20.0000000000000000
   Nb   Se
     9    18
Direct
     0.0000000000000000    0.0000000000000000    0.5000000000000000
     0.3333333333333357    0.0000000000000000    0.5000000000000000
     0.6666666666666643    0.0000000000000000    0.5000000000000000
     0.0000000000000000    0.3333333333333357    0.5000000000000000
     0.3333333333333357    0.3333333333333357    0.5000000000000000
     0.6666666666666643    0.3333333333333357    0.5000000000000000
     0.0000000000000000    0.6666666666666643    0.5000000000000000
     0.3333333333333357    0.6666666666666643    0.5000000000000000
     0.6666666666666643    0.6666666666666643    0.5000000000000000
     0.1106662700401060    0.1111111111111143    0.4150800713601797
     0.4444444444444429    0.1111111111111143    0.4155249124311808
     0.7777777777777786    0.1111111111111143    0.4155249124311808
     0.1111111111111143    0.4444444444444429    0.4155249124311808
     0.4444444444444429    0.4444444444444429    0.4155249124311808
     0.7777777777777786    0.4444444444444429    0.4155249124311808
     0.1111111111111143    0.7777777777777786    0.4155249124311808
     0.4444444444444429    0.7777777777777786    0.4155249124311808
     0.7777777777777786    0.7777777777777786    0.4155249124311808
     0.1111111111111143    0.1111111111111143    0.5844750875688192
     0.4444444444444429    0.1111111111111143    0.5844750875688192
     0.7777777777777786    0.1111111111111143    0.5844750875688192
     0.1111111111111143    0.4444444444444429    0.5844750875688192
     0.4444444444444429    0.4444444444444429    0.5844750875688192
     0.7777777777777786    0.4444444444444429    0.5844750875688192
     0.1111111111111143    0.7777777777777786    0.5844750875688192
     0.4444444444444429    0.7777777777777786    0.5844750875688192
     0.7777777777777786    0.7777777777777786    0.5844750875688192
 
  0.00000000E+00  0.00000000E+00  0.00000000E+00
  0.00000000E+00  0.00000000E+00  0.00000000E+00
  0.00000000E+00  0.00000000E+00  0.00000000E+00
  0.00000000E+00  0.00000000E+00  0.00000000E+00
  0.00000000E+00  0.00000000E+00  0.00000000E+00
  0.00000000E+00  0.00000000E+00  0.00000000E+00
  0.00000000E+00  0.00000000E+00  0.00000000E+00
  0.00000000E+00  0.00000000E+00  0.00000000E+00
  0.00000000E+00  0.00000000E+00  0.00000000E+00
  0.00000000E+00  0.00000000E+00  0.00000000E+00
  0.00000000E+00  0.00000000E+00  0.00000000E+00
  0.00000000E+00  0.00000000E+00  0.00000000E+00
  0.00000000E+00  0.00000000E+00  0.00000000E+00
  0.00000000E+00  0.00000000E+00  0.00000000E+00
  0.00000000E+00  0.00000000E+00  0.00000000E+00
  0.00000000E+00  0.00000000E+00  0.00000000E+00
  0.00000000E+00  0.00000000E+00  0.00000000E+00
  0.00000000E+00  0.00000000E+00  0.00000000E+00
  0.00000000E+00  0.00000000E+00  0.00000000E+00
  0.00000000E+00  0.00000000E+00  0.00000000E+00
  0.00000000E+00  0.00000000E+00  0.00000000E+00
  0.00000000E+00  0.00000000E+00  0.00000000E+00
  0.00000000E+00  0.00000000E+00  0.00000000E+00
  0.00000000E+00  0.00000000E+00  0.00000000E+00
  0.00000000E+00  0.00000000E+00  0.00000000E+00
  0.00000000E+00  0.00000000E+00  0.00000000E+00
  0.00000000E+00  0.00000000E+00  0.00000000E+00
