   27   27    1    1
  0.6758054E+02  0.1026390E-08  0.1026390E-08  0.2000000E-08  0.5000000E-15
  1.000000000000000E-004
  CAR 
 NbSe2 phonon                            
    225     13    143
 
  0.1276756E-14  0.1276756E-14  0.1276756E-14  0.4000000E-01
      1        -56.884571   1.000000
      2        -56.866702   1.000000
      3        -56.866073   1.000000
      4        -56.865493   1.000000
      5        -56.865372   1.000000
      6        -56.865259   1.000000
      7        -56.865117   1.000000
      8        -56.856328   1.000000
      9        -56.855957   1.000000
     10        -33.057549   1.000000
     11        -33.057161   1.000000
     12        -33.055928   1.000000
     13        -33.055515   1.000000
     14        -33.055412   1.000000
     15        -33.055350   1.000000
     16        -33.055286   1.000000
     17        -33.055117   1.000000
     18        -33.018608   1.000000
     19        -33.018545   1.000000
     20        -32.972254   1.000000
     21        -32.924542   1.000000
     22        -32.924076   1.000000
     23        -32.923940   1.000000
     24        -32.923822   1.000000
     25        -32.923709   1.000000
     26        -32.923624   1.000000
     27        -32.899896   1.000000
     28        -32.899556   1.000000
     29        -32.890057   1.000000
     30        -32.889697   1.000000
     31        -32.889621   1.000000
     32        -32.889380   1.000000
     33        -32.889372   1.000000
     34        -32.889262   1.000000
     35        -32.840951   1.000000
     36        -32.840779   1.000000
     37        -15.585182   1.000000
     38        -14.608652   1.000000
     39        -14.537089   1.000000
     40        -14.537001   1.000000
     41        -14.536872   1.000000
     42        -14.536794   1.000000
     43        -14.536714   1.000000
     44        -14.529432   1.000000
     45        -14.124946   1.000000
     46        -14.124754   1.000000
     47        -14.124638   1.000000
     48        -14.124605   1.000000
     49        -14.124482   1.000000
     50        -14.121178   1.000000
     51        -13.891684   1.000000
     52        -13.889119   1.000000
     53        -13.810376   1.000000
     54        -13.808594   1.000000
     55         -6.850695   1.000000
     56         -6.386066   1.000000
     57         -6.385002   1.000000
     58         -6.351207   1.000000
     59         -6.350681   1.000000
     60         -6.350673   1.000000
     61         -6.348382   1.000000
     62         -6.347467   1.000000
     63         -6.346132   1.000000
     64         -5.908982   1.000000
     65         -5.906921   1.000000
     66         -5.447566   1.000000
     67         -5.447255   1.000000
     68         -5.446815   1.000000
     69         -5.446000   1.000000
     70         -5.445104   1.000000
     71         -5.444897   1.000000
     72         -5.431371   1.000000
     73         -5.429102   1.000000
     74         -5.414674   1.000000
     75         -5.414387   1.000000
     76         -5.413934   1.000000
     77         -5.412646   1.000000
     78         -5.412337   1.000000
     79         -5.410048   1.000000
     80         -4.991317   1.000000
     81         -4.989160   1.000000
     82         -4.431935   1.000000
     83         -4.430027   1.000000
     84         -3.961138   1.000000
     85         -3.961013   1.000000
     86         -3.960914   1.000000
     87         -3.960568   1.000000
     88         -3.957033   1.000000
     89         -3.954726   1.000000
     90         -3.666956   1.000000
     91         -3.666528   1.000000
     92         -3.630578   1.000000
     93         -3.629258   1.000000
     94         -3.415536   1.000000
     95         -3.260705   1.000000
     96         -3.256094   1.000000
     97         -3.255901   1.000000
     98         -3.255380   1.000000
     99         -3.255141   1.000000
    100         -3.254900   1.000000
    101         -2.772325   1.000000
    102         -2.772264   1.000000
    103         -2.772142   1.000000
    104         -2.771998   1.000000
    105         -2.767496   1.000000
    106         -2.767201   1.000000
    107         -2.673679   1.000000
    108         -2.671722   1.000000
    109         -2.309100   1.000000
    110         -2.307045   1.000000
    111         -2.306842   1.000000
    112         -2.306822   1.000000
    113         -2.306469   1.000000
    114         -2.305342   1.000000
    115         -1.419127   0.000000
    116         -1.350791   0.000000
    117         -1.350391   0.000000
    118          0.203210   0.000000
    119          0.203706   0.000000
    120          0.667931   0.000000
    121          0.668178   0.000000
    122          0.670165   0.000000
    123          0.670330   0.000000
    124          0.670816   0.000000
    125          0.670906   0.000000
    126          0.713947   0.000000
    127          0.714987   0.000000
    128          0.715798   0.000000
    129          0.717349   0.000000
    130          0.717566   0.000000
    131          0.717644   0.000000
    132          1.144210   0.000000
    133          1.146384   0.000000
    134          1.306057   0.000000
    135          1.306967   0.000000
    136          1.406233   0.000000
    137          1.407368   0.000000
    138          1.532457   0.000000
    139          1.535269   0.000000
    140          1.535981   0.000000
    141          1.536994   0.000000
    142          1.537424   0.000000
    143          1.537994   0.000000
 
  0.2000000E+00  0.1302127E-14  0.1276756E-14  0.8000000E-01
      1        -56.883488   1.000000
      2        -56.870743   1.000000
      3        -56.867790   1.000000
      4        -56.867438   1.000000
      5        -56.863442   1.000000
      6        -56.862952   1.000000
      7        -56.861661   1.000000
      8        -56.856862   1.000000
      9        -56.856501   1.000000
     10        -33.098473   1.000000
     11        -33.077632   1.000000
     12        -33.077294   1.000000
     13        -33.072390   1.000000
     14        -33.072079   1.000000
     15        -33.029628   1.000000
     16        -33.029233   1.000000
     17        -32.999665   1.000000
     18        -32.996107   1.000000
     19        -32.995967   1.000000
     20        -32.969484   1.000000
     21        -32.936739   1.000000
     22        -32.929100   1.000000
     23        -32.928802   1.000000
     24        -32.917717   1.000000
     25        -32.917399   1.000000
     26        -32.913944   1.000000
     27        -32.901863   1.000000
     28        -32.901764   1.000000
     29        -32.901206   1.000000
     30        -32.900943   1.000000
     31        -32.899568   1.000000
     32        -32.889097   1.000000
     33        -32.888951   1.000000
     34        -32.876854   1.000000
     35        -32.853410   1.000000
     36        -32.843764   1.000000
     37        -15.531840   1.000000
     38        -14.843424   1.000000
     39        -14.661581   1.000000
     40        -14.658984   1.000000
     41        -14.583790   1.000000
     42        -14.373125   1.000000
     43        -14.370570   1.000000
     44        -14.272555   1.000000
     45        -14.264402   1.000000
     46        -14.180423   1.000000
     47        -14.179441   1.000000
     48        -14.049406   1.000000
     49        -14.048222   1.000000
     50        -14.005965   1.000000
     51        -13.930508   1.000000
     52        -13.927888   1.000000
     53        -13.830886   1.000000
     54        -13.829153   1.000000
     55         -6.779989   1.000000
     56         -6.734417   1.000000
     57         -6.513367   1.000000
     58         -6.512888   1.000000
     59         -6.319325   1.000000
     60         -6.318167   1.000000
     61         -6.182256   1.000000
     62         -6.181251   1.000000
     63         -6.149415   1.000000
     64         -6.148482   1.000000
     65         -6.110815   1.000000
     66         -5.848207   1.000000
     67         -5.673766   1.000000
     68         -5.673121   1.000000
     69         -5.425553   1.000000
     70         -5.424758   1.000000
     71         -5.352515   1.000000
     72         -5.347953   1.000000
     73         -5.346071   1.000000
     74         -5.335858   1.000000
     75         -5.197098   1.000000
     76         -5.196681   1.000000
     77         -5.183267   1.000000
     78         -5.182020   1.000000
     79         -4.937425   1.000000
     80         -4.838270   1.000000
     81         -4.837367   1.000000
     82         -4.473073   1.000000
     83         -4.471307   1.000000
     84         -4.204193   1.000000
     85         -4.202381   1.000000
     86         -4.150627   1.000000
     87         -4.049807   1.000000
     88         -4.048189   1.000000
     89         -3.844200   1.000000
     90         -3.690186   1.000000
     91         -3.613349   1.000000
     92         -3.579780   1.000000
     93         -3.544010   1.000000
     94         -3.542841   1.000000
     95         -3.364813   1.000000
     96         -3.233947   1.000000
     97         -3.232401   1.000000
     98         -3.074705   1.000000
     99         -3.042116   1.000000
    100         -3.040421   1.000000
    101         -3.028526   1.000000
    102         -3.027507   1.000000
    103         -2.992529   1.000000
    104         -2.985059   1.000000
    105         -2.983550   1.000000
    106         -2.777029   1.000000
    107         -2.628640   1.000000
    108         -2.616378   1.000000
    109         -2.274060   1.000000
    110         -2.174442   1.000000
    111         -2.174011   1.000000
    112         -2.158627   1.000000
    113         -2.157588   1.000000
    114         -2.129045   1.000000
    115         -1.477698   0.000000
    116         -1.477425   0.000000
    117         -1.446822   0.000000
    118          0.351788   0.000000
    119          0.352438   0.000000
    120          0.464953   0.000000
    121          0.465422   0.000000
    122          0.537820   0.000000
    123          0.599920   0.000000
    124          0.601829   0.000000
    125          0.707865   0.000000
    126          0.719055   0.000000
    127          0.811858   0.000000
    128          0.813456   0.000000
    129          0.919992   0.000000
    130          0.920863   0.000000
    131          0.947012   0.000000
    132          1.016269   0.000000
    133          1.081689   0.000000
    134          1.198591   0.000000
    135          1.236866   0.000000
    136          1.256243   0.000000
    137          1.279138   0.000000
    138          1.279561   0.000000
    139          1.457949   0.000000
    140          1.459265   0.000000
    141          1.625374   0.000000
    142          1.626683   0.000000
    143          1.655687   0.000000
 
  0.2000000E+00  0.2000000E+00  0.1276756E-14  0.8000000E-01
      1        -56.883489   1.000000
      2        -56.870697   1.000000
      3        -56.867909   1.000000
      4        -56.867400   1.000000
      5        -56.863348   1.000000
      6        -56.862984   1.000000
      7        -56.861684   1.000000
      8        -56.856865   1.000000
      9        -56.856500   1.000000
     10        -33.098651   1.000000
     11        -33.077476   1.000000
     12        -33.077323   1.000000
     13        -33.072364   1.000000
     14        -33.072099   1.000000
     15        -33.029357   1.000000
     16        -33.029254   1.000000
     17        -32.999836   1.000000
     18        -32.996098   1.000000
     19        -32.995990   1.000000
     20        -32.969483   1.000000
     21        -32.936729   1.000000
     22        -32.929145   1.000000
     23        -32.928774   1.000000
     24        -32.917738   1.000000
     25        -32.917382   1.000000
     26        -32.913935   1.000000
     27        -32.901930   1.000000
     28        -32.901757   1.000000
     29        -32.901264   1.000000
     30        -32.900911   1.000000
     31        -32.899437   1.000000
     32        -32.889264   1.000000
     33        -32.889000   1.000000
     34        -32.876707   1.000000
     35        -32.853560   1.000000
     36        -32.843614   1.000000
     37        -15.531834   1.000000
     38        -14.843332   1.000000
     39        -14.661570   1.000000
     40        -14.659146   1.000000
     41        -14.583801   1.000000
     42        -14.373112   1.000000
     43        -14.370703   1.000000
     44        -14.272376   1.000000
     45        -14.264543   1.000000
     46        -14.180458   1.000000
     47        -14.179151   1.000000
     48        -14.049440   1.000000
     49        -14.048018   1.000000
     50        -14.006242   1.000000
     51        -13.930506   1.000000
     52        -13.927906   1.000000
     53        -13.830890   1.000000
     54        -13.829135   1.000000
     55         -6.779974   1.000000
     56         -6.734553   1.000000
     57         -6.513333   1.000000
     58         -6.512790   1.000000
     59         -6.319269   1.000000
     60         -6.318197   1.000000
     61         -6.182222   1.000000
     62         -6.181194   1.000000
     63         -6.149653   1.000000
     64         -6.148342   1.000000
     65         -6.110660   1.000000
     66         -5.847946   1.000000
     67         -5.673639   1.000000
     68         -5.673103   1.000000
     69         -5.425865   1.000000
     70         -5.424805   1.000000
     71         -5.352262   1.000000
     72         -5.347698   1.000000
     73         -5.346896   1.000000
     74         -5.335323   1.000000
     75         -5.197319   1.000000
     76         -5.196611   1.000000
     77         -5.183447   1.000000
     78         -5.182278   1.000000
     79         -4.937789   1.000000
     80         -4.838581   1.000000
     81         -4.836731   1.000000
     82         -4.473163   1.000000
     83         -4.471462   1.000000
     84         -4.204189   1.000000
     85         -4.203545   1.000000
     86         -4.149957   1.000000
     87         -4.049653   1.000000
     88         -4.048383   1.000000
     89         -3.843845   1.000000
     90         -3.689333   1.000000
     91         -3.613707   1.000000
     92         -3.580154   1.000000
     93         -3.543936   1.000000
     94         -3.542664   1.000000
     95         -3.365376   1.000000
     96         -3.233090   1.000000
     97         -3.232400   1.000000
     98         -3.074759   1.000000
     99         -3.042147   1.000000
    100         -3.040414   1.000000
    101         -3.029068   1.000000
    102         -3.027508   1.000000
    103         -2.992630   1.000000
    104         -2.984891   1.000000
    105         -2.983164   1.000000
    106         -2.775533   1.000000
    107         -2.629728   1.000000
    108         -2.616254   1.000000
    109         -2.274798   1.000000
    110         -2.173844   1.000000
    111         -2.173417   1.000000
    112         -2.158939   1.000000
    113         -2.157355   1.000000
    114         -2.129683   1.000000
    115         -1.477733   0.000000
    116         -1.477332   0.000000
    117         -1.446875   0.000000
    118          0.351963   0.000000
    119          0.352247   0.000000
    120          0.464384   0.000000
    121          0.465009   0.000000
    122          0.537923   0.000000
    123          0.600412   0.000000
    124          0.601864   0.000000
    125          0.707763   0.000000
    126          0.719288   0.000000
    127          0.812253   0.000000
    128          0.813847   0.000000
    129          0.919562   0.000000
    130          0.920508   0.000000
    131          0.947163   0.000000
    132          1.017905   0.000000
    133          1.081007   0.000000
    134          1.199205   0.000000
    135          1.237466   0.000000
    136          1.254559   0.000000
    137          1.279157   0.000000
    138          1.279635   0.000000
    139          1.458102   0.000000
    140          1.458910   0.000000
    141          1.625315   0.000000
    142          1.627632   0.000000
    143          1.689554   0.000000
 
  0.1276756E-14  0.2000000E+00  0.1276756E-14  0.8000000E-01
      1        -56.883488   1.000000
      2        -56.870729   1.000000
      3        -56.867832   1.000000
      4        -56.867419   1.000000
      5        -56.863414   1.000000
      6        -56.862965   1.000000
      7        -56.861665   1.000000
      8        -56.856863   1.000000
      9        -56.856500   1.000000
     10        -33.098562   1.000000
     11        -33.077576   1.000000
     12        -33.077283   1.000000
     13        -33.072399   1.000000
     14        -33.072070   1.000000
     15        -33.029508   1.000000
     16        -33.029228   1.000000
     17        -32.999750   1.000000
     18        -32.996140   1.000000
     19        -32.995942   1.000000
     20        -32.969483   1.000000
     21        -32.936735   1.000000
     22        -32.929114   1.000000
     23        -32.928794   1.000000
     24        -32.917727   1.000000
     25        -32.917393   1.000000
     26        -32.913938   1.000000
     27        -32.901933   1.000000
     28        -32.901731   1.000000
     29        -32.901228   1.000000
     30        -32.900928   1.000000
     31        -32.899500   1.000000
     32        -32.889221   1.000000
     33        -32.888937   1.000000
     34        -32.876781   1.000000
     35        -32.853484   1.000000
     36        -32.843689   1.000000
     37        -15.531837   1.000000
     38        -14.843378   1.000000
     39        -14.661659   1.000000
     40        -14.658982   1.000000
     41        -14.583794   1.000000
     42        -14.373160   1.000000
     43        -14.370594   1.000000
     44        -14.272455   1.000000
     45        -14.264485   1.000000
     46        -14.180532   1.000000
     47        -14.179203   1.000000
     48        -14.049467   1.000000
     49        -14.048075   1.000000
     50        -14.006105   1.000000
     51        -13.930508   1.000000
     52        -13.927897   1.000000
     53        -13.830890   1.000000
     54        -13.829142   1.000000
     55         -6.779980   1.000000
     56         -6.734488   1.000000
     57         -6.513446   1.000000
     58         -6.512741   1.000000
     59         -6.319303   1.000000
     60         -6.318176   1.000000
     61         -6.182623   1.000000
     62         -6.180838   1.000000
     63         -6.149574   1.000000
     64         -6.148375   1.000000
     65         -6.110733   1.000000
     66         -5.848077   1.000000
     67         -5.673769   1.000000
     68         -5.673041   1.000000
     69         -5.425744   1.000000
     70         -5.424747   1.000000
     71         -5.352402   1.000000
     72         -5.347843   1.000000
     73         -5.346463   1.000000
     74         -5.335583   1.000000
     75         -5.197313   1.000000
     76         -5.196537   1.000000
     77         -5.183471   1.000000
     78         -5.182044   1.000000
     79         -4.937608   1.000000
     80         -4.838661   1.000000
     81         -4.836812   1.000000
     82         -4.473151   1.000000
     83         -4.471350   1.000000
     84         -4.204305   1.000000
     85         -4.202858   1.000000
     86         -4.150284   1.000000
     87         -4.049818   1.000000
     88         -4.048199   1.000000
     89         -3.844022   1.000000
     90         -3.689756   1.000000
     91         -3.613539   1.000000
     92         -3.579961   1.000000
     93         -3.543979   1.000000
     94         -3.542742   1.000000
     95         -3.365096   1.000000
     96         -3.233533   1.000000
     97         -3.232386   1.000000
     98         -3.074727   1.000000
     99         -3.042234   1.000000
    100         -3.040303   1.000000
    101         -3.028814   1.000000
    102         -3.027501   1.000000
    103         -2.992553   1.000000
    104         -2.985306   1.000000
    105         -2.983062   1.000000
    106         -2.776281   1.000000
    107         -2.629192   1.000000
    108         -2.616305   1.000000
    109         -2.274426   1.000000
    110         -2.174335   1.000000
    111         -2.173542   1.000000
    112         -2.158882   1.000000
    113         -2.157358   1.000000
    114         -2.129362   1.000000
    115         -1.477755   0.000000
    116         -1.477339   0.000000
    117         -1.446848   0.000000
    118          0.351829   0.000000
    119          0.352388   0.000000
    120          0.464517   0.000000
    121          0.465362   0.000000
    122          0.537877   0.000000
    123          0.600156   0.000000
    124          0.601855   0.000000
    125          0.707826   0.000000
    126          0.719162   0.000000
    127          0.812037   0.000000
    128          0.813671   0.000000
    129          0.919733   0.000000
    130          0.920723   0.000000
    131          0.947091   0.000000
    132          1.017088   0.000000
    133          1.081350   0.000000
    134          1.198869   0.000000
    135          1.237205   0.000000
    136          1.255406   0.000000
    137          1.278971   0.000000
    138          1.279760   0.000000
    139          1.457941   0.000000
    140          1.459154   0.000000
    141          1.626685   0.000000
    142          1.628389   0.000000
    143          1.657178   0.000000
 
  0.4000000E+00  0.8394274E-14  0.1276756E-14  0.8000000E-01
      1        -56.880425   1.000000
      2        -56.875897   1.000000
      3        -56.868874   1.000000
      4        -56.868494   1.000000
      5        -56.860948   1.000000
      6        -56.860377   1.000000
      7        -56.859531   1.000000
      8        -56.858310   1.000000
      9        -56.858022   1.000000
     10        -33.121920   1.000000
     11        -33.089118   1.000000
     12        -33.088783   1.000000
     13        -33.087073   1.000000
     14        -33.086780   1.000000
     15        -33.010213   1.000000
     16        -33.009766   1.000000
     17        -32.961650   1.000000
     18        -32.959901   1.000000
     19        -32.959753   1.000000
     20        -32.950064   1.000000
     21        -32.940767   1.000000
     22        -32.931834   1.000000
     23        -32.931541   1.000000
     24        -32.926349   1.000000
     25        -32.926223   1.000000
     26        -32.911051   1.000000
     27        -32.910716   1.000000
     28        -32.908464   1.000000
     29        -32.905226   1.000000
     30        -32.905096   1.000000
     31        -32.904814   1.000000
     32        -32.894085   1.000000
     33        -32.893889   1.000000
     34        -32.888901   1.000000
     35        -32.863450   1.000000
     36        -32.851729   1.000000
     37        -15.377293   1.000000
     38        -15.138190   1.000000
     39        -14.728570   1.000000
     40        -14.725946   1.000000
     41        -14.511893   1.000000
     42        -14.400782   1.000000
     43        -14.209880   1.000000
     44        -14.209179   1.000000
     45        -14.196815   1.000000
     46        -14.194111   1.000000
     47        -14.117653   1.000000
     48        -14.039321   1.000000
     49        -14.036757   1.000000
     50        -13.965336   1.000000
     51        -13.963940   1.000000
     52        -13.937767   1.000000
     53        -13.887055   1.000000
     54        -13.885412   1.000000
     55         -6.969328   1.000000
     56         -6.581072   1.000000
     57         -6.562373   1.000000
     58         -6.561784   1.000000
     59         -6.454000   1.000000
     60         -6.453274   1.000000
     61         -6.304131   1.000000
     62         -6.140392   1.000000
     63         -6.139327   1.000000
     64         -6.069429   1.000000
     65         -6.020460   1.000000
     66         -6.017971   1.000000
     67         -5.906251   1.000000
     68         -5.905342   1.000000
     69         -5.391166   1.000000
     70         -5.388140   1.000000
     71         -5.314028   1.000000
     72         -5.256695   1.000000
     73         -5.254534   1.000000
     74         -5.176466   1.000000
     75         -5.174193   1.000000
     76         -4.949696   1.000000
     77         -4.949072   1.000000
     78         -4.870775   1.000000
     79         -4.513104   1.000000
     80         -4.511509   1.000000
     81         -4.436517   1.000000
     82         -4.434979   1.000000
     83         -4.413210   1.000000
     84         -4.309472   1.000000
     85         -4.308451   1.000000
     86         -4.297975   1.000000
     87         -4.249262   1.000000
     88         -4.223363   1.000000
     89         -4.222158   1.000000
     90         -3.946149   1.000000
     91         -3.541416   1.000000
     92         -3.540142   1.000000
     93         -3.462605   1.000000
     94         -3.413020   1.000000
     95         -3.372234   1.000000
     96         -3.371154   1.000000
     97         -3.368220   1.000000
     98         -3.303325   1.000000
     99         -3.300698   1.000000
    100         -3.244435   1.000000
    101         -3.243345   1.000000
    102         -3.240680   1.000000
    103         -3.039255   1.000000
    104         -2.840981   1.000000
    105         -2.761487   1.000000
    106         -2.760962   1.000000
    107         -2.655723   1.000000
    108         -2.541990   1.000000
    109         -2.162891   1.000000
    110         -2.069332   0.999825
    111         -2.068856   0.999816
    112         -1.934945   0.410549
    113         -1.934220   0.402597
    114         -1.820442   0.000265
    115         -1.714907   0.000000
    116         -1.714602   0.000000
    117         -1.564863   0.000000
    118          0.313412   0.000000
    119          0.313848   0.000000
    120          0.507992   0.000000
    121          0.592371   0.000000
    122          0.593761   0.000000
    123          0.645524   0.000000
    124          0.647994   0.000000
    125          0.711009   0.000000
    126          0.763962   0.000000
    127          0.856787   0.000000
    128          0.865702   0.000000
    129          0.877863   0.000000
    130          0.879461   0.000000
    131          0.924709   0.000000
    132          1.006155   0.000000
    133          1.006676   0.000000
    134          1.064138   0.000000
    135          1.082379   0.000000
    136          1.083391   0.000000
    137          1.130704   0.000000
    138          1.329511   0.000000
    139          1.330327   0.000000
    140          1.530341   0.000000
    141          1.575515   0.000000
    142          1.577630   0.000000
    143          1.648116   0.000000
 
  0.4000000E+00  0.4000000E+00  0.1276756E-14  0.8000000E-01
      1        -56.880439   1.000000
      2        -56.875857   1.000000
      3        -56.868950   1.000000
      4        -56.868468   1.000000
      5        -56.860850   1.000000
      6        -56.860419   1.000000
      7        -56.859542   1.000000
      8        -56.858336   1.000000
      9        -56.858016   1.000000
     10        -33.122099   1.000000
     11        -33.088991   1.000000
     12        -33.088804   1.000000
     13        -33.087026   1.000000
     14        -33.086813   1.000000
     15        -33.009886   1.000000
     16        -33.009761   1.000000
     17        -32.961646   1.000000
     18        -32.959922   1.000000
     19        -32.959775   1.000000
     20        -32.950057   1.000000
     21        -32.940929   1.000000
     22        -32.931881   1.000000
     23        -32.931509   1.000000
     24        -32.926399   1.000000
     25        -32.926239   1.000000
     26        -32.911066   1.000000
     27        -32.910703   1.000000
     28        -32.908450   1.000000
     29        -32.905281   1.000000
     30        -32.904899   1.000000
     31        -32.904816   1.000000
     32        -32.894297   1.000000
     33        -32.893983   1.000000
     34        -32.889045   1.000000
     35        -32.863303   1.000000
     36        -32.851578   1.000000
     37        -15.377268   1.000000
     38        -15.138136   1.000000
     39        -14.728560   1.000000
     40        -14.726117   1.000000
     41        -14.511932   1.000000
     42        -14.400866   1.000000
     43        -14.209909   1.000000
     44        -14.208906   1.000000
     45        -14.196804   1.000000
     46        -14.194189   1.000000
     47        -14.117432   1.000000
     48        -14.039314   1.000000
     49        -14.036797   1.000000
     50        -13.965362   1.000000
     51        -13.963790   1.000000
     52        -13.938100   1.000000
     53        -13.887069   1.000000
     54        -13.885347   1.000000
     55         -6.969529   1.000000
     56         -6.581027   1.000000
     57         -6.562281   1.000000
     58         -6.561682   1.000000
     59         -6.453908   1.000000
     60         -6.453189   1.000000
     61         -6.304014   1.000000
     62         -6.140164   1.000000
     63         -6.139461   1.000000
     64         -6.069025   1.000000
     65         -6.020485   1.000000
     66         -6.018060   1.000000
     67         -5.905889   1.000000
     68         -5.905519   1.000000
     69         -5.391306   1.000000
     70         -5.388540   1.000000
     71         -5.313589   1.000000
     72         -5.256455   1.000000
     73         -5.255184   1.000000
     74         -5.176278   1.000000
     75         -5.174880   1.000000
     76         -4.949995   1.000000
     77         -4.949087   1.000000
     78         -4.870566   1.000000
     79         -4.513249   1.000000
     80         -4.512021   1.000000
     81         -4.436626   1.000000
     82         -4.435883   1.000000
     83         -4.413886   1.000000
     84         -4.309371   1.000000
     85         -4.308471   1.000000
     86         -4.297618   1.000000
     87         -4.248641   1.000000
     88         -4.223339   1.000000
     89         -4.221814   1.000000
     90         -3.946846   1.000000
     91         -3.541275   1.000000
     92         -3.539817   1.000000
     93         -3.462939   1.000000
     94         -3.413739   1.000000
     95         -3.371919   1.000000
     96         -3.370936   1.000000
     97         -3.367080   1.000000
     98         -3.303227   1.000000
     99         -3.300625   1.000000
    100         -3.243824   1.000000
    101         -3.243117   1.000000
    102         -3.240905   1.000000
    103         -3.037982   1.000000
    104         -2.840931   1.000000
    105         -2.762508   1.000000
    106         -2.760550   1.000000
    107         -2.656070   1.000000
    108         -2.541808   1.000000
    109         -2.163591   1.000000
    110         -2.068656   0.999812
    111         -2.068316   0.999805
    112         -1.935121   0.412482
    113         -1.934038   0.400603
    114         -1.820906   0.000279
    115         -1.714995   0.000000
    116         -1.714409   0.000000
    117         -1.565094   0.000000
    118          0.312809   0.000000
    119          0.313484   0.000000
    120          0.507888   0.000000
    121          0.592678   0.000000
    122          0.593505   0.000000
    123          0.646008   0.000000
    124          0.647872   0.000000
    125          0.710592   0.000000
    126          0.763731   0.000000
    127          0.857946   0.000000
    128          0.866193   0.000000
    129          0.878170   0.000000
    130          0.879907   0.000000
    131          0.925390   0.000000
    132          1.005604   0.000000
    133          1.007282   0.000000
    134          1.064762   0.000000
    135          1.082076   0.000000
    136          1.083124   0.000000
    137          1.130665   0.000000
    138          1.329412   0.000000
    139          1.330427   0.000000
    140          1.528799   0.000000
    141          1.575536   0.000000
    142          1.610285   0.000000
    143          1.646665   0.000000
 
  0.1276756E-14  0.4000000E+00  0.1276756E-14  0.8000000E-01
      1        -56.880429   1.000000
      2        -56.875885   1.000000
      3        -56.868901   1.000000
      4        -56.868482   1.000000
      5        -56.860923   1.000000
      6        -56.860391   1.000000
      7        -56.859525   1.000000
      8        -56.858324   1.000000
      9        -56.858018   1.000000
     10        -33.122010   1.000000
     11        -33.089073   1.000000
     12        -33.088768   1.000000
     13        -33.087081   1.000000
     14        -33.086772   1.000000
     15        -33.010053   1.000000
     16        -33.009759   1.000000
     17        -32.961647   1.000000
     18        -32.959951   1.000000
     19        -32.959725   1.000000
     20        -32.950062   1.000000
     21        -32.940849   1.000000
     22        -32.931850   1.000000
     23        -32.931531   1.000000
     24        -32.926412   1.000000
     25        -32.926192   1.000000
     26        -32.911060   1.000000
     27        -32.910711   1.000000
     28        -32.908456   1.000000
     29        -32.905261   1.000000
     30        -32.904988   1.000000
     31        -32.904816   1.000000
     32        -32.894229   1.000000
     33        -32.893901   1.000000
     34        -32.888971   1.000000
     35        -32.863376   1.000000
     36        -32.851654   1.000000
     37        -15.377280   1.000000
     38        -15.138164   1.000000
     39        -14.728658   1.000000
     40        -14.725939   1.000000
     41        -14.511912   1.000000
     42        -14.400825   1.000000
     43        -14.210002   1.000000
     44        -14.208934   1.000000
     45        -14.196830   1.000000
     46        -14.194128   1.000000
     47        -14.117543   1.000000
     48        -14.039324   1.000000
     49        -14.036771   1.000000
     50        -13.965371   1.000000
     51        -13.963842   1.000000
     52        -13.937935   1.000000
     53        -13.887071   1.000000
     54        -13.885372   1.000000
     55         -6.969431   1.000000
     56         -6.581052   1.000000
     57         -6.562558   1.000000
     58         -6.561498   1.000000
     59         -6.454314   1.000000
     60         -6.452873   1.000000
     61         -6.304072   1.000000
     62         -6.140320   1.000000
     63         -6.139350   1.000000
     64         -6.069220   1.000000
     65         -6.020498   1.000000
     66         -6.017999   1.000000
     67         -5.906177   1.000000
     68         -5.905321   1.000000
     69         -5.391242   1.000000
     70         -5.388335   1.000000
     71         -5.313810   1.000000
     72         -5.256589   1.000000
     73         -5.254840   1.000000
     74         -5.176378   1.000000
     75         -5.174532   1.000000
     76         -4.950020   1.000000
     77         -4.948907   1.000000
     78         -4.870672   1.000000
     79         -4.513283   1.000000
     80         -4.511659   1.000000
     81         -4.436748   1.000000
     82         -4.435251   1.000000
     83         -4.413558   1.000000
     84         -4.309510   1.000000
     85         -4.308378   1.000000
     86         -4.297787   1.000000
     87         -4.248935   1.000000
     88         -4.223903   1.000000
     89         -4.221449   1.000000
     90         -3.946500   1.000000
     91         -3.541829   1.000000
     92         -3.539499   1.000000
     93         -3.462777   1.000000
     94         -3.413385   1.000000
     95         -3.372135   1.000000
     96         -3.370990   1.000000
     97         -3.367639   1.000000
     98         -3.303398   1.000000
     99         -3.300532   1.000000
    100         -3.244237   1.000000
    101         -3.243188   1.000000
    102         -3.240730   1.000000
    103         -3.038618   1.000000
    104         -2.840954   1.000000
    105         -2.761997   1.000000
    106         -2.760755   1.000000
    107         -2.655901   1.000000
    108         -2.541897   1.000000
    109         -2.163239   1.000000
    110         -2.069133   0.999821
    111         -2.068452   0.999807
    112         -1.935114   0.412407
    113         -1.934045   0.400680
    114         -1.820674   0.000272
    115         -1.715028   0.000000
    116         -1.714428   0.000000
    117         -1.564979   0.000000
    118          0.312933   0.000000
    119          0.313841   0.000000
    120          0.507945   0.000000
    121          0.592504   0.000000
    122          0.593655   0.000000
    123          0.645765   0.000000
    124          0.647934   0.000000
    125          0.710801   0.000000
    126          0.763848   0.000000
    127          0.857325   0.000000
    128          0.865999   0.000000
    129          0.877992   0.000000
    130          0.879703   0.000000
    131          0.925044   0.000000
    132          1.005988   0.000000
    133          1.006863   0.000000
    134          1.064450   0.000000
    135          1.082193   0.000000
    136          1.083294   0.000000
    137          1.130685   0.000000
    138          1.329419   0.000000
    139          1.330282   0.000000
    140          1.529982   0.000000
    141          1.575039   0.000000
    142          1.586174   0.000000
    143          1.647610   0.000000
 
  0.4000000E+00  0.2000000E+00  0.1276756E-14  0.8000000E-01
      1        -56.881417   1.000000
      2        -56.872972   1.000000
      3        -56.872493   1.000000
      4        -56.864410   1.000000
      5        -56.863898   1.000000
      6        -56.860377   1.000000
      7        -56.859914   1.000000
      8        -56.858117   1.000000
      9        -56.857282   1.000000
     10        -33.109891   1.000000
     11        -33.109702   1.000000
     12        -33.092592   1.000000
     13        -33.074885   1.000000
     14        -33.054622   1.000000
     15        -33.054370   1.000000
     16        -32.973859   1.000000
     17        -32.973650   1.000000
     18        -32.973447   1.000000
     19        -32.966227   1.000000
     20        -32.964167   1.000000
     21        -32.942065   1.000000
     22        -32.941952   1.000000
     23        -32.920110   1.000000
     24        -32.919925   1.000000
     25        -32.912290   1.000000
     26        -32.911961   1.000000
     27        -32.910488   1.000000
     28        -32.910304   1.000000
     29        -32.909839   1.000000
     30        -32.909713   1.000000
     31        -32.904779   1.000000
     32        -32.902768   1.000000
     33        -32.877144   1.000000
     34        -32.874537   1.000000
     35        -32.874362   1.000000
     36        -32.849496   1.000000
     37        -15.427863   1.000000
     38        -14.964421   1.000000
     39        -14.961995   1.000000
     40        -14.535444   1.000000
     41        -14.440751   1.000000
     42        -14.438457   1.000000
     43        -14.319826   1.000000
     44        -14.319149   1.000000
     45        -14.160465   1.000000
     46        -14.158128   1.000000
     47        -14.076860   1.000000
     48        -14.075776   1.000000
     49        -14.033298   1.000000
     50        -13.972489   1.000000
     51        -13.954503   1.000000
     52        -13.952977   1.000000
     53        -13.881093   1.000000
     54        -13.855498   1.000000
     55         -6.826002   1.000000
     56         -6.824535   1.000000
     57         -6.644651   1.000000
     58         -6.498244   1.000000
     59         -6.286409   1.000000
     60         -6.256556   1.000000
     61         -6.255559   1.000000
     62         -6.249081   1.000000
     63         -6.140444   1.000000
     64         -6.139375   1.000000
     65         -6.136590   1.000000
     66         -5.998637   1.000000
     67         -5.997327   1.000000
     68         -5.485585   1.000000
     69         -5.484169   1.000000
     70         -5.337444   1.000000
     71         -5.336449   1.000000
     72         -5.301080   1.000000
     73         -5.298926   1.000000
     74         -5.200390   1.000000
     75         -5.176782   1.000000
     76         -5.176423   1.000000
     77         -5.101388   1.000000
     78         -4.664853   1.000000
     79         -4.663663   1.000000
     80         -4.568582   1.000000
     81         -4.550456   1.000000
     82         -4.470948   1.000000
     83         -4.420911   1.000000
     84         -4.418725   1.000000
     85         -4.288872   1.000000
     86         -4.287187   1.000000
     87         -4.273730   1.000000
     88         -4.154290   1.000000
     89         -3.823831   1.000000
     90         -3.798089   1.000000
     91         -3.796852   1.000000
     92         -3.516471   1.000000
     93         -3.474158   1.000000
     94         -3.445292   1.000000
     95         -3.443001   1.000000
     96         -3.365283   1.000000
     97         -3.363727   1.000000
     98         -3.359146   1.000000
     99         -3.166616   1.000000
    100         -3.165919   1.000000
    101         -3.023293   1.000000
    102         -3.006631   1.000000
    103         -3.004438   1.000000
    104         -2.933506   1.000000
    105         -2.932199   1.000000
    106         -2.792959   1.000000
    107         -2.790544   1.000000
    108         -2.574203   1.000000
    109         -2.062421   0.999637
    110         -2.061518   0.999602
    111         -2.032451   0.994325
    112         -2.030606   0.993423
    113         -1.983988   0.877181
    114         -1.982777   0.870079
    115         -1.689274   0.000000
    116         -1.608874   0.000000
    117         -1.519571   0.000000
    118          0.425266   0.000000
    119          0.427159   0.000000
    120          0.440626   0.000000
    121          0.441706   0.000000
    122          0.534143   0.000000
    123          0.536687   0.000000
    124          0.732971   0.000000
    125          0.733785   0.000000
    126          0.803444   0.000000
    127          0.804982   0.000000
    128          0.806330   0.000000
    129          0.860223   0.000000
    130          0.961268   0.000000
    131          0.961983   0.000000
    132          0.972552   0.000000
    133          0.973293   0.000000
    134          1.080174   0.000000
    135          1.081105   0.000000
    136          1.108115   0.000000
    137          1.317403   0.000000
    138          1.318129   0.000000
    139          1.360634   0.000000
    140          1.443905   0.000000
    141          1.463040   0.000000
    142          1.487298   0.000000
    143          1.648202   0.000000
 
  0.2000000E+00  0.4000000E+00  0.1276756E-14  0.8000000E-01
      1        -56.881419   1.000000
      2        -56.872887   1.000000
      3        -56.872579   1.000000
      4        -56.864351   1.000000
      5        -56.863972   1.000000
      6        -56.860282   1.000000
      7        -56.859980   1.000000
      8        -56.858136   1.000000
      9        -56.857273   1.000000
     10        -33.109946   1.000000
     11        -33.109749   1.000000
     12        -33.092506   1.000000
     13        -33.074971   1.000000
     14        -33.054501   1.000000
     15        -33.054339   1.000000
     16        -32.973761   1.000000
     17        -32.973674   1.000000
     18        -32.973457   1.000000
     19        -32.966303   1.000000
     20        -32.964169   1.000000
     21        -32.942099   1.000000
     22        -32.941917   1.000000
     23        -32.920126   1.000000
     24        -32.919917   1.000000
     25        -32.912331   1.000000
     26        -32.912046   1.000000
     27        -32.910396   1.000000
     28        -32.910326   1.000000
     29        -32.909853   1.000000
     30        -32.909686   1.000000
     31        -32.904775   1.000000
     32        -32.902772   1.000000
     33        -32.877239   1.000000
     34        -32.874496   1.000000
     35        -32.874370   1.000000
     36        -32.849422   1.000000
     37        -15.427854   1.000000
     38        -14.964508   1.000000
     39        -14.961898   1.000000
     40        -14.535459   1.000000
     41        -14.440864   1.000000
     42        -14.438447   1.000000
     43        -14.319938   1.000000
     44        -14.319050   1.000000
     45        -14.160516   1.000000
     46        -14.157978   1.000000
     47        -14.076992   1.000000
     48        -14.075473   1.000000
     49        -14.033244   1.000000
     50        -13.972534   1.000000
     51        -13.954524   1.000000
     52        -13.953140   1.000000
     53        -13.881174   1.000000
     54        -13.855399   1.000000
     55         -6.826239   1.000000
     56         -6.824372   1.000000
     57         -6.644636   1.000000
     58         -6.498159   1.000000
     59         -6.286435   1.000000
     60         -6.256717   1.000000
     61         -6.255277   1.000000
     62         -6.249309   1.000000
     63         -6.140248   1.000000
     64         -6.139403   1.000000
     65         -6.136517   1.000000
     66         -5.998652   1.000000
     67         -5.997042   1.000000
     68         -5.485697   1.000000
     69         -5.484197   1.000000
     70         -5.337754   1.000000
     71         -5.336421   1.000000
     72         -5.301321   1.000000
     73         -5.298492   1.000000
     74         -5.200541   1.000000
     75         -5.176748   1.000000
     76         -5.176493   1.000000
     77         -5.101470   1.000000
     78         -4.664759   1.000000
     79         -4.663976   1.000000
     80         -4.568433   1.000000
     81         -4.550583   1.000000
     82         -4.471091   1.000000
     83         -4.420835   1.000000
     84         -4.419039   1.000000
     85         -4.288889   1.000000
     86         -4.287070   1.000000
     87         -4.273755   1.000000
     88         -4.154116   1.000000
     89         -3.824145   1.000000
     90         -3.798054   1.000000
     91         -3.796541   1.000000
     92         -3.516652   1.000000
     93         -3.473855   1.000000
     94         -3.445417   1.000000
     95         -3.442733   1.000000
     96         -3.365313   1.000000
     97         -3.363827   1.000000
     98         -3.359180   1.000000
     99         -3.166523   1.000000
    100         -3.166077   1.000000
    101         -3.022689   1.000000
    102         -3.006496   1.000000
    103         -3.004469   1.000000
    104         -2.933408   1.000000
    105         -2.932138   1.000000
    106         -2.793181   1.000000
    107         -2.790398   1.000000
    108         -2.574447   1.000000
    109         -2.062321   0.999633
    110         -2.061306   0.999593
    111         -2.032638   0.994410
    112         -2.030786   0.993516
    113         -1.983996   0.877226
    114         -1.982730   0.869799
    115         -1.689290   0.000000
    116         -1.608800   0.000000
    117         -1.519661   0.000000
    118          0.425243   0.000000
    119          0.426883   0.000000
    120          0.440850   0.000000
    121          0.441408   0.000000
    122          0.534280   0.000000
    123          0.536573   0.000000
    124          0.733086   0.000000
    125          0.733733   0.000000
    126          0.803500   0.000000
    127          0.805166   0.000000
    128          0.806259   0.000000
    129          0.860871   0.000000
    130          0.961450   0.000000
    131          0.961906   0.000000
    132          0.972601   0.000000
    133          0.973321   0.000000
    134          1.080108   0.000000
    135          1.080908   0.000000
    136          1.108401   0.000000
    137          1.317259   0.000000
    138          1.318142   0.000000
    139          1.360429   0.000000
    140          1.443595   0.000000
    141          1.462335   0.000000
    142          1.487432   0.000000
    143          1.647913   0.000000
 
 -0.2000000E+00  0.2000000E+00  0.1276756E-14  0.8000000E-01
      1        -56.881414   1.000000
      2        -56.873103   1.000000
      3        -56.872360   1.000000
      4        -56.864502   1.000000
      5        -56.863766   1.000000
      6        -56.860560   1.000000
      7        -56.859793   1.000000
      8        -56.858078   1.000000
      9        -56.857304   1.000000
     10        -33.109796   1.000000
     11        -33.109696   1.000000
     12        -33.092678   1.000000
     13        -33.074798   1.000000
     14        -33.054794   1.000000
     15        -33.054350   1.000000
     16        -32.973923   1.000000
     17        -32.973600   1.000000
     18        -32.973498   1.000000
     19        -32.966151   1.000000
     20        -32.964166   1.000000
     21        -32.942144   1.000000
     22        -32.941874   1.000000
     23        -32.920168   1.000000
     24        -32.919855   1.000000
     25        -32.912249   1.000000
     26        -32.911859   1.000000
     27        -32.910615   1.000000
     28        -32.910268   1.000000
     29        -32.909932   1.000000
     30        -32.909641   1.000000
     31        -32.904775   1.000000
     32        -32.902767   1.000000
     33        -32.877055   1.000000
     34        -32.874538   1.000000
     35        -32.874385   1.000000
     36        -32.849572   1.000000
     37        -15.427872   1.000000
     38        -14.964443   1.000000
     39        -14.961982   1.000000
     40        -14.535432   1.000000
     41        -14.440782   1.000000
     42        -14.438320   1.000000
     43        -14.319903   1.000000
     44        -14.319057   1.000000
     45        -14.160415   1.000000
     46        -14.158280   1.000000
     47        -14.076860   1.000000
     48        -14.075938   1.000000
     49        -14.033354   1.000000
     50        -13.972441   1.000000
     51        -13.954467   1.000000
     52        -13.952834   1.000000
     53        -13.881016   1.000000
     54        -13.855595   1.000000
     55         -6.825779   1.000000
     56         -6.824686   1.000000
     57         -6.644667   1.000000
     58         -6.498329   1.000000
     59         -6.286387   1.000000
     60         -6.256427   1.000000
     61         -6.255780   1.000000
     62         -6.248876   1.000000
     63         -6.140606   1.000000
     64         -6.139375   1.000000
     65         -6.136660   1.000000
     66         -5.998604   1.000000
     67         -5.997632   1.000000
     68         -5.485701   1.000000
     69         -5.483915   1.000000
     70         -5.337132   1.000000
     71         -5.336462   1.000000
     72         -5.300811   1.000000
     73         -5.299397   1.000000
     74         -5.200246   1.000000
     75         -5.176915   1.000000
     76         -5.176251   1.000000
     77         -5.101306   1.000000
     78         -4.665043   1.000000
     79         -4.663267   1.000000
     80         -4.568739   1.000000
     81         -4.550337   1.000000
     82         -4.470789   1.000000
     83         -4.421068   1.000000
     84         -4.418337   1.000000
     85         -4.288741   1.000000
     86         -4.287389   1.000000
     87         -4.273720   1.000000
     88         -4.154467   1.000000
     89         -3.823511   1.000000
     90         -3.798564   1.000000
     91         -3.796726   1.000000
     92         -3.516303   1.000000
     93         -3.474451   1.000000
     94         -3.445176   1.000000
     95         -3.443266   1.000000
     96         -3.365115   1.000000
     97         -3.363759   1.000000
     98         -3.359126   1.000000
     99         -3.166705   1.000000
    100         -3.165757   1.000000
    101         -3.023895   1.000000
    102         -3.006733   1.000000
    103         -3.004441   1.000000
    104         -2.933643   1.000000
    105         -2.932209   1.000000
    106         -2.792734   1.000000
    107         -2.790693   1.000000
    108         -2.573964   1.000000
    109         -2.062473   0.999639
    110         -2.061804   0.999613
    111         -2.032262   0.994238
    112         -2.030403   0.993316
    113         -1.983952   0.876972
    114         -1.982854   0.870540
    115         -1.689257   0.000000
    116         -1.608948   0.000000
    117         -1.519481   0.000000
    118          0.425290   0.000000
    119          0.427419   0.000000
    120          0.440403   0.000000
    121          0.442017   0.000000
    122          0.534004   0.000000
    123          0.536803   0.000000
    124          0.732892   0.000000
    125          0.733808   0.000000
    126          0.803618   0.000000
    127          0.804738   0.000000
    128          0.806235   0.000000
    129          0.859591   0.000000
    130          0.960817   0.000000
    131          0.962288   0.000000
    132          0.972613   0.000000
    133          0.973176   0.000000
    134          1.080177   0.000000
    135          1.081356   0.000000
    136          1.107838   0.000000
    137          1.317428   0.000000
    138          1.318241   0.000000
    139          1.360823   0.000000
    140          1.444189   0.000000
    141          1.463768   0.000000
    142          1.487129   0.000000
    143          1.647691   0.000000
 
 -0.4000000E+00  0.2000000E+00  0.1276756E-14  0.8000000E-01
      1        -56.877806   1.000000
      2        -56.877448   1.000000
      3        -56.873417   1.000000
      4        -56.864505   1.000000
      5        -56.861054   1.000000
      6        -56.860649   1.000000
      7        -56.859153   1.000000
      8        -56.858505   1.000000
      9        -56.858345   1.000000
     10        -33.121110   1.000000
     11        -33.107756   1.000000
     12        -33.107550   1.000000
     13        -33.070279   1.000000
     14        -33.070084   1.000000
     15        -33.043692   1.000000
     16        -32.962486   1.000000
     17        -32.954562   1.000000
     18        -32.954373   1.000000
     19        -32.943891   1.000000
     20        -32.942555   1.000000
     21        -32.942346   1.000000
     22        -32.934126   1.000000
     23        -32.934013   1.000000
     24        -32.920884   1.000000
     25        -32.919710   1.000000
     26        -32.919614   1.000000
     27        -32.918456   1.000000
     28        -32.913503   1.000000
     29        -32.911565   1.000000
     30        -32.911359   1.000000
     31        -32.907086   1.000000
     32        -32.905927   1.000000
     33        -32.905756   1.000000
     34        -32.875530   1.000000
     35        -32.860641   1.000000
     36        -32.860348   1.000000
     37        -15.232174   1.000000
     38        -15.229543   1.000000
     39        -15.004764   1.000000
     40        -14.463586   1.000000
     41        -14.444139   1.000000
     42        -14.443262   1.000000
     43        -14.338504   1.000000
     44        -14.217909   1.000000
     45        -14.215451   1.000000
     46        -14.085994   1.000000
     47        -14.080260   1.000000
     48        -14.054445   1.000000
     49        -14.051753   1.000000
     50        -13.970701   1.000000
     51        -13.969157   1.000000
     52        -13.918788   1.000000
     53        -13.900949   1.000000
     54        -13.899385   1.000000
     55         -6.941712   1.000000
     56         -6.746137   1.000000
     57         -6.744769   1.000000
     58         -6.403070   1.000000
     59         -6.400781   1.000000
     60         -6.322637   1.000000
     61         -6.321994   1.000000
     62         -6.155422   1.000000
     63         -6.134650   1.000000
     64         -6.133719   1.000000
     65         -6.130859   1.000000
     66         -6.112906   1.000000
     67         -5.830921   1.000000
     68         -5.828528   1.000000
     69         -5.381289   1.000000
     70         -5.325345   1.000000
     71         -5.295479   1.000000
     72         -5.249861   1.000000
     73         -5.247046   1.000000
     74         -5.194444   1.000000
     75         -5.192755   1.000000
     76         -5.084629   1.000000
     77         -4.653840   1.000000
     78         -4.651348   1.000000
     79         -4.572899   1.000000
     80         -4.572170   1.000000
     81         -4.549340   1.000000
     82         -4.485017   1.000000
     83         -4.419587   1.000000
     84         -4.418595   1.000000
     85         -4.315340   1.000000
     86         -4.191094   1.000000
     87         -4.189666   1.000000
     88         -4.016267   1.000000
     89         -4.015264   1.000000
     90         -3.974697   1.000000
     91         -3.651351   1.000000
     92         -3.564501   1.000000
     93         -3.563129   1.000000
     94         -3.429567   1.000000
     95         -3.427416   1.000000
     96         -3.408702   1.000000
     97         -3.394543   1.000000
     98         -3.393026   1.000000
     99         -3.351690   1.000000
    100         -3.347863   1.000000
    101         -3.263376   1.000000
    102         -3.138705   1.000000
    103         -3.137066   1.000000
    104         -2.908044   1.000000
    105         -2.896979   1.000000
    106         -2.612352   1.000000
    107         -2.609050   1.000000
    108         -2.606069   1.000000
    109         -2.034564   0.995222
    110         -1.958467   0.669725
    111         -1.918190   0.241951
    112         -1.906415   0.150784
    113         -1.905577   0.145304
    114         -1.796259   0.000017
    115         -1.794806   0.000014
    116         -1.708378   0.000000
    117         -1.706356   0.000000
    118          0.370501   0.000000
    119          0.375676   0.000000
    120          0.535117   0.000000
    121          0.536200   0.000000
    122          0.568041   0.000000
    123          0.568963   0.000000
    124          0.710817   0.000000
    125          0.711156   0.000000
    126          0.774723   0.000000
    127          0.794924   0.000000
    128          0.797191   0.000000
    129          0.812477   0.000000
    130          0.836763   0.000000
    131          0.923840   0.000000
    132          0.925976   0.000000
    133          0.994924   0.000000
    134          1.103437   0.000000
    135          1.103706   0.000000
    136          1.167062   0.000000
    137          1.180845   0.000000
    138          1.251736   0.000000
    139          1.252479   0.000000
    140          1.389934   0.000000
    141          1.391640   0.000000
    142          1.786659   0.000000
    143          1.825450   0.000000
 
  0.4000000E+00 -0.4000000E+00  0.1276756E-14  0.8000000E-01
      1        -56.877983   1.000000
      2        -56.877234   1.000000
      3        -56.873455   1.000000
      4        -56.864522   1.000000
      5        -56.861164   1.000000
      6        -56.860432   1.000000
      7        -56.859197   1.000000
      8        -56.858667   1.000000
      9        -56.858228   1.000000
     10        -33.121289   1.000000
     11        -33.107629   1.000000
     12        -33.107531   1.000000
     13        -33.070337   1.000000
     14        -33.070104   1.000000
     15        -33.043515   1.000000
     16        -32.962319   1.000000
     17        -32.954583   1.000000
     18        -32.954342   1.000000
     19        -32.943893   1.000000
     20        -32.942494   1.000000
     21        -32.942336   1.000000
     22        -32.934287   1.000000
     23        -32.933987   1.000000
     24        -32.920890   1.000000
     25        -32.920060   1.000000
     26        -32.919550   1.000000
     27        -32.918576   1.000000
     28        -32.913367   1.000000
     29        -32.911612   1.000000
     30        -32.911299   1.000000
     31        -32.907065   1.000000
     32        -32.906007   1.000000
     33        -32.905700   1.000000
     34        -32.875683   1.000000
     35        -32.860543   1.000000
     36        -32.860204   1.000000
     37        -15.232122   1.000000
     38        -15.229533   1.000000
     39        -15.004823   1.000000
     40        -14.463675   1.000000
     41        -14.444140   1.000000
     42        -14.443371   1.000000
     43        -14.338407   1.000000
     44        -14.217809   1.000000
     45        -14.215520   1.000000
     46        -14.085879   1.000000
     47        -14.080022   1.000000
     48        -14.054337   1.000000
     49        -14.051978   1.000000
     50        -13.970592   1.000000
     51        -13.969338   1.000000
     52        -13.919100   1.000000
     53        -13.900873   1.000000
     54        -13.899247   1.000000
     55         -6.941921   1.000000
     56         -6.745693   1.000000
     57         -6.745004   1.000000
     58         -6.403054   1.000000
     59         -6.400670   1.000000
     60         -6.322698   1.000000
     61         -6.321822   1.000000
     62         -6.155507   1.000000
     63         -6.134809   1.000000
     64         -6.133211   1.000000
     65         -6.131462   1.000000
     66         -6.112488   1.000000
     67         -5.830849   1.000000
     68         -5.828131   1.000000
     69         -5.381822   1.000000
     70         -5.325559   1.000000
     71         -5.295060   1.000000
     72         -5.249508   1.000000
     73         -5.247805   1.000000
     74         -5.194413   1.000000
     75         -5.193024   1.000000
     76         -5.084930   1.000000
     77         -4.653970   1.000000
     78         -4.650777   1.000000
     79         -4.573066   1.000000
     80         -4.572743   1.000000
     81         -4.548849   1.000000
     82         -4.484478   1.000000
     83         -4.419848   1.000000
     84         -4.419112   1.000000
     85         -4.314740   1.000000
     86         -4.191207   1.000000
     87         -4.190822   1.000000
     88         -4.016088   1.000000
     89         -4.015127   1.000000
     90         -3.975368   1.000000
     91         -3.651311   1.000000
     92         -3.564495   1.000000
     93         -3.562935   1.000000
     94         -3.429805   1.000000
     95         -3.425610   1.000000
     96         -3.409426   1.000000
     97         -3.393791   1.000000
     98         -3.392885   1.000000
     99         -3.351534   1.000000
    100         -3.348443   1.000000
    101         -3.263167   1.000000
    102         -3.138310   1.000000
    103         -3.137024   1.000000
    104         -2.908046   1.000000
    105         -2.897241   1.000000
    106         -2.612197   1.000000
    107         -2.609275   1.000000
    108         -2.606123   1.000000
    109         -2.034184   0.995071
    110         -1.958886   0.674011
    111         -1.917578   0.236581
    112         -1.906625   0.152177
    113         -1.905469   0.144608
    114         -1.796076   0.000016
    115         -1.794770   0.000014
    116         -1.708306   0.000000
    117         -1.707053   0.000000
    118          0.369959   0.000000
    119          0.375484   0.000000
    120          0.534992   0.000000
    121          0.536235   0.000000
    122          0.567675   0.000000
    123          0.569383   0.000000
    124          0.710784   0.000000
    125          0.711427   0.000000
    126          0.774523   0.000000
    127          0.796403   0.000000
    128          0.796879   0.000000
    129          0.812055   0.000000
    130          0.837052   0.000000
    131          0.924559   0.000000
    132          0.925854   0.000000
    133          0.995357   0.000000
    134          1.103177   0.000000
    135          1.103429   0.000000
    136          1.167499   0.000000
    137          1.180688   0.000000
    138          1.251946   0.000000
    139          1.252190   0.000000
    140          1.388988   0.000000
    141          1.391654   0.000000
    142          1.785696   0.000000
    143          1.788684   0.000000
 
 -0.2000000E+00  0.4000000E+00  0.1276756E-14  0.8000000E-01
      1        -56.877873   1.000000
      2        -56.877370   1.000000
      3        -56.873428   1.000000
      4        -56.864510   1.000000
      5        -56.861101   1.000000
      6        -56.860573   1.000000
      7        -56.859161   1.000000
      8        -56.858571   1.000000
      9        -56.858295   1.000000
     10        -33.121199   1.000000
     11        -33.107717   1.000000
     12        -33.107516   1.000000
     13        -33.070315   1.000000
     14        -33.070087   1.000000
     15        -33.043603   1.000000
     16        -32.962402   1.000000
     17        -32.954513   1.000000
     18        -32.954418   1.000000
     19        -32.943890   1.000000
     20        -32.942539   1.000000
     21        -32.942330   1.000000
     22        -32.934193   1.000000
     23        -32.934010   1.000000
     24        -32.920887   1.000000
     25        -32.919894   1.000000
     26        -32.919583   1.000000
     27        -32.918508   1.000000
     28        -32.913433   1.000000
     29        -32.911551   1.000000
     30        -32.911370   1.000000
     31        -32.907081   1.000000
     32        -32.905921   1.000000
     33        -32.905766   1.000000
     34        -32.875606   1.000000
     35        -32.860589   1.000000
     36        -32.860280   1.000000
     37        -15.232080   1.000000
     38        -15.229606   1.000000
     39        -15.004793   1.000000
     40        -14.463635   1.000000
     41        -14.443981   1.000000
     42        -14.443471   1.000000
     43        -14.338453   1.000000
     44        -14.217817   1.000000
     45        -14.215528   1.000000
     46        -14.085937   1.000000
     47        -14.080142   1.000000
     48        -14.054385   1.000000
     49        -14.051871   1.000000
     50        -13.970615   1.000000
     51        -13.969279   1.000000
     52        -13.918946   1.000000
     53        -13.900912   1.000000
     54        -13.899314   1.000000
     55         -6.941819   1.000000
     56         -6.745915   1.000000
     57         -6.744886   1.000000
     58         -6.403030   1.000000
     59         -6.400758   1.000000
     60         -6.322620   1.000000
     61         -6.321956   1.000000
     62         -6.155467   1.000000
     63         -6.134682   1.000000
     64         -6.133507   1.000000
     65         -6.131145   1.000000
     66         -6.112713   1.000000
     67         -5.830867   1.000000
     68         -5.828345   1.000000
     69         -5.381560   1.000000
     70         -5.325453   1.000000
     71         -5.295269   1.000000
     72         -5.249689   1.000000
     73         -5.247416   1.000000
     74         -5.194429   1.000000
     75         -5.192890   1.000000
     76         -5.084780   1.000000
     77         -4.653894   1.000000
     78         -4.651073   1.000000
     79         -4.572958   1.000000
     80         -4.572488   1.000000
     81         -4.549089   1.000000
     82         -4.484752   1.000000
     83         -4.419749   1.000000
     84         -4.418823   1.000000
     85         -4.315037   1.000000
     86         -4.191134   1.000000
     87         -4.190260   1.000000
     88         -4.016179   1.000000
     89         -4.015189   1.000000
     90         -3.975045   1.000000
     91         -3.651329   1.000000
     92         -3.564476   1.000000
     93         -3.563053   1.000000
     94         -3.429594   1.000000
     95         -3.426614   1.000000
     96         -3.409057   1.000000
     97         -3.394212   1.000000
     98         -3.392914   1.000000
     99         -3.351614   1.000000
    100         -3.348147   1.000000
    101         -3.263271   1.000000
    102         -3.138506   1.000000
    103         -3.137045   1.000000
    104         -2.908036   1.000000
    105         -2.897114   1.000000
    106         -2.612218   1.000000
    107         -2.609202   1.000000
    108         -2.606115   1.000000
    109         -2.034376   0.995148
    110         -1.958675   0.671854
    111         -1.917897   0.239374
    112         -1.906518   0.151461
    113         -1.905511   0.144878
    114         -1.796163   0.000017
    115         -1.794793   0.000014
    116         -1.708326   0.000000
    117         -1.706719   0.000000
    118          0.370197   0.000000
    119          0.375609   0.000000
    120          0.535187   0.000000
    121          0.536098   0.000000
    122          0.567865   0.000000
    123          0.569161   0.000000
    124          0.710789   0.000000
    125          0.711301   0.000000
    126          0.774629   0.000000
    127          0.795712   0.000000
    128          0.796978   0.000000
    129          0.812270   0.000000
    130          0.836900   0.000000
    131          0.924240   0.000000
    132          0.925882   0.000000
    133          0.995140   0.000000
    134          1.103202   0.000000
    135          1.103671   0.000000
    136          1.167284   0.000000
    137          1.180762   0.000000
    138          1.251827   0.000000
    139          1.252348   0.000000
    140          1.389451   0.000000
    141          1.391657   0.000000
    142          1.786287   0.000000
    143          1.795168   0.000000
