 vasp.6.5.1 10Mar25 (build Aug 29 2025 00:30:47) complex                        
  
 executed on             LinuxIFC date 2026.06.04  22:58:39
 running  264 mpi-ranks, with    1 threads/rank, on    6 nodes
 distrk:  each k-point on   44 cores,    6 groups
 distr:  one band on NCORE=   4 cores,   11 groups


--------------------------------------------------------------------------------------------------------


 INCAR:
   SYSTEM = MoSe2_WS2_2H phonon
   PREC = Accurate
   ENCUT = 520
   EDIFF = 1E-6
   ISMEAR = 0
   SIGMA = 0.05
   LREAL = Auto
   ALGO = Normal
   AMIN = 0.01
   NELM = 200
   NSW = 0
   IBRION = -1
   IVDW = 12
   KPAR = 6
   NCORE = 4
   LWAVE = .FALSE.
   LCHARG = .FALSE.

 POTCAR:    PAW_PBE Mo_sv 02Feb2006               
 POTCAR:    PAW_PBE Se 06Sep2000                  
 POTCAR:    PAW_PBE W_sv 04Sep2015                
 POTCAR:    PAW_PBE S 06Sep2000                   
 POTCAR:    PAW_PBE Mo_sv 02Feb2006               
   SHA256 =  2731df97e41766cc617548c5a8267718fdef1f509ac6bafa01e745abea2bdfaa Mo_sv/POTCAR          
   COPYR  = (c) Copyright 02Feb2006 Georg Kresse                                                    
   COPYR  = This file is part of the software VASP. Any use, copying, and all other rights are regul
   COPYR  = If you do not have a valid VASP license, you may not use, copy or distribute this file. 
   VRHFIN =Mo: 4p5s4d                                                                               
   LEXCH  = PE                                                                                      
   EATOM  =  1862.2866 eV,  136.8742 Ry                                                             
                                                                                                    
   TITEL  = PAW_PBE Mo_sv 02Feb2006                                                                 
   LULTRA =        F    use ultrasoft PP ?                                                          
   IUNSCR =        1    unscreen: 0-lin 1-nonlin 2-no                                               
   RPACOR =    2.200    partial core radius                                                         
   POMASS =   95.940; ZVAL   =   14.000    mass and valenz                                          
   RCORE  =    2.500    outmost cutoff radius                                                       
   RWIGS  =    2.750; RWIGS  =    1.455    wigner-seitz radius (au A)                               
   ENMAX  =  242.676; ENMIN  =  182.007 eV                                                          
   ICORE  =        3    local potential                                                             
   LCOR   =        T    correct aug charges                                                         
   LPAW   =        T    paw PP                                                                      
   EAUG   =  446.014                                                                                
   DEXC   =    0.000                                                                                
   RMAX   =    2.563    core radius for proj-oper                                                   
   RAUG   =    1.300    factor for augmentation sphere                                              
   RDEP   =    2.641    radius for radial grids                                                     
   RDEPT  =    2.031    core radius for aug-charge                                                  
                                                                                                    
   Atomic configuration                                                                             
   11 entries                                                                                       
     n  l   j            E        occ.                                                              
     1  0  0.50    -19819.0341   2.0000                                                             
     2  0  0.50     -2799.0127   2.0000                                                             
     2  1  1.50     -2502.0276   6.0000                                                             
     3  0  0.50      -476.4449   2.0000                                                             
     3  1  1.50      -379.1496   6.0000                                                             
     3  2  2.50      -220.9367  10.0000                                                             
     4  0  0.50       -64.3378   2.0000                                                             
     5  0  0.50        -4.0862   1.0000                                                             
     4  1  1.50       -38.4773   6.0000                                                             
     4  2  2.50        -3.7535   5.0000                                                             
     4  3  2.50        -1.3606   0.0000                                                             
   Description                                                                                      
     l       E           TYP  RCUT    TYP  RCUT                                                     
     0    -64.3377829     23  2.100                                                                 
     0     -4.0861640     23  2.400                                                                 
     1    -38.4772993     23  2.100                                                                 
     1     13.6058260     23  2.100                                                                 
     2     -3.7534941     23  2.400                                                                 
     2     -5.1140767     23  2.400                                                                 
     3     -4.0817478     23  2.500                                                                 
  local pseudopotential read in
  partial core-charges read in
  partial kinetic energy density read in
  atomic valenz-charges read in
  non local Contribution for L=           0  read in
    real space projection operators read in
  non local Contribution for L=           0  read in
    real space projection operators read in
  non local Contribution for L=           1  read in
    real space projection operators read in
  non local Contribution for L=           1  read in
    real space projection operators read in
  non local Contribution for L=           2  read in
    real space projection operators read in
  non local Contribution for L=           2  read in
    real space projection operators read in
    PAW grid and wavefunctions read in
 
   number of l-projection  operators is LMAX  =           6
   number of lm-projection operators is LMMAX =          18
 
 POTCAR:    PAW_PBE Se 06Sep2000                  
   SHA256 =  eabb916e6b4c819dc065ce039373bc328651da483898f08fb9e49c498452bf12 Se/POTCAR             
   COPYR  = (c) Copyright 06Sep2000 Georg Kresse                                                    
   COPYR  = This file is part of the software VASP. Any use, copying, and all other rights are regul
   COPYR  = If you do not have a valid VASP license, you may not use, copy or distribute this file. 
   VRHFIN =Se: s2p4                                                                                 
   LEXCH  = PE                                                                                      
   EATOM  =   257.1286 eV,   18.8984 Ry                                                             
                                                                                                    
   TITEL  = PAW_PBE Se 06Sep2000                                                                    
   LULTRA =        F    use ultrasoft PP ?                                                          
   IUNSCR =        1    unscreen: 0-lin 1-nonlin 2-no                                               
   RPACOR =    1.900    partial core radius                                                         
   POMASS =   78.960; ZVAL   =    6.000    mass and valenz                                          
   RCORE  =    2.100    outmost cutoff radius                                                       
   RWIGS  =    2.200; RWIGS  =    1.164    wigner-seitz radius (au A)                               
   ENMAX  =  211.555; ENMIN  =  158.666 eV                                                          
   ICORE  =        3    local potential                                                             
   LCOR   =        T    correct aug charges                                                         
   LPAW   =        T    paw PP                                                                      
   EAUG   =  446.842                                                                                
   DEXC   =    0.000                                                                                
   RMAX   =    2.147    core radius for proj-oper                                                   
   RAUG   =    1.300    factor for augmentation sphere                                              
   RDEP   =    2.177    radius for radial grids                                                     
   RDEPT  =    1.928    core radius for aug-charge                                                  
                                                                                                    
   Atomic configuration                                                                             
   10 entries                                                                                       
     n  l   j            E        occ.                                                              
     1  0  0.50    -12503.4787   2.0000                                                             
     2  0  0.50     -1606.9547   2.0000                                                             
     2  1  1.50     -1413.3140   6.0000                                                             
     3  0  0.50      -213.4885   2.0000                                                             
     3  1  1.50      -152.9538   6.0000                                                             
     3  2  2.50       -53.1221  10.0000                                                             
     4  0  0.50       -17.2865   2.0000                                                             
     4  1  0.50        -6.5110   4.0000                                                             
     4  2  2.50        -6.8029   0.0000                                                             
     4  3  2.50        -6.8029   0.0000                                                             
   Description                                                                                      
     l       E           TYP  RCUT    TYP  RCUT                                                     
     0    -17.2865377     23  2.100                                                                 
     0    -15.3094411     23  2.100                                                                 
     1     -6.5110275     23  2.100                                                                 
     1     -0.0695192     23  2.100                                                                 
     2     -6.8029130     23  2.100                                                                 
     3     -1.3605826      7  2.100                                                                 
  local pseudopotential read in
  partial core-charges read in
  partial kinetic energy density read in
  atomic valenz-charges read in
  non local Contribution for L=           0  read in
    real space projection operators read in
  non local Contribution for L=           0  read in
    real space projection operators read in
  non local Contribution for L=           1  read in
    real space projection operators read in
  non local Contribution for L=           1  read in
    real space projection operators read in
  non local Contribution for L=           2  read in
    real space projection operators read in
    PAW grid and wavefunctions read in
 
   number of l-projection  operators is LMAX  =           5
   number of lm-projection operators is LMMAX =          13
 
 POTCAR:    PAW_PBE W_sv 04Sep2015                
   SHA256 =  931c2d770f65867ef30f3db3421922900fc0890ebac5c3e12f63b6a2064023d7 W_sv/POTCAR           
   COPYR  = (c) Copyright 04Sep2015 Georg Kresse                                                    
   COPYR  = This file is part of the software VASP. Any use, copying, and all other rights are regul
   COPYR  = If you do not have a valid VASP license, you may not use, copy or distribute this file. 
   VRHFIN =W : 5p6s5d                                                                               
   LEXCH  = PE                                                                                      
   EATOM  =  1865.5791 eV,  137.1162 Ry                                                             
                                                                                                    
   TITEL  = PAW_PBE W_sv 04Sep2015                                                                  
   LULTRA =        F    use ultrasoft PP ?                                                          
   IUNSCR =        1    unscreen: 0-lin 1-nonlin 2-no                                               
   RPACOR =    2.330    partial core radius                                                         
   POMASS =  183.850; ZVAL   =   14.000    mass and valenz                                          
   RCORE  =    2.500    outmost cutoff radius                                                       
   RWIGS  =    2.750; RWIGS  =    1.455    wigner-seitz radius (au A)                               
   ENMAX  =  223.057; ENMIN  =  167.293 eV                                                          
   ICORE  =        3    local potential                                                             
   LCOR   =        T    correct aug charges                                                         
   LPAW   =        T    paw PP                                                                      
   EAUG   =  373.438                                                                                
   DEXC   =    0.000                                                                                
   RMAX   =    2.565    core radius for proj-oper                                                   
   RAUG   =    1.300    factor for augmentation sphere                                              
   RDEP   =    2.539    radius for radial grids                                                     
   RDEPT  =    2.126    core radius for aug-charge                                                  
                                                                                                    
   Atomic configuration                                                                             
   15 entries                                                                                       
     n  l   j            E        occ.                                                              
     1  0  0.50    -69465.5834   2.0000                                                             
     2  0  0.50    -11986.2640   2.0000                                                             
     2  1  1.50    -10479.8613   6.0000                                                             
     3  0  0.50     -2759.0756   2.0000                                                             
     3  1  1.50     -2313.1855   6.0000                                                             
     3  2  2.50     -1801.1183  10.0000                                                             
     4  0  0.50      -567.6789   2.0000                                                             
     4  1  1.50      -421.4692   6.0000                                                             
     4  2  2.50      -236.3471  10.0000                                                             
     4  3  3.50       -31.2665  14.0000                                                             
     5  0  0.50       -77.1084   2.0000                                                             
     6  0  0.50        -5.1438   1.0000                                                             
     5  1  1.50       -41.3856   6.0000                                                             
     5  2  2.50        -3.3185   5.0000                                                             
     5  3  2.50        -1.3606   0.0000                                                             
   Description                                                                                      
     l       E           TYP  RCUT    TYP  RCUT                                                     
     0    -77.1084470     23  2.100                                                                 
     0     -5.1437956     23  2.300                                                                 
     1    -41.3855615     23  2.500                                                                 
     1     -2.7211652     23  2.500                                                                 
     2     -3.3185025     23  2.500                                                                 
     2     -1.5965151     23  2.500                                                                 
     3     -1.3605826     23  2.500                                                                 
  local pseudopotential read in
  partial core-charges read in
  partial kinetic energy density read in
  kinetic energy density of atom read in
  atomic valenz-charges read in
  non local Contribution for L=           0  read in
    real space projection operators read in
  non local Contribution for L=           0  read in
    real space projection operators read in
  non local Contribution for L=           1  read in
    real space projection operators read in
  non local Contribution for L=           1  read in
    real space projection operators read in
  non local Contribution for L=           2  read in
    real space projection operators read in
  non local Contribution for L=           2  read in
    real space projection operators read in
    PAW grid and wavefunctions read in
 
   number of l-projection  operators is LMAX  =           6
   number of lm-projection operators is LMMAX =          18
 
 POTCAR:    PAW_PBE S 06Sep2000                   
   SHA256 =  0fc7481fb0695f01bdc6462160264c5c84044ae9ec85a907d398b887a2bc3132 S/POTCAR              
   COPYR  = (c) Copyright 06Sep2000 Georg Kresse                                                    
   COPYR  = This file is part of the software VASP. Any use, copying, and all other rights are regul
   COPYR  = If you do not have a valid VASP license, you may not use, copy or distribute this file. 
   VRHFIN =S : s2p4                                                                                 
   LEXCH  = PE                                                                                      
   EATOM  =   276.8230 eV,   20.3459 Ry                                                             
                                                                                                    
   TITEL  = PAW_PBE S 06Sep2000                                                                     
   LULTRA =        F    use ultrasoft PP ?                                                          
   IUNSCR =        1    unscreen: 0-lin 1-nonlin 2-no                                               
   RPACOR =    1.500    partial core radius                                                         
   POMASS =   32.066; ZVAL   =    6.000    mass and valenz                                          
   RCORE  =    1.900    outmost cutoff radius                                                       
   RWIGS  =    2.200; RWIGS  =    1.164    wigner-seitz radius (au A)                               
   ENMAX  =  258.689; ENMIN  =  194.016 eV                                                          
   ICORE  =        2    local potential                                                             
   LCOR   =        T    correct aug charges                                                         
   LPAW   =        T    paw PP                                                                      
   EAUG   =  335.092                                                                                
   DEXC   =    0.000                                                                                
   RMAX   =    1.942    core radius for proj-oper                                                   
   RAUG   =    1.300    factor for augmentation sphere                                              
   RDEP   =    1.954    radius for radial grids                                                     
   RDEPT  =    1.744    core radius for aug-charge                                                  
                                                                                                    
   Atomic configuration                                                                             
    6 entries                                                                                       
     n  l   j            E        occ.                                                              
     1  0  0.50     -2405.8406   2.0000                                                             
     2  0  0.50      -211.7007   2.0000                                                             
     2  1  1.50      -156.4958   6.0000                                                             
     3  0  0.50       -17.2562   2.0000                                                             
     3  1  0.50        -7.0085   4.0000                                                             
     3  2  1.50        -6.8029   0.0000                                                             
   Description                                                                                      
     l       E           TYP  RCUT    TYP  RCUT                                                     
     0    -17.2561641     23  1.900                                                                 
     0    -15.8743224     23  1.900                                                                 
     1     -7.0085400     23  1.900                                                                 
     1     -2.7779785     23  1.900                                                                 
     2     -6.8029130     23  1.900                                                                 
  local pseudopotential read in
  partial core-charges read in
  partial kinetic energy density read in
  atomic valenz-charges read in
  non local Contribution for L=           0  read in
    real space projection operators read in
  non local Contribution for L=           0  read in
    real space projection operators read in
  non local Contribution for L=           1  read in
    real space projection operators read in
  non local Contribution for L=           1  read in
    real space projection operators read in
    PAW grid and wavefunctions read in
 
   number of l-projection  operators is LMAX  =           4
   number of lm-projection operators is LMMAX =           8
 
 Optimization of the real space projectors (new method)

 maximal supplied QI-value         = 15.12
 optimisation between [QCUT,QGAM] = [ 11.64, 23.28] = [ 37.95,151.78] Ry 
 Optimized for a Real-space Cutoff    1.53 Angstroem

   l    n(q)    QCUT    max X(q) W(low)/X(q) W(high)/X(q)  e(spline) 
   0     11    11.641     3.559    0.80E-05    0.27E-04    0.27E-06
   0     11    11.641    20.730    0.39E-04    0.26E-04    0.29E-06
   1     10    11.641     3.279    0.18E-05    0.27E-05    0.28E-07
   1     10    11.641     4.693    0.11E-03    0.12E-04    0.28E-06
   2     10    11.641    67.616    0.19E-03    0.29E-03    0.91E-06
   2     10    11.641    62.420    0.19E-03    0.29E-03    0.92E-06
 Optimization of the real space projectors (new method)

 maximal supplied QI-value         = 17.95
 optimisation between [QCUT,QGAM] = [ 11.67, 23.34] = [ 38.13,152.52] Ry 
 Optimized for a Real-space Cutoff    1.25 Angstroem

   l    n(q)    QCUT    max X(q) W(low)/X(q) W(high)/X(q)  e(spline) 
   0      9    11.669   133.320    0.17E-03    0.44E-04    0.69E-07
   0      9    11.669   111.601    0.18E-03    0.46E-04    0.72E-07
   1      8    11.669    47.222    0.22E-03    0.37E-03    0.10E-06
   1      8    11.669    33.775    0.22E-03    0.36E-03    0.10E-06
   2      8    11.669     3.720    0.19E-03    0.46E-04    0.50E-07
 Optimization of the real space projectors (new method)

 maximal supplied QI-value         = 15.12
 optimisation between [QCUT,QGAM] = [ 11.64, 23.28] = [ 37.95,151.78] Ry 
 Optimized for a Real-space Cutoff    1.53 Angstroem

   l    n(q)    QCUT    max X(q) W(low)/X(q) W(high)/X(q)  e(spline) 
   0     11    11.641     3.377    0.18E-04    0.34E-04    0.29E-06
   0     11    11.641    17.603    0.39E-04    0.41E-04    0.35E-06
   1     10    11.641     4.278    0.12E-04    0.15E-04    0.63E-07
   1     10    11.641     5.278    0.15E-04    0.52E-04    0.18E-06
   2     10    11.641    67.938    0.89E-04    0.14E-03    0.15E-06
   2     10    11.641    59.529    0.87E-04    0.14E-03    0.15E-06
 Optimization of the real space projectors (new method)

 maximal supplied QI-value         = 19.84
 optimisation between [QCUT,QGAM] = [ 11.51, 23.22] = [ 37.09,150.92] Ry 
 Optimized for a Real-space Cutoff    1.21 Angstroem

   l    n(q)    QCUT    max X(q) W(low)/X(q) W(high)/X(q)  e(spline) 
   0      8    11.508   187.594    0.96E-04    0.18E-03    0.54E-07
   0      8    11.508   164.243    0.96E-04    0.18E-03    0.54E-07
   1      8    11.508    67.533    0.18E-03    0.65E-04    0.94E-07
   1      8    11.508    50.729    0.18E-03    0.63E-04    0.92E-07
  PAW_PBE Mo_sv 02Feb2006               :
 energy of atom  1       EATOM=-1862.2866
 kinetic energy error for atom=    0.0070 (will be added to EATOM!!)
  PAW_PBE Se 06Sep2000                  :
 energy of atom  2       EATOM= -257.1286
 kinetic energy error for atom=    0.0007 (will be added to EATOM!!)
  PAW_PBE W_sv 04Sep2015                :
 energy of atom  3       EATOM=-1865.5791
 kinetic energy error for atom=    0.0026 (will be added to EATOM!!)
  PAW_PBE S 06Sep2000                   :
 energy of atom  4       EATOM= -276.8230
 kinetic energy error for atom=    0.0016 (will be added to EATOM!!)
 
 
 POSCAR: generated by phonopy
  positions in direct lattice
  No initial velocities read in
 IVDW         = 12
 VDW_S6       =    1.0000
 VDW_S8       =    0.7875
 VDW_A1       =    0.4289
 VDW_A2       =    4.4407
 VDW_RADIUS   =   50.2022 A
 VDW_CNRADIUS =   21.1671 A


 exchange-correlation table for PE
   RHO(1)=    0.500       N(1)  =     2000
   RHO(2)=  100.500       N(2)  =     4000
 


--------------------------------------------------------------------------------------------------------


 ion  position               nearest neighbor table
   1  0.000  0.000  0.507-  21 2.52  25 2.52  19 2.52  16 2.52  12 2.52  10 2.52   2 3.25   3 3.25
                             4 3.25   6 3.25   7 3.25   8 3.25
   2  0.333  0.000  0.507-  19 2.52  20 2.52  26 2.52  10 2.52  11 2.52  17 2.52   3 3.25   9 3.25
                             8 3.25   1 3.25   4 3.25   5 3.25
   3  0.667  0.000  0.507-  20 2.52  27 2.52  21 2.52  18 2.52  11 2.52  12 2.52   2 3.25   5 3.25
                             7 3.25   9 3.25   1 3.25   6 3.25
   4  0.000  0.333  0.507-  19 2.52  22 2.52  24 2.52  10 2.52  13 2.52  15 2.52   7 3.25   9 3.25
                             1 3.25   2 3.25   5 3.25   6 3.25
   5  0.333  0.333  0.507-  23 2.52  22 2.52  20 2.52  14 2.52  11 2.52  13 2.52   8 3.25   6 3.25
                             7 3.25   3 3.25   4 3.25   2 3.25
   6  0.667  0.333  0.507-  21 2.52  23 2.52  24 2.52  12 2.52  14 2.52  15 2.52   8 3.25   9 3.25
                             5 3.25   1 3.25   3 3.25   4 3.25
   7  0.000  0.667  0.507-  22 2.52  27 2.52  25 2.52  18 2.52  13 2.52  16 2.52   4 3.25   5 3.25
                             8 3.25   9 3.25   1 3.25   3 3.25
   8  0.333  0.667  0.507-  23 2.52  25 2.52  26 2.52  14 2.52  16 2.52  17 2.52   5 3.25   6 3.25
                             9 3.25   2 3.25   7 3.25   1 3.25
   9  0.667  0.667  0.507-  24 2.52  26 2.52  27 2.52  17 2.52  15 2.52  18 2.52   6 3.25   8 3.25
                             2 3.25   4 3.25   7 3.25   3 3.25
  10  0.111  0.111  0.422-   2 2.52   4 2.52   1 2.52
  11  0.444  0.111  0.422-   2 2.52   3 2.52   5 2.52
  12  0.778  0.111  0.422-   1 2.52   6 2.52   3 2.52
  13  0.111  0.444  0.422-   4 2.52   5 2.52   7 2.52
  14  0.444  0.444  0.422-   5 2.52   6 2.52   8 2.52
  15  0.778  0.444  0.422-   4 2.52   6 2.52   9 2.52
  16  0.111  0.778  0.422-   1 2.52   8 2.52   7 2.52
  17  0.444  0.778  0.422-   2 2.52   8 2.52   9 2.52
  18  0.778  0.778  0.422-   3 2.52   7 2.52   9 2.52
  19  0.111  0.111  0.591-   2 2.52   4 2.52   1 2.52
  20  0.444  0.111  0.591-   2 2.52   3 2.52   5 2.52
  21  0.778  0.111  0.591-   1 2.52   6 2.52   3 2.52
  22  0.111  0.444  0.591-   4 2.52   5 2.52   7 2.52
  23  0.444  0.444  0.591-   5 2.52   6 2.52   8 2.52
  24  0.778  0.444  0.591-   4 2.52   6 2.52   9 2.52
  25  0.111  0.778  0.591-   1 2.52   8 2.52   7 2.52
  26  0.444  0.778  0.591-   2 2.52   8 2.52   9 2.52
  27  0.778  0.778  0.591-   3 2.52   7 2.52   9 2.52
  28  0.111  0.111  0.818-  37 2.42  40 2.42  38 2.43  46 2.43  49 2.44  47 2.44  30 3.25  33 3.25
                            34 3.25  31 3.26  35 3.26  29 3.26
  29  0.444  0.111  0.818-  38 2.43  39 2.43  41 2.43  47 2.43  48 2.43  50 2.43  31 3.25  32 3.25
                            30 3.25  35 3.25  36 3.25  28 3.26
  30  0.778  0.111  0.818-  37 2.43  42 2.43  39 2.43  46 2.43  51 2.43  48 2.43  28 3.25  33 3.25
                            32 3.25  29 3.25  34 3.25  36 3.25
  31  0.111  0.444  0.818-  40 2.43  41 2.43  43 2.43  49 2.43  50 2.43  52 2.43  29 3.25  32 3.25
                            33 3.25  34 3.25  36 3.25  28 3.26
  32  0.444  0.444  0.818-  41 2.43  42 2.43  44 2.43  50 2.43  51 2.43  53 2.43  29 3.25  31 3.25
                            30 3.25  34 3.25  33 3.25  35 3.25
  33  0.778  0.444  0.818-  40 2.43  42 2.43  45 2.43  49 2.43  51 2.43  54 2.43  28 3.25  30 3.25
                            35 3.25  36 3.25  31 3.25  32 3.25
  34  0.111  0.778  0.818-  37 2.43  44 2.43  43 2.43  46 2.43  53 2.43  52 2.43  28 3.25  35 3.25
                            32 3.25  30 3.25  31 3.25  36 3.25
  35  0.444  0.778  0.818-  38 2.43  44 2.43  45 2.43  47 2.43  53 2.43  54 2.43  34 3.25  29 3.25
                            36 3.25  32 3.25  33 3.25  28 3.26
  36  0.778  0.778  0.818-  39 2.43  43 2.43  45 2.43  48 2.43  52 2.43  54 2.43  29 3.25  30 3.25
                            31 3.25  33 3.25  34 3.25  35 3.25
  37  0.000  0.000  0.741-  28 2.42  30 2.43  34 2.43
  38  0.333  0.000  0.741-  28 2.43  29 2.43  35 2.43
  39  0.667  0.000  0.741-  29 2.43  36 2.43  30 2.43
  40  0.000  0.333  0.741-  28 2.42  31 2.43  33 2.43
  41  0.333  0.333  0.741-  32 2.43  31 2.43  29 2.43
  42  0.667  0.333  0.741-  30 2.43  32 2.43  33 2.43
  43  0.000  0.667  0.741-  31 2.43  36 2.43  34 2.43
  44  0.333  0.667  0.741-  32 2.43  34 2.43  35 2.43
  45  0.667  0.667  0.741-  33 2.43  35 2.43  36 2.43
  46  0.000  0.000  0.895-  30 2.43  34 2.43  28 2.43
  47  0.333  0.000  0.895-  29 2.43  35 2.43  28 2.44
  48  0.667  0.000  0.895-  29 2.43  36 2.43  30 2.43
  49  0.000  0.333  0.895-  31 2.43  33 2.43  28 2.44
  50  0.333  0.333  0.895-  32 2.43  31 2.43  29 2.43
  51  0.667  0.333  0.895-  30 2.43  32 2.43  33 2.43
  52  0.000  0.667  0.895-  31 2.43  36 2.43  34 2.43
  53  0.333  0.667  0.895-  32 2.43  34 2.43  35 2.43
  54  0.667  0.667  0.895-  33 2.43  35 2.43  36 2.43
 
  LATTYP: Found a hexagonal cell.
 ALAT       =     9.7597246245
 C/A-ratio  =     2.0492381465
  
  Lattice vectors:
  
 A1 = (  -4.8798623122,  -8.4521694587,   0.0000000000)
 A2 = (   9.7597246245,   0.0000000000,   0.0000000000)
 A3 = (   0.0000000000,   0.0000000000,  20.0000000000)


Analysis of symmetry for initial positions (statically):
=====================================================================
 Subroutine PRICEL returns:
 Original cell was already a primitive cell.
 

 Routine SETGRP: Setting up the symmetry group for a 
 hexagonal supercell.


 Subroutine GETGRP returns: Found  1 space group operations
 (whereof  1 operations were pure point group operations)
 out of a pool of 24 trial point group operations.


The static configuration has the point symmetry C_1 .


Analysis of symmetry for dynamics (positions and initial velocities):
=====================================================================
 Subroutine PRICEL returns:
 Original cell was already a primitive cell.
 

 Routine SETGRP: Setting up the symmetry group for a 
 hexagonal supercell.


 Subroutine GETGRP returns: Found  1 space group operations
 (whereof  1 operations were pure point group operations)
 out of a pool of 24 trial point group operations.


The dynamic configuration has the point symmetry C_1 .


 Subroutine INISYM returns: Found  1 space group operations
 (whereof  1 operations are pure point group operations),
 and found     1 'primitive' translations


----------------------------------------------------------------------------------------

                                     Primitive cell                                     

  volume of cell :    1649.8169

  direct lattice vectors                    reciprocal lattice vectors
     9.759724624  0.000000000  0.000000000     0.102461907 -0.059156410  0.000000000
     4.879862312  8.452169459  0.000000000     0.000000000  0.118312820  0.000000000
     0.000000000  0.000000000 20.000000000     0.000000000  0.000000000  0.050000000

  length of vectors
     9.759724624  9.759724624 20.000000000     0.118312820  0.118312820  0.050000000

  position of ions in fractional coordinates (direct lattice)
     0.000000000  0.000000000  0.506830194
     0.333333333  0.000000000  0.506830194
     0.666666667  0.000000000  0.506830194
     0.000000000  0.333333333  0.506830194
     0.333333333  0.333333333  0.506830194
     0.666666667  0.333333333  0.506830194
     0.000000000  0.666666667  0.506830194
     0.333333333  0.666666667  0.506830194
     0.666666667  0.666666667  0.506830194
     0.111111111  0.111111111  0.422478775
     0.444444444  0.111111111  0.422478775
     0.777777778  0.111111111  0.422478775
     0.111111111  0.444444444  0.422478775
     0.444444444  0.444444444  0.422478775
     0.777777778  0.444444444  0.422478775
     0.111111111  0.777777778  0.422478775
     0.444444444  0.777777778  0.422478775
     0.777777778  0.777777778  0.422478775
     0.111111111  0.111111111  0.591115511
     0.444444444  0.111111111  0.591115511
     0.777777778  0.111111111  0.591115511
     0.111111111  0.444444444  0.591115511
     0.444444444  0.444444444  0.591115511
     0.777777778  0.444444444  0.591115511
     0.111111111  0.777777778  0.591115511
     0.444444444  0.777777778  0.591115511
     0.777777778  0.777777778  0.591115511
     0.110661759  0.111111111  0.817732780
     0.444444444  0.111111111  0.818182132
     0.777777778  0.111111111  0.818182132
     0.111111111  0.444444444  0.818182132
     0.444444444  0.444444444  0.818182132
     0.777777778  0.444444444  0.818182132
     0.111111111  0.777777778  0.818182132
     0.444444444  0.777777778  0.818182132
     0.777777778  0.777777778  0.818182132
     0.000000000  0.000000000  0.741049210
     0.333333333  0.000000000  0.741049210
     0.666666667  0.000000000  0.741049210
     0.000000000  0.333333333  0.741049210
     0.333333333  0.333333333  0.741049210
     0.666666667  0.333333333  0.741049210
     0.000000000  0.666666667  0.741049210
     0.333333333  0.666666667  0.741049210
     0.666666667  0.666666667  0.741049210
     0.000000000  0.000000000  0.895344178
     0.333333333  0.000000000  0.895344178
     0.666666667  0.000000000  0.895344178
     0.000000000  0.333333333  0.895344178
     0.333333333  0.333333333  0.895344178
     0.666666667  0.333333333  0.895344178
     0.000000000  0.666666667  0.895344178
     0.333333333  0.666666667  0.895344178
     0.666666667  0.666666667  0.895344178

  ion indices of the primitive-cell ions
   primitive index   ion index
                 1           1
                 2           2
                 3           3
                 4           4
                 5           5
                 6           6
                 7           7
                 8           8
                 9           9
                10          10
                11          11
                12          12
                13          13
                14          14
                15          15
                16          16
                17          17
                18          18
                19          19
                20          20
                21          21
                22          22
                23          23
                24          24
                25          25
                26          26
                27          27
                28          28
                29          29
                30          30
                31          31
                32          32
                33          33
                34          34
                35          35
                36          36
                37          37
                38          38
                39          39
                40          40
                41          41
                42          42
                43          43
                44          44
                45          45
                46          46
                47          47
                48          48
                49          49
                50          50
                51          51
                52          52
                53          53
                54          54

----------------------------------------------------------------------------------------

 
 
 KPOINTS: Automatic mesh                          

Automatic generation of k-mesh.
 Grid dimensions read from file:
 generate k-points for:    5    5    1

 Generating k-lattice:

  Cartesian coordinates                     Fractional coordinates (reciprocal lattice)
     0.020492381 -0.011831282  0.000000000     0.200000000  0.000000000  0.000000000
     0.000000000  0.023662564  0.000000000     0.000000000  0.200000000  0.000000000
     0.000000000  0.000000000  0.050000000     0.000000000  0.000000000  1.000000000

  Length of vectors
     0.023662564  0.023662564  0.050000000

  Shift w.r.t. Gamma in fractional coordinates (k-lattice)
     0.000000000  0.000000000  0.000000000

 
 Subroutine IBZKPT returns following result:
 ===========================================
 
 Found     13 irreducible k-points:
 
 Following reciprocal coordinates:
            Coordinates               Weight
  0.000000  0.000000  0.000000      1.000000
  0.200000  0.000000  0.000000      2.000000
  0.200000  0.200000  0.000000      2.000000
  0.000000  0.200000  0.000000      2.000000
  0.400000  0.000000  0.000000      2.000000
  0.400000  0.400000  0.000000      2.000000
  0.000000  0.400000  0.000000      2.000000
  0.400000  0.200000  0.000000      2.000000
  0.200000  0.400000  0.000000      2.000000
 -0.200000  0.200000  0.000000      2.000000
 -0.400000  0.200000  0.000000      2.000000
  0.400000 -0.400000  0.000000      2.000000
 -0.200000  0.400000  0.000000      2.000000
 
 Following cartesian coordinates:
            Coordinates               Weight
  0.000000  0.000000  0.000000      1.000000
  0.020492 -0.011831  0.000000      2.000000
  0.020492  0.011831  0.000000      2.000000
  0.000000  0.023663  0.000000      2.000000
  0.040985 -0.023663  0.000000      2.000000
  0.040985  0.023663  0.000000      2.000000
  0.000000  0.047325  0.000000      2.000000
  0.040985  0.000000  0.000000      2.000000
  0.020492  0.035494  0.000000      2.000000
 -0.020492  0.035494  0.000000      2.000000
 -0.040985  0.047325  0.000000      2.000000
  0.040985 -0.070988  0.000000      2.000000
 -0.020492  0.059156  0.000000      2.000000
 


--------------------------------------------------------------------------------------------------------




 Dimension of arrays:
   k-points           NKPTS =     13   k-points in BZ     NKDIM =     13   number of bands    NBANDS=    286
   number of dos      NEDOS =    301   number of ions     NIONS =     54
   non local maximal  LDIM  =      6   non local SUM 2l+1 LMDIM =     18
   total plane-waves  NPLWV = 960000
   max r-space proj   IRMAX =   8845   max aug-charges    IRDMAX=  33410
   dimension x,y,z NGX =    80 NGY =   80 NGZ =  150
   dimension x,y,z NGXF=   160 NGYF=  160 NGZF=  300
   support grid    NGXF=   160 NGYF=  160 NGZF=  300
   ions per type =               9  18   9  18
   NGX,Y,Z   is equivalent  to a cutoff of  13.63, 13.63, 12.47 a.u.
   NGXF,Y,Z  is equivalent  to a cutoff of  27.25, 27.25, 24.94 a.u.

 SYSTEM =  MoSe2_WS2_2H phonon                     
 POSCAR =  generated by phonopy                    

 Startparameter for this run:
   NWRITE =      2    write-flag & timer
   PREC   = accura    normal or accurate (medium, high low for compatibility)
   ISTART =      0    job   : 0-new  1-cont  2-samecut
   ICHARG =      2    charge: 1-file 2-atom 10-const
   ISPIN  =      1    spin polarized calculation?
   LNONCOLLINEAR =      F non collinear calculations
   LSORBIT =      F    spin-orbit coupling
   INIWAV =      1    electr: 0-lowe 1-rand  2-diag
   LASPH  =      F    aspherical Exc in radial PAW
 Electronic Relaxation 1
   ENCUT  =  520.0 eV  38.22 Ry    6.18 a.u.  18.15 18.15 37.19*2*pi/ulx,y,z
   ENINI  =  520.0     initial cutoff
   ENAUG  =  446.8 eV  augmentation charge cutoff
   NELM   =    200;   NELMIN=  2; NELMDL= -5     # of ELM steps 
   EDIFF  = 0.1E-05   stopping-criterion for ELM
   LREAL  =      T    real-space projection
   NLSPLINE    = F    spline interpolate recip. space projectors
   LCOMPAT=      F    compatible to vasp.4.4
   GGA_COMPAT  = T    GGA compatible to vasp.4.4-vasp.4.6
   LMAXPAW     = -100 max onsite density
   LMAXMIX     =    2 max onsite mixed and CHGCAR
   VOSKOWN=      0    Vosko Wilk Nusair interpolation
   ROPT   =   -0.00025  -0.00025  -0.00025  -0.00025
 Ionic relaxation
   EDIFFG = 0.1E-04   stopping-criterion for IOM
   NSW    =      0    number of steps for IOM
   NBLOCK =      1;   KBLOCK =      1    inner block; outer block 
   IBRION =     -1    ionic relax: 0-MD 1-quasi-New 2-CG
   NFREE  =      0    steps in history (QN), initial steepest desc. (CG)
   ISIF   =      2    stress and relaxation
   IWAVPR =     10    prediction:  0-non 1-charg 2-wave 3-comb
   ISYM   =      2    0-nonsym 1-usesym 2-fastsym
   LCORR  =      T    Harris-Foulkes like correction to forces

   POTIM  = 0.5000    time-step for ionic-motion
   TEIN   =    0.0    initial temperature
   TEBEG  =    0.0;   TEEND  =   0.0 temperature during run
   SMASS  =  -3.00    Nose mass-parameter (am)
   estimated Nose-frequenzy (Omega)   =  0.10E-29 period in steps = 0.13E+47 mass=  -0.218E-26a.u.
   SCALEE = 1.0000    scale energy and forces
   NPACO  =    256;   APACO  = 10.0  distance and # of slots for P.C.
   PSTRESS=    0.0 pullay stress

  Mass of Ions in am
   POMASS =  95.94 78.96183.85 32.07
  Ionic Valenz
   ZVAL   =  14.00  6.00 14.00  6.00
  Atomic Wigner-Seitz radii
   RWIGS  =  -1.00 -1.00 -1.00 -1.00
  virtual crystal weights 
   VCA    =   1.00  1.00  1.00  1.00
   NELECT =     468.0000    total number of electrons
   NUPDOWN=      -1.0000    fix difference up-down

 DOS related values:
   EMIN   =  10.00;   EMAX   =-10.00  energy-range for DOS
   EFERMI =   0.00;   METHOD = LEGACY      
   ISMEAR =     0;   SIGMA  =   0.05  broadening in eV -4-tet -1-fermi 0-gaus
   EFERMI_NEDOS =   21; number of points for ismear=-14 and -15

 Electronic relaxation 2 (details)
   IALGO  =     38    algorithm
   LDIAG  =      T    sub-space diagonalisation (order eigenvalues)
   LSUBROT=      F    optimize rotation matrix (better conditioning)
   LROBUST=      F    robust break criterion during scf (extrapolated energy error)
   ISEARCH=      0    line search for conjugate gradient (0, 1=use gradient)
   TURBO    =      0    0=normal 1=particle mesh
   IRESTART =      0    0=no restart 2=restart with 2 vectors
   NREBOOT  =      0    no. of reboots
   NMIN     =      0    reboot dimension
   EREF     =   0.00    reference energy to select bands
   IMIX   =      4    mixing-type and parameters
     AMIX     =   0.40;   BMIX     =  1.00
     AMIX_MAG =   1.60;   BMIX_MAG =  1.00
     AMIN     =   0.01
     WC   =   100.;   INIMIX=   1;  MIXPRE=   1;  MAXMIX= -45

 Intra band minimization:
   WEIMIN = 0.0000     energy-eigenvalue tresh-hold
   EBREAK =  0.87E-09  absolut break condition
   DEPER  =   0.30     relativ break condition  

   TIME   =   0.40     timestep for ELM

  volume/ion in A,a.u.               =      30.55       206.18
  Fermi-wavevector in a.u.,A,eV,Ry     =   1.075668  2.032718 15.742776  1.157061
  Thomas-Fermi vector in A             =   2.211531
 
 Write flags
   LWAVE        =      F    write WAVECAR
   LDOWNSAMPLE  =      F    k-point downsampling of WAVECAR
   LCHARG       =      F    write CHGCAR
   LVTOT        =      F    write LOCPOT, total local potential
   LVHAR        =      F    write LOCPOT, Hartree potential only
   WRT_POTENTIAL= false  ! write potential to hdf5 file
   LELF         =      F    write electronic localiz. function (ELF)
   LORBIT       =      0    0 simple, 1 ext, 2 COOP (PROOUT), +10 PAW based schemes


 Python interface
   PLUGINS active      =      F    recompile with -DPLUGINS to activate
 
 Dipole corrections
   LMONO      =      F    monopole corrections only (constant potential shift)
   LDIPOL     =      F    correct potential (dipole corrections)
   IDIPOL     =      0    1-x, 2-y, 3-z, 4-all directions 
   EPSILON    =  1.0000000 bulk dielectric constant
   LVACPOTAV  =      F  vacuum potentials using an averaging scheme for the charge density
   VACPOTFLAT =  0.1000000 required flatness to determine vacuum potential
 
Coulomb truncation method
  LTRUNCATE          =      F  Coulomb kernel truncation to be used

 
 Exchange correlation treatment:
   GGA     = PE    functional components
   XC_C    = 1    coefficients multiplying the functional components
   LIBXC   =     F    Libxc                    
   VOSKOWN =     0    Vosko Wilk Nusair interpolation
   LHFCALC =     F    Hartree Fock is set to
   LHFONE  =     F    Hartree Fock one center treatment
   AEXX    =    0.0000 exact exchange contribution

 Parameters of functionals:
   PE:
     No parameter
 
 Van der Waals corrections
   IVDW    =    12    specifies the selected vdW correction

 Linear response parameters
   LEPSILON=     F    determine dielectric tensor
   LRPA    =     F    only Hartree local field effects (RPA)
   LNABLA  =     F    use nabla operator in PAW spheres
   LVEL    =     F    velocity operator in full k-point grid
   CSHIFT  =0.1000    complex shift for real part using Kramers Kronig
   OMEGAMAX=  -1.0    maximum frequency
   DEG_THRESHOLD= 0.2000000E-02 threshold for treating states as degnerate
   RTIME   =   -0.100 relaxation time in fs
  (WPLASMAI=    0.000 imaginary part of plasma frequency in eV, 0.658/RTIME)
   DFIELD  = 0.0000000 0.0000000 0.0000000 field for delta impulse in time
 
  Optional k-point grid parameters
   LKPOINTS_OPT  =     F    use optional k-point grid
   KPOINTS_OPT_MODE=     1    mode for optional k-point grid
 
 Orbital magnetization related:
   ORBITALMAG=     F  switch on orbital magnetization
   LCHIMAG   =     F  perturbation theory with respect to B field
   DQ        =  0.001000  dq finite difference perturbation B field
   LLRAUG    =     F  two centre corrections for induced B field
   LBONE     =     F  B-component reconstruction in AE one-centre
   LVGVCALC  =     T  calculate vGv susceptibility
   LVGVAPPL  =     F  apply vGv susceptibility instead of pGv for G=0

 Random number generation:
   RANDOM_GENERATOR = DEFAULT
   PCG_SEED         = not used


--------------------------------------------------------------------------------------------------------


 Static calculation
 charge density and potential will be updated during run
 non-spin polarized calculation
 Variant of blocked Davidson
 Davidson routine will perform the subspace rotation
 perform sub-space diagonalisation
    after iterative eigenvector-optimisation
 modified Broyden-mixing scheme, WC =      100.0
 initial mixing is a Kerker type mixing with AMIX =  0.4000 and BMIX =      1.0000
 Hartree-type preconditioning will be used
 using additional bands           52
 real space projection scheme for non local part
 use partial core corrections
 calculate Harris-corrections to forces 
   (improved forces if not selfconsistent)
 use gradient corrections 
 use of overlap-Matrix (Vanderbilt PP)
 Gauss-broadening in eV      SIGMA  =   0.05


--------------------------------------------------------------------------------------------------------


  energy-cutoff  :      520.00
  volume of cell :     1649.82
      direct lattice vectors                 reciprocal lattice vectors
     9.759724624  0.000000000  0.000000000     0.102461907 -0.059156410  0.000000000
     4.879862312  8.452169459  0.000000000     0.000000000  0.118312820  0.000000000
     0.000000000  0.000000000 20.000000000     0.000000000  0.000000000  0.050000000

  length of vectors
     9.759724624  9.759724624 20.000000000     0.118312820  0.118312820  0.050000000


 
 k-points in units of 2pi/SCALE and weight: Automatic mesh                          
   0.00000000  0.00000000  0.00000000       0.040
   0.02049238 -0.01183128  0.00000000       0.080
   0.02049238  0.01183128  0.00000000       0.080
   0.00000000  0.02366256  0.00000000       0.080
   0.04098476 -0.02366256  0.00000000       0.080
   0.04098476  0.02366256  0.00000000       0.080
   0.00000000  0.04732513  0.00000000       0.080
   0.04098476  0.00000000  0.00000000       0.080
   0.02049238  0.03549385  0.00000000       0.080
  -0.02049238  0.03549385  0.00000000       0.080
  -0.04098476  0.04732513  0.00000000       0.080
   0.04098476 -0.07098769  0.00000000       0.080
  -0.02049238  0.05915641  0.00000000       0.080
 
 k-points in reciprocal lattice and weights: Automatic mesh                          
   0.00000000  0.00000000  0.00000000       0.040
   0.20000000  0.00000000  0.00000000       0.080
   0.20000000  0.20000000  0.00000000       0.080
   0.00000000  0.20000000  0.00000000       0.080
   0.40000000  0.00000000  0.00000000       0.080
   0.40000000  0.40000000  0.00000000       0.080
   0.00000000  0.40000000  0.00000000       0.080
   0.40000000  0.20000000  0.00000000       0.080
   0.20000000  0.40000000  0.00000000       0.080
  -0.20000000  0.20000000  0.00000000       0.080
  -0.40000000  0.20000000  0.00000000       0.080
   0.40000000 -0.40000000  0.00000000       0.080
  -0.20000000  0.40000000  0.00000000       0.080
 
 position of ions in fractional coordinates (direct lattice) 
   0.00000000  0.00000000  0.50683019
   0.33333333  0.00000000  0.50683019
   0.66666667  0.00000000  0.50683019
   0.00000000  0.33333333  0.50683019
   0.33333333  0.33333333  0.50683019
   0.66666667  0.33333333  0.50683019
   0.00000000  0.66666667  0.50683019
   0.33333333  0.66666667  0.50683019
   0.66666667  0.66666667  0.50683019
   0.11111111  0.11111111  0.42247878
   0.44444444  0.11111111  0.42247878
   0.77777778  0.11111111  0.42247878
   0.11111111  0.44444444  0.42247878
   0.44444444  0.44444444  0.42247878
   0.77777778  0.44444444  0.42247878
   0.11111111  0.77777778  0.42247878
   0.44444444  0.77777778  0.42247878
   0.77777778  0.77777778  0.42247878
   0.11111111  0.11111111  0.59111551
   0.44444444  0.11111111  0.59111551
   0.77777778  0.11111111  0.59111551
   0.11111111  0.44444444  0.59111551
   0.44444444  0.44444444  0.59111551
   0.77777778  0.44444444  0.59111551
   0.11111111  0.77777778  0.59111551
   0.44444444  0.77777778  0.59111551
   0.77777778  0.77777778  0.59111551
   0.11066176  0.11111111  0.81773278
   0.44444444  0.11111111  0.81818213
   0.77777778  0.11111111  0.81818213
   0.11111111  0.44444444  0.81818213
   0.44444444  0.44444444  0.81818213
   0.77777778  0.44444444  0.81818213
   0.11111111  0.77777778  0.81818213
   0.44444444  0.77777778  0.81818213
   0.77777778  0.77777778  0.81818213
   0.00000000  0.00000000  0.74104921
   0.33333333  0.00000000  0.74104921
   0.66666667  0.00000000  0.74104921
   0.00000000  0.33333333  0.74104921
   0.33333333  0.33333333  0.74104921
   0.66666667  0.33333333  0.74104921
   0.00000000  0.66666667  0.74104921
   0.33333333  0.66666667  0.74104921
   0.66666667  0.66666667  0.74104921
   0.00000000  0.00000000  0.89534418
   0.33333333  0.00000000  0.89534418
   0.66666667  0.00000000  0.89534418
   0.00000000  0.33333333  0.89534418
   0.33333333  0.33333333  0.89534418
   0.66666667  0.33333333  0.89534418
   0.00000000  0.66666667  0.89534418
   0.33333333  0.66666667  0.89534418
   0.66666667  0.66666667  0.89534418
 
 position of ions in cartesian coordinates  (Angst):
   0.00000000  0.00000000 10.13660389
   3.25324154  0.00000000 10.13660389
   6.50648308  0.00000000 10.13660389
   1.62662077  2.81738982 10.13660389
   4.87986231  2.81738982 10.13660389
   8.13310385  2.81738982 10.13660389
   3.25324154  5.63477964 10.13660389
   6.50648308  5.63477964 10.13660389
   9.75972462  5.63477964 10.13660389
   1.62662077  0.93912994  8.44957550
   4.87986231  0.93912994  8.44957550
   8.13310385  0.93912994  8.44957550
   3.25324154  3.75651976  8.44957550
   6.50648308  3.75651976  8.44957550
   9.75972462  3.75651976  8.44957550
   4.87986231  6.57390958  8.44957550
   8.13310385  6.57390958  8.44957550
  11.38634540  6.57390958  8.44957550
   1.62662077  0.93912994 11.82231022
   4.87986231  0.93912994 11.82231022
   8.13310385  0.93912994 11.82231022
   3.25324154  3.75651976 11.82231022
   6.50648308  3.75651976 11.82231022
   9.75972462  3.75651976 11.82231022
   4.87986231  6.57390958 11.82231022
   8.13310385  6.57390958 11.82231022
  11.38634540  6.57390958 11.82231022
   1.62223522  0.93912994 16.35465560
   4.87986231  0.93912994 16.36364264
   8.13310385  0.93912994 16.36364264
   3.25324154  3.75651976 16.36364264
   6.50648308  3.75651976 16.36364264
   9.75972462  3.75651976 16.36364264
   4.87986231  6.57390958 16.36364264
   8.13310385  6.57390958 16.36364264
  11.38634540  6.57390958 16.36364264
   0.00000000  0.00000000 14.82098420
   3.25324154  0.00000000 14.82098420
   6.50648308  0.00000000 14.82098420
   1.62662077  2.81738982 14.82098420
   4.87986231  2.81738982 14.82098420
   8.13310385  2.81738982 14.82098420
   3.25324154  5.63477964 14.82098420
   6.50648308  5.63477964 14.82098420
   9.75972462  5.63477964 14.82098420
   0.00000000  0.00000000 17.90688355
   3.25324154  0.00000000 17.90688355
   6.50648308  0.00000000 17.90688355
   1.62662077  2.81738982 17.90688355
   4.87986231  2.81738982 17.90688355
   8.13310385  2.81738982 17.90688355
   3.25324154  5.63477964 17.90688355
   6.50648308  5.63477964 17.90688355
   9.75972462  5.63477964 17.90688355
 


--------------------------------------------------------------------------------------------------------


 k-point     1 :   0.0000 0.0000 0.0000  plane waves:   44367
 k-point     2 :   0.2000 0.0000 0.0000  plane waves:   44431
 k-point     3 :   0.2000 0.2000 0.0000  plane waves:   44431
 k-point     4 :   0.0000 0.2000 0.0000  plane waves:   44431
 k-point     5 :   0.4000 0.0000 0.0000  plane waves:   44438
 k-point     6 :   0.4000 0.4000 0.0000  plane waves:   44438
 k-point     7 :   0.0000 0.4000 0.0000  plane waves:   44438
 k-point     8 :   0.4000 0.2000 0.0000  plane waves:   44408
 k-point     9 :   0.2000 0.4000 0.0000  plane waves:   44408
 k-point    10 :  -0.2000 0.2000 0.0000  plane waves:   44408
 k-point    11 :  -0.4000 0.2000 0.0000  plane waves:   44432
 k-point    12 :   0.4000-0.4000 0.0000  plane waves:   44432
 k-point    13 :  -0.2000 0.4000 0.0000  plane waves:   44432

 maximum and minimum number of plane-waves per node :     11147    11056

 maximum number of plane-waves:     44438
 maximum index in each direction: 
   IXMAX=   18   IYMAX=   18   IZMAX=   37
   IXMIN=  -18   IYMIN=  -18   IZMIN=  -37


 real space projection operators:
  total allocation   :      34705.38 KBytes
  max/ min on nodes  :       8682.70       8671.62


 parallel 3D FFT for wavefunctions:
    minimum data exchange during FFTs selected (reduces bandwidth)
 parallel 3D FFT for charge:
    minimum data exchange during FFTs selected (reduces bandwidth)


 total amount of memory used by VASP MPI-rank0   147274. kBytes
=======================================================================

   base                                    :      30000. kBytes
   nonlr-proj                              :      18792. kBytes
   fftplans                                :      13412. kBytes
   grid                                    :      23521. kBytes
   one-center                              :        217. kBytes
   wavefun                                 :      61332. kBytes
 
     INWAV:  cpu time      0.0000: real time      0.0000
 Broyden mixing: mesh for mixing (old mesh)
   NGX = 37   NGY = 37   NGZ = 75
  (NGX  =160   NGY  =160   NGZ  =300)
  gives a total of 102675 points

 initial charge density was supplied:
 charge density of overlapping atoms calculated
 number of electron     468.0000000 magnetization 
 keeping initial charge density in first step


--------------------------------------------------------------------------------------------------------


 Maximum index for non-local projection operator         2151
 Maximum index for augmentation-charges          964 (set IRDMAX)


--------------------------------------------------------------------------------------------------------


 First call to EWALD:  gamma=   0.150
 Maximum number of real-space cells   4x   4x   2
 Maximum number of reciprocal cells   2x   2x   4

    FEWALD:  cpu time      0.1791: real time      0.1794


--------------------------------------- Ionic step        1  -------------------------------------------




--------------------------------------- Iteration      1(   1)  ---------------------------------------


    POTLOK:  cpu time      0.1311: real time      0.1318
    SETDIJ:  cpu time      0.1236: real time      0.1238
     EDDAV:  cpu time      6.9894: real time      7.0430
       DOS:  cpu time      0.0066: real time      0.0067
    --------------------------------------------
      LOOP:  cpu time      7.2508: real time      7.3053

 eigenvalue-minimisations  :  8855
 total energy-change (2. order) : 0.4573771E+04  (-0.2473796E+05)
 number of electron     468.0000000 magnetization 
 augmentation part      468.0000000 magnetization 

 Free energy of the ion-electron system (eV)
  ---------------------------------------------------
  alpha Z        PSCENC =      1198.06820637
  Ewald energy   TEWEN  =     42461.91428709
  -Hartree energ DENC   =    -82150.09480473
  -exchange      EXHF   =         0.00000000
  -V(xc)+E(xc)   XCENC  =      1333.19613615
  PAW double counting   =     34351.68047665   -33677.40238700
  entropy T*S    EENTRO =        -0.02534992
  eigenvalues    EBANDS =     -2105.35747284
  atomic energy  EATOM  =     43161.79194098
  Solvation  Ediel_sol  =         0.00000000
  ---------------------------------------------------
  free energy    TOTEN  =      4573.77103276 eV

  energy without entropy =     4573.79638268  energy(sigma->0) =     4573.78370772


--------------------------------------------------------------------------------------------------------




--------------------------------------- Iteration      1(   2)  ---------------------------------------


     EDDAV:  cpu time      6.8818: real time      6.9344
       DOS:  cpu time      0.0017: real time      0.0017
    --------------------------------------------
      LOOP:  cpu time      6.8835: real time      6.9361

 eigenvalue-minimisations  :  8822
 total energy-change (2. order) :-0.4610270E+04  (-0.4481146E+04)
 number of electron     468.0000000 magnetization 
 augmentation part      468.0000000 magnetization 

 Free energy of the ion-electron system (eV)
  ---------------------------------------------------
  alpha Z        PSCENC =      1198.06820637
  Ewald energy   TEWEN  =     42461.91428709
  -Hartree energ DENC   =    -82150.09480473
  -exchange      EXHF   =         0.00000000
  -V(xc)+E(xc)   XCENC  =      1333.19613615
  PAW double counting   =     34351.68047665   -33677.40238700
  entropy T*S    EENTRO =        -0.00000000
  eigenvalues    EBANDS =     -6715.65290705
  atomic energy  EATOM  =     43161.79194098
  Solvation  Ediel_sol  =         0.00000000
  ---------------------------------------------------
  free energy    TOTEN  =       -36.49905154 eV

  energy without entropy =      -36.49905154  energy(sigma->0) =      -36.49905154


--------------------------------------------------------------------------------------------------------




--------------------------------------- Iteration      1(   3)  ---------------------------------------


     EDDAV:  cpu time      6.8890: real time      6.9433
       DOS:  cpu time      0.0020: real time      0.0020
    --------------------------------------------
      LOOP:  cpu time      6.8910: real time      6.9453

 eigenvalue-minimisations  :  8833
 total energy-change (2. order) :-0.3606175E+03  (-0.3538627E+03)
 number of electron     468.0000000 magnetization 
 augmentation part      468.0000000 magnetization 

 Free energy of the ion-electron system (eV)
  ---------------------------------------------------
  alpha Z        PSCENC =      1198.06820637
  Ewald energy   TEWEN  =     42461.91428709
  -Hartree energ DENC   =    -82150.09480473
  -exchange      EXHF   =         0.00000000
  -V(xc)+E(xc)   XCENC  =      1333.19613615
  PAW double counting   =     34351.68047665   -33677.40238700
  entropy T*S    EENTRO =        -0.00000000
  eigenvalues    EBANDS =     -7076.27042232
  atomic energy  EATOM  =     43161.79194098
  Solvation  Ediel_sol  =         0.00000000
  ---------------------------------------------------
  free energy    TOTEN  =      -397.11656681 eV

  energy without entropy =     -397.11656681  energy(sigma->0) =     -397.11656681


--------------------------------------------------------------------------------------------------------




--------------------------------------- Iteration      1(   4)  ---------------------------------------


     EDDAV:  cpu time      7.5505: real time      7.6085
       DOS:  cpu time      0.0015: real time      0.0015
    --------------------------------------------
      LOOP:  cpu time      7.5520: real time      7.6100

 eigenvalue-minimisations  :  9900
 total energy-change (2. order) :-0.1625252E+02  (-0.1612721E+02)
 number of electron     468.0000000 magnetization 
 augmentation part      468.0000000 magnetization 

 Free energy of the ion-electron system (eV)
  ---------------------------------------------------
  alpha Z        PSCENC =      1198.06820637
  Ewald energy   TEWEN  =     42461.91428709
  -Hartree energ DENC   =    -82150.09480473
  -exchange      EXHF   =         0.00000000
  -V(xc)+E(xc)   XCENC  =      1333.19613615
  PAW double counting   =     34351.68047665   -33677.40238700
  entropy T*S    EENTRO =        -0.00000000
  eigenvalues    EBANDS =     -7092.52293794
  atomic energy  EATOM  =     43161.79194098
  Solvation  Ediel_sol  =         0.00000000
  ---------------------------------------------------
  free energy    TOTEN  =      -413.36908242 eV

  energy without entropy =     -413.36908242  energy(sigma->0) =     -413.36908242


--------------------------------------------------------------------------------------------------------




--------------------------------------- Iteration      1(   5)  ---------------------------------------


     EDDAV:  cpu time      7.6946: real time      7.7531
       DOS:  cpu time      0.0016: real time      0.0016
    CHARGE:  cpu time      0.4563: real time      0.4688
    MIXING:  cpu time      0.0315: real time      0.0316
    --------------------------------------------
      LOOP:  cpu time      8.1840: real time      8.2551

 eigenvalue-minimisations  : 10153
 total energy-change (2. order) :-0.4805509E+00  (-0.4787181E+00)
 number of electron     468.0000030 magnetization 
 augmentation part       18.7493897 magnetization 

 Broyden mixing:
  rms(total) = 0.91929E+01    rms(broyden)= 0.91929E+01
  rms(prec ) = 0.93005E+01
  weight for this iteration     100.00

 Free energy of the ion-electron system (eV)
  ---------------------------------------------------
  alpha Z        PSCENC =      1198.06820637
  Ewald energy   TEWEN  =     42461.91428709
  -Hartree energ DENC   =    -82150.09480473
  -exchange      EXHF   =         0.00000000
  -V(xc)+E(xc)   XCENC  =      1333.19613615
  PAW double counting   =     34351.68047665   -33677.40238700
  entropy T*S    EENTRO =        -0.00000000
  eigenvalues    EBANDS =     -7093.00348883
  atomic energy  EATOM  =     43161.79194098
  Solvation  Ediel_sol  =         0.00000000
  ---------------------------------------------------
  free energy    TOTEN  =      -413.84963331 eV

  energy without entropy =     -413.84963331  energy(sigma->0) =     -413.84963331


--------------------------------------------------------------------------------------------------------




--------------------------------------- Iteration      1(   6)  ---------------------------------------


    POTLOK:  cpu time      0.1283: real time      0.1295
    SETDIJ:  cpu time      0.0166: real time      0.0167
     EDDAV:  cpu time      6.7848: real time      6.8350
       DOS:  cpu time      0.0183: real time      0.0183
    CHARGE:  cpu time      0.4651: real time      0.4688
    MIXING:  cpu time      0.0301: real time      0.0302
    --------------------------------------------
      LOOP:  cpu time      7.4432: real time      7.4985

 eigenvalue-minimisations  :  8844
 total energy-change (2. order) : 0.1741232E+02  (-0.1178092E+02)
 number of electron     468.0000031 magnetization 
 augmentation part       27.4377582 magnetization 

 Broyden mixing:
  rms(total) = 0.37394E+01    rms(broyden)= 0.37394E+01
  rms(prec ) = 0.38357E+01
  weight for this iteration     100.00

 eigenvalues of (default mixing * dielectric matrix)
  average eigenvalue GAMMA=   1.2559
  1.2559

 Free energy of the ion-electron system (eV)
  ---------------------------------------------------
  alpha Z        PSCENC =      1198.06820637
  Ewald energy   TEWEN  =     42461.91428709
  -Hartree energ DENC   =    -81702.30756726
  -exchange      EXHF   =         0.00000000
  -V(xc)+E(xc)   XCENC  =      1321.01175706
  PAW double counting   =     42005.49349171   -41388.05322135
  entropy T*S    EENTRO =        -0.00000000
  eigenvalues    EBANDS =     -7454.35620327
  atomic energy  EATOM  =     43161.79194098
  Solvation  Ediel_sol  =         0.00000000
  ---------------------------------------------------
  free energy    TOTEN  =      -396.43730867 eV

  energy without entropy =     -396.43730867  energy(sigma->0) =     -396.43730867


--------------------------------------------------------------------------------------------------------




--------------------------------------- Iteration      1(   7)  ---------------------------------------


    POTLOK:  cpu time      0.1260: real time      0.1275
    SETDIJ:  cpu time      0.0147: real time      0.0147
     EDDAV:  cpu time      6.7823: real time      6.8343
       DOS:  cpu time      0.0058: real time      0.0058
    CHARGE:  cpu time      0.4552: real time      0.4590
    MIXING:  cpu time      0.0321: real time      0.0322
    --------------------------------------------
      LOOP:  cpu time      7.4161: real time      7.4735

 eigenvalue-minimisations  :  8701
 total energy-change (2. order) : 0.1444121E+01  (-0.5047977E+01)
 number of electron     468.0000031 magnetization 
 augmentation part       23.0164549 magnetization 

 Broyden mixing:
  rms(total) = 0.20571E+01    rms(broyden)= 0.20571E+01
  rms(prec ) = 0.21636E+01
  weight for this iteration     100.00

 eigenvalues of (default mixing * dielectric matrix)
  average eigenvalue GAMMA=   1.2629
  1.8484  0.6774

 Free energy of the ion-electron system (eV)
  ---------------------------------------------------
  alpha Z        PSCENC =      1198.06820637
  Ewald energy   TEWEN  =     42461.91428709
  -Hartree energ DENC   =    -81987.70439014
  -exchange      EXHF   =         0.00000000
  -V(xc)+E(xc)   XCENC  =      1325.09323583
  PAW double counting   =     48697.98311618   -48080.83413071
  entropy T*S    EENTRO =        -0.00000000
  eigenvalues    EBANDS =     -7171.30545311
  atomic energy  EATOM  =     43161.79194098
  Solvation  Ediel_sol  =         0.00000000
  ---------------------------------------------------
  free energy    TOTEN  =      -394.99318749 eV

  energy without entropy =     -394.99318749  energy(sigma->0) =     -394.99318749


--------------------------------------------------------------------------------------------------------




--------------------------------------- Iteration      1(   8)  ---------------------------------------


    POTLOK:  cpu time      0.1235: real time      0.1246
    SETDIJ:  cpu time      0.0132: real time      0.0133
     EDDAV:  cpu time      6.6729: real time      6.7221
       DOS:  cpu time      0.0020: real time      0.0020
    CHARGE:  cpu time      0.4565: real time      0.4600
    MIXING:  cpu time      0.0318: real time      0.0319
    --------------------------------------------
      LOOP:  cpu time      7.2999: real time      7.3539

 eigenvalue-minimisations  :  8470
 total energy-change (2. order) : 0.3177942E+01  (-0.1213975E+01)
 number of electron     468.0000031 magnetization 
 augmentation part       25.1925788 magnetization 

 Broyden mixing:
  rms(total) = 0.53722E+00    rms(broyden)= 0.53722E+00
  rms(prec ) = 0.56319E+00
  weight for this iteration     100.00

 eigenvalues of (default mixing * dielectric matrix)
  average eigenvalue GAMMA=   1.2081
  2.1368  0.8685  0.6192

 Free energy of the ion-electron system (eV)
  ---------------------------------------------------
  alpha Z        PSCENC =      1198.06820637
  Ewald energy   TEWEN  =     42461.91428709
  -Hartree energ DENC   =    -81844.22229384
  -exchange      EXHF   =         0.00000000
  -V(xc)+E(xc)   XCENC  =      1321.61168947
  PAW double counting   =     52826.74415191   -52229.64907444
  entropy T*S    EENTRO =        -0.00000000
  eigenvalues    EBANDS =     -7288.07415333
  atomic energy  EATOM  =     43161.79194098
  Solvation  Ediel_sol  =         0.00000000
  ---------------------------------------------------
  free energy    TOTEN  =      -391.81524580 eV

  energy without entropy =     -391.81524580  energy(sigma->0) =     -391.81524580


--------------------------------------------------------------------------------------------------------




--------------------------------------- Iteration      1(   9)  ---------------------------------------


    POTLOK:  cpu time      0.1230: real time      0.1242
    SETDIJ:  cpu time      0.0135: real time      0.0135
     EDDAV:  cpu time      7.1459: real time      7.2004
       DOS:  cpu time      0.0020: real time      0.0020
    CHARGE:  cpu time      0.4538: real time      0.4575
    MIXING:  cpu time      0.0262: real time      0.0262
    --------------------------------------------
      LOOP:  cpu time      7.7643: real time      7.8240

 eigenvalue-minimisations  :  9262
 total energy-change (2. order) : 0.9137806E-01  (-0.1271121E+00)
 number of electron     468.0000031 magnetization 
 augmentation part       25.4322634 magnetization 

 Broyden mixing:
  rms(total) = 0.22739E+00    rms(broyden)= 0.22739E+00
  rms(prec ) = 0.24290E+00
  weight for this iteration     100.00

 eigenvalues of (default mixing * dielectric matrix)
  average eigenvalue GAMMA=   1.1617
  2.2137  1.1548  0.6391  0.6391

 Free energy of the ion-electron system (eV)
  ---------------------------------------------------
  alpha Z        PSCENC =      1198.06820637
  Ewald energy   TEWEN  =     42461.91428709
  -Hartree energ DENC   =    -81850.72693920
  -exchange      EXHF   =         0.00000000
  -V(xc)+E(xc)   XCENC  =      1321.89521349
  PAW double counting   =     54236.54129370   -53642.83472051
  entropy T*S    EENTRO =        -0.00000000
  eigenvalues    EBANDS =     -7278.37314966
  atomic energy  EATOM  =     43161.79194098
  Solvation  Ediel_sol  =         0.00000000
  ---------------------------------------------------
  free energy    TOTEN  =      -391.72386773 eV

  energy without entropy =     -391.72386773  energy(sigma->0) =     -391.72386773


--------------------------------------------------------------------------------------------------------




--------------------------------------- Iteration      1(  10)  ---------------------------------------


    POTLOK:  cpu time      0.1235: real time      0.1251
    SETDIJ:  cpu time      0.0132: real time      0.0133
     EDDAV:  cpu time      7.1263: real time      7.1788
       DOS:  cpu time      0.0019: real time      0.0019
    CHARGE:  cpu time      0.4584: real time      0.4621
    MIXING:  cpu time      0.0256: real time      0.0257
    --------------------------------------------
      LOOP:  cpu time      7.7490: real time      7.8068

 eigenvalue-minimisations  :  9383
 total energy-change (2. order) : 0.2613309E-01  (-0.1165347E-01)
 number of electron     468.0000031 magnetization 
 augmentation part       25.3348648 magnetization 

 Broyden mixing:
  rms(total) = 0.11072E+00    rms(broyden)= 0.11072E+00
  rms(prec ) = 0.12769E+00
  weight for this iteration     100.00

 eigenvalues of (default mixing * dielectric matrix)
  average eigenvalue GAMMA=   1.2093
  2.2367  1.5982  0.7646  0.7646  0.6825

 Free energy of the ion-electron system (eV)
  ---------------------------------------------------
  alpha Z        PSCENC =      1198.06820637
  Ewald energy   TEWEN  =     42461.91428709
  -Hartree energ DENC   =    -81867.87200254
  -exchange      EXHF   =         0.00000000
  -V(xc)+E(xc)   XCENC  =      1322.38547557
  PAW double counting   =     54494.33269657   -53900.63865009
  entropy T*S    EENTRO =        -0.00000000
  eigenvalues    EBANDS =     -7261.67968859
  atomic energy  EATOM  =     43161.79194098
  Solvation  Ediel_sol  =         0.00000000
  ---------------------------------------------------
  free energy    TOTEN  =      -391.69773464 eV

  energy without entropy =     -391.69773464  energy(sigma->0) =     -391.69773464


--------------------------------------------------------------------------------------------------------




--------------------------------------- Iteration      1(  11)  ---------------------------------------


    POTLOK:  cpu time      0.1232: real time      0.1243
    SETDIJ:  cpu time      0.0137: real time      0.0137
     EDDAV:  cpu time      7.4066: real time      7.4643
       DOS:  cpu time      0.0019: real time      0.0019
    CHARGE:  cpu time      0.4542: real time      0.4579
    MIXING:  cpu time      0.0264: real time      0.0265
    --------------------------------------------
      LOOP:  cpu time      8.0260: real time      8.0887

 eigenvalue-minimisations  :  9779
 total energy-change (2. order) : 0.1842975E-01  (-0.3436289E-02)
 number of electron     468.0000031 magnetization 
 augmentation part       25.2341591 magnetization 

 Broyden mixing:
  rms(total) = 0.42766E-01    rms(broyden)= 0.42766E-01
  rms(prec ) = 0.66405E-01
  weight for this iteration     100.00

 eigenvalues of (default mixing * dielectric matrix)
  average eigenvalue GAMMA=   1.2000
  2.2484  1.8818  0.9891  0.6521  0.7143  0.7143

 Free energy of the ion-electron system (eV)
  ---------------------------------------------------
  alpha Z        PSCENC =      1198.06820637
  Ewald energy   TEWEN  =     42461.91428709
  -Hartree energ DENC   =    -81884.93654074
  -exchange      EXHF   =         0.00000000
  -V(xc)+E(xc)   XCENC  =      1322.76988401
  PAW double counting   =     54523.15337789   -53928.96834165
  entropy T*S    EENTRO =        -0.00000000
  eigenvalues    EBANDS =     -7245.47211885
  atomic energy  EATOM  =     43161.79194098
  Solvation  Ediel_sol  =         0.00000000
  ---------------------------------------------------
  free energy    TOTEN  =      -391.67930489 eV

  energy without entropy =     -391.67930489  energy(sigma->0) =     -391.67930489


--------------------------------------------------------------------------------------------------------




--------------------------------------- Iteration      1(  12)  ---------------------------------------


    POTLOK:  cpu time      0.1236: real time      0.1247
    SETDIJ:  cpu time      0.0132: real time      0.0132
     EDDAV:  cpu time      6.8817: real time      6.9320
       DOS:  cpu time      0.0019: real time      0.0019
    CHARGE:  cpu time      0.4572: real time      0.4607
    MIXING:  cpu time      0.0262: real time      0.0263
    --------------------------------------------
      LOOP:  cpu time      7.5037: real time      7.5588

 eigenvalue-minimisations  :  8943
 total energy-change (2. order) : 0.7555844E-02  (-0.1735209E-02)
 number of electron     468.0000031 magnetization 
 augmentation part       25.2250391 magnetization 

 Broyden mixing:
  rms(total) = 0.33390E-01    rms(broyden)= 0.33389E-01
  rms(prec ) = 0.57058E-01
  weight for this iteration     100.00

 eigenvalues of (default mixing * dielectric matrix)
  average eigenvalue GAMMA=   1.2012
  2.2766  2.2766  1.2581  0.7573  0.7573  0.6682  0.4138

 Free energy of the ion-electron system (eV)
  ---------------------------------------------------
  alpha Z        PSCENC =      1198.06820637
  Ewald energy   TEWEN  =     42461.91428709
  -Hartree energ DENC   =    -81892.83341777
  -exchange      EXHF   =         0.00000000
  -V(xc)+E(xc)   XCENC  =      1322.88468832
  PAW double counting   =     54524.56110173   -53930.29313266
  entropy T*S    EENTRO =        -0.00000000
  eigenvalues    EBANDS =     -7237.76542311
  atomic energy  EATOM  =     43161.79194098
  Solvation  Ediel_sol  =         0.00000000
  ---------------------------------------------------
  free energy    TOTEN  =      -391.67174904 eV

  energy without entropy =     -391.67174904  energy(sigma->0) =     -391.67174904


--------------------------------------------------------------------------------------------------------




--------------------------------------- Iteration      1(  13)  ---------------------------------------


    POTLOK:  cpu time      0.1233: real time      0.1245
    SETDIJ:  cpu time      0.0137: real time      0.0138
     EDDAV:  cpu time      7.2817: real time      7.3378
       DOS:  cpu time      0.0019: real time      0.0019
    CHARGE:  cpu time      0.4550: real time      0.4587
    MIXING:  cpu time      0.0266: real time      0.0267
    --------------------------------------------
      LOOP:  cpu time      7.9023: real time      7.9634

 eigenvalue-minimisations  :  9625
 total energy-change (2. order) : 0.9822289E-02  (-0.7040162E-03)
 number of electron     468.0000031 magnetization 
 augmentation part       25.2306419 magnetization 

 Broyden mixing:
  rms(total) = 0.15570E-01    rms(broyden)= 0.15570E-01
  rms(prec ) = 0.39501E-01
  weight for this iteration     100.00

 eigenvalues of (default mixing * dielectric matrix)
  average eigenvalue GAMMA=   1.2353
  2.4075  2.4075  1.4960  0.9739  0.7908  0.7073  0.7073  0.3922

 Free energy of the ion-electron system (eV)
  ---------------------------------------------------
  alpha Z        PSCENC =      1198.06820637
  Ewald energy   TEWEN  =     42461.91428709
  -Hartree energ DENC   =    -81901.91750649
  -exchange      EXHF   =         0.00000000
  -V(xc)+E(xc)   XCENC  =      1322.97918239
  PAW double counting   =     54507.25539879   -53912.94777906
  entropy T*S    EENTRO =        -0.00000000
  eigenvalues    EBANDS =     -7228.80565683
  atomic energy  EATOM  =     43161.79194098
  Solvation  Ediel_sol  =         0.00000000
  ---------------------------------------------------
  free energy    TOTEN  =      -391.66192676 eV

  energy without entropy =     -391.66192676  energy(sigma->0) =     -391.66192676


--------------------------------------------------------------------------------------------------------




--------------------------------------- Iteration      1(  14)  ---------------------------------------


    POTLOK:  cpu time      0.1236: real time      0.1249
    SETDIJ:  cpu time      0.0132: real time      0.0132
     EDDAV:  cpu time      7.1189: real time      7.1716
       DOS:  cpu time      0.0019: real time      0.0019
    CHARGE:  cpu time      0.4565: real time      0.4600
    MIXING:  cpu time      0.0259: real time      0.0259
    --------------------------------------------
      LOOP:  cpu time      7.7399: real time      7.7976

 eigenvalue-minimisations  :  9515
 total energy-change (2. order) : 0.7284663E-02  (-0.5429435E-03)
 number of electron     468.0000031 magnetization 
 augmentation part       25.2399348 magnetization 

 Broyden mixing:
  rms(total) = 0.15490E-01    rms(broyden)= 0.15490E-01
  rms(prec ) = 0.33034E-01
  weight for this iteration     100.00

 eigenvalues of (default mixing * dielectric matrix)
  average eigenvalue GAMMA=   1.2155
  2.5520  2.5520  1.6722  1.1231  0.7232  0.7232  0.7186  0.4885  0.3870

 Free energy of the ion-electron system (eV)
  ---------------------------------------------------
  alpha Z        PSCENC =      1198.06820637
  Ewald energy   TEWEN  =     42461.91428709
  -Hartree energ DENC   =    -81914.09341080
  -exchange      EXHF   =         0.00000000
  -V(xc)+E(xc)   XCENC  =      1323.05083598
  PAW double counting   =     54477.04208068   -53882.73366268
  entropy T*S    EENTRO =        -0.00000000
  eigenvalues    EBANDS =     -7216.69491972
  atomic energy  EATOM  =     43161.79194098
  Solvation  Ediel_sol  =         0.00000000
  ---------------------------------------------------
  free energy    TOTEN  =      -391.65464209 eV

  energy without entropy =     -391.65464209  energy(sigma->0) =     -391.65464209


--------------------------------------------------------------------------------------------------------




--------------------------------------- Iteration      1(  15)  ---------------------------------------


    POTLOK:  cpu time      0.1235: real time      0.1247
    SETDIJ:  cpu time      0.0129: real time      0.0129
     EDDAV:  cpu time      7.0584: real time      7.1132
       DOS:  cpu time      0.0015: real time      0.0015
    CHARGE:  cpu time      0.4548: real time      0.4584
    MIXING:  cpu time      0.0257: real time      0.0258
    --------------------------------------------
      LOOP:  cpu time      7.6768: real time      7.7365

 eigenvalue-minimisations  :  9240
 total energy-change (2. order) : 0.4024274E-02  (-0.5435519E-03)
 number of electron     468.0000031 magnetization 
 augmentation part       25.2468700 magnetization 

 Broyden mixing:
  rms(total) = 0.13266E-01    rms(broyden)= 0.13265E-01
  rms(prec ) = 0.25740E-01
  weight for this iteration     100.00

 eigenvalues of (default mixing * dielectric matrix)
  average eigenvalue GAMMA=   1.2249
  3.0645  2.4555  1.8336  1.2145  0.7595  0.7595  0.6699  0.6699  0.4415  0.3811

 Free energy of the ion-electron system (eV)
  ---------------------------------------------------
  alpha Z        PSCENC =      1198.06820637
  Ewald energy   TEWEN  =     42461.91428709
  -Hartree energ DENC   =    -81924.88267985
  -exchange      EXHF   =         0.00000000
  -V(xc)+E(xc)   XCENC  =      1323.11348634
  PAW double counting   =     54464.35099369   -53870.05894698
  entropy T*S    EENTRO =        -0.00000000
  eigenvalues    EBANDS =     -7205.94790546
  atomic energy  EATOM  =     43161.79194098
  Solvation  Ediel_sol  =         0.00000000
  ---------------------------------------------------
  free energy    TOTEN  =      -391.65061782 eV

  energy without entropy =     -391.65061782  energy(sigma->0) =     -391.65061782


--------------------------------------------------------------------------------------------------------




--------------------------------------- Iteration      1(  16)  ---------------------------------------


    POTLOK:  cpu time      0.1236: real time      0.1247
    SETDIJ:  cpu time      0.0130: real time      0.0130
     EDDAV:  cpu time      7.0507: real time      7.1029
       DOS:  cpu time      0.0020: real time      0.0020
    CHARGE:  cpu time      0.4571: real time      0.4606
    MIXING:  cpu time      0.0265: real time      0.0265
    --------------------------------------------
      LOOP:  cpu time      7.6729: real time      7.7297

 eigenvalue-minimisations  :  9251
 total energy-change (2. order) : 0.1674389E-02  (-0.3407302E-03)
 number of electron     468.0000031 magnetization 
 augmentation part       25.2513125 magnetization 

 Broyden mixing:
  rms(total) = 0.10645E-01    rms(broyden)= 0.10645E-01
  rms(prec ) = 0.17699E-01
  weight for this iteration     100.00

 eigenvalues of (default mixing * dielectric matrix)
  average eigenvalue GAMMA=   1.3449
  3.7481  2.2801  2.2801  1.2698  1.2698  0.9912  0.7354  0.7354  0.6847  0.3856
  0.4131

 Free energy of the ion-electron system (eV)
  ---------------------------------------------------
  alpha Z        PSCENC =      1198.06820637
  Ewald energy   TEWEN  =     42461.91428709
  -Hartree energ DENC   =    -81938.02958149
  -exchange      EXHF   =         0.00000000
  -V(xc)+E(xc)   XCENC  =      1323.18805370
  PAW double counting   =     54469.40359264   -53875.15718981
  entropy T*S    EENTRO =        -0.00000000
  eigenvalues    EBANDS =     -7192.82825292
  atomic energy  EATOM  =     43161.79194098
  Solvation  Ediel_sol  =         0.00000000
  ---------------------------------------------------
  free energy    TOTEN  =      -391.64894343 eV

  energy without entropy =     -391.64894343  energy(sigma->0) =     -391.64894343


--------------------------------------------------------------------------------------------------------




--------------------------------------- Iteration      1(  17)  ---------------------------------------


    POTLOK:  cpu time      0.1232: real time      0.1248
    SETDIJ:  cpu time      0.0133: real time      0.0134
     EDDAV:  cpu time      6.9058: real time      6.9591
       DOS:  cpu time      0.0016: real time      0.0016
    CHARGE:  cpu time      0.4546: real time      0.4584
    MIXING:  cpu time      0.0270: real time      0.0271
    --------------------------------------------
      LOOP:  cpu time      7.5255: real time      7.5844

 eigenvalue-minimisations  :  8943
 total energy-change (2. order) :-0.2418699E-02  (-0.3019833E-03)
 number of electron     468.0000031 magnetization 
 augmentation part       25.2530377 magnetization 

 Broyden mixing:
  rms(total) = 0.91982E-02    rms(broyden)= 0.91982E-02
  rms(prec ) = 0.12602E-01
  weight for this iteration     100.00

 eigenvalues of (default mixing * dielectric matrix)
  average eigenvalue GAMMA=   1.4039
  4.4642  2.4636  2.4636  1.4814  1.4814  0.8525  0.7569  0.7569  0.6663  0.6663
  0.4097  0.3841

 Free energy of the ion-electron system (eV)
  ---------------------------------------------------
  alpha Z        PSCENC =      1198.06820637
  Ewald energy   TEWEN  =     42461.91428709
  -Hartree energ DENC   =    -81949.03263612
  -exchange      EXHF   =         0.00000000
  -V(xc)+E(xc)   XCENC  =      1323.22336259
  PAW double counting   =     54487.10007014   -53892.90705876
  entropy T*S    EENTRO =        -0.00000000
  eigenvalues    EBANDS =     -7181.80953443
  atomic energy  EATOM  =     43161.79194098
  Solvation  Ediel_sol  =         0.00000000
  ---------------------------------------------------
  free energy    TOTEN  =      -391.65136213 eV

  energy without entropy =     -391.65136213  energy(sigma->0) =     -391.65136213


--------------------------------------------------------------------------------------------------------




--------------------------------------- Iteration      1(  18)  ---------------------------------------


    POTLOK:  cpu time      0.1233: real time      0.1245
    SETDIJ:  cpu time      0.0133: real time      0.0133
     EDDAV:  cpu time      7.1114: real time      7.1646
       DOS:  cpu time      0.0019: real time      0.0020
    CHARGE:  cpu time      0.4563: real time      0.4598
    MIXING:  cpu time      0.0263: real time      0.0264
    --------------------------------------------
      LOOP:  cpu time      7.7326: real time      7.7906

 eigenvalue-minimisations  :  9350
 total energy-change (2. order) :-0.2162657E-02  (-0.8239767E-04)
 number of electron     468.0000031 magnetization 
 augmentation part       25.2489848 magnetization 

 Broyden mixing:
  rms(total) = 0.75154E-02    rms(broyden)= 0.75154E-02
  rms(prec ) = 0.97706E-02
  weight for this iteration     100.00

 eigenvalues of (default mixing * dielectric matrix)
  average eigenvalue GAMMA=   1.4155
  5.1961  2.6817  2.1642  1.5360  1.5360  0.8737  0.8737  0.7354  0.7354  0.7251
  0.5475  0.4127  0.3841

 Free energy of the ion-electron system (eV)
  ---------------------------------------------------
  alpha Z        PSCENC =      1198.06820637
  Ewald energy   TEWEN  =     42461.91428709
  -Hartree energ DENC   =    -81953.60338704
  -exchange      EXHF   =         0.00000000
  -V(xc)+E(xc)   XCENC  =      1323.23384440
  PAW double counting   =     54481.73618451   -53887.52613169
  entropy T*S    EENTRO =        -0.00000000
  eigenvalues    EBANDS =     -7177.26846941
  atomic energy  EATOM  =     43161.79194098
  Solvation  Ediel_sol  =         0.00000000
  ---------------------------------------------------
  free energy    TOTEN  =      -391.65352479 eV

  energy without entropy =     -391.65352479  energy(sigma->0) =     -391.65352479


--------------------------------------------------------------------------------------------------------




--------------------------------------- Iteration      1(  19)  ---------------------------------------


    POTLOK:  cpu time      0.1239: real time      0.1250
    SETDIJ:  cpu time      0.0126: real time      0.0126
     EDDAV:  cpu time      6.8395: real time      6.8933
       DOS:  cpu time      0.0018: real time      0.0018
    CHARGE:  cpu time      0.4552: real time      0.4588
    MIXING:  cpu time      0.0253: real time      0.0254
    --------------------------------------------
      LOOP:  cpu time      7.4582: real time      7.5169

 eigenvalue-minimisations  :  8811
 total energy-change (2. order) :-0.1479967E-02  (-0.1658117E-04)
 number of electron     468.0000031 magnetization 
 augmentation part       25.2464754 magnetization 

 Broyden mixing:
  rms(total) = 0.46729E-02    rms(broyden)= 0.46729E-02
  rms(prec ) = 0.67192E-02
  weight for this iteration     100.00

 eigenvalues of (default mixing * dielectric matrix)
  average eigenvalue GAMMA=   1.6014
  7.0985  2.6851  2.1708  2.1708  1.8145  1.0735  1.0735  0.8324  0.7395  0.7395
  0.7007  0.5257  0.4112  0.3842

 Free energy of the ion-electron system (eV)
  ---------------------------------------------------
  alpha Z        PSCENC =      1198.06820637
  Ewald energy   TEWEN  =     42461.91428709
  -Hartree energ DENC   =    -81956.23208478
  -exchange      EXHF   =         0.00000000
  -V(xc)+E(xc)   XCENC  =      1323.24196921
  PAW double counting   =     54465.63493366   -53871.39365717
  entropy T*S    EENTRO =        -0.00000000
  eigenvalues    EBANDS =     -7174.68060011
  atomic energy  EATOM  =     43161.79194098
  Solvation  Ediel_sol  =         0.00000000
  ---------------------------------------------------
  free energy    TOTEN  =      -391.65500475 eV

  energy without entropy =     -391.65500475  energy(sigma->0) =     -391.65500475


--------------------------------------------------------------------------------------------------------




--------------------------------------- Iteration      1(  20)  ---------------------------------------


    POTLOK:  cpu time      0.1234: real time      0.1248
    SETDIJ:  cpu time      0.0129: real time      0.0129
     EDDAV:  cpu time      6.5727: real time      6.6210
       DOS:  cpu time      0.0014: real time      0.0014
    CHARGE:  cpu time      0.4563: real time      0.4598
    MIXING:  cpu time      0.0263: real time      0.0264
    --------------------------------------------
      LOOP:  cpu time      7.1930: real time      7.2463

 eigenvalue-minimisations  :  8525
 total energy-change (2. order) :-0.2706297E-02  (-0.2914408E-04)
 number of electron     468.0000031 magnetization 
 augmentation part       25.2481871 magnetization 

 Broyden mixing:
  rms(total) = 0.28481E-02    rms(broyden)= 0.28481E-02
  rms(prec ) = 0.40306E-02
  weight for this iteration     100.00

 eigenvalues of (default mixing * dielectric matrix)
  average eigenvalue GAMMA=   1.7346
  9.5796  2.8437  2.3273  2.3273  1.6437  1.2410  0.8595  0.8595  0.8066  0.7467
  0.7467  0.7200  0.3842  0.4113  0.5213

 Free energy of the ion-electron system (eV)
  ---------------------------------------------------
  alpha Z        PSCENC =      1198.06820637
  Ewald energy   TEWEN  =     42461.91428709
  -Hartree energ DENC   =    -81960.19019582
  -exchange      EXHF   =         0.00000000
  -V(xc)+E(xc)   XCENC  =      1323.25056625
  PAW double counting   =     54457.57172836   -53863.33383793
  entropy T*S    EENTRO =        -0.00000000
  eigenvalues    EBANDS =     -7170.73040634
  atomic energy  EATOM  =     43161.79194098
  Solvation  Ediel_sol  =         0.00000000
  ---------------------------------------------------
  free energy    TOTEN  =      -391.65771105 eV

  energy without entropy =     -391.65771105  energy(sigma->0) =     -391.65771105


--------------------------------------------------------------------------------------------------------




--------------------------------------- Iteration      1(  21)  ---------------------------------------


    POTLOK:  cpu time      0.1231: real time      0.1242
    SETDIJ:  cpu time      0.0133: real time      0.0133
     EDDAV:  cpu time      6.8539: real time      6.9065
       DOS:  cpu time      0.0015: real time      0.0015
    CHARGE:  cpu time      0.4547: real time      0.4584
    MIXING:  cpu time      0.0270: real time      0.0271
    --------------------------------------------
      LOOP:  cpu time      7.4735: real time      7.5310

 eigenvalue-minimisations  :  8789
 total energy-change (2. order) :-0.8436563E-03  (-0.8719533E-05)
 number of electron     468.0000031 magnetization 
 augmentation part       25.2471884 magnetization 

 Broyden mixing:
  rms(total) = 0.27165E-02    rms(broyden)= 0.27165E-02
  rms(prec ) = 0.34269E-02
  weight for this iteration     100.00

 eigenvalues of (default mixing * dielectric matrix)
  average eigenvalue GAMMA=   1.6833
  9.9419  2.8932  2.3885  2.2076  1.4284  1.4284  0.9522  0.8732  0.8732  0.7339
  0.7339  0.6922  0.5422  0.3842  0.4113  0.4492

 Free energy of the ion-electron system (eV)
  ---------------------------------------------------
  alpha Z        PSCENC =      1198.06820637
  Ewald energy   TEWEN  =     42461.91428709
  -Hartree energ DENC   =    -81961.50602000
  -exchange      EXHF   =         0.00000000
  -V(xc)+E(xc)   XCENC  =      1323.25320646
  PAW double counting   =     54461.06881254   -53866.83577286
  entropy T*S    EENTRO =        -0.00000000
  eigenvalues    EBANDS =     -7169.41321529
  atomic energy  EATOM  =     43161.79194098
  Solvation  Ediel_sol  =         0.00000000
  ---------------------------------------------------
  free energy    TOTEN  =      -391.65855471 eV

  energy without entropy =     -391.65855471  energy(sigma->0) =     -391.65855471


--------------------------------------------------------------------------------------------------------




--------------------------------------- Iteration      1(  22)  ---------------------------------------


    POTLOK:  cpu time      0.1234: real time      0.1246
    SETDIJ:  cpu time      0.0133: real time      0.0133
     EDDAV:  cpu time      6.9066: real time      6.9574
       DOS:  cpu time      0.0018: real time      0.0018
    CHARGE:  cpu time      0.4563: real time      0.4599
    MIXING:  cpu time      0.0267: real time      0.0268
    --------------------------------------------
      LOOP:  cpu time      7.5281: real time      7.5838

 eigenvalue-minimisations  :  9053
 total energy-change (2. order) :-0.1610178E-03  (-0.2276547E-05)
 number of electron     468.0000031 magnetization 
 augmentation part       25.2464453 magnetization 

 Broyden mixing:
  rms(total) = 0.18093E-02    rms(broyden)= 0.18093E-02
  rms(prec ) = 0.25165E-02
  weight for this iteration     100.00

 eigenvalues of (default mixing * dielectric matrix)
  average eigenvalue GAMMA=   1.6582
 10.0086  2.9758  2.4832  2.0861  1.4237  1.4237  1.1406  1.0124  1.0124  0.7509
  0.7509  0.6824  0.6824  0.5138  0.3841  0.4113  0.4477

 Free energy of the ion-electron system (eV)
  ---------------------------------------------------
  alpha Z        PSCENC =      1198.06820637
  Ewald energy   TEWEN  =     42461.91428709
  -Hartree energ DENC   =    -81961.67513349
  -exchange      EXHF   =         0.00000000
  -V(xc)+E(xc)   XCENC  =      1323.25320431
  PAW double counting   =     54464.19677186   -53869.96558324
  entropy T*S    EENTRO =        -0.00000000
  eigenvalues    EBANDS =     -7169.24240962
  atomic energy  EATOM  =     43161.79194098
  Solvation  Ediel_sol  =         0.00000000
  ---------------------------------------------------
  free energy    TOTEN  =      -391.65871572 eV

  energy without entropy =     -391.65871572  energy(sigma->0) =     -391.65871572


--------------------------------------------------------------------------------------------------------




--------------------------------------- Iteration      1(  23)  ---------------------------------------


    POTLOK:  cpu time      0.1233: real time      0.1244
    SETDIJ:  cpu time      0.0134: real time      0.0134
     EDDAV:  cpu time      6.4881: real time      6.5388
       DOS:  cpu time      0.0018: real time      0.0018
    CHARGE:  cpu time      0.4550: real time      0.4587
    MIXING:  cpu time      0.0266: real time      0.0267
    --------------------------------------------
      LOOP:  cpu time      7.1082: real time      7.1637

 eigenvalue-minimisations  :  8118
 total energy-change (2. order) :-0.2934809E-03  (-0.2331049E-05)
 number of electron     468.0000031 magnetization 
 augmentation part       25.2463913 magnetization 

 Broyden mixing:
  rms(total) = 0.12028E-02    rms(broyden)= 0.12028E-02
  rms(prec ) = 0.17959E-02
  weight for this iteration     100.00

 eigenvalues of (default mixing * dielectric matrix)
  average eigenvalue GAMMA=   1.8507
 12.2568  3.8396  2.3949  2.3949  1.8713  1.8713  1.3503  0.9278  0.9278  0.7943
  0.7943  0.7275  0.7275  0.6949  0.5224  0.3842  0.4114  0.4216

 Free energy of the ion-electron system (eV)
  ---------------------------------------------------
  alpha Z        PSCENC =      1198.06820637
  Ewald energy   TEWEN  =     42461.91428709
  -Hartree energ DENC   =    -81961.94518202
  -exchange      EXHF   =         0.00000000
  -V(xc)+E(xc)   XCENC  =      1323.25160392
  PAW double counting   =     54467.96046466   -53873.73194411
  entropy T*S    EENTRO =        -0.00000000
  eigenvalues    EBANDS =     -7168.96838611
  atomic energy  EATOM  =     43161.79194098
  Solvation  Ediel_sol  =         0.00000000
  ---------------------------------------------------
  free energy    TOTEN  =      -391.65900921 eV

  energy without entropy =     -391.65900921  energy(sigma->0) =     -391.65900921


--------------------------------------------------------------------------------------------------------




--------------------------------------- Iteration      1(  24)  ---------------------------------------


    POTLOK:  cpu time      0.1232: real time      0.1242
    SETDIJ:  cpu time      0.0133: real time      0.0134
     EDDAV:  cpu time      6.4049: real time      6.4525
       DOS:  cpu time      0.0018: real time      0.0018
    CHARGE:  cpu time      0.4565: real time      0.4600
    MIXING:  cpu time      0.0252: real time      0.0253
    --------------------------------------------
      LOOP:  cpu time      7.0250: real time      7.0772

 eigenvalue-minimisations  :  8162
 total energy-change (2. order) :-0.2055405E-03  (-0.5791048E-05)
 number of electron     468.0000031 magnetization 
 augmentation part       25.2469805 magnetization 

 Broyden mixing:
  rms(total) = 0.15452E-02    rms(broyden)= 0.15452E-02
  rms(prec ) = 0.17286E-02
  weight for this iteration     100.00

 eigenvalues of (default mixing * dielectric matrix)
  average eigenvalue GAMMA=   1.8670
 13.3879  4.2573  2.5303  2.5303  1.8731  1.5722  1.2862  0.9654  0.9654  0.9720
  0.7351  0.7351  0.7046  0.7046  0.5386  0.5093  0.3842  0.4117  0.4091

 Free energy of the ion-electron system (eV)
  ---------------------------------------------------
  alpha Z        PSCENC =      1198.06820637
  Ewald energy   TEWEN  =     42461.91428709
  -Hartree energ DENC   =    -81962.71323645
  -exchange      EXHF   =         0.00000000
  -V(xc)+E(xc)   XCENC  =      1323.25193351
  PAW double counting   =     54466.84101997   -53872.61164796
  entropy T*S    EENTRO =        -0.00000000
  eigenvalues    EBANDS =     -7168.20171826
  atomic energy  EATOM  =     43161.79194098
  Solvation  Ediel_sol  =         0.00000000
  ---------------------------------------------------
  free energy    TOTEN  =      -391.65921475 eV

  energy without entropy =     -391.65921475  energy(sigma->0) =     -391.65921475


--------------------------------------------------------------------------------------------------------




--------------------------------------- Iteration      1(  25)  ---------------------------------------


    POTLOK:  cpu time      0.1231: real time      0.1243
    SETDIJ:  cpu time      0.0132: real time      0.0132
     EDDAV:  cpu time      6.2899: real time      6.3379
       DOS:  cpu time      0.0018: real time      0.0019
    CHARGE:  cpu time      0.4551: real time      0.4588
    MIXING:  cpu time      0.0270: real time      0.0271
    --------------------------------------------
      LOOP:  cpu time      6.9102: real time      6.9632

 eigenvalue-minimisations  :  7865
 total energy-change (2. order) : 0.3534294E-04  (-0.2628446E-05)
 number of electron     468.0000031 magnetization 
 augmentation part       25.2471593 magnetization 

 Broyden mixing:
  rms(total) = 0.11896E-02    rms(broyden)= 0.11896E-02
  rms(prec ) = 0.13290E-02
  weight for this iteration     100.00

 eigenvalues of (default mixing * dielectric matrix)
  average eigenvalue GAMMA=   1.8057
 13.3908  4.3214  2.5732  2.5732  2.0100  1.5902  1.1999  0.9614  0.9614  1.0116
  0.7274  0.7274  0.6920  0.6920  0.5285  0.5285  0.3841  0.4117  0.4143  0.4143

 Free energy of the ion-electron system (eV)
  ---------------------------------------------------
  alpha Z        PSCENC =      1198.06820637
  Ewald energy   TEWEN  =     42461.91428709
  -Hartree energ DENC   =    -81962.93921861
  -exchange      EXHF   =         0.00000000
  -V(xc)+E(xc)   XCENC  =      1323.25309239
  PAW double counting   =     54465.04723859   -53870.81672019
  entropy T*S    EENTRO =        -0.00000000
  eigenvalues    EBANDS =     -7167.97800602
  atomic energy  EATOM  =     43161.79194098
  Solvation  Ediel_sol  =         0.00000000
  ---------------------------------------------------
  free energy    TOTEN  =      -391.65917940 eV

  energy without entropy =     -391.65917940  energy(sigma->0) =     -391.65917940


--------------------------------------------------------------------------------------------------------




--------------------------------------- Iteration      1(  26)  ---------------------------------------


    POTLOK:  cpu time      0.1233: real time      0.1244
    SETDIJ:  cpu time      0.0131: real time      0.0131
     EDDAV:  cpu time      5.2786: real time      5.3176
       DOS:  cpu time      0.0014: real time      0.0014
    CHARGE:  cpu time      0.4570: real time      0.4605
    MIXING:  cpu time      0.0269: real time      0.0270
    --------------------------------------------
      LOOP:  cpu time      5.9003: real time      5.9441

 eigenvalue-minimisations  :  6292
 total energy-change (2. order) : 0.6231159E-05  (-0.1515115E-06)
 number of electron     468.0000031 magnetization 
 augmentation part       25.2471648 magnetization 

 Broyden mixing:
  rms(total) = 0.81418E-03    rms(broyden)= 0.81418E-03
  rms(prec ) = 0.94898E-03
  weight for this iteration     100.00

 eigenvalues of (default mixing * dielectric matrix)
  average eigenvalue GAMMA=   1.8387
 13.4247  4.7089  2.6725  2.6725  2.2135  1.6344  1.2723  1.2723  1.1086  1.0308
  0.8040  0.8040  0.7181  0.7181  0.6845  0.6845  0.5177  0.3842  0.4667  0.4114
  0.4096

 Free energy of the ion-electron system (eV)
  ---------------------------------------------------
  alpha Z        PSCENC =      1198.06820637
  Ewald energy   TEWEN  =     42461.91428709
  -Hartree energ DENC   =    -81963.03003328
  -exchange      EXHF   =         0.00000000
  -V(xc)+E(xc)   XCENC  =      1323.25398626
  PAW double counting   =     54464.44374695   -53870.21337422
  entropy T*S    EENTRO =        -0.00000000
  eigenvalues    EBANDS =     -7167.88793333
  atomic energy  EATOM  =     43161.79194098
  Solvation  Ediel_sol  =         0.00000000
  ---------------------------------------------------
  free energy    TOTEN  =      -391.65917317 eV

  energy without entropy =     -391.65917317  energy(sigma->0) =     -391.65917317


--------------------------------------------------------------------------------------------------------




--------------------------------------- Iteration      1(  27)  ---------------------------------------


    POTLOK:  cpu time      0.1235: real time      0.1247
    SETDIJ:  cpu time      0.0133: real time      0.0133
     EDDAV:  cpu time      5.6913: real time      5.7359
       DOS:  cpu time      0.0014: real time      0.0014
    CHARGE:  cpu time      0.4549: real time      0.4586
    MIXING:  cpu time      0.0269: real time      0.0270
    --------------------------------------------
      LOOP:  cpu time      6.3113: real time      6.3609

 eigenvalue-minimisations  :  6787
 total energy-change (2. order) : 0.1130924E-05  (-0.2238106E-06)
 number of electron     468.0000031 magnetization 
 augmentation part       25.2472217 magnetization 

 Broyden mixing:
  rms(total) = 0.42612E-03    rms(broyden)= 0.42612E-03
  rms(prec ) = 0.52282E-03
  weight for this iteration     100.00

 eigenvalues of (default mixing * dielectric matrix)
  average eigenvalue GAMMA=   1.8655
 13.6993  5.5232  2.9586  2.4303  2.4303  1.7392  1.4992  1.4992  0.9906  0.9906
  0.8544  0.8544  0.7436  0.7436  0.6962  0.6962  0.5469  0.5185  0.3842  0.4300
  0.4114  0.4007

 Free energy of the ion-electron system (eV)
  ---------------------------------------------------
  alpha Z        PSCENC =      1198.06820637
  Ewald energy   TEWEN  =     42461.91428709
  -Hartree energ DENC   =    -81963.13771308
  -exchange      EXHF   =         0.00000000
  -V(xc)+E(xc)   XCENC  =      1323.25552250
  PAW double counting   =     54463.55210269   -53869.32287417
  entropy T*S    EENTRO =        -0.00000000
  eigenvalues    EBANDS =     -7167.78064442
  atomic energy  EATOM  =     43161.79194098
  Solvation  Ediel_sol  =         0.00000000
  ---------------------------------------------------
  free energy    TOTEN  =      -391.65917204 eV

  energy without entropy =     -391.65917204  energy(sigma->0) =     -391.65917204


--------------------------------------------------------------------------------------------------------




--------------------------------------- Iteration      1(  28)  ---------------------------------------


    POTLOK:  cpu time      0.1233: real time      0.1244
    SETDIJ:  cpu time      0.0132: real time      0.0132
     EDDAV:  cpu time      5.8544: real time      5.8976
       DOS:  cpu time      0.0019: real time      0.0019
    CHARGE:  cpu time      0.4563: real time      0.4599
    MIXING:  cpu time      0.0260: real time      0.0261
    --------------------------------------------
      LOOP:  cpu time      6.4751: real time      6.5231

 eigenvalue-minimisations  :  7150
 total energy-change (2. order) :-0.5238195E-05  (-0.3251366E-06)
 number of electron     468.0000031 magnetization 
 augmentation part       25.2472230 magnetization 

 Broyden mixing:
  rms(total) = 0.50673E-03    rms(broyden)= 0.50673E-03
  rms(prec ) = 0.54253E-03
  weight for this iteration     100.00

 eigenvalues of (default mixing * dielectric matrix)
  average eigenvalue GAMMA=   1.8293
 13.7690  5.6039  3.1537  2.5144  2.2643  1.6571  1.4908  1.4908  1.0269  1.0269
  0.9300  0.9300  0.7471  0.7471  0.6754  0.6754  0.6231  0.6231  0.5067  0.3842
  0.4187  0.4107  0.4044

 Free energy of the ion-electron system (eV)
  ---------------------------------------------------
  alpha Z        PSCENC =      1198.06820637
  Ewald energy   TEWEN  =     42461.91428709
  -Hartree energ DENC   =    -81963.20131082
  -exchange      EXHF   =         0.00000000
  -V(xc)+E(xc)   XCENC  =      1323.25636556
  PAW double counting   =     54462.80341490   -53868.57412187
  entropy T*S    EENTRO =        -0.00000000
  eigenvalues    EBANDS =     -7167.71795950
  atomic energy  EATOM  =     43161.79194098
  Solvation  Ediel_sol  =         0.00000000
  ---------------------------------------------------
  free energy    TOTEN  =      -391.65917728 eV

  energy without entropy =     -391.65917728  energy(sigma->0) =     -391.65917728


--------------------------------------------------------------------------------------------------------




--------------------------------------- Iteration      1(  29)  ---------------------------------------


    POTLOK:  cpu time      0.1237: real time      0.1248
    SETDIJ:  cpu time      0.0132: real time      0.0132
     EDDAV:  cpu time      5.0595: real time      5.0984
       DOS:  cpu time      0.0019: real time      0.0019
    CHARGE:  cpu time      0.4564: real time      0.4601
    MIXING:  cpu time      0.0272: real time      0.0273
    --------------------------------------------
      LOOP:  cpu time      5.6820: real time      5.7257

 eigenvalue-minimisations  :  5907
 total energy-change (2. order) :-0.1081550E-04  (-0.9113497E-07)
 number of electron     468.0000031 magnetization 
 augmentation part       25.2471356 magnetization 

 Broyden mixing:
  rms(total) = 0.40640E-03    rms(broyden)= 0.40640E-03
  rms(prec ) = 0.43306E-03
  weight for this iteration     100.00

 eigenvalues of (default mixing * dielectric matrix)
  average eigenvalue GAMMA=   1.8650
 13.8205  6.0985  3.4201  2.4135  2.1257  2.1257  1.6644  1.4616  1.4616  1.0911
  1.0911  0.8365  0.8365  0.7864  0.7420  0.7420  0.7110  0.6363  0.5605  0.5128
  0.3842  0.4244  0.4112  0.4029

 Free energy of the ion-electron system (eV)
  ---------------------------------------------------
  alpha Z        PSCENC =      1198.06820637
  Ewald energy   TEWEN  =     42461.91428709
  -Hartree energ DENC   =    -81963.20689940
  -exchange      EXHF   =         0.00000000
  -V(xc)+E(xc)   XCENC  =      1323.25649618
  PAW double counting   =     54462.98169385   -53868.75155925
  entropy T*S    EENTRO =        -0.00000000
  eigenvalues    EBANDS =     -7167.71335391
  atomic energy  EATOM  =     43161.79194098
  Solvation  Ediel_sol  =         0.00000000
  ---------------------------------------------------
  free energy    TOTEN  =      -391.65918809 eV

  energy without entropy =     -391.65918809  energy(sigma->0) =     -391.65918809


--------------------------------------------------------------------------------------------------------




--------------------------------------- Iteration      1(  30)  ---------------------------------------


    POTLOK:  cpu time      0.1233: real time      0.1245
    SETDIJ:  cpu time      0.0130: real time      0.0131
     EDDAV:  cpu time      5.1491: real time      5.1870
       DOS:  cpu time      0.0018: real time      0.0018
    CHARGE:  cpu time      0.4574: real time      0.4609
    MIXING:  cpu time      0.0275: real time      0.0276
    --------------------------------------------
      LOOP:  cpu time      5.7720: real time      5.8149

 eigenvalue-minimisations  :  6237
 total energy-change (2. order) :-0.2114039E-04  (-0.2503742E-06)
 number of electron     468.0000031 magnetization 
 augmentation part       25.2471250 magnetization 

 Broyden mixing:
  rms(total) = 0.19178E-03    rms(broyden)= 0.19178E-03
  rms(prec ) = 0.20966E-03
  weight for this iteration     100.00

 eigenvalues of (default mixing * dielectric matrix)
  average eigenvalue GAMMA=   1.9168
 13.8952  6.8806  3.9389  2.7571  2.4402  2.2628  1.6733  1.4670  1.4670  1.0962
  1.0962  0.8634  0.8634  0.8657  0.7842  0.7842  0.7055  0.7055  0.6696  0.5713
  0.5123  0.3842  0.4236  0.4112  0.4021

 Free energy of the ion-electron system (eV)
  ---------------------------------------------------
  alpha Z        PSCENC =      1198.06820637
  Ewald energy   TEWEN  =     42461.91428709
  -Hartree energ DENC   =    -81963.22166523
  -exchange      EXHF   =         0.00000000
  -V(xc)+E(xc)   XCENC  =      1323.25661407
  PAW double counting   =     54463.43985472   -53869.20977918
  entropy T*S    EENTRO =        -0.00000000
  eigenvalues    EBANDS =     -7167.69866806
  atomic energy  EATOM  =     43161.79194098
  Solvation  Ediel_sol  =         0.00000000
  ---------------------------------------------------
  free energy    TOTEN  =      -391.65920924 eV

  energy without entropy =     -391.65920924  energy(sigma->0) =     -391.65920924


--------------------------------------------------------------------------------------------------------




--------------------------------------- Iteration      1(  31)  ---------------------------------------


    POTLOK:  cpu time      0.1234: real time      0.1246
    SETDIJ:  cpu time      0.0133: real time      0.0133
     EDDAV:  cpu time      5.3363: real time      5.3767
       DOS:  cpu time      0.0015: real time      0.0015
    CHARGE:  cpu time      0.4546: real time      0.4583
    MIXING:  cpu time      0.0276: real time      0.0277
    --------------------------------------------
      LOOP:  cpu time      5.9568: real time      6.0021

 eigenvalue-minimisations  :  6457
 total energy-change (2. order) :-0.1029672E-04  (-0.2044658E-06)
 number of electron     468.0000031 magnetization 
 augmentation part       25.2470471 magnetization 

 Broyden mixing:
  rms(total) = 0.98092E-04    rms(broyden)= 0.98092E-04
  rms(prec ) = 0.10827E-03
  weight for this iteration     100.00

 eigenvalues of (default mixing * dielectric matrix)
  average eigenvalue GAMMA=   1.8997
 13.9655  7.0153  4.2366  2.7253  2.2884  2.2884  1.8246  1.4150  1.4150  1.1166
  1.1166  1.0163  1.0163  0.8649  0.8649  0.7481  0.7481  0.6920  0.6920  0.6477
  0.5622  0.5123  0.3842  0.4233  0.4112  0.4022

 Free energy of the ion-electron system (eV)
  ---------------------------------------------------
  alpha Z        PSCENC =      1198.06820637
  Ewald energy   TEWEN  =     42461.91428709
  -Hartree energ DENC   =    -81963.22545204
  -exchange      EXHF   =         0.00000000
  -V(xc)+E(xc)   XCENC  =      1323.25659549
  PAW double counting   =     54463.64495802   -53869.41501448
  entropy T*S    EENTRO =        -0.00000000
  eigenvalues    EBANDS =     -7167.69474097
  atomic energy  EATOM  =     43161.79194098
  Solvation  Ediel_sol  =         0.00000000
  ---------------------------------------------------
  free energy    TOTEN  =      -391.65921953 eV

  energy without entropy =     -391.65921953  energy(sigma->0) =     -391.65921953


--------------------------------------------------------------------------------------------------------




--------------------------------------- Iteration      1(  32)  ---------------------------------------


    POTLOK:  cpu time      0.1237: real time      0.1251
    SETDIJ:  cpu time      0.0125: real time      0.0126
     EDDAV:  cpu time      4.7705: real time      4.8067
       DOS:  cpu time      0.0017: real time      0.0017
    --------------------------------------------
      LOOP:  cpu time      4.9084: real time      4.9461

 eigenvalue-minimisations  :  5676
 total energy-change (2. order) :-0.7371491E-06  (-0.1356715E-07)
 number of electron     468.0000031 magnetization 
 augmentation part       25.2470471 magnetization 

 Free energy of the ion-electron system (eV)
  ---------------------------------------------------
  alpha Z        PSCENC =      1198.06820637
  Ewald energy   TEWEN  =     42461.91428709
  -Hartree energ DENC   =    -81963.22362081
  -exchange      EXHF   =         0.00000000
  -V(xc)+E(xc)   XCENC  =      1323.25648681
  PAW double counting   =     54463.61214152   -53869.38230133
  entropy T*S    EENTRO =        -0.00000000
  eigenvalues    EBANDS =     -7167.69636090
  atomic energy  EATOM  =     43161.79194098
  Solvation  Ediel_sol  =         0.00000000
  ---------------------------------------------------
  free energy    TOTEN  =      -391.65922027 eV

  energy without entropy =     -391.65922027  energy(sigma->0) =     -391.65922027


--------------------------------------------------------------------------------------------------------




 average (electrostatic) potential at core
  the test charge radii are     1.0818  1.0808  1.1823  0.9698
  (the norm of the test charge is              1.0000)
       1 -79.3917       2 -79.3916       3 -79.3916       4 -79.3916       5 -79.3916
       6 -79.3916       7 -79.3916       8 -79.3916       9 -79.3915      10 -55.9786
      11 -55.9786      12 -55.9786      13 -55.9786      14 -55.9786      15 -55.9786
      16 -55.9786      17 -55.9786      18 -55.9786      19 -55.9925      20 -55.9922
      21 -55.9923      22 -55.9923      23 -55.9923      24 -55.9922      25 -55.9923
      26 -55.9922      27 -55.9922      28 -70.5065      29 -70.5067      30 -70.5058
      31 -70.5063      32 -70.5063      33 -70.5062      34 -70.5059      35 -70.5066
      36 -70.5063      37 -89.8247      38 -89.8207      39 -89.8191      40 -89.8227
      41 -89.8203      42 -89.8196      43 -89.8192      44 -89.8200      45 -89.8190
      46 -89.7899      47 -89.7861      48 -89.7914      49 -89.7880      50 -89.7908
      51 -89.7902      52 -89.7915      53 -89.7905      54 -89.7914
 
 
 
 E-fermi :   2.6509     XC(G=0):  -7.2527     alpha+bet : -7.8559

 val. band max:        2.3075555229   @ k =   0.0000   0.0000   0.0000
 cond. band min:       3.1641225073   @ k =   0.0000   0.0000   0.0000
 fundamental gap:      0.8565669844
 Fermi energy:         2.6508959737

 k-point     1 :       0.0000    0.0000    0.0000
  band No.  band energies     occupation 
      1     -72.4550      2.00000
      2     -72.4462      2.00000
      3     -72.4461      2.00000
      4     -72.4461      2.00000
      5     -72.4460      2.00000
      6     -72.4457      2.00000
      7     -72.4457      2.00000
      8     -72.4415      2.00000
      9     -72.4414      2.00000
     10     -58.6502      2.00000
     11     -58.6292      2.00000
     12     -58.6292      2.00000
     13     -58.6292      2.00000
     14     -58.6291      2.00000
     15     -58.6291      2.00000
     16     -58.6291      2.00000
     17     -58.6186      2.00000
     18     -58.6186      2.00000
     19     -36.7623      2.00000
     20     -36.7616      2.00000
     21     -36.7614      2.00000
     22     -36.7613      2.00000
     23     -36.7612      2.00000
     24     -36.7611      2.00000
     25     -36.7609      2.00000
     26     -36.7602      2.00000
     27     -36.7327      2.00000
     28     -36.7324      2.00000
     29     -36.6401      2.00000
     30     -36.6107      2.00000
     31     -36.6103      2.00000
     32     -36.6101      2.00000
     33     -36.6100      2.00000
     34     -36.6099      2.00000
     35     -36.6096      2.00000
     36     -36.6045      2.00000
     37     -36.6044      2.00000
     38     -36.6043      2.00000
     39     -36.6043      2.00000
     40     -36.6041      2.00000
     41     -36.6040      2.00000
     42     -36.5864      2.00000
     43     -36.5862      2.00000
     44     -36.5631      2.00000
     45     -36.5631      2.00000
     46     -32.8372      2.00000
     47     -32.8302      2.00000
     48     -32.8302      2.00000
     49     -32.8302      2.00000
     50     -32.8301      2.00000
     51     -32.8301      2.00000
     52     -32.8301      2.00000
     53     -32.8294      2.00000
     54     -32.8294      2.00000
     55     -32.7964      2.00000
     56     -32.7964      2.00000
     57     -32.7903      2.00000
     58     -32.7903      2.00000
     59     -32.7903      2.00000
     60     -32.7902      2.00000
     61     -32.7902      2.00000
     62     -32.7902      2.00000
     63     -32.7667      2.00000
     64     -32.7667      2.00000
     65     -32.6596      2.00000
     66     -32.6595      2.00000
     67     -32.6595      2.00000
     68     -32.6595      2.00000
     69     -32.6595      2.00000
     70     -32.6595      2.00000
     71     -32.6082      2.00000
     72     -32.6082      2.00000
     73     -12.9440      2.00000
     74     -12.2479      2.00000
     75     -11.6117      2.00000
     76     -11.6088      2.00000
     77     -11.6083      2.00000
     78     -11.6083      2.00000
     79     -11.6083      2.00000
     80     -11.6059      2.00000
     81     -11.3833      2.00000
     82     -11.1379      2.00000
     83     -10.9546      2.00000
     84     -10.9544      2.00000
     85     -10.9543      2.00000
     86     -10.9543      2.00000
     87     -10.9538      2.00000
     88     -10.9530      2.00000
     89     -10.8051      2.00000
     90     -10.8028      2.00000
     91     -10.8027      2.00000
     92     -10.8027      2.00000
     93     -10.8027      2.00000
     94     -10.8007      2.00000
     95     -10.7568      2.00000
     96     -10.7557      2.00000
     97     -10.5156      2.00000
     98     -10.5129      2.00000
     99     -10.4981      2.00000
    100     -10.4979      2.00000
    101     -10.4978      2.00000
    102     -10.4977      2.00000
    103     -10.4977      2.00000
    104     -10.4977      2.00000
    105     -10.0381      2.00000
    106     -10.0381      2.00000
    107      -9.9981      2.00000
    108      -9.9981      2.00000
    109      -4.5921      2.00000
    110      -4.0395      2.00000
    111      -4.0381      2.00000
    112      -4.0378      2.00000
    113      -4.0376      2.00000
    114      -4.0370      2.00000
    115      -4.0360      2.00000
    116      -3.9286      2.00000
    117      -3.9275      2.00000
    118      -3.5961      2.00000
    119      -3.5960      2.00000
    120      -3.3769      2.00000
    121      -3.0548      2.00000
    122      -3.0547      2.00000
    123      -3.0327      2.00000
    124      -3.0313      2.00000
    125      -3.0310      2.00000
    126      -3.0307      2.00000
    127      -3.0304      2.00000
    128      -3.0297      2.00000
    129      -2.8042      2.00000
    130      -2.8036      2.00000
    131      -2.8032      2.00000
    132      -2.8031      2.00000
    133      -2.8024      2.00000
    134      -2.8016      2.00000
    135      -2.7152      2.00000
    136      -2.7149      2.00000
    137      -2.6772      2.00000
    138      -2.6768      2.00000
    139      -2.6752      2.00000
    140      -2.6746      2.00000
    141      -2.6740      2.00000
    142      -2.6737      2.00000
    143      -2.6450      2.00000
    144      -2.6447      2.00000
    145      -2.2062      2.00000
    146      -2.2053      2.00000
    147      -2.0148      2.00000
    148      -2.0148      2.00000
    149      -2.0147      2.00000
    150      -2.0147      2.00000
    151      -2.0146      2.00000
    152      -2.0144      2.00000
    153      -1.9499      2.00000
    154      -1.9499      2.00000
    155      -1.7001      2.00000
    156      -1.7001      2.00000
    157      -1.7001      2.00000
    158      -1.6999      2.00000
    159      -1.6998      2.00000
    160      -1.6997      2.00000
    161      -1.6398      2.00000
    162      -1.6397      2.00000
    163      -1.4937      2.00000
    164      -1.4901      2.00000
    165      -1.4893      2.00000
    166      -1.4892      2.00000
    167      -1.4885      2.00000
    168      -1.4858      2.00000
    169      -1.3492      2.00000
    170      -1.3483      2.00000
    171      -1.1522      2.00000
    172      -1.1522      2.00000
    173      -1.0409      2.00000
    174      -1.0402      2.00000
    175      -0.6399      2.00000
    176      -0.4324      2.00000
    177      -0.4300      2.00000
    178      -0.2767      2.00000
    179      -0.2763      2.00000
    180      -0.2763      2.00000
    181      -0.2763      2.00000
    182      -0.2762      2.00000
    183      -0.2759      2.00000
    184      -0.1799      2.00000
    185      -0.1774      2.00000
    186      -0.1759      2.00000
    187      -0.1757      2.00000
    188      -0.1757      2.00000
    189      -0.1731      2.00000
    190      -0.1482      2.00000
    191      -0.1449      2.00000
    192      -0.1421      2.00000
    193      -0.1407      2.00000
    194      -0.1405      2.00000
    195      -0.1397      2.00000
    196      -0.1395      2.00000
    197      -0.1368      2.00000
    198      -0.0914      2.00000
    199      -0.0913      2.00000
    200       0.0943      2.00000
    201       0.0943      2.00000
    202       0.3422      2.00000
    203       0.3426      2.00000
    204       0.3429      2.00000
    205       0.3439      2.00000
    206       0.3439      2.00000
    207       0.3445      2.00000
    208       0.5644      2.00000
    209       0.6054      2.00000
    210       0.6070      2.00000
    211       0.6073      2.00000
    212       0.6074      2.00000
    213       0.6079      2.00000
    214       0.6099      2.00000
    215       1.0761      2.00000
    216       1.0762      2.00000
    217       1.0762      2.00000
    218       1.0763      2.00000
    219       1.0764      2.00000
    220       1.0765      2.00000
    221       1.1039      2.00000
    222       1.1039      2.00000
    223       1.2640      2.00000
    224       1.2640      2.00000
    225       1.2640      2.00000
    226       1.2640      2.00000
    227       1.2640      2.00000
    228       1.2640      2.00000
    229       1.5968      2.00000
    230       1.6001      2.00000
    231       1.6018      2.00000
    232       2.1413      2.00000
    233       2.1413      2.00000
    234       2.3076      2.00000
    235       3.1641      0.00000
    236       3.1642      0.00000
    237       3.7986      0.00000
    238       3.7986      0.00000
    239       3.9859      0.00000
    240       3.9866      0.00000
    241       3.9867      0.00000
    242       3.9868      0.00000
    243       3.9875      0.00000
    244       3.9883      0.00000
    245       4.0287      0.00000
    246       4.0310      0.00000
    247       4.0319      0.00000
    248       4.0320      0.00000
    249       4.0327      0.00000
    250       4.0349      0.00000
    251       4.2499      0.00000
    252       4.2501      0.00000
    253       4.2501      0.00000
    254       4.2502      0.00000
    255       4.2502      0.00000
    256       4.2503      0.00000
    257       4.3611      0.00000
    258       4.3662      0.00000
    259       4.3726      0.00000
    260       4.3754      0.00000
    261       4.3761      0.00000
    262       4.3762      0.00000
    263       4.3765      0.00000
    264       4.3782      0.00000
    265       4.4507      0.00000
    266       4.4507      0.00000
    267       4.5867      0.00000
    268       4.5889      0.00000
    269       5.0324      0.00000
    270       5.0352      0.00000
    271       5.0365      0.00000
    272       5.0366      0.00000
    273       5.0369      0.00000
    274       5.0398      0.00000
    275       5.1333      0.00000
    276       5.1333      0.00000
    277       5.2524      0.00000
    278       5.2526      0.00000
    279       5.2788      0.00000
    280       5.2789      0.00000
    281       5.3480      0.00000
    282       5.3480      0.00000
    283       5.5379      0.00000
    284       5.5401      0.00000
    285       5.5412      0.00000
    286       5.5433      0.00000

 k-point     2 :       0.2000    0.0000    0.0000
  band No.  band energies     occupation 
      1     -72.4545      2.00000
      2     -72.4484      2.00000
      3     -72.4469      2.00000
      4     -72.4469      2.00000
      5     -72.4448      2.00000
      6     -72.4447      2.00000
      7     -72.4441      2.00000
      8     -72.4417      2.00000
      9     -72.4416      2.00000
     10     -58.6490      2.00000
     11     -58.6347      2.00000
     12     -58.6314      2.00000
     13     -58.6313      2.00000
     14     -58.6264      2.00000
     15     -58.6264      2.00000
     16     -58.6248      2.00000
     17     -58.6192      2.00000
     18     -58.6192      2.00000
     19     -36.8013      2.00000
     20     -36.7820      2.00000
     21     -36.7815      2.00000
     22     -36.7768      2.00000
     23     -36.7762      2.00000
     24     -36.7375      2.00000
     25     -36.7370      2.00000
     26     -36.7100      2.00000
     27     -36.7098      2.00000
     28     -36.7097      2.00000
     29     -36.6381      2.00000
     30     -36.6218      2.00000
     31     -36.6215      2.00000
     32     -36.6197      2.00000
     33     -36.6138      2.00000
     34     -36.6095      2.00000
     35     -36.6093      2.00000
     36     -36.6080      2.00000
     37     -36.6079      2.00000
     38     -36.5996      2.00000
     39     -36.5995      2.00000
     40     -36.5977      2.00000
     41     -36.5969      2.00000
     42     -36.5874      2.00000
     43     -36.5873      2.00000
     44     -36.5747      2.00000
     45     -36.5658      2.00000
     46     -32.8749      2.00000
     47     -32.8529      2.00000
     48     -32.8529      2.00000
     49     -32.8467      2.00000
     50     -32.8467      2.00000
     51     -32.8345      2.00000
     52     -32.8031      2.00000
     53     -32.8031      2.00000
     54     -32.8027      2.00000
     55     -32.7951      2.00000
     56     -32.7951      2.00000
     57     -32.7840      2.00000
     58     -32.7840      2.00000
     59     -32.7805      2.00000
     60     -32.7724      2.00000
     61     -32.7711      2.00000
     62     -32.7711      2.00000
     63     -32.7680      2.00000
     64     -32.7680      2.00000
     65     -32.6723      2.00000
     66     -32.6723      2.00000
     67     -32.6700      2.00000
     68     -32.6589      2.00000
     69     -32.6589      2.00000
     70     -32.6460      2.00000
     71     -32.6212      2.00000
     72     -32.6112      2.00000
     73     -12.8768      2.00000
     74     -12.1835      2.00000
     75     -12.0040      2.00000
     76     -11.7696      2.00000
     77     -11.7681      2.00000
     78     -11.3961      2.00000
     79     -11.3948      2.00000
     80     -11.3514      2.00000
     81     -11.3330      2.00000
     82     -11.2660      2.00000
     83     -11.1096      2.00000
     84     -11.1041      2.00000
     85     -11.1039      2.00000
     86     -10.9706      2.00000
     87     -10.8747      2.00000
     88     -10.8731      2.00000
     89     -10.8095      2.00000
     90     -10.8082      2.00000
     91     -10.7997      2.00000
     92     -10.7984      2.00000
     93     -10.7399      2.00000
     94     -10.7023      2.00000
     95     -10.6624      2.00000
     96     -10.6619      2.00000
     97     -10.5809      2.00000
     98     -10.5807      2.00000
     99     -10.5436      2.00000
    100     -10.5388      2.00000
    101     -10.5361      2.00000
    102     -10.3832      2.00000
    103     -10.3831      2.00000
    104     -10.3160      2.00000
    105     -10.0890      2.00000
    106     -10.0890      2.00000
    107     -10.0344      2.00000
    108     -10.0344      2.00000
    109      -4.5127      2.00000
    110      -4.4088      2.00000
    111      -4.1888      2.00000
    112      -4.1885      2.00000
    113      -3.8474      2.00000
    114      -3.8469      2.00000
    115      -3.8281      2.00000
    116      -3.8272      2.00000
    117      -3.8015      2.00000
    118      -3.8009      2.00000
    119      -3.7809      2.00000
    120      -3.3695      2.00000
    121      -3.2991      2.00000
    122      -3.1369      2.00000
    123      -3.1367      2.00000
    124      -3.0993      2.00000
    125      -3.0152      2.00000
    126      -3.0145      2.00000
    127      -2.9944      2.00000
    128      -2.9944      2.00000
    129      -2.9825      2.00000
    130      -2.9589      2.00000
    131      -2.9580      2.00000
    132      -2.8725      2.00000
    133      -2.8724      2.00000
    134      -2.8150      2.00000
    135      -2.7765      2.00000
    136      -2.7749      2.00000
    137      -2.6535      2.00000
    138      -2.6525      2.00000
    139      -2.6060      2.00000
    140      -2.5171      2.00000
    141      -2.5167      2.00000
    142      -2.4509      2.00000
    143      -2.4504      2.00000
    144      -2.4320      2.00000
    145      -2.2555      2.00000
    146      -2.2554      2.00000
    147      -2.1948      2.00000
    148      -2.1283      2.00000
    149      -2.1275      2.00000
    150      -1.7618      2.00000
    151      -1.7611      2.00000
    152      -1.7556      2.00000
    153      -1.7551      2.00000
    154      -1.7455      2.00000
    155      -1.7452      2.00000
    156      -1.7110      2.00000
    157      -1.7105      2.00000
    158      -1.6943      2.00000
    159      -1.6897      2.00000
    160      -1.6029      2.00000
    161      -1.5693      2.00000
    162      -1.5684      2.00000
    163      -1.5419      2.00000
    164      -1.5417      2.00000
    165      -1.5304      2.00000
    166      -1.4455      2.00000
    167      -1.4352      2.00000
    168      -1.4336      2.00000
    169      -1.2828      2.00000
    170      -1.2089      2.00000
    171      -1.1118      2.00000
    172      -1.1116      2.00000
    173      -0.9983      2.00000
    174      -0.9980      2.00000
    175      -0.8446      2.00000
    176      -0.6097      2.00000
    177      -0.6096      2.00000
    178      -0.4937      2.00000
    179      -0.4928      2.00000
    180      -0.4904      2.00000
    181      -0.4749      2.00000
    182      -0.4043      2.00000
    183      -0.4037      2.00000
    184      -0.4021      2.00000
    185      -0.4001      2.00000
    186      -0.3158      2.00000
    187      -0.3137      2.00000
    188      -0.2575      2.00000
    189      -0.2561      2.00000
    190      -0.1718      2.00000
    191      -0.1145      2.00000
    192      -0.1134      2.00000
    193      -0.0731      2.00000
    194       0.0251      2.00000
    195       0.0253      2.00000
    196       0.0259      2.00000
    197       0.0404      2.00000
    198       0.0567      2.00000
    199       0.0938      2.00000
    200       0.0949      2.00000
    201       0.1595      2.00000
    202       0.1684      2.00000
    203       0.3640      2.00000
    204       0.3643      2.00000
    205       0.4882      2.00000
    206       0.6163      2.00000
    207       0.6178      2.00000
    208       0.6210      2.00000
    209       0.6545      2.00000
    210       0.6692      2.00000
    211       0.6701      2.00000
    212       0.7375      2.00000
    213       0.7383      2.00000
    214       0.8152      2.00000
    215       0.8162      2.00000
    216       0.8245      2.00000
    217       0.8248      2.00000
    218       0.8446      2.00000
    219       0.9567      2.00000
    220       0.9958      2.00000
    221       1.1866      2.00000
    222       1.1910      2.00000
    223       1.1950      2.00000
    224       1.3368      2.00000
    225       1.3368      2.00000
    226       1.4269      2.00000
    227       1.4283      2.00000
    228       1.4859      2.00000
    229       1.5144      2.00000
    230       1.5144      2.00000
    231       1.5895      2.00000
    232       2.0351      2.00000
    233       2.0351      2.00000
    234       2.2037      2.00000
    235       3.4173      0.00000
    236       3.4178      0.00000
    237       3.7299      0.00000
    238       3.7317      0.00000
    239       3.8323      0.00000
    240       3.8988      0.00000
    241       3.8997      0.00000
    242       3.9099      0.00000
    243       3.9099      0.00000
    244       4.0301      0.00000
    245       4.0306      0.00000
    246       4.0534      0.00000
    247       4.1018      0.00000
    248       4.1236      0.00000
    249       4.1247      0.00000
    250       4.1983      0.00000
    251       4.2529      0.00000
    252       4.2601      0.00000
    253       4.2705      0.00000
    254       4.2716      0.00000
    255       4.3093      0.00000
    256       4.3400      0.00000
    257       4.3405      0.00000
    258       4.4165      0.00000
    259       4.4174      0.00000
    260       4.4182      0.00000
    261       4.4699      0.00000
    262       4.4705      0.00000
    263       4.4835      0.00000
    264       4.4942      0.00000
    265       4.5278      0.00000
    266       4.5336      0.00000
    267       4.5344      0.00000
    268       4.5348      0.00000
    269       4.6974      0.00000
    270       4.7639      0.00000
    271       4.7665      0.00000
    272       4.9354      0.00000
    273       5.0558      0.00000
    274       5.0989      0.00000
    275       5.0990      0.00000
    276       5.1115      0.00000
    277       5.1134      0.00000
    278       5.1559      0.00000
    279       5.2228      0.00000
    280       5.2240      0.00000
    281       5.2278      0.00000
    282       5.2506      0.00000
    283       5.2854      0.00000
    284       5.2867      0.00000
    285       5.3031      0.00000
    286       5.3678      0.00000

 k-point     3 :       0.2000    0.2000    0.0000
  band No.  band energies     occupation 
      1     -72.4545      2.00000
      2     -72.4484      2.00000
      3     -72.4469      2.00000
      4     -72.4469      2.00000
      5     -72.4448      2.00000
      6     -72.4447      2.00000
      7     -72.4441      2.00000
      8     -72.4417      2.00000
      9     -72.4416      2.00000
     10     -58.6490      2.00000
     11     -58.6347      2.00000
     12     -58.6314      2.00000
     13     -58.6313      2.00000
     14     -58.6264      2.00000
     15     -58.6264      2.00000
     16     -58.6248      2.00000
     17     -58.6192      2.00000
     18     -58.6192      2.00000
     19     -36.8014      2.00000
     20     -36.7820      2.00000
     21     -36.7815      2.00000
     22     -36.7768      2.00000
     23     -36.7762      2.00000
     24     -36.7374      2.00000
     25     -36.7370      2.00000
     26     -36.7100      2.00000
     27     -36.7098      2.00000
     28     -36.7097      2.00000
     29     -36.6381      2.00000
     30     -36.6218      2.00000
     31     -36.6215      2.00000
     32     -36.6197      2.00000
     33     -36.6138      2.00000
     34     -36.6095      2.00000
     35     -36.6093      2.00000
     36     -36.6081      2.00000
     37     -36.6079      2.00000
     38     -36.5996      2.00000
     39     -36.5995      2.00000
     40     -36.5977      2.00000
     41     -36.5969      2.00000
     42     -36.5874      2.00000
     43     -36.5873      2.00000
     44     -36.5747      2.00000
     45     -36.5658      2.00000
     46     -32.8749      2.00000
     47     -32.8529      2.00000
     48     -32.8529      2.00000
     49     -32.8467      2.00000
     50     -32.8467      2.00000
     51     -32.8345      2.00000
     52     -32.8031      2.00000
     53     -32.8031      2.00000
     54     -32.8027      2.00000
     55     -32.7951      2.00000
     56     -32.7951      2.00000
     57     -32.7840      2.00000
     58     -32.7840      2.00000
     59     -32.7805      2.00000
     60     -32.7724      2.00000
     61     -32.7711      2.00000
     62     -32.7711      2.00000
     63     -32.7680      2.00000
     64     -32.7680      2.00000
     65     -32.6723      2.00000
     66     -32.6723      2.00000
     67     -32.6700      2.00000
     68     -32.6589      2.00000
     69     -32.6589      2.00000
     70     -32.6460      2.00000
     71     -32.6212      2.00000
     72     -32.6112      2.00000
     73     -12.8767      2.00000
     74     -12.1835      2.00000
     75     -12.0037      2.00000
     76     -11.7699      2.00000
     77     -11.7683      2.00000
     78     -11.3964      2.00000
     79     -11.3949      2.00000
     80     -11.3514      2.00000
     81     -11.3330      2.00000
     82     -11.2653      2.00000
     83     -11.1096      2.00000
     84     -11.1041      2.00000
     85     -11.1039      2.00000
     86     -10.9710      2.00000
     87     -10.8743      2.00000
     88     -10.8729      2.00000
     89     -10.8093      2.00000
     90     -10.8084      2.00000
     91     -10.7998      2.00000
     92     -10.7980      2.00000
     93     -10.7406      2.00000
     94     -10.7024      2.00000
     95     -10.6624      2.00000
     96     -10.6619      2.00000
     97     -10.5808      2.00000
     98     -10.5807      2.00000
     99     -10.5437      2.00000
    100     -10.5387      2.00000
    101     -10.5361      2.00000
    102     -10.3832      2.00000
    103     -10.3831      2.00000
    104     -10.3160      2.00000
    105     -10.0890      2.00000
    106     -10.0890      2.00000
    107     -10.0344      2.00000
    108     -10.0344      2.00000
    109      -4.5127      2.00000
    110      -4.4093      2.00000
    111      -4.1886      2.00000
    112      -4.1883      2.00000
    113      -3.8476      2.00000
    114      -3.8465      2.00000
    115      -3.8283      2.00000
    116      -3.8275      2.00000
    117      -3.8011      2.00000
    118      -3.8009      2.00000
    119      -3.7807      2.00000
    120      -3.3695      2.00000
    121      -3.2991      2.00000
    122      -3.1370      2.00000
    123      -3.1366      2.00000
    124      -3.0988      2.00000
    125      -3.0155      2.00000
    126      -3.0147      2.00000
    127      -2.9945      2.00000
    128      -2.9944      2.00000
    129      -2.9823      2.00000
    130      -2.9586      2.00000
    131      -2.9579      2.00000
    132      -2.8725      2.00000
    133      -2.8724      2.00000
    134      -2.8143      2.00000
    135      -2.7764      2.00000
    136      -2.7756      2.00000
    137      -2.6531      2.00000
    138      -2.6530      2.00000
    139      -2.6061      2.00000
    140      -2.5175      2.00000
    141      -2.5170      2.00000
    142      -2.4512      2.00000
    143      -2.4507      2.00000
    144      -2.4317      2.00000
    145      -2.2556      2.00000
    146      -2.2554      2.00000
    147      -2.1954      2.00000
    148      -2.1279      2.00000
    149      -2.1273      2.00000
    150      -1.7628      2.00000
    151      -1.7615      2.00000
    152      -1.7556      2.00000
    153      -1.7554      2.00000
    154      -1.7456      2.00000
    155      -1.7454      2.00000
    156      -1.7110      2.00000
    157      -1.7109      2.00000
    158      -1.6943      2.00000
    159      -1.6880      2.00000
    160      -1.6029      2.00000
    161      -1.5701      2.00000
    162      -1.5691      2.00000
    163      -1.5419      2.00000
    164      -1.5418      2.00000
    165      -1.5296      2.00000
    166      -1.4454      2.00000
    167      -1.4354      2.00000
    168      -1.4333      2.00000
    169      -1.2836      2.00000
    170      -1.2068      2.00000
    171      -1.1119      2.00000
    172      -1.1116      2.00000
    173      -0.9981      2.00000
    174      -0.9980      2.00000
    175      -0.8457      2.00000
    176      -0.6097      2.00000
    177      -0.6096      2.00000
    178      -0.4939      2.00000
    179      -0.4929      2.00000
    180      -0.4905      2.00000
    181      -0.4749      2.00000
    182      -0.4044      2.00000
    183      -0.4039      2.00000
    184      -0.4020      2.00000
    185      -0.4000      2.00000
    186      -0.3152      2.00000
    187      -0.3129      2.00000
    188      -0.2582      2.00000
    189      -0.2528      2.00000
    190      -0.1739      2.00000
    191      -0.1141      2.00000
    192      -0.1123      2.00000
    193      -0.0731      2.00000
    194       0.0252      2.00000
    195       0.0253      2.00000
    196       0.0259      2.00000
    197       0.0407      2.00000
    198       0.0567      2.00000
    199       0.0934      2.00000
    200       0.0946      2.00000
    201       0.1595      2.00000
    202       0.1682      2.00000
    203       0.3642      2.00000
    204       0.3643      2.00000
    205       0.4880      2.00000
    206       0.6171      2.00000
    207       0.6185      2.00000
    208       0.6192      2.00000
    209       0.6543      2.00000
    210       0.6692      2.00000
    211       0.6700      2.00000
    212       0.7380      2.00000
    213       0.7384      2.00000
    214       0.8157      2.00000
    215       0.8169      2.00000
    216       0.8244      2.00000
    217       0.8248      2.00000
    218       0.8430      2.00000
    219       0.9567      2.00000
    220       0.9958      2.00000
    221       1.1865      2.00000
    222       1.1910      2.00000
    223       1.1949      2.00000
    224       1.3368      2.00000
    225       1.3368      2.00000
    226       1.4269      2.00000
    227       1.4283      2.00000
    228       1.4859      2.00000
    229       1.5144      2.00000
    230       1.5144      2.00000
    231       1.5895      2.00000
    232       2.0351      2.00000
    233       2.0351      2.00000
    234       2.2036      2.00000
    235       3.4174      0.00000
    236       3.4177      0.00000
    237       3.7297      0.00000
    238       3.7310      0.00000
    239       3.8323      0.00000
    240       3.8990      0.00000
    241       3.8999      0.00000
    242       3.9099      0.00000
    243       3.9099      0.00000
    244       4.0290      0.00000
    245       4.0311      0.00000
    246       4.0540      0.00000
    247       4.1014      0.00000
    248       4.1239      0.00000
    249       4.1247      0.00000
    250       4.1982      0.00000
    251       4.2533      0.00000
    252       4.2602      0.00000
    253       4.2707      0.00000
    254       4.2719      0.00000
    255       4.3133      0.00000
    256       4.3398      0.00000
    257       4.3403      0.00000
    258       4.4165      0.00000
    259       4.4176      0.00000
    260       4.4183      0.00000
    261       4.4694      0.00000
    262       4.4699      0.00000
    263       4.4819      0.00000
    264       4.4913      0.00000
    265       4.5284      0.00000
    266       4.5337      0.00000
    267       4.5344      0.00000
    268       4.5350      0.00000
    269       4.6985      0.00000
    270       4.7641      0.00000
    271       4.7662      0.00000
    272       4.9354      0.00000
    273       5.0558      0.00000
    274       5.0988      0.00000
    275       5.0990      0.00000
    276       5.1105      0.00000
    277       5.1122      0.00000
    278       5.1567      0.00000
    279       5.2225      0.00000
    280       5.2249      0.00000
    281       5.2278      0.00000
    282       5.2506      0.00000
    283       5.2855      0.00000
    284       5.2867      0.00000
    285       5.3043      0.00000
    286       5.3683      0.00000

 k-point     4 :       0.0000    0.2000    0.0000
  band No.  band energies     occupation 
      1     -72.4545      2.00000
      2     -72.4484      2.00000
      3     -72.4469      2.00000
      4     -72.4468      2.00000
      5     -72.4448      2.00000
      6     -72.4448      2.00000
      7     -72.4441      2.00000
      8     -72.4417      2.00000
      9     -72.4416      2.00000
     10     -58.6490      2.00000
     11     -58.6347      2.00000
     12     -58.6314      2.00000
     13     -58.6313      2.00000
     14     -58.6264      2.00000
     15     -58.6264      2.00000
     16     -58.6248      2.00000
     17     -58.6192      2.00000
     18     -58.6192      2.00000
     19     -36.8013      2.00000
     20     -36.7820      2.00000
     21     -36.7815      2.00000
     22     -36.7769      2.00000
     23     -36.7761      2.00000
     24     -36.7375      2.00000
     25     -36.7369      2.00000
     26     -36.7102      2.00000
     27     -36.7098      2.00000
     28     -36.7095      2.00000
     29     -36.6381      2.00000
     30     -36.6218      2.00000
     31     -36.6214      2.00000
     32     -36.6196      2.00000
     33     -36.6138      2.00000
     34     -36.6094      2.00000
     35     -36.6094      2.00000
     36     -36.6081      2.00000
     37     -36.6079      2.00000
     38     -36.5996      2.00000
     39     -36.5995      2.00000
     40     -36.5977      2.00000
     41     -36.5969      2.00000
     42     -36.5874      2.00000
     43     -36.5873      2.00000
     44     -36.5747      2.00000
     45     -36.5658      2.00000
     46     -32.8749      2.00000
     47     -32.8529      2.00000
     48     -32.8529      2.00000
     49     -32.8467      2.00000
     50     -32.8467      2.00000
     51     -32.8345      2.00000
     52     -32.8031      2.00000
     53     -32.8031      2.00000
     54     -32.8027      2.00000
     55     -32.7951      2.00000
     56     -32.7951      2.00000
     57     -32.7840      2.00000
     58     -32.7840      2.00000
     59     -32.7805      2.00000
     60     -32.7724      2.00000
     61     -32.7711      2.00000
     62     -32.7711      2.00000
     63     -32.7680      2.00000
     64     -32.7680      2.00000
     65     -32.6723      2.00000
     66     -32.6723      2.00000
     67     -32.6700      2.00000
     68     -32.6589      2.00000
     69     -32.6589      2.00000
     70     -32.6460      2.00000
     71     -32.6212      2.00000
     72     -32.6112      2.00000
     73     -12.8767      2.00000
     74     -12.1835      2.00000
     75     -12.0038      2.00000
     76     -11.7700      2.00000
     77     -11.7679      2.00000
     78     -11.3965      2.00000
     79     -11.3946      2.00000
     80     -11.3514      2.00000
     81     -11.3330      2.00000
     82     -11.2657      2.00000
     83     -11.1096      2.00000
     84     -11.1041      2.00000
     85     -11.1039      2.00000
     86     -10.9708      2.00000
     87     -10.8743      2.00000
     88     -10.8732      2.00000
     89     -10.8095      2.00000
     90     -10.8082      2.00000
     91     -10.7997      2.00000
     92     -10.7983      2.00000
     93     -10.7403      2.00000
     94     -10.7024      2.00000
     95     -10.6624      2.00000
     96     -10.6619      2.00000
     97     -10.5808      2.00000
     98     -10.5807      2.00000
     99     -10.5436      2.00000
    100     -10.5388      2.00000
    101     -10.5361      2.00000
    102     -10.3832      2.00000
    103     -10.3831      2.00000
    104     -10.3160      2.00000
    105     -10.0890      2.00000
    106     -10.0890      2.00000
    107     -10.0344      2.00000
    108     -10.0344      2.00000
    109      -4.5127      2.00000
    110      -4.4091      2.00000
    111      -4.1888      2.00000
    112      -4.1883      2.00000
    113      -3.8476      2.00000
    114      -3.8466      2.00000
    115      -3.8286      2.00000
    116      -3.8269      2.00000
    117      -3.8013      2.00000
    118      -3.8009      2.00000
    119      -3.7808      2.00000
    120      -3.3695      2.00000
    121      -3.2991      2.00000
    122      -3.1370      2.00000
    123      -3.1366      2.00000
    124      -3.0991      2.00000
    125      -3.0155      2.00000
    126      -3.0144      2.00000
    127      -2.9945      2.00000
    128      -2.9944      2.00000
    129      -2.9824      2.00000
    130      -2.9590      2.00000
    131      -2.9578      2.00000
    132      -2.8725      2.00000
    133      -2.8723      2.00000
    134      -2.8146      2.00000
    135      -2.7767      2.00000
    136      -2.7750      2.00000
    137      -2.6533      2.00000
    138      -2.6527      2.00000
    139      -2.6061      2.00000
    140      -2.5176      2.00000
    141      -2.5166      2.00000
    142      -2.4511      2.00000
    143      -2.4505      2.00000
    144      -2.4319      2.00000
    145      -2.2556      2.00000
    146      -2.2553      2.00000
    147      -2.1951      2.00000
    148      -2.1282      2.00000
    149      -2.1272      2.00000
    150      -1.7622      2.00000
    151      -1.7613      2.00000
    152      -1.7556      2.00000
    153      -1.7552      2.00000
    154      -1.7455      2.00000
    155      -1.7453      2.00000
    156      -1.7110      2.00000
    157      -1.7106      2.00000
    158      -1.6943      2.00000
    159      -1.6888      2.00000
    160      -1.6029      2.00000
    161      -1.5694      2.00000
    162      -1.5690      2.00000
    163      -1.5419      2.00000
    164      -1.5418      2.00000
    165      -1.5301      2.00000
    166      -1.4455      2.00000
    167      -1.4355      2.00000
    168      -1.4333      2.00000
    169      -1.2832      2.00000
    170      -1.2079      2.00000
    171      -1.1118      2.00000
    172      -1.1116      2.00000
    173      -0.9982      2.00000
    174      -0.9980      2.00000
    175      -0.8451      2.00000
    176      -0.6097      2.00000
    177      -0.6096      2.00000
    178      -0.4943      2.00000
    179      -0.4927      2.00000
    180      -0.4902      2.00000
    181      -0.4749      2.00000
    182      -0.4045      2.00000
    183      -0.4038      2.00000
    184      -0.4020      2.00000
    185      -0.4001      2.00000
    186      -0.3156      2.00000
    187      -0.3132      2.00000
    188      -0.2581      2.00000
    189      -0.2543      2.00000
    190      -0.1728      2.00000
    191      -0.1143      2.00000
    192      -0.1129      2.00000
    193      -0.0731      2.00000
    194       0.0252      2.00000
    195       0.0253      2.00000
    196       0.0259      2.00000
    197       0.0405      2.00000
    198       0.0567      2.00000
    199       0.0936      2.00000
    200       0.0947      2.00000
    201       0.1595      2.00000
    202       0.1683      2.00000
    203       0.3641      2.00000
    204       0.3643      2.00000
    205       0.4881      2.00000
    206       0.6170      2.00000
    207       0.6179      2.00000
    208       0.6201      2.00000
    209       0.6544      2.00000
    210       0.6688      2.00000
    211       0.6704      2.00000
    212       0.7378      2.00000
    213       0.7383      2.00000
    214       0.8157      2.00000
    215       0.8163      2.00000
    216       0.8243      2.00000
    217       0.8249      2.00000
    218       0.8438      2.00000
    219       0.9567      2.00000
    220       0.9958      2.00000
    221       1.1866      2.00000
    222       1.1910      2.00000
    223       1.1949      2.00000
    224       1.3368      2.00000
    225       1.3368      2.00000
    226       1.4268      2.00000
    227       1.4284      2.00000
    228       1.4859      2.00000
    229       1.5144      2.00000
    230       1.5144      2.00000
    231       1.5895      2.00000
    232       2.0351      2.00000
    233       2.0351      2.00000
    234       2.2037      2.00000
    235       3.4172      0.00000
    236       3.4178      0.00000
    237       3.7304      0.00000
    238       3.7307      0.00000
    239       3.8323      0.00000
    240       3.8985      0.00000
    241       3.9002      0.00000
    242       3.9099      0.00000
    243       3.9099      0.00000
    244       4.0295      0.00000
    245       4.0309      0.00000
    246       4.0537      0.00000
    247       4.1016      0.00000
    248       4.1237      0.00000
    249       4.1248      0.00000
    250       4.1983      0.00000
    251       4.2532      0.00000
    252       4.2601      0.00000
    253       4.2701      0.00000
    254       4.2723      0.00000
    255       4.3112      0.00000
    256       4.3398      0.00000
    257       4.3405      0.00000
    258       4.4164      0.00000
    259       4.4172      0.00000
    260       4.4186      0.00000
    261       4.4695      0.00000
    262       4.4705      0.00000
    263       4.4826      0.00000
    264       4.4928      0.00000
    265       4.5281      0.00000
    266       4.5336      0.00000
    267       4.5344      0.00000
    268       4.5350      0.00000
    269       4.6979      0.00000
    270       4.7642      0.00000
    271       4.7661      0.00000
    272       4.9354      0.00000
    273       5.0558      0.00000
    274       5.0988      0.00000
    275       5.0990      0.00000
    276       5.1115      0.00000
    277       5.1123      0.00000
    278       5.1563      0.00000
    279       5.2225      0.00000
    280       5.2245      0.00000
    281       5.2278      0.00000
    282       5.2506      0.00000
    283       5.2853      0.00000
    284       5.2871      0.00000
    285       5.3037      0.00000
    286       5.3681      0.00000

 k-point     5 :       0.4000    0.0000    0.0000
  band No.  band energies     occupation 
      1     -72.4530      2.00000
      2     -72.4508      2.00000
      3     -72.4474      2.00000
      4     -72.4474      2.00000
      5     -72.4436      2.00000
      6     -72.4435      2.00000
      7     -72.4431      2.00000
      8     -72.4424      2.00000
      9     -72.4423      2.00000
     10     -58.6456      2.00000
     11     -58.6405      2.00000
     12     -58.6325      2.00000
     13     -58.6325      2.00000
     14     -58.6235      2.00000
     15     -58.6235      2.00000
     16     -58.6224      2.00000
     17     -58.6210      2.00000
     18     -58.6209      2.00000
     19     -36.8230      2.00000
     20     -36.7927      2.00000
     21     -36.7922      2.00000
     22     -36.7908      2.00000
     23     -36.7903      2.00000
     24     -36.7195      2.00000
     25     -36.7190      2.00000
     26     -36.6759      2.00000
     27     -36.6756      2.00000
     28     -36.6553      2.00000
     29     -36.6446      2.00000
     30     -36.6443      2.00000
     31     -36.6322      2.00000
     32     -36.6250      2.00000
     33     -36.6236      2.00000
     34     -36.6139      2.00000
     35     -36.6137      2.00000
     36     -36.6101      2.00000
     37     -36.6100      2.00000
     38     -36.6074      2.00000
     39     -36.5946      2.00000
     40     -36.5945      2.00000
     41     -36.5928      2.00000
     42     -36.5903      2.00000
     43     -36.5902      2.00000
     44     -36.5848      2.00000
     45     -36.5735      2.00000
     46     -32.8992      2.00000
     47     -32.8648      2.00000
     48     -32.8648      2.00000
     49     -32.8626      2.00000
     50     -32.8626      2.00000
     51     -32.8269      2.00000
     52     -32.8156      2.00000
     53     -32.7978      2.00000
     54     -32.7978      2.00000
     55     -32.7829      2.00000
     56     -32.7829      2.00000
     57     -32.7775      2.00000
     58     -32.7775      2.00000
     59     -32.7752      2.00000
     60     -32.7719      2.00000
     61     -32.7719      2.00000
     62     -32.7329      2.00000
     63     -32.7329      2.00000
     64     -32.7115      2.00000
     65     -32.6979      2.00000
     66     -32.6979      2.00000
     67     -32.6758      2.00000
     68     -32.6641      2.00000
     69     -32.6641      2.00000
     70     -32.6579      2.00000
     71     -32.6319      2.00000
     72     -32.6196      2.00000
     73     -12.6817      2.00000
     74     -12.3791      2.00000
     75     -11.9955      2.00000
     76     -11.8552      2.00000
     77     -11.8537      2.00000
     78     -11.7013      2.00000
     79     -11.2608      2.00000
     80     -11.1881      2.00000
     81     -11.1879      2.00000
     82     -11.1641      2.00000
     83     -11.1628      2.00000
     84     -11.1267      2.00000
     85     -11.0615      2.00000
     86     -11.0251      2.00000
     87     -10.9548      2.00000
     88     -10.9535      2.00000
     89     -10.9081      2.00000
     90     -10.9068      2.00000
     91     -10.8864      2.00000
     92     -10.6907      2.00000
     93     -10.6886      2.00000
     94     -10.6636      2.00000
     95     -10.6239      2.00000
     96     -10.6238      2.00000
     97     -10.6018      2.00000
     98     -10.5993      2.00000
     99     -10.4461      2.00000
    100     -10.4460      2.00000
    101     -10.3380      2.00000
    102     -10.2522      2.00000
    103     -10.2522      2.00000
    104     -10.2360      2.00000
    105     -10.2359      2.00000
    106     -10.2068      2.00000
    107     -10.1274      2.00000
    108     -10.1274      2.00000
    109      -4.6362      2.00000
    110      -4.2886      2.00000
    111      -4.2166      2.00000
    112      -4.2164      2.00000
    113      -4.0874      2.00000
    114      -4.0872      2.00000
    115      -3.9769      2.00000
    116      -3.6674      2.00000
    117      -3.6641      2.00000
    118      -3.6629      2.00000
    119      -3.5859      2.00000
    120      -3.5846      2.00000
    121      -3.2847      2.00000
    122      -3.2727      2.00000
    123      -3.2717      2.00000
    124      -3.1831      2.00000
    125      -3.1829      2.00000
    126      -3.1272      2.00000
    127      -3.1271      2.00000
    128      -3.0832      2.00000
    129      -3.0225      2.00000
    130      -3.0210      2.00000
    131      -2.9258      2.00000
    132      -2.8258      2.00000
    133      -2.8257      2.00000
    134      -2.8071      2.00000
    135      -2.7541      2.00000
    136      -2.7533      2.00000
    137      -2.5881      2.00000
    138      -2.5341      2.00000
    139      -2.5335      2.00000
    140      -2.5320      2.00000
    141      -2.5144      2.00000
    142      -2.5136      2.00000
    143      -2.4486      2.00000
    144      -2.4482      2.00000
    145      -2.2559      2.00000
    146      -2.2547      2.00000
    147      -1.9883      2.00000
    148      -1.8681      2.00000
    149      -1.8670      2.00000
    150      -1.8467      2.00000
    151      -1.8459      2.00000
    152      -1.7927      2.00000
    153      -1.7849      2.00000
    154      -1.7833      2.00000
    155      -1.7163      2.00000
    156      -1.7145      2.00000
    157      -1.5749      2.00000
    158      -1.5745      2.00000
    159      -1.5259      2.00000
    160      -1.5252      2.00000
    161      -1.5100      2.00000
    162      -1.5096      2.00000
    163      -1.4420      2.00000
    164      -1.4417      2.00000
    165      -1.3489      2.00000
    166      -1.3485      2.00000
    167      -1.2502      2.00000
    168      -1.1031      2.00000
    169      -1.0952      2.00000
    170      -0.9893      2.00000
    171      -0.9891      2.00000
    172      -0.9505      2.00000
    173      -0.9499      2.00000
    174      -0.9000      2.00000
    175      -0.8769      2.00000
    176      -0.8097      2.00000
    177      -0.7827      2.00000
    178      -0.7819      2.00000
    179      -0.7764      2.00000
    180      -0.7757      2.00000
    181      -0.6774      2.00000
    182      -0.6762      2.00000
    183      -0.5813      2.00000
    184      -0.5432      2.00000
    185      -0.5431      2.00000
    186      -0.5289      2.00000
    187      -0.5222      2.00000
    188      -0.4406      2.00000
    189      -0.3019      2.00000
    190      -0.2553      2.00000
    191      -0.2535      2.00000
    192      -0.1553      2.00000
    193      -0.1538      2.00000
    194       0.0877      2.00000
    195       0.1545      2.00000
    196       0.2230      2.00000
    197       0.2231      2.00000
    198       0.2264      2.00000
    199       0.2265      2.00000
    200       0.2763      2.00000
    201       0.3123      2.00000
    202       0.3136      2.00000
    203       0.3465      2.00000
    204       0.3622      2.00000
    205       0.3623      2.00000
    206       0.3700      2.00000
    207       0.4194      2.00000
    208       0.4911      2.00000
    209       0.4915      2.00000
    210       0.6287      2.00000
    211       0.7198      2.00000
    212       0.7619      2.00000
    213       0.8179      2.00000
    214       0.8216      2.00000
    215       0.9128      2.00000
    216       0.9137      2.00000
    217       1.0017      2.00000
    218       1.0401      2.00000
    219       1.0404      2.00000
    220       1.1419      2.00000
    221       1.1428      2.00000
    222       1.2103      2.00000
    223       1.2589      2.00000
    224       1.3451      2.00000
    225       1.4046      2.00000
    226       1.4046      2.00000
    227       1.4814      2.00000
    228       1.5238      2.00000
    229       1.5943      2.00000
    230       1.6854      2.00000
    231       1.6854      2.00000
    232       1.8422      2.00000
    233       1.8422      2.00000
    234       1.8834      2.00000
    235       3.5375      0.00000
    236       3.5397      0.00000
    237       3.8445      0.00000
    238       3.8451      0.00000
    239       3.9207      0.00000
    240       3.9218      0.00000
    241       3.9224      0.00000
    242       3.9297      0.00000
    243       3.9301      0.00000
    244       4.0801      0.00000
    245       4.0804      0.00000
    246       4.1777      0.00000
    247       4.1795      0.00000
    248       4.2072      0.00000
    249       4.2078      0.00000
    250       4.2116      0.00000
    251       4.2175      0.00000
    252       4.2304      0.00000
    253       4.2793      0.00000
    254       4.2965      0.00000
    255       4.2980      0.00000
    256       4.3593      0.00000
    257       4.4305      0.00000
    258       4.4460      0.00000
    259       4.4468      0.00000
    260       4.4804      0.00000
    261       4.4818      0.00000
    262       4.4938      0.00000
    263       4.4943      0.00000
    264       4.5013      0.00000
    265       4.5299      0.00000
    266       4.5765      0.00000
    267       4.5769      0.00000
    268       4.6663      0.00000
    269       4.6669      0.00000
    270       4.6727      0.00000
    271       4.6829      0.00000
    272       4.7136      0.00000
    273       4.8177      0.00000
    274       4.8300      0.00000
    275       4.8415      0.00000
    276       4.8415      0.00000
    277       4.9238      0.00000
    278       4.9249      0.00000
    279       4.9493      0.00000
    280       4.9513      0.00000
    281       5.0088      0.00000
    282       5.0550      0.00000
    283       5.0553      0.00000
    284       5.2677      0.00000
    285       5.4288      0.00000
    286       5.4582      0.00000

 k-point     6 :       0.4000    0.4000    0.0000
  band No.  band energies     occupation 
      1     -72.4530      2.00000
      2     -72.4508      2.00000
      3     -72.4474      2.00000
      4     -72.4474      2.00000
      5     -72.4436      2.00000
      6     -72.4435      2.00000
      7     -72.4431      2.00000
      8     -72.4424      2.00000
      9     -72.4424      2.00000
     10     -58.6456      2.00000
     11     -58.6405      2.00000
     12     -58.6325      2.00000
     13     -58.6325      2.00000
     14     -58.6235      2.00000
     15     -58.6235      2.00000
     16     -58.6224      2.00000
     17     -58.6210      2.00000
     18     -58.6209      2.00000
     19     -36.8231      2.00000
     20     -36.7927      2.00000
     21     -36.7922      2.00000
     22     -36.7908      2.00000
     23     -36.7903      2.00000
     24     -36.7194      2.00000
     25     -36.7190      2.00000
     26     -36.6759      2.00000
     27     -36.6756      2.00000
     28     -36.6554      2.00000
     29     -36.6446      2.00000
     30     -36.6443      2.00000
     31     -36.6322      2.00000
     32     -36.6249      2.00000
     33     -36.6236      2.00000
     34     -36.6140      2.00000
     35     -36.6137      2.00000
     36     -36.6101      2.00000
     37     -36.6100      2.00000
     38     -36.6075      2.00000
     39     -36.5946      2.00000
     40     -36.5945      2.00000
     41     -36.5928      2.00000
     42     -36.5903      2.00000
     43     -36.5902      2.00000
     44     -36.5848      2.00000
     45     -36.5735      2.00000
     46     -32.8992      2.00000
     47     -32.8648      2.00000
     48     -32.8648      2.00000
     49     -32.8626      2.00000
     50     -32.8626      2.00000
     51     -32.8269      2.00000
     52     -32.8156      2.00000
     53     -32.7978      2.00000
     54     -32.7978      2.00000
     55     -32.7829      2.00000
     56     -32.7829      2.00000
     57     -32.7775      2.00000
     58     -32.7775      2.00000
     59     -32.7752      2.00000
     60     -32.7719      2.00000
     61     -32.7719      2.00000
     62     -32.7329      2.00000
     63     -32.7329      2.00000
     64     -32.7115      2.00000
     65     -32.6979      2.00000
     66     -32.6979      2.00000
     67     -32.6758      2.00000
     68     -32.6641      2.00000
     69     -32.6641      2.00000
     70     -32.6579      2.00000
     71     -32.6319      2.00000
     72     -32.6196      2.00000
     73     -12.6816      2.00000
     74     -12.3789      2.00000
     75     -11.9955      2.00000
     76     -11.8555      2.00000
     77     -11.8539      2.00000
     78     -11.7013      2.00000
     79     -11.2609      2.00000
     80     -11.1880      2.00000
     81     -11.1879      2.00000
     82     -11.1642      2.00000
     83     -11.1629      2.00000
     84     -11.1268      2.00000
     85     -11.0607      2.00000
     86     -11.0251      2.00000
     87     -10.9548      2.00000
     88     -10.9537      2.00000
     89     -10.9078      2.00000
     90     -10.9064      2.00000
     91     -10.8865      2.00000
     92     -10.6906      2.00000
     93     -10.6884      2.00000
     94     -10.6645      2.00000
     95     -10.6239      2.00000
     96     -10.6237      2.00000
     97     -10.6018      2.00000
     98     -10.5992      2.00000
     99     -10.4461      2.00000
    100     -10.4460      2.00000
    101     -10.3380      2.00000
    102     -10.2522      2.00000
    103     -10.2522      2.00000
    104     -10.2360      2.00000
    105     -10.2359      2.00000
    106     -10.2068      2.00000
    107     -10.1274      2.00000
    108     -10.1274      2.00000
    109      -4.6369      2.00000
    110      -4.2885      2.00000
    111      -4.2164      2.00000
    112      -4.2161      2.00000
    113      -4.0872      2.00000
    114      -4.0869      2.00000
    115      -3.9766      2.00000
    116      -3.6674      2.00000
    117      -3.6642      2.00000
    118      -3.6631      2.00000
    119      -3.5857      2.00000
    120      -3.5846      2.00000
    121      -3.2838      2.00000
    122      -3.2723      2.00000
    123      -3.2716      2.00000
    124      -3.1832      2.00000
    125      -3.1828      2.00000
    126      -3.1272      2.00000
    127      -3.1271      2.00000
    128      -3.0832      2.00000
    129      -3.0226      2.00000
    130      -3.0220      2.00000
    131      -2.9254      2.00000
    132      -2.8258      2.00000
    133      -2.8257      2.00000
    134      -2.8071      2.00000
    135      -2.7543      2.00000
    136      -2.7537      2.00000
    137      -2.5874      2.00000
    138      -2.5340      2.00000
    139      -2.5330      2.00000
    140      -2.5323      2.00000
    141      -2.5149      2.00000
    142      -2.5141      2.00000
    143      -2.4488      2.00000
    144      -2.4484      2.00000
    145      -2.2568      2.00000
    146      -2.2555      2.00000
    147      -1.9876      2.00000
    148      -1.8692      2.00000
    149      -1.8678      2.00000
    150      -1.8472      2.00000
    151      -1.8465      2.00000
    152      -1.7910      2.00000
    153      -1.7847      2.00000
    154      -1.7837      2.00000
    155      -1.7163      2.00000
    156      -1.7160      2.00000
    157      -1.5747      2.00000
    158      -1.5744      2.00000
    159      -1.5254      2.00000
    160      -1.5250      2.00000
    161      -1.5103      2.00000
    162      -1.5099      2.00000
    163      -1.4420      2.00000
    164      -1.4419      2.00000
    165      -1.3489      2.00000
    166      -1.3480      2.00000
    167      -1.2519      2.00000
    168      -1.1031      2.00000
    169      -1.0959      2.00000
    170      -0.9891      2.00000
    171      -0.9891      2.00000
    172      -0.9503      2.00000
    173      -0.9499      2.00000
    174      -0.9001      2.00000
    175      -0.8746      2.00000
    176      -0.8101      2.00000
    177      -0.7824      2.00000
    178      -0.7813      2.00000
    179      -0.7762      2.00000
    180      -0.7756      2.00000
    181      -0.6776      2.00000
    182      -0.6762      2.00000
    183      -0.5813      2.00000
    184      -0.5432      2.00000
    185      -0.5430      2.00000
    186      -0.5258      2.00000
    187      -0.5222      2.00000
    188      -0.4412      2.00000
    189      -0.3032      2.00000
    190      -0.2549      2.00000
    191      -0.2528      2.00000
    192      -0.1547      2.00000
    193      -0.1528      2.00000
    194       0.0876      2.00000
    195       0.1551      2.00000
    196       0.2231      2.00000
    197       0.2232      2.00000
    198       0.2265      2.00000
    199       0.2265      2.00000
    200       0.2764      2.00000
    201       0.3119      2.00000
    202       0.3128      2.00000
    203       0.3465      2.00000
    204       0.3623      2.00000
    205       0.3623      2.00000
    206       0.3700      2.00000
    207       0.4191      2.00000
    208       0.4911      2.00000
    209       0.4915      2.00000
    210       0.6287      2.00000
    211       0.7198      2.00000
    212       0.7601      2.00000
    213       0.8194      2.00000
    214       0.8235      2.00000
    215       0.9127      2.00000
    216       0.9136      2.00000
    217       1.0017      2.00000
    218       1.0403      2.00000
    219       1.0404      2.00000
    220       1.1419      2.00000
    221       1.1429      2.00000
    222       1.2103      2.00000
    223       1.2577      2.00000
    224       1.3451      2.00000
    225       1.4045      2.00000
    226       1.4046      2.00000
    227       1.4812      2.00000
    228       1.5235      2.00000
    229       1.5943      2.00000
    230       1.6854      2.00000
    231       1.6854      2.00000
    232       1.8422      2.00000
    233       1.8422      2.00000
    234       1.8830      2.00000
    235       3.5374      0.00000
    236       3.5387      0.00000
    237       3.8446      0.00000
    238       3.8452      0.00000
    239       3.9210      0.00000
    240       3.9216      0.00000
    241       3.9225      0.00000
    242       3.9280      0.00000
    243       3.9305      0.00000
    244       4.0801      0.00000
    245       4.0803      0.00000
    246       4.1782      0.00000
    247       4.1796      0.00000
    248       4.2070      0.00000
    249       4.2084      0.00000
    250       4.2113      0.00000
    251       4.2173      0.00000
    252       4.2309      0.00000
    253       4.2812      0.00000
    254       4.2971      0.00000
    255       4.2986      0.00000
    256       4.3608      0.00000
    257       4.4319      0.00000
    258       4.4463      0.00000
    259       4.4466      0.00000
    260       4.4799      0.00000
    261       4.4823      0.00000
    262       4.4931      0.00000
    263       4.4937      0.00000
    264       4.5013      0.00000
    265       4.5300      0.00000
    266       4.5763      0.00000
    267       4.5768      0.00000
    268       4.6658      0.00000
    269       4.6668      0.00000
    270       4.6727      0.00000
    271       4.6829      0.00000
    272       4.7138      0.00000
    273       4.8182      0.00000
    274       4.8268      0.00000
    275       4.8415      0.00000
    276       4.8415      0.00000
    277       4.9235      0.00000
    278       4.9257      0.00000
    279       4.9495      0.00000
    280       4.9506      0.00000
    281       5.0086      0.00000
    282       5.0540      0.00000
    283       5.0549      0.00000
    284       5.2651      0.00000
    285       5.4274      0.00000
    286       5.4597      0.00000

 k-point     7 :       0.0000    0.4000    0.0000
  band No.  band energies     occupation 
      1     -72.4530      2.00000
      2     -72.4508      2.00000
      3     -72.4475      2.00000
      4     -72.4474      2.00000
      5     -72.4436      2.00000
      6     -72.4436      2.00000
      7     -72.4431      2.00000
      8     -72.4425      2.00000
      9     -72.4423      2.00000
     10     -58.6456      2.00000
     11     -58.6405      2.00000
     12     -58.6325      2.00000
     13     -58.6325      2.00000
     14     -58.6235      2.00000
     15     -58.6235      2.00000
     16     -58.6224      2.00000
     17     -58.6210      2.00000
     18     -58.6209      2.00000
     19     -36.8231      2.00000
     20     -36.7928      2.00000
     21     -36.7921      2.00000
     22     -36.7909      2.00000
     23     -36.7902      2.00000
     24     -36.7196      2.00000
     25     -36.7189      2.00000
     26     -36.6760      2.00000
     27     -36.6754      2.00000
     28     -36.6553      2.00000
     29     -36.6447      2.00000
     30     -36.6442      2.00000
     31     -36.6322      2.00000
     32     -36.6249      2.00000
     33     -36.6236      2.00000
     34     -36.6139      2.00000
     35     -36.6138      2.00000
     36     -36.6101      2.00000
     37     -36.6099      2.00000
     38     -36.6074      2.00000
     39     -36.5946      2.00000
     40     -36.5945      2.00000
     41     -36.5928      2.00000
     42     -36.5903      2.00000
     43     -36.5902      2.00000
     44     -36.5848      2.00000
     45     -36.5735      2.00000
     46     -32.8992      2.00000
     47     -32.8648      2.00000
     48     -32.8648      2.00000
     49     -32.8626      2.00000
     50     -32.8626      2.00000
     51     -32.8269      2.00000
     52     -32.8156      2.00000
     53     -32.7978      2.00000
     54     -32.7978      2.00000
     55     -32.7829      2.00000
     56     -32.7829      2.00000
     57     -32.7775      2.00000
     58     -32.7775      2.00000
     59     -32.7752      2.00000
     60     -32.7719      2.00000
     61     -32.7719      2.00000
     62     -32.7329      2.00000
     63     -32.7329      2.00000
     64     -32.7115      2.00000
     65     -32.6979      2.00000
     66     -32.6979      2.00000
     67     -32.6758      2.00000
     68     -32.6641      2.00000
     69     -32.6641      2.00000
     70     -32.6579      2.00000
     71     -32.6319      2.00000
     72     -32.6196      2.00000
     73     -12.6816      2.00000
     74     -12.3790      2.00000
     75     -11.9955      2.00000
     76     -11.8557      2.00000
     77     -11.8535      2.00000
     78     -11.7013      2.00000
     79     -11.2608      2.00000
     80     -11.1880      2.00000
     81     -11.1879      2.00000
     82     -11.1643      2.00000
     83     -11.1627      2.00000
     84     -11.1268      2.00000
     85     -11.0611      2.00000
     86     -11.0251      2.00000
     87     -10.9549      2.00000
     88     -10.9535      2.00000
     89     -10.9078      2.00000
     90     -10.9068      2.00000
     91     -10.8865      2.00000
     92     -10.6906      2.00000
     93     -10.6886      2.00000
     94     -10.6641      2.00000
     95     -10.6239      2.00000
     96     -10.6237      2.00000
     97     -10.6018      2.00000
     98     -10.5993      2.00000
     99     -10.4461      2.00000
    100     -10.4460      2.00000
    101     -10.3380      2.00000
    102     -10.2522      2.00000
    103     -10.2522      2.00000
    104     -10.2360      2.00000
    105     -10.2359      2.00000
    106     -10.2068      2.00000
    107     -10.1274      2.00000
    108     -10.1274      2.00000
    109      -4.6365      2.00000
    110      -4.2886      2.00000
    111      -4.2166      2.00000
    112      -4.2162      2.00000
    113      -4.0874      2.00000
    114      -4.0869      2.00000
    115      -3.9768      2.00000
    116      -3.6674      2.00000
    117      -3.6647      2.00000
    118      -3.6624      2.00000
    119      -3.5860      2.00000
    120      -3.5843      2.00000
    121      -3.2843      2.00000
    122      -3.2728      2.00000
    123      -3.2713      2.00000
    124      -3.1832      2.00000
    125      -3.1828      2.00000
    126      -3.1272      2.00000
    127      -3.1271      2.00000
    128      -3.0832      2.00000
    129      -3.0226      2.00000
    130      -3.0215      2.00000
    131      -2.9256      2.00000
    132      -2.8258      2.00000
    133      -2.8257      2.00000
    134      -2.8071      2.00000
    135      -2.7543      2.00000
    136      -2.7533      2.00000
    137      -2.5878      2.00000
    138      -2.5341      2.00000
    139      -2.5332      2.00000
    140      -2.5322      2.00000
    141      -2.5149      2.00000
    142      -2.5137      2.00000
    143      -2.4488      2.00000
    144      -2.4482      2.00000
    145      -2.2567      2.00000
    146      -2.2547      2.00000
    147      -1.9880      2.00000
    148      -1.8683      2.00000
    149      -1.8677      2.00000
    150      -1.8469      2.00000
    151      -1.8463      2.00000
    152      -1.7919      2.00000
    153      -1.7851      2.00000
    154      -1.7831      2.00000
    155      -1.7163      2.00000
    156      -1.7153      2.00000
    157      -1.5749      2.00000
    158      -1.5743      2.00000
    159      -1.5259      2.00000
    160      -1.5249      2.00000
    161      -1.5100      2.00000
    162      -1.5099      2.00000
    163      -1.4420      2.00000
    164      -1.4418      2.00000
    165      -1.3490      2.00000
    166      -1.3482      2.00000
    167      -1.2511      2.00000
    168      -1.1031      2.00000
    169      -1.0955      2.00000
    170      -0.9892      2.00000
    171      -0.9891      2.00000
    172      -0.9504      2.00000
    173      -0.9498      2.00000
    174      -0.9000      2.00000
    175      -0.8757      2.00000
    176      -0.8099      2.00000
    177      -0.7826      2.00000
    178      -0.7816      2.00000
    179      -0.7763      2.00000
    180      -0.7756      2.00000
    181      -0.6775      2.00000
    182      -0.6763      2.00000
    183      -0.5813      2.00000
    184      -0.5432      2.00000
    185      -0.5430      2.00000
    186      -0.5274      2.00000
    187      -0.5222      2.00000
    188      -0.4409      2.00000
    189      -0.3026      2.00000
    190      -0.2550      2.00000
    191      -0.2532      2.00000
    192      -0.1549      2.00000
    193      -0.1534      2.00000
    194       0.0876      2.00000
    195       0.1548      2.00000
    196       0.2231      2.00000
    197       0.2231      2.00000
    198       0.2264      2.00000
    199       0.2265      2.00000
    200       0.2764      2.00000
    201       0.3122      2.00000
    202       0.3130      2.00000
    203       0.3465      2.00000
    204       0.3622      2.00000
    205       0.3623      2.00000
    206       0.3700      2.00000
    207       0.4192      2.00000
    208       0.4911      2.00000
    209       0.4915      2.00000
    210       0.6287      2.00000
    211       0.7198      2.00000
    212       0.7610      2.00000
    213       0.8197      2.00000
    214       0.8215      2.00000
    215       0.9123      2.00000
    216       0.9141      2.00000
    217       1.0017      2.00000
    218       1.0402      2.00000
    219       1.0404      2.00000
    220       1.1416      2.00000
    221       1.1432      2.00000
    222       1.2103      2.00000
    223       1.2583      2.00000
    224       1.3451      2.00000
    225       1.4045      2.00000
    226       1.4046      2.00000
    227       1.4813      2.00000
    228       1.5237      2.00000
    229       1.5943      2.00000
    230       1.6854      2.00000
    231       1.6854      2.00000
    232       1.8422      2.00000
    233       1.8422      2.00000
    234       1.8832      2.00000
    235       3.5381      0.00000
    236       3.5386      0.00000
    237       3.8443      0.00000
    238       3.8454      0.00000
    239       3.9208      0.00000
    240       3.9216      0.00000
    241       3.9226      0.00000
    242       3.9289      0.00000
    243       3.9302      0.00000
    244       4.0801      0.00000
    245       4.0804      0.00000
    246       4.1785      0.00000
    247       4.1789      0.00000
    248       4.2071      0.00000
    249       4.2083      0.00000
    250       4.2114      0.00000
    251       4.2174      0.00000
    252       4.2306      0.00000
    253       4.2802      0.00000
    254       4.2960      0.00000
    255       4.2991      0.00000
    256       4.3600      0.00000
    257       4.4312      0.00000
    258       4.4460      0.00000
    259       4.4468      0.00000
    260       4.4797      0.00000
    261       4.4826      0.00000
    262       4.4931      0.00000
    263       4.4943      0.00000
    264       4.5013      0.00000
    265       4.5300      0.00000
    266       4.5763      0.00000
    267       4.5770      0.00000
    268       4.6660      0.00000
    269       4.6669      0.00000
    270       4.6727      0.00000
    271       4.6829      0.00000
    272       4.7137      0.00000
    273       4.8179      0.00000
    274       4.8285      0.00000
    275       4.8414      0.00000
    276       4.8415      0.00000
    277       4.9233      0.00000
    278       4.9256      0.00000
    279       4.9490      0.00000
    280       4.9514      0.00000
    281       5.0087      0.00000
    282       5.0545      0.00000
    283       5.0551      0.00000
    284       5.2663      0.00000
    285       5.4306      0.00000
    286       5.4621      0.00000

 k-point     8 :       0.4000    0.2000    0.0000
  band No.  band energies     occupation 
      1     -72.4535      2.00000
      2     -72.4493      2.00000
      3     -72.4493      2.00000
      4     -72.4453      2.00000
      5     -72.4452      2.00000
      6     -72.4433      2.00000
      7     -72.4433      2.00000
      8     -72.4424      2.00000
      9     -72.4420      2.00000
     10     -58.6467      2.00000
     11     -58.6371      2.00000
     12     -58.6370      2.00000
     13     -58.6275      2.00000
     14     -58.6274      2.00000
     15     -58.6230      2.00000
     16     -58.6230      2.00000
     17     -58.6208      2.00000
     18     -58.6200      2.00000
     19     -36.8118      2.00000
     20     -36.8117      2.00000
     21     -36.7958      2.00000
     22     -36.7793      2.00000
     23     -36.7605      2.00000
     24     -36.7605      2.00000
     25     -36.6887      2.00000
     26     -36.6856      2.00000
     27     -36.6856      2.00000
     28     -36.6817      2.00000
     29     -36.6341      2.00000
     30     -36.6311      2.00000
     31     -36.6310      2.00000
     32     -36.6298      2.00000
     33     -36.6297      2.00000
     34     -36.6177      2.00000
     35     -36.6176      2.00000
     36     -36.6014      2.00000
     37     -36.6013      2.00000
     38     -36.5966      2.00000
     39     -36.5954      2.00000
     40     -36.5953      2.00000
     41     -36.5938      2.00000
     42     -36.5938      2.00000
     43     -36.5900      2.00000
     44     -36.5886      2.00000
     45     -36.5714      2.00000
     46     -32.8865      2.00000
     47     -32.8865      2.00000
     48     -32.8684      2.00000
     49     -32.8499      2.00000
     50     -32.8294      2.00000
     51     -32.8291      2.00000
     52     -32.8291      2.00000
     53     -32.8078      2.00000
     54     -32.8078      2.00000
     55     -32.7864      2.00000
     56     -32.7864      2.00000
     57     -32.7765      2.00000
     58     -32.7765      2.00000
     59     -32.7716      2.00000
     60     -32.7697      2.00000
     61     -32.7475      2.00000
     62     -32.7454      2.00000
     63     -32.7454      2.00000
     64     -32.7396      2.00000
     65     -32.6830      2.00000
     66     -32.6830      2.00000
     67     -32.6814      2.00000
     68     -32.6814      2.00000
     69     -32.6456      2.00000
     70     -32.6435      2.00000
     71     -32.6435      2.00000
     72     -32.6173      2.00000
     73     -12.7455      2.00000
     74     -12.1567      2.00000
     75     -12.1563      2.00000
     76     -12.0572      2.00000
     77     -11.4837      2.00000
     78     -11.4836      2.00000
     79     -11.4830      2.00000
     80     -11.4827      2.00000
     81     -11.2901      2.00000
     82     -11.1167      2.00000
     83     -11.1158      2.00000
     84     -11.0532      2.00000
     85     -11.0329      2.00000
     86     -11.0325      2.00000
     87     -10.9477      2.00000
     88     -10.8666      2.00000
     89     -10.8531      2.00000
     90     -10.8525      2.00000
     91     -10.7785      2.00000
     92     -10.7783      2.00000
     93     -10.7268      2.00000
     94     -10.7266      2.00000
     95     -10.6802      2.00000
     96     -10.6793      2.00000
     97     -10.5935      2.00000
     98     -10.5676      2.00000
     99     -10.4263      2.00000
    100     -10.4262      2.00000
    101     -10.3958      2.00000
    102     -10.3957      2.00000
    103     -10.2333      2.00000
    104     -10.2333      2.00000
    105     -10.2308      2.00000
    106     -10.1459      2.00000
    107     -10.1199      2.00000
    108     -10.0760      2.00000
    109      -4.4896      2.00000
    110      -4.4889      2.00000
    111      -4.3603      2.00000
    112      -4.1259      2.00000
    113      -3.9201      2.00000
    114      -3.9199      2.00000
    115      -3.9188      2.00000
    116      -3.7917      2.00000
    117      -3.7911      2.00000
    118      -3.6988      2.00000
    119      -3.6277      2.00000
    120      -3.4963      2.00000
    121      -3.4962      2.00000
    122      -3.2537      2.00000
    123      -3.2530      2.00000
    124      -3.1922      2.00000
    125      -3.1515      2.00000
    126      -2.9770      2.00000
    127      -2.9765      2.00000
    128      -2.9668      2.00000
    129      -2.9495      2.00000
    130      -2.8632      2.00000
    131      -2.8627      2.00000
    132      -2.8559      2.00000
    133      -2.8555      2.00000
    134      -2.8212      2.00000
    135      -2.8198      2.00000
    136      -2.7732      2.00000
    137      -2.6663      2.00000
    138      -2.6659      2.00000
    139      -2.6174      2.00000
    140      -2.6168      2.00000
    141      -2.5626      2.00000
    142      -2.5375      2.00000
    143      -2.5369      2.00000
    144      -2.4314      2.00000
    145      -2.0509      2.00000
    146      -2.0507      2.00000
    147      -1.9506      2.00000
    148      -1.9496      2.00000
    149      -1.9337      2.00000
    150      -1.8519      2.00000
    151      -1.8505      2.00000
    152      -1.8448      2.00000
    153      -1.8193      2.00000
    154      -1.8179      2.00000
    155      -1.8152      2.00000
    156      -1.7678      2.00000
    157      -1.6277      2.00000
    158      -1.6270      2.00000
    159      -1.5734      2.00000
    160      -1.5031      2.00000
    161      -1.5027      2.00000
    162      -1.4644      2.00000
    163      -1.4203      2.00000
    164      -1.4201      2.00000
    165      -1.3586      2.00000
    166      -1.2949      2.00000
    167      -1.2933      2.00000
    168      -1.1608      2.00000
    169      -1.1186      2.00000
    170      -1.0811      2.00000
    171      -1.0806      2.00000
    172      -1.0493      2.00000
    173      -0.9593      2.00000
    174      -0.9443      2.00000
    175      -0.9086      2.00000
    176      -0.9083      2.00000
    177      -0.7508      2.00000
    178      -0.7502      2.00000
    179      -0.6807      2.00000
    180      -0.6802      2.00000
    181      -0.6766      2.00000
    182      -0.6765      2.00000
    183      -0.5662      2.00000
    184      -0.4972      2.00000
    185      -0.3797      2.00000
    186      -0.3475      2.00000
    187      -0.3128      2.00000
    188      -0.2553      2.00000
    189      -0.2541      2.00000
    190      -0.2521      2.00000
    191      -0.2094      2.00000
    192      -0.2086      2.00000
    193      -0.1401      2.00000
    194      -0.1400      2.00000
    195       0.0658      2.00000
    196       0.0666      2.00000
    197       0.0969      2.00000
    198       0.1802      2.00000
    199       0.1805      2.00000
    200       0.2546      2.00000
    201       0.2809      2.00000
    202       0.2987      2.00000
    203       0.2992      2.00000
    204       0.3142      2.00000
    205       0.3147      2.00000
    206       0.4683      2.00000
    207       0.6490      2.00000
    208       0.6496      2.00000
    209       0.7167      2.00000
    210       0.7167      2.00000
    211       0.7409      2.00000
    212       0.8074      2.00000
    213       0.8082      2.00000
    214       0.8187      2.00000
    215       0.8198      2.00000
    216       0.9284      2.00000
    217       0.9287      2.00000
    218       0.9804      2.00000
    219       0.9817      2.00000
    220       1.0600      2.00000
    221       1.0610      2.00000
    222       1.1658      2.00000
    223       1.2705      2.00000
    224       1.2788      2.00000
    225       1.3502      2.00000
    226       1.3502      2.00000
    227       1.5234      2.00000
    228       1.5234      2.00000
    229       1.5550      2.00000
    230       1.6838      2.00000
    231       1.6838      2.00000
    232       1.8365      2.00000
    233       1.9521      2.00000
    234       1.9927      2.00000
    235       3.6498      0.00000
    236       3.6502      0.00000
    237       3.7100      0.00000
    238       3.7397      0.00000
    239       3.7407      0.00000
    240       3.7626      0.00000
    241       4.0343      0.00000
    242       4.0438      0.00000
    243       4.0457      0.00000
    244       4.0478      0.00000
    245       4.0593      0.00000
    246       4.0596      0.00000
    247       4.1142      0.00000
    248       4.1148      0.00000
    249       4.1907      0.00000
    250       4.1913      0.00000
    251       4.2322      0.00000
    252       4.2519      0.00000
    253       4.2524      0.00000
    254       4.2985      0.00000
    255       4.3827      0.00000
    256       4.3834      0.00000
    257       4.4211      0.00000
    258       4.4446      0.00000
    259       4.4457      0.00000
    260       4.4706      0.00000
    261       4.4709      0.00000
    262       4.4982      0.00000
    263       4.4985      0.00000
    264       4.5043      0.00000
    265       4.5047      0.00000
    266       4.5574      0.00000
    267       4.6162      0.00000
    268       4.6166      0.00000
    269       4.6405      0.00000
    270       4.7479      0.00000
    271       4.7541      0.00000
    272       4.7548      0.00000
    273       4.7601      0.00000
    274       4.7774      0.00000
    275       4.8271      0.00000
    276       4.8813      0.00000
    277       4.8827      0.00000
    278       4.9578      0.00000
    279       4.9594      0.00000
    280       5.0577      0.00000
    281       5.1209      0.00000
    282       5.2084      0.00000
    283       5.2095      0.00000
    284       5.3292      0.00000
    285       5.4012      0.00000
    286       5.4054      0.00000

 k-point     9 :       0.2000    0.4000    0.0000
  band No.  band energies     occupation 
      1     -72.4535      2.00000
      2     -72.4494      2.00000
      3     -72.4492      2.00000
      4     -72.4454      2.00000
      5     -72.4451      2.00000
      6     -72.4435      2.00000
      7     -72.4432      2.00000
      8     -72.4424      2.00000
      9     -72.4420      2.00000
     10     -58.6467      2.00000
     11     -58.6371      2.00000
     12     -58.6370      2.00000
     13     -58.6275      2.00000
     14     -58.6274      2.00000
     15     -58.6230      2.00000
     16     -58.6230      2.00000
     17     -58.6208      2.00000
     18     -58.6200      2.00000
     19     -36.8120      2.00000
     20     -36.8116      2.00000
     21     -36.7958      2.00000
     22     -36.7793      2.00000
     23     -36.7607      2.00000
     24     -36.7603      2.00000
     25     -36.6887      2.00000
     26     -36.6858      2.00000
     27     -36.6854      2.00000
     28     -36.6818      2.00000
     29     -36.6341      2.00000
     30     -36.6313      2.00000
     31     -36.6309      2.00000
     32     -36.6300      2.00000
     33     -36.6296      2.00000
     34     -36.6177      2.00000
     35     -36.6176      2.00000
     36     -36.6015      2.00000
     37     -36.6012      2.00000
     38     -36.5966      2.00000
     39     -36.5955      2.00000
     40     -36.5951      2.00000
     41     -36.5939      2.00000
     42     -36.5937      2.00000
     43     -36.5900      2.00000
     44     -36.5886      2.00000
     45     -36.5714      2.00000
     46     -32.8865      2.00000
     47     -32.8865      2.00000
     48     -32.8684      2.00000
     49     -32.8499      2.00000
     50     -32.8294      2.00000
     51     -32.8291      2.00000
     52     -32.8291      2.00000
     53     -32.8078      2.00000
     54     -32.8078      2.00000
     55     -32.7864      2.00000
     56     -32.7864      2.00000
     57     -32.7765      2.00000
     58     -32.7765      2.00000
     59     -32.7716      2.00000
     60     -32.7697      2.00000
     61     -32.7475      2.00000
     62     -32.7454      2.00000
     63     -32.7454      2.00000
     64     -32.7396      2.00000
     65     -32.6830      2.00000
     66     -32.6830      2.00000
     67     -32.6814      2.00000
     68     -32.6813      2.00000
     69     -32.6456      2.00000
     70     -32.6435      2.00000
     71     -32.6435      2.00000
     72     -32.6173      2.00000
     73     -12.7455      2.00000
     74     -12.1573      2.00000
     75     -12.1557      2.00000
     76     -12.0572      2.00000
     77     -11.4843      2.00000
     78     -11.4836      2.00000
     79     -11.4835      2.00000
     80     -11.4821      2.00000
     81     -11.2902      2.00000
     82     -11.1169      2.00000
     83     -11.1152      2.00000
     84     -11.0532      2.00000
     85     -11.0333      2.00000
     86     -11.0321      2.00000
     87     -10.9475      2.00000
     88     -10.8668      2.00000
     89     -10.8531      2.00000
     90     -10.8522      2.00000
     91     -10.7786      2.00000
     92     -10.7782      2.00000
     93     -10.7270      2.00000
     94     -10.7262      2.00000
     95     -10.6809      2.00000
     96     -10.6791      2.00000
     97     -10.5937      2.00000
     98     -10.5673      2.00000
     99     -10.4263      2.00000
    100     -10.4262      2.00000
    101     -10.3958      2.00000
    102     -10.3957      2.00000
    103     -10.2333      2.00000
    104     -10.2332      2.00000
    105     -10.2308      2.00000
    106     -10.1459      2.00000
    107     -10.1199      2.00000
    108     -10.0760      2.00000
    109      -4.4898      2.00000
    110      -4.4890      2.00000
    111      -4.3603      2.00000
    112      -4.1257      2.00000
    113      -3.9205      2.00000
    114      -3.9192      2.00000
    115      -3.9189      2.00000
    116      -3.7923      2.00000
    117      -3.7904      2.00000
    118      -3.6992      2.00000
    119      -3.6272      2.00000
    120      -3.4962      2.00000
    121      -3.4962      2.00000
    122      -3.2538      2.00000
    123      -3.2522      2.00000
    124      -3.1922      2.00000
    125      -3.1515      2.00000
    126      -2.9771      2.00000
    127      -2.9766      2.00000
    128      -2.9669      2.00000
    129      -2.9495      2.00000
    130      -2.8632      2.00000
    131      -2.8624      2.00000
    132      -2.8561      2.00000
    133      -2.8555      2.00000
    134      -2.8211      2.00000
    135      -2.8204      2.00000
    136      -2.7732      2.00000
    137      -2.6666      2.00000
    138      -2.6659      2.00000
    139      -2.6174      2.00000
    140      -2.6168      2.00000
    141      -2.5628      2.00000
    142      -2.5375      2.00000
    143      -2.5366      2.00000
    144      -2.4316      2.00000
    145      -2.0510      2.00000
    146      -2.0508      2.00000
    147      -1.9516      2.00000
    148      -1.9492      2.00000
    149      -1.9336      2.00000
    150      -1.8524      2.00000
    151      -1.8503      2.00000
    152      -1.8445      2.00000
    153      -1.8191      2.00000
    154      -1.8179      2.00000
    155      -1.8155      2.00000
    156      -1.7678      2.00000
    157      -1.6276      2.00000
    158      -1.6270      2.00000
    159      -1.5734      2.00000
    160      -1.5033      2.00000
    161      -1.5026      2.00000
    162      -1.4645      2.00000
    163      -1.4203      2.00000
    164      -1.4202      2.00000
    165      -1.3586      2.00000
    166      -1.2950      2.00000
    167      -1.2928      2.00000
    168      -1.1612      2.00000
    169      -1.1194      2.00000
    170      -1.0812      2.00000
    171      -1.0798      2.00000
    172      -1.0493      2.00000
    173      -0.9592      2.00000
    174      -0.9442      2.00000
    175      -0.9087      2.00000
    176      -0.9083      2.00000
    177      -0.7510      2.00000
    178      -0.7497      2.00000
    179      -0.6819      2.00000
    180      -0.6791      2.00000
    181      -0.6766      2.00000
    182      -0.6765      2.00000
    183      -0.5662      2.00000
    184      -0.4956      2.00000
    185      -0.3797      2.00000
    186      -0.3471      2.00000
    187      -0.3132      2.00000
    188      -0.2559      2.00000
    189      -0.2542      2.00000
    190      -0.2517      2.00000
    191      -0.2092      2.00000
    192      -0.2084      2.00000
    193      -0.1400      2.00000
    194      -0.1400      2.00000
    195       0.0661      2.00000
    196       0.0664      2.00000
    197       0.0969      2.00000
    198       0.1803      2.00000
    199       0.1805      2.00000
    200       0.2547      2.00000
    201       0.2809      2.00000
    202       0.2987      2.00000
    203       0.2992      2.00000
    204       0.3139      2.00000
    205       0.3148      2.00000
    206       0.4681      2.00000
    207       0.6491      2.00000
    208       0.6497      2.00000
    209       0.7167      2.00000
    210       0.7167      2.00000
    211       0.7409      2.00000
    212       0.8069      2.00000
    213       0.8079      2.00000
    214       0.8190      2.00000
    215       0.8203      2.00000
    216       0.9282      2.00000
    217       0.9285      2.00000
    218       0.9805      2.00000
    219       0.9816      2.00000
    220       1.0602      2.00000
    221       1.0607      2.00000
    222       1.1656      2.00000
    223       1.2707      2.00000
    224       1.2788      2.00000
    225       1.3501      2.00000
    226       1.3503      2.00000
    227       1.5234      2.00000
    228       1.5234      2.00000
    229       1.5549      2.00000
    230       1.6838      2.00000
    231       1.6839      2.00000
    232       1.8365      2.00000
    233       1.9521      2.00000
    234       1.9925      2.00000
    235       3.6497      0.00000
    236       3.6502      0.00000
    237       3.7104      0.00000
    238       3.7398      0.00000
    239       3.7403      0.00000
    240       3.7624      0.00000
    241       4.0342      0.00000
    242       4.0434      0.00000
    243       4.0458      0.00000
    244       4.0478      0.00000
    245       4.0588      0.00000
    246       4.0602      0.00000
    247       4.1139      0.00000
    248       4.1150      0.00000
    249       4.1906      0.00000
    250       4.1912      0.00000
    251       4.2336      0.00000
    252       4.2513      0.00000
    253       4.2535      0.00000
    254       4.2987      0.00000
    255       4.3820      0.00000
    256       4.3842      0.00000
    257       4.4213      0.00000
    258       4.4444      0.00000
    259       4.4461      0.00000
    260       4.4705      0.00000
    261       4.4709      0.00000
    262       4.4980      0.00000
    263       4.4987      0.00000
    264       4.5042      0.00000
    265       4.5048      0.00000
    266       4.5573      0.00000
    267       4.6159      0.00000
    268       4.6167      0.00000
    269       4.6405      0.00000
    270       4.7480      0.00000
    271       4.7538      0.00000
    272       4.7547      0.00000
    273       4.7586      0.00000
    274       4.7774      0.00000
    275       4.8271      0.00000
    276       4.8814      0.00000
    277       4.8830      0.00000
    278       4.9577      0.00000
    279       4.9590      0.00000
    280       5.0576      0.00000
    281       5.1212      0.00000
    282       5.2086      0.00000
    283       5.2092      0.00000
    284       5.3228      0.00000
    285       5.4017      0.00000
    286       5.4052      0.00000

 k-point    10 :      -0.2000    0.2000    0.0000
  band No.  band energies     occupation 
      1     -72.4535      2.00000
      2     -72.4495      2.00000
      3     -72.4492      2.00000
      4     -72.4454      2.00000
      5     -72.4451      2.00000
      6     -72.4435      2.00000
      7     -72.4432      2.00000
      8     -72.4423      2.00000
      9     -72.4420      2.00000
     10     -58.6467      2.00000
     11     -58.6370      2.00000
     12     -58.6370      2.00000
     13     -58.6275      2.00000
     14     -58.6274      2.00000
     15     -58.6230      2.00000
     16     -58.6230      2.00000
     17     -58.6208      2.00000
     18     -58.6200      2.00000
     19     -36.8119      2.00000
     20     -36.8116      2.00000
     21     -36.7959      2.00000
     22     -36.7792      2.00000
     23     -36.7608      2.00000
     24     -36.7603      2.00000
     25     -36.6888      2.00000
     26     -36.6858      2.00000
     27     -36.6854      2.00000
     28     -36.6817      2.00000
     29     -36.6341      2.00000
     30     -36.6311      2.00000
     31     -36.6310      2.00000
     32     -36.6300      2.00000
     33     -36.6296      2.00000
     34     -36.6177      2.00000
     35     -36.6176      2.00000
     36     -36.6015      2.00000
     37     -36.6012      2.00000
     38     -36.5965      2.00000
     39     -36.5955      2.00000
     40     -36.5952      2.00000
     41     -36.5939      2.00000
     42     -36.5937      2.00000
     43     -36.5900      2.00000
     44     -36.5886      2.00000
     45     -36.5714      2.00000
     46     -32.8865      2.00000
     47     -32.8865      2.00000
     48     -32.8684      2.00000
     49     -32.8499      2.00000
     50     -32.8294      2.00000
     51     -32.8291      2.00000
     52     -32.8291      2.00000
     53     -32.8078      2.00000
     54     -32.8078      2.00000
     55     -32.7864      2.00000
     56     -32.7864      2.00000
     57     -32.7765      2.00000
     58     -32.7765      2.00000
     59     -32.7716      2.00000
     60     -32.7697      2.00000
     61     -32.7475      2.00000
     62     -32.7454      2.00000
     63     -32.7454      2.00000
     64     -32.7396      2.00000
     65     -32.6830      2.00000
     66     -32.6830      2.00000
     67     -32.6814      2.00000
     68     -32.6814      2.00000
     69     -32.6456      2.00000
     70     -32.6435      2.00000
     71     -32.6435      2.00000
     72     -32.6173      2.00000
     73     -12.7455      2.00000
     74     -12.1573      2.00000
     75     -12.1558      2.00000
     76     -12.0572      2.00000
     77     -11.4838      2.00000
     78     -11.4835      2.00000
     79     -11.4835      2.00000
     80     -11.4819      2.00000
     81     -11.2901      2.00000
     82     -11.1171      2.00000
     83     -11.1158      2.00000
     84     -11.0532      2.00000
     85     -11.0334      2.00000
     86     -11.0320      2.00000
     87     -10.9478      2.00000
     88     -10.8664      2.00000
     89     -10.8534      2.00000
     90     -10.8523      2.00000
     91     -10.7785      2.00000
     92     -10.7782      2.00000
     93     -10.7272      2.00000
     94     -10.7265      2.00000
     95     -10.6807      2.00000
     96     -10.6784      2.00000
     97     -10.5932      2.00000
     98     -10.5679      2.00000
     99     -10.4263      2.00000
    100     -10.4262      2.00000
    101     -10.3958      2.00000
    102     -10.3957      2.00000
    103     -10.2333      2.00000
    104     -10.2333      2.00000
    105     -10.2308      2.00000
    106     -10.1459      2.00000
    107     -10.1199      2.00000
    108     -10.0760      2.00000
    109      -4.4895      2.00000
    110      -4.4887      2.00000
    111      -4.3603      2.00000
    112      -4.1262      2.00000
    113      -3.9206      2.00000
    114      -3.9194      2.00000
    115      -3.9189      2.00000
    116      -3.7923      2.00000
    117      -3.7906      2.00000
    118      -3.6984      2.00000
    119      -3.6282      2.00000
    120      -3.4963      2.00000
    121      -3.4962      2.00000
    122      -3.2542      2.00000
    123      -3.2531      2.00000
    124      -3.1922      2.00000
    125      -3.1515      2.00000
    126      -2.9770      2.00000
    127      -2.9763      2.00000
    128      -2.9668      2.00000
    129      -2.9494      2.00000
    130      -2.8632      2.00000
    131      -2.8628      2.00000
    132      -2.8561      2.00000
    133      -2.8552      2.00000
    134      -2.8213      2.00000
    135      -2.8191      2.00000
    136      -2.7732      2.00000
    137      -2.6664      2.00000
    138      -2.6655      2.00000
    139      -2.6175      2.00000
    140      -2.6167      2.00000
    141      -2.5623      2.00000
    142      -2.5377      2.00000
    143      -2.5370      2.00000
    144      -2.4312      2.00000
    145      -2.0510      2.00000
    146      -2.0505      2.00000
    147      -1.9509      2.00000
    148      -1.9485      2.00000
    149      -1.9339      2.00000
    150      -1.8515      2.00000
    151      -1.8505      2.00000
    152      -1.8451      2.00000
    153      -1.8194      2.00000
    154      -1.8180      2.00000
    155      -1.8150      2.00000
    156      -1.7679      2.00000
    157      -1.6278      2.00000
    158      -1.6271      2.00000
    159      -1.5733      2.00000
    160      -1.5032      2.00000
    161      -1.5026      2.00000
    162      -1.4643      2.00000
    163      -1.4203      2.00000
    164      -1.4201      2.00000
    165      -1.3586      2.00000
    166      -1.2958      2.00000
    167      -1.2929      2.00000
    168      -1.1603      2.00000
    169      -1.1178      2.00000
    170      -1.0814      2.00000
    171      -1.0809      2.00000
    172      -1.0493      2.00000
    173      -0.9593      2.00000
    174      -0.9443      2.00000
    175      -0.9087      2.00000
    176      -0.9083      2.00000
    177      -0.7513      2.00000
    178      -0.7499      2.00000
    179      -0.6818      2.00000
    180      -0.6791      2.00000
    181      -0.6766      2.00000
    182      -0.6765      2.00000
    183      -0.5662      2.00000
    184      -0.4987      2.00000
    185      -0.3797      2.00000
    186      -0.3479      2.00000
    187      -0.3124      2.00000
    188      -0.2559      2.00000
    189      -0.2538      2.00000
    190      -0.2515      2.00000
    191      -0.2097      2.00000
    192      -0.2088      2.00000
    193      -0.1401      2.00000
    194      -0.1400      2.00000
    195       0.0658      2.00000
    196       0.0665      2.00000
    197       0.0969      2.00000
    198       0.1802      2.00000
    199       0.1805      2.00000
    200       0.2546      2.00000
    201       0.2809      2.00000
    202       0.2987      2.00000
    203       0.2991      2.00000
    204       0.3142      2.00000
    205       0.3149      2.00000
    206       0.4685      2.00000
    207       0.6488      2.00000
    208       0.6496      2.00000
    209       0.7167      2.00000
    210       0.7167      2.00000
    211       0.7409      2.00000
    212       0.8077      2.00000
    213       0.8086      2.00000
    214       0.8184      2.00000
    215       0.8193      2.00000
    216       0.9285      2.00000
    217       0.9291      2.00000
    218       0.9806      2.00000
    219       0.9813      2.00000
    220       1.0601      2.00000
    221       1.0609      2.00000
    222       1.1660      2.00000
    223       1.2702      2.00000
    224       1.2788      2.00000
    225       1.3502      2.00000
    226       1.3502      2.00000
    227       1.5234      2.00000
    228       1.5234      2.00000
    229       1.5551      2.00000
    230       1.6838      2.00000
    231       1.6838      2.00000
    232       1.8365      2.00000
    233       1.9521      2.00000
    234       1.9929      2.00000
    235       3.6499      0.00000
    236       3.6502      0.00000
    237       3.7098      0.00000
    238       3.7397      0.00000
    239       3.7411      0.00000
    240       3.7628      0.00000
    241       4.0343      0.00000
    242       4.0439      0.00000
    243       4.0459      0.00000
    244       4.0478      0.00000
    245       4.0587      0.00000
    246       4.0601      0.00000
    247       4.1141      0.00000
    248       4.1149      0.00000
    249       4.1906      0.00000
    250       4.1916      0.00000
    251       4.2308      0.00000
    252       4.2510      0.00000
    253       4.2526      0.00000
    254       4.2984      0.00000
    255       4.3821      0.00000
    256       4.3840      0.00000
    257       4.4209      0.00000
    258       4.4441      0.00000
    259       4.4460      0.00000
    260       4.4706      0.00000
    261       4.4711      0.00000
    262       4.4980      0.00000
    263       4.4987      0.00000
    264       4.5043      0.00000
    265       4.5047      0.00000
    266       4.5576      0.00000
    267       4.6159      0.00000
    268       4.6170      0.00000
    269       4.6405      0.00000
    270       4.7478      0.00000
    271       4.7544      0.00000
    272       4.7547      0.00000
    273       4.7617      0.00000
    274       4.7773      0.00000
    275       4.8272      0.00000
    276       4.8811      0.00000
    277       4.8826      0.00000
    278       4.9579      0.00000
    279       4.9597      0.00000
    280       5.0577      0.00000
    281       5.1206      0.00000
    282       5.2086      0.00000
    283       5.2094      0.00000
    284       5.3275      0.00000
    285       5.4022      0.00000
    286       5.4052      0.00000

 k-point    11 :      -0.4000    0.2000    0.0000
  band No.  band energies     occupation 
      1     -72.4518      2.00000
      2     -72.4516      2.00000
      3     -72.4497      2.00000
      4     -72.4454      2.00000
      5     -72.4438      2.00000
      6     -72.4435      2.00000
      7     -72.4429      2.00000
      8     -72.4426      2.00000
      9     -72.4424      2.00000
     10     -58.6425      2.00000
     11     -58.6424      2.00000
     12     -58.6379      2.00000
     13     -58.6278      2.00000
     14     -58.6238      2.00000
     15     -58.6237      2.00000
     16     -58.6218      2.00000
     17     -58.6213      2.00000
     18     -58.6213      2.00000
     19     -36.8223      2.00000
     20     -36.8100      2.00000
     21     -36.8097      2.00000
     22     -36.7752      2.00000
     23     -36.7749      2.00000
     24     -36.7505      2.00000
     25     -36.6753      2.00000
     26     -36.6595      2.00000
     27     -36.6592      2.00000
     28     -36.6520      2.00000
     29     -36.6517      2.00000
     30     -36.6369      2.00000
     31     -36.6361      2.00000
     32     -36.6354      2.00000
     33     -36.6328      2.00000
     34     -36.6269      2.00000
     35     -36.6269      2.00000
     36     -36.6190      2.00000
     37     -36.6020      2.00000
     38     -36.5964      2.00000
     39     -36.5951      2.00000
     40     -36.5949      2.00000
     41     -36.5918      2.00000
     42     -36.5910      2.00000
     43     -36.5908      2.00000
     44     -36.5820      2.00000
     45     -36.5818      2.00000
     46     -32.8984      2.00000
     47     -32.8842      2.00000
     48     -32.8842      2.00000
     49     -32.8453      2.00000
     50     -32.8453      2.00000
     51     -32.8199      2.00000
     52     -32.8199      2.00000
     53     -32.8178      2.00000
     54     -32.8096      2.00000
     55     -32.7872      2.00000
     56     -32.7781      2.00000
     57     -32.7781      2.00000
     58     -32.7738      2.00000
     59     -32.7727      2.00000
     60     -32.7726      2.00000
     61     -32.7337      2.00000
     62     -32.7147      2.00000
     63     -32.7147      2.00000
     64     -32.7061      2.00000
     65     -32.7060      2.00000
     66     -32.6897      2.00000
     67     -32.6896      2.00000
     68     -32.6896      2.00000
     69     -32.6846      2.00000
     70     -32.6447      2.00000
     71     -32.6288      2.00000
     72     -32.6288      2.00000
     73     -12.4973      2.00000
     74     -12.4955      2.00000
     75     -12.2092      2.00000
     76     -11.8159      2.00000
     77     -11.8159      2.00000
     78     -11.5356      2.00000
     79     -11.5136      2.00000
     80     -11.1919      2.00000
     81     -11.1899      2.00000
     82     -11.1779      2.00000
     83     -11.1771      2.00000
     84     -11.0543      2.00000
     85     -11.0115      2.00000
     86     -10.9754      2.00000
     87     -10.9737      2.00000
     88     -10.9415      2.00000
     89     -10.9410      2.00000
     90     -10.8759      2.00000
     91     -10.8041      2.00000
     92     -10.7452      2.00000
     93     -10.6952      2.00000
     94     -10.6936      2.00000
     95     -10.6423      2.00000
     96     -10.6203      2.00000
     97     -10.6183      2.00000
     98     -10.4749      2.00000
     99     -10.4747      2.00000
    100     -10.4410      2.00000
    101     -10.2878      2.00000
    102     -10.2620      2.00000
    103     -10.2619      2.00000
    104     -10.2537      2.00000
    105     -10.2537      2.00000
    106     -10.1764      2.00000
    107     -10.1479      2.00000
    108     -10.1479      2.00000
    109      -4.6018      2.00000
    110      -4.3917      2.00000
    111      -4.3909      2.00000
    112      -4.0864      2.00000
    113      -4.0842      2.00000
    114      -3.9677      2.00000
    115      -3.9673      2.00000
    116      -3.8026      2.00000
    117      -3.7835      2.00000
    118      -3.6479      2.00000
    119      -3.4900      2.00000
    120      -3.4887      2.00000
    121      -3.4203      2.00000
    122      -3.4199      2.00000
    123      -3.3567      2.00000
    124      -3.2652      2.00000
    125      -3.2632      2.00000
    126      -2.9705      2.00000
    127      -2.9702      2.00000
    128      -2.9488      2.00000
    129      -2.9418      2.00000
    130      -2.9128      2.00000
    131      -2.9125      2.00000
    132      -2.8945      2.00000
    133      -2.8941      2.00000
    134      -2.7794      2.00000
    135      -2.7761      2.00000
    136      -2.6389      2.00000
    137      -2.6028      2.00000
    138      -2.6018      2.00000
    139      -2.5968      2.00000
    140      -2.5729      2.00000
    141      -2.5718      2.00000
    142      -2.5606      2.00000
    143      -2.3639      2.00000
    144      -2.3636      2.00000
    145      -2.3425      2.00000
    146      -2.3408      2.00000
    147      -1.9732      2.00000
    148      -1.9258      2.00000
    149      -1.9246      2.00000
    150      -1.8588      2.00000
    151      -1.8567      2.00000
    152      -1.8561      2.00000
    153      -1.8436      2.00000
    154      -1.7851      2.00000
    155      -1.6539      2.00000
    156      -1.5477      2.00000
    157      -1.5472      2.00000
    158      -1.4996      2.00000
    159      -1.4967      2.00000
    160      -1.4820      2.00000
    161      -1.4289      2.00000
    162      -1.4286      2.00000
    163      -1.4183      2.00000
    164      -1.3127      2.00000
    165      -1.3120      2.00000
    166      -1.3099      2.00000
    167      -1.0633      2.00000
    168      -1.0323      2.00000
    169      -1.0319      2.00000
    170      -0.9508      2.00000
    171      -0.9466      2.00000
    172      -0.9366      2.00000
    173      -0.9291      2.00000
    174      -0.9289      2.00000
    175      -0.9141      2.00000
    176      -0.8942      2.00000
    177      -0.8928      2.00000
    178      -0.8748      2.00000
    179      -0.8744      2.00000
    180      -0.7752      2.00000
    181      -0.7628      2.00000
    182      -0.7623      2.00000
    183      -0.6924      2.00000
    184      -0.6417      2.00000
    185      -0.6410      2.00000
    186      -0.3895      2.00000
    187      -0.3894      2.00000
    188      -0.3239      2.00000
    189      -0.3012      2.00000
    190      -0.2974      2.00000
    191      -0.2957      2.00000
    192      -0.1637      2.00000
    193      -0.0197      2.00000
    194      -0.0190      2.00000
    195      -0.0090      2.00000
    196       0.1134      2.00000
    197       0.1666      2.00000
    198       0.1667      2.00000
    199       0.2338      2.00000
    200       0.2369      2.00000
    201       0.2370      2.00000
    202       0.2868      2.00000
    203       0.2869      2.00000
    204       0.4551      2.00000
    205       0.4559      2.00000
    206       0.4564      2.00000
    207       0.4979      2.00000
    208       0.4980      2.00000
    209       0.5127      2.00000
    210       0.5128      2.00000
    211       0.6046      2.00000
    212       0.7470      2.00000
    213       0.8912      2.00000
    214       0.9194      2.00000
    215       0.9342      2.00000
    216       0.9351      2.00000
    217       0.9671      2.00000
    218       1.0690      2.00000
    219       1.0698      2.00000
    220       1.0881      2.00000
    221       1.2445      2.00000
    222       1.2458      2.00000
    223       1.2597      2.00000
    224       1.4065      2.00000
    225       1.4070      2.00000
    226       1.4157      2.00000
    227       1.5170      2.00000
    228       1.6268      2.00000
    229       1.6277      2.00000
    230       1.6501      2.00000
    231       1.6501      2.00000
    232       1.7603      2.00000
    233       1.8369      2.00000
    234       1.8369      2.00000
    235       3.5522      0.00000
    236       3.6776      0.00000
    237       3.7833      0.00000
    238       3.7839      0.00000
    239       3.9738      0.00000
    240       3.9751      0.00000
    241       4.0102      0.00000
    242       4.0159      0.00000
    243       4.0307      0.00000
    244       4.0328      0.00000
    245       4.1739      0.00000
    246       4.1742      0.00000
    247       4.1780      0.00000
    248       4.1891      0.00000
    249       4.1933      0.00000
    250       4.2047      0.00000
    251       4.2060      0.00000
    252       4.2114      0.00000
    253       4.2517      0.00000
    254       4.2533      0.00000
    255       4.2581      0.00000
    256       4.2940      0.00000
    257       4.3550      0.00000
    258       4.3553      0.00000
    259       4.3919      0.00000
    260       4.4548      0.00000
    261       4.4553      0.00000
    262       4.4965      0.00000
    263       4.5139      0.00000
    264       4.5670      0.00000
    265       4.5818      0.00000
    266       4.5999      0.00000
    267       4.6002      0.00000
    268       4.6557      0.00000
    269       4.6564      0.00000
    270       4.6662      0.00000
    271       4.6669      0.00000
    272       4.7285      0.00000
    273       4.7410      0.00000
    274       4.7423      0.00000
    275       4.7464      0.00000
    276       4.7604      0.00000
    277       4.7606      0.00000
    278       4.8139      0.00000
    279       4.8152      0.00000
    280       5.0433      0.00000
    281       5.1883      0.00000
    282       5.1907      0.00000
    283       5.2479      0.00000
    284       5.2489      0.00000
    285       5.2608      0.00000
    286       5.2612      0.00000

 k-point    12 :       0.4000   -0.4000    0.0000
  band No.  band energies     occupation 
      1     -72.4518      2.00000
      2     -72.4515      2.00000
      3     -72.4497      2.00000
      4     -72.4454      2.00000
      5     -72.4438      2.00000
      6     -72.4435      2.00000
      7     -72.4429      2.00000
      8     -72.4427      2.00000
      9     -72.4424      2.00000
     10     -58.6425      2.00000
     11     -58.6425      2.00000
     12     -58.6379      2.00000
     13     -58.6278      2.00000
     14     -58.6237      2.00000
     15     -58.6237      2.00000
     16     -58.6218      2.00000
     17     -58.6213      2.00000
     18     -58.6213      2.00000
     19     -36.8224      2.00000
     20     -36.8099      2.00000
     21     -36.8096      2.00000
     22     -36.7753      2.00000
     23     -36.7749      2.00000
     24     -36.7504      2.00000
     25     -36.6752      2.00000
     26     -36.6595      2.00000
     27     -36.6593      2.00000
     28     -36.6520      2.00000
     29     -36.6517      2.00000
     30     -36.6370      2.00000
     31     -36.6362      2.00000
     32     -36.6354      2.00000
     33     -36.6327      2.00000
     34     -36.6270      2.00000
     35     -36.6268      2.00000
     36     -36.6191      2.00000
     37     -36.6020      2.00000
     38     -36.5964      2.00000
     39     -36.5952      2.00000
     40     -36.5948      2.00000
     41     -36.5918      2.00000
     42     -36.5910      2.00000
     43     -36.5907      2.00000
     44     -36.5820      2.00000
     45     -36.5818      2.00000
     46     -32.8984      2.00000
     47     -32.8842      2.00000
     48     -32.8842      2.00000
     49     -32.8453      2.00000
     50     -32.8453      2.00000
     51     -32.8199      2.00000
     52     -32.8199      2.00000
     53     -32.8178      2.00000
     54     -32.8096      2.00000
     55     -32.7872      2.00000
     56     -32.7781      2.00000
     57     -32.7781      2.00000
     58     -32.7738      2.00000
     59     -32.7727      2.00000
     60     -32.7726      2.00000
     61     -32.7337      2.00000
     62     -32.7147      2.00000
     63     -32.7147      2.00000
     64     -32.7061      2.00000
     65     -32.7060      2.00000
     66     -32.6897      2.00000
     67     -32.6896      2.00000
     68     -32.6896      2.00000
     69     -32.6846      2.00000
     70     -32.6447      2.00000
     71     -32.6288      2.00000
     72     -32.6288      2.00000
     73     -12.4971      2.00000
     74     -12.4955      2.00000
     75     -12.2094      2.00000
     76     -11.8159      2.00000
     77     -11.8158      2.00000
     78     -11.5356      2.00000
     79     -11.5139      2.00000
     80     -11.1915      2.00000
     81     -11.1901      2.00000
     82     -11.1781      2.00000
     83     -11.1771      2.00000
     84     -11.0541      2.00000
     85     -11.0107      2.00000
     86     -10.9755      2.00000
     87     -10.9742      2.00000
     88     -10.9415      2.00000
     89     -10.9411      2.00000
     90     -10.8757      2.00000
     91     -10.8040      2.00000
     92     -10.7450      2.00000
     93     -10.6954      2.00000
     94     -10.6936      2.00000
     95     -10.6431      2.00000
     96     -10.6202      2.00000
     97     -10.6178      2.00000
     98     -10.4749      2.00000
     99     -10.4748      2.00000
    100     -10.4410      2.00000
    101     -10.2878      2.00000
    102     -10.2619      2.00000
    103     -10.2619      2.00000
    104     -10.2537      2.00000
    105     -10.2537      2.00000
    106     -10.1764      2.00000
    107     -10.1479      2.00000
    108     -10.1479      2.00000
    109      -4.6025      2.00000
    110      -4.3914      2.00000
    111      -4.3905      2.00000
    112      -4.0861      2.00000
    113      -4.0842      2.00000
    114      -3.9676      2.00000
    115      -3.9671      2.00000
    116      -3.8028      2.00000
    117      -3.7836      2.00000
    118      -3.6479      2.00000
    119      -3.4903      2.00000
    120      -3.4889      2.00000
    121      -3.4203      2.00000
    122      -3.4200      2.00000
    123      -3.3558      2.00000
    124      -3.2647      2.00000
    125      -3.2626      2.00000
    126      -2.9704      2.00000
    127      -2.9703      2.00000
    128      -2.9485      2.00000
    129      -2.9421      2.00000
    130      -2.9129      2.00000
    131      -2.9126      2.00000
    132      -2.8947      2.00000
    133      -2.8940      2.00000
    134      -2.7809      2.00000
    135      -2.7765      2.00000
    136      -2.6390      2.00000
    137      -2.6029      2.00000
    138      -2.6020      2.00000
    139      -2.5961      2.00000
    140      -2.5733      2.00000
    141      -2.5722      2.00000
    142      -2.5609      2.00000
    143      -2.3639      2.00000
    144      -2.3636      2.00000
    145      -2.3419      2.00000
    146      -2.3405      2.00000
    147      -1.9725      2.00000
    148      -1.9266      2.00000
    149      -1.9251      2.00000
    150      -1.8587      2.00000
    151      -1.8576      2.00000
    152      -1.8564      2.00000
    153      -1.8424      2.00000
    154      -1.7843      2.00000
    155      -1.6535      2.00000
    156      -1.5478      2.00000
    157      -1.5476      2.00000
    158      -1.5013      2.00000
    159      -1.4979      2.00000
    160      -1.4817      2.00000
    161      -1.4292      2.00000
    162      -1.4284      2.00000
    163      -1.4198      2.00000
    164      -1.3124      2.00000
    165      -1.3117      2.00000
    166      -1.3099      2.00000
    167      -1.0630      2.00000
    168      -1.0321      2.00000
    169      -1.0320      2.00000
    170      -0.9511      2.00000
    171      -0.9469      2.00000
    172      -0.9366      2.00000
    173      -0.9290      2.00000
    174      -0.9287      2.00000
    175      -0.9139      2.00000
    176      -0.8948      2.00000
    177      -0.8892      2.00000
    178      -0.8748      2.00000
    179      -0.8742      2.00000
    180      -0.7748      2.00000
    181      -0.7626      2.00000
    182      -0.7622      2.00000
    183      -0.6924      2.00000
    184      -0.6415      2.00000
    185      -0.6411      2.00000
    186      -0.3894      2.00000
    187      -0.3894      2.00000
    188      -0.3239      2.00000
    189      -0.3024      2.00000
    190      -0.2968      2.00000
    191      -0.2949      2.00000
    192      -0.1635      2.00000
    193      -0.0193      2.00000
    194      -0.0185      2.00000
    195      -0.0091      2.00000
    196       0.1134      2.00000
    197       0.1666      2.00000
    198       0.1668      2.00000
    199       0.2334      2.00000
    200       0.2369      2.00000
    201       0.2370      2.00000
    202       0.2868      2.00000
    203       0.2869      2.00000
    204       0.4552      2.00000
    205       0.4556      2.00000
    206       0.4561      2.00000
    207       0.4979      2.00000
    208       0.4980      2.00000
    209       0.5127      2.00000
    210       0.5128      2.00000
    211       0.6046      2.00000
    212       0.7477      2.00000
    213       0.8918      2.00000
    214       0.9183      2.00000
    215       0.9341      2.00000
    216       0.9346      2.00000
    217       0.9669      2.00000
    218       1.0692      2.00000
    219       1.0700      2.00000
    220       1.0898      2.00000
    221       1.2444      2.00000
    222       1.2458      2.00000
    223       1.2597      2.00000
    224       1.4061      2.00000
    225       1.4064      2.00000
    226       1.4157      2.00000
    227       1.5170      2.00000
    228       1.6266      2.00000
    229       1.6274      2.00000
    230       1.6501      2.00000
    231       1.6501      2.00000
    232       1.7603      2.00000
    233       1.8369      2.00000
    234       1.8369      2.00000
    235       3.5520      0.00000
    236       3.6769      0.00000
    237       3.7833      0.00000
    238       3.7839      0.00000
    239       3.9743      0.00000
    240       3.9749      0.00000
    241       4.0089      0.00000
    242       4.0160      0.00000
    243       4.0311      0.00000
    244       4.0331      0.00000
    245       4.1739      0.00000
    246       4.1742      0.00000
    247       4.1774      0.00000
    248       4.1909      0.00000
    249       4.1938      0.00000
    250       4.2047      0.00000
    251       4.2059      0.00000
    252       4.2113      0.00000
    253       4.2526      0.00000
    254       4.2537      0.00000
    255       4.2586      0.00000
    256       4.2935      0.00000
    257       4.3549      0.00000
    258       4.3558      0.00000
    259       4.3926      0.00000
    260       4.4540      0.00000
    261       4.4549      0.00000
    262       4.4963      0.00000
    263       4.5140      0.00000
    264       4.5670      0.00000
    265       4.5820      0.00000
    266       4.5999      0.00000
    267       4.6001      0.00000
    268       4.6557      0.00000
    269       4.6563      0.00000
    270       4.6661      0.00000
    271       4.6675      0.00000
    272       4.7282      0.00000
    273       4.7406      0.00000
    274       4.7419      0.00000
    275       4.7466      0.00000
    276       4.7603      0.00000
    277       4.7606      0.00000
    278       4.8140      0.00000
    279       4.8149      0.00000
    280       5.0441      0.00000
    281       5.1863      0.00000
    282       5.1889      0.00000
    283       5.2472      0.00000
    284       5.2480      0.00000
    285       5.2605      0.00000
    286       5.2607      0.00000

 k-point    13 :      -0.2000    0.4000    0.0000
  band No.  band energies     occupation 
      1     -72.4517      2.00000
      2     -72.4516      2.00000
      3     -72.4497      2.00000
      4     -72.4454      2.00000
      5     -72.4437      2.00000
      6     -72.4436      2.00000
      7     -72.4429      2.00000
      8     -72.4426      2.00000
      9     -72.4425      2.00000
     10     -58.6425      2.00000
     11     -58.6425      2.00000
     12     -58.6379      2.00000
     13     -58.6278      2.00000
     14     -58.6238      2.00000
     15     -58.6237      2.00000
     16     -58.6218      2.00000
     17     -58.6213      2.00000
     18     -58.6213      2.00000
     19     -36.8224      2.00000
     20     -36.8098      2.00000
     21     -36.8098      2.00000
     22     -36.7751      2.00000
     23     -36.7750      2.00000
     24     -36.7504      2.00000
     25     -36.6753      2.00000
     26     -36.6594      2.00000
     27     -36.6593      2.00000
     28     -36.6519      2.00000
     29     -36.6518      2.00000
     30     -36.6369      2.00000
     31     -36.6358      2.00000
     32     -36.6358      2.00000
     33     -36.6328      2.00000
     34     -36.6269      2.00000
     35     -36.6269      2.00000
     36     -36.6190      2.00000
     37     -36.6020      2.00000
     38     -36.5964      2.00000
     39     -36.5950      2.00000
     40     -36.5950      2.00000
     41     -36.5918      2.00000
     42     -36.5909      2.00000
     43     -36.5908      2.00000
     44     -36.5819      2.00000
     45     -36.5819      2.00000
     46     -32.8984      2.00000
     47     -32.8842      2.00000
     48     -32.8842      2.00000
     49     -32.8453      2.00000
     50     -32.8453      2.00000
     51     -32.8199      2.00000
     52     -32.8199      2.00000
     53     -32.8178      2.00000
     54     -32.8096      2.00000
     55     -32.7872      2.00000
     56     -32.7781      2.00000
     57     -32.7781      2.00000
     58     -32.7738      2.00000
     59     -32.7727      2.00000
     60     -32.7726      2.00000
     61     -32.7337      2.00000
     62     -32.7147      2.00000
     63     -32.7147      2.00000
     64     -32.7061      2.00000
     65     -32.7060      2.00000
     66     -32.6897      2.00000
     67     -32.6896      2.00000
     68     -32.6896      2.00000
     69     -32.6846      2.00000
     70     -32.6447      2.00000
     71     -32.6288      2.00000
     72     -32.6288      2.00000
     73     -12.4965      2.00000
     74     -12.4962      2.00000
     75     -12.2093      2.00000
     76     -11.8159      2.00000
     77     -11.8159      2.00000
     78     -11.5356      2.00000
     79     -11.5138      2.00000
     80     -11.1912      2.00000
     81     -11.1906      2.00000
     82     -11.1777      2.00000
     83     -11.1774      2.00000
     84     -11.0542      2.00000
     85     -11.0111      2.00000
     86     -10.9751      2.00000
     87     -10.9743      2.00000
     88     -10.9414      2.00000
     89     -10.9412      2.00000
     90     -10.8758      2.00000
     91     -10.8040      2.00000
     92     -10.7451      2.00000
     93     -10.6948      2.00000
     94     -10.6941      2.00000
     95     -10.6427      2.00000
     96     -10.6196      2.00000
     97     -10.6186      2.00000
     98     -10.4748      2.00000
     99     -10.4748      2.00000
    100     -10.4410      2.00000
    101     -10.2878      2.00000
    102     -10.2619      2.00000
    103     -10.2619      2.00000
    104     -10.2537      2.00000
    105     -10.2537      2.00000
    106     -10.1764      2.00000
    107     -10.1479      2.00000
    108     -10.1479      2.00000
    109      -4.6022      2.00000
    110      -4.3915      2.00000
    111      -4.3908      2.00000
    112      -4.0855      2.00000
    113      -4.0850      2.00000
    114      -3.9675      2.00000
    115      -3.9673      2.00000
    116      -3.8027      2.00000
    117      -3.7836      2.00000
    118      -3.6479      2.00000
    119      -3.4899      2.00000
    120      -3.4890      2.00000
    121      -3.4202      2.00000
    122      -3.4200      2.00000
    123      -3.3563      2.00000
    124      -3.2646      2.00000
    125      -3.2633      2.00000
    126      -2.9704      2.00000
    127      -2.9703      2.00000
    128      -2.9486      2.00000
    129      -2.9419      2.00000
    130      -2.9128      2.00000
    131      -2.9126      2.00000
    132      -2.8946      2.00000
    133      -2.8941      2.00000
    134      -2.7801      2.00000
    135      -2.7763      2.00000
    136      -2.6389      2.00000
    137      -2.6026      2.00000
    138      -2.6023      2.00000
    139      -2.5964      2.00000
    140      -2.5729      2.00000
    141      -2.5722      2.00000
    142      -2.5608      2.00000
    143      -2.3638      2.00000
    144      -2.3637      2.00000
    145      -2.3417      2.00000
    146      -2.3411      2.00000
    147      -1.9728      2.00000
    148      -1.9258      2.00000
    149      -1.9253      2.00000
    150      -1.8588      2.00000
    151      -1.8571      2.00000
    152      -1.8563      2.00000
    153      -1.8429      2.00000
    154      -1.7847      2.00000
    155      -1.6537      2.00000
    156      -1.5478      2.00000
    157      -1.5474      2.00000
    158      -1.4994      2.00000
    159      -1.4984      2.00000
    160      -1.4818      2.00000
    161      -1.4290      2.00000
    162      -1.4286      2.00000
    163      -1.4191      2.00000
    164      -1.3123      2.00000
    165      -1.3121      2.00000
    166      -1.3099      2.00000
    167      -1.0632      2.00000
    168      -1.0322      2.00000
    169      -1.0320      2.00000
    170      -0.9504      2.00000
    171      -0.9472      2.00000
    172      -0.9365      2.00000
    173      -0.9290      2.00000
    174      -0.9289      2.00000
    175      -0.9140      2.00000
    176      -0.8944      2.00000
    177      -0.8911      2.00000
    178      -0.8748      2.00000
    179      -0.8743      2.00000
    180      -0.7751      2.00000
    181      -0.7626      2.00000
    182      -0.7623      2.00000
    183      -0.6924      2.00000
    184      -0.6416      2.00000
    185      -0.6411      2.00000
    186      -0.3894      2.00000
    187      -0.3894      2.00000
    188      -0.3239      2.00000
    189      -0.3020      2.00000
    190      -0.2966      2.00000
    191      -0.2956      2.00000
    192      -0.1636      2.00000
    193      -0.0192      2.00000
    194      -0.0190      2.00000
    195      -0.0090      2.00000
    196       0.1134      2.00000
    197       0.1666      2.00000
    198       0.1667      2.00000
    199       0.2336      2.00000
    200       0.2369      2.00000
    201       0.2370      2.00000
    202       0.2868      2.00000
    203       0.2869      2.00000
    204       0.4552      2.00000
    205       0.4557      2.00000
    206       0.4563      2.00000
    207       0.4979      2.00000
    208       0.4980      2.00000
    209       0.5127      2.00000
    210       0.5128      2.00000
    211       0.6046      2.00000
    212       0.7473      2.00000
    213       0.8915      2.00000
    214       0.9186      2.00000
    215       0.9341      2.00000
    216       0.9351      2.00000
    217       0.9670      2.00000
    218       1.0690      2.00000
    219       1.0700      2.00000
    220       1.0889      2.00000
    221       1.2444      2.00000
    222       1.2458      2.00000
    223       1.2597      2.00000
    224       1.4062      2.00000
    225       1.4068      2.00000
    226       1.4157      2.00000
    227       1.5170      2.00000
    228       1.6267      2.00000
    229       1.6275      2.00000
    230       1.6501      2.00000
    231       1.6501      2.00000
    232       1.7603      2.00000
    233       1.8369      2.00000
    234       1.8369      2.00000
    235       3.5521      0.00000
    236       3.6773      0.00000
    237       3.7834      0.00000
    238       3.7838      0.00000
    239       3.9741      0.00000
    240       3.9751      0.00000
    241       4.0096      0.00000
    242       4.0160      0.00000
    243       4.0316      0.00000
    244       4.0322      0.00000
    245       4.1739      0.00000
    246       4.1742      0.00000
    247       4.1777      0.00000
    248       4.1900      0.00000
    249       4.1935      0.00000
    250       4.2052      0.00000
    251       4.2055      0.00000
    252       4.2113      0.00000
    253       4.2526      0.00000
    254       4.2530      0.00000
    255       4.2585      0.00000
    256       4.2938      0.00000
    257       4.3550      0.00000
    258       4.3555      0.00000
    259       4.3923      0.00000
    260       4.4543      0.00000
    261       4.4552      0.00000
    262       4.4964      0.00000
    263       4.5139      0.00000
    264       4.5670      0.00000
    265       4.5819      0.00000
    266       4.5999      0.00000
    267       4.6002      0.00000
    268       4.6557      0.00000
    269       4.6564      0.00000
    270       4.6661      0.00000
    271       4.6672      0.00000
    272       4.7283      0.00000
    273       4.7408      0.00000
    274       4.7421      0.00000
    275       4.7464      0.00000
    276       4.7603      0.00000
    277       4.7606      0.00000
    278       4.8141      0.00000
    279       4.8150      0.00000
    280       5.0437      0.00000
    281       5.1877      0.00000
    282       5.1894      0.00000
    283       5.2474      0.00000
    284       5.2486      0.00000
    285       5.2606      0.00000
    286       5.2610      0.00000


--------------------------------------------------------------------------------------------------------


 soft charge-density along one line, spin component           1
         0         1         2         3         4         5         6         7         8         9
 total charge-density along one line
 
 pseudopotential strength for first ion, spin component:           1
 -4.876  12.211  -0.000  -0.000  -0.000   0.000   0.000   0.000
 12.211   3.227   0.000   0.000   0.000   0.000  -0.000   0.000
 -0.000   0.000 -19.014  -0.000   0.000   9.912   0.000  -0.000
 -0.000   0.000  -0.000 -19.018  -0.000   0.000   9.917   0.000
 -0.000   0.000   0.000  -0.000 -19.014  -0.000   0.000   9.912
  0.000   0.000   9.912   0.000  -0.000   5.190  -0.000   0.000
  0.000  -0.000   0.000   9.917   0.000  -0.000   5.187  -0.000
  0.000   0.000  -0.000   0.000   9.912   0.000  -0.000   5.190
  0.000  -0.000  -0.000   0.000  -0.008   0.000  -0.000   0.004
 -0.000   0.000  -0.000  -0.000   0.000   0.000   0.000  -0.000
 -0.002   0.001   0.000  -0.000   0.000  -0.000   0.000  -0.000
 -0.000   0.000   0.000  -0.000  -0.000  -0.000   0.000   0.000
  0.000  -0.000  -0.008   0.000  -0.000   0.004  -0.000   0.000
  0.000  -0.000  -0.000   0.000  -0.008   0.000  -0.000   0.004
 -0.000   0.000  -0.000  -0.000   0.000   0.000   0.000  -0.000
 -0.002   0.001   0.000  -0.000   0.000  -0.000   0.000  -0.000
 -0.000   0.000   0.000  -0.000  -0.000  -0.000   0.000   0.000
  0.000  -0.000  -0.008   0.000  -0.000   0.004  -0.000   0.000
 total augmentation occupancy for first ion, spin component:           1
  1.996  -0.036   0.000   0.000   0.000   0.000   0.000   0.000  -0.000   0.000  -0.004   0.000  -0.000   0.000  -0.000   0.003
 -0.036   1.136   0.000   0.000   0.000  -0.000   0.000  -0.000  -0.000  -0.000  -0.136  -0.000  -0.000   0.000   0.000   0.223
  0.000   0.000   1.998   0.000   0.000  -0.039  -0.000   0.000  -0.000   0.000  -0.000   0.000  -0.010   0.000   0.000   0.000
  0.000   0.000   0.000   1.999   0.000  -0.000  -0.043  -0.000   0.000   0.000   0.000   0.000   0.000  -0.000  -0.000  -0.000
  0.000   0.000   0.000   0.000   1.998   0.000  -0.000  -0.039  -0.010   0.000   0.000   0.000  -0.000   0.001  -0.000  -0.000
  0.000  -0.000  -0.039  -0.000   0.000   0.090   0.000  -0.000  -0.000  -0.001   0.000  -0.000  -0.147   0.000   0.000   0.000
  0.000   0.000  -0.000  -0.043  -0.000   0.000   0.111   0.000  -0.000  -0.000   0.000  -0.000  -0.000   0.000   0.000   0.000
  0.000  -0.000   0.000  -0.000  -0.039  -0.000   0.000   0.090  -0.147  -0.000   0.000  -0.001  -0.000   0.172   0.000   0.000
 -0.000  -0.000  -0.000   0.000  -0.010  -0.000  -0.000  -0.147   1.934   0.000  -0.000   0.003  -0.000  -2.198  -0.000   0.000
  0.000  -0.000   0.000   0.000   0.000  -0.001  -0.000  -0.000   0.000   3.117  -0.000   0.000   0.003  -0.000  -3.921   0.000
 -0.004  -0.136  -0.000   0.000   0.000   0.000   0.000   0.000  -0.000  -0.000   1.519  -0.000  -0.000   0.000   0.000  -1.679
  0.000  -0.000   0.000   0.000   0.000  -0.000  -0.000  -0.001   0.003   0.000  -0.000   3.117   0.000  -0.003  -0.000   0.000
 -0.000  -0.000  -0.010   0.000  -0.000  -0.147  -0.000  -0.000  -0.000   0.003  -0.000   0.000   1.934  -0.000  -0.003   0.000
  0.000   0.000   0.000  -0.000   0.001   0.000   0.000   0.172  -2.198  -0.000   0.000  -0.003  -0.000   3.266   0.000   0.000
 -0.000   0.000   0.000  -0.000  -0.000   0.000   0.000   0.000  -0.000  -3.921   0.000  -0.000  -0.003   0.000   5.416  -0.000
  0.003   0.223   0.000  -0.000  -0.000   0.000   0.000   0.000   0.000   0.000  -1.679   0.000   0.000   0.000  -0.000   2.683
 -0.000   0.000  -0.000  -0.000   0.000   0.000   0.000   0.000  -0.003  -0.000   0.000  -3.921  -0.000   0.002   0.000  -0.000
  0.000   0.000   0.001  -0.000   0.000   0.172   0.000   0.000  -0.000  -0.003   0.000  -0.000  -2.198   0.000   0.002  -0.000


------------------------ aborting loop because EDIFF is reached ----------------------------------------


    CHARGE:  cpu time      0.4572: real time      0.4608
    FORLOC:  cpu time      0.0300: real time      0.0301
    FORNL :  cpu time      1.9244: real time      1.9364
    STRESS:  cpu time      5.8125: real time      5.8488
    FORCOR:  cpu time      0.1308: real time      0.1315
    FORHAR:  cpu time      0.0511: real time      0.0514
    MIXING:  cpu time      0.0382: real time      0.0383
    OFIELD:  cpu time      0.0001: real time      0.0001

 ---------------------------------------------------------------------------------------------

         DFTD3 V3.0 Rev 1        
 DF pbe       
 parameters
 k1-k3        =   16.0000    1.3333   -4.0000
 Edisp (eV)  -20.73931

 E6    (eV) :   -11.6368
 E8    (eV) :    -9.1025
 % E8        : 43.89
    FORVDW:  cpu time      0.1513: real time      0.1520

  FORCE on cell =-STRESS in cart. coord.  units (eV):
  Direction    XX          YY          ZZ          XY          YZ          ZX
  --------------------------------------------------------------------------------------
  Alpha Z  1198.06821  1198.06821  1198.06821
  Ewald   67186.50579 67186.51054-91911.23532     1.27872     0.00006    -0.01050
  Hartree 77593.96342 77593.96698-73224.69267     0.46108     0.00001    -0.01141
  E(xc)   -1989.30981 -1989.30982 -1993.04551     0.00168    -0.00000     0.00001
  Local  ************************156943.06314    -1.70138    -0.00007     0.02241
  n-local  1792.93718  1792.93675  1886.20094     0.03602     0.00013     0.00101
  augment   514.74694   514.74705   499.85696     0.00139     0.00000    -0.00001
  Kinetic  6582.42846  6582.42821  6616.35939    -0.05062     0.00001     0.00117
  Fock        0.00000     0.00000     0.00000     0.00000     0.00000     0.00000
  vdW       -21.42641   -21.42641   -15.49579    -0.00023     0.00000    -0.00001
  -------------------------------------------------------------------------------------
  Total     -19.44337   -19.44395    -0.92066     0.02666     0.00014     0.00267
  in kB     -18.88193   -18.88249    -0.89407     0.02589     0.00013     0.00259
  external pressure =      -12.89 kB  Pullay stress =        0.00 kB


 VOLUME and BASIS-vectors are now :
 -----------------------------------------------------------------------------
  energy-cutoff  :      520.00
  volume of cell :     1649.82
      direct lattice vectors                 reciprocal lattice vectors
     9.759724624  0.000000000  0.000000000     0.102461907 -0.059156410  0.000000000
     4.879862312  8.452169459  0.000000000     0.000000000  0.118312820  0.000000000
     0.000000000  0.000000000 20.000000000     0.000000000  0.000000000  0.050000000

  length of vectors
     9.759724624  9.759724624 20.000000000     0.118312820  0.118312820  0.050000000


 FORCES acting on ions
    electron-ion (+dipol)            ewald-force                    non-local-force                 convergence-correction
 -----------------------------------------------------------------------------------------------
   0.330E-01 0.289E-01 0.136E+04   -.330E-01 -.286E-01 -.136E+04   0.167E-03 0.867E-04 0.612E-02   -.282E-03 -.378E-03 -.321E-03
   -.517E-01 0.205E-01 0.136E+04   0.515E-01 -.202E-01 -.136E+04   -.181E-04 0.299E-03 0.818E-02   0.605E-03 -.672E-03 -.328E-03
   0.188E-01 0.736E-02 0.136E+04   -.186E-01 -.684E-02 -.136E+04   -.209E-03 0.642E-04 0.782E-02   -.323E-03 -.472E-03 -.322E-03
   -.166E-01 -.492E-01 0.136E+04   0.166E-01 0.488E-01 -.136E+04   0.250E-03 -.922E-04 0.819E-02   -.335E-04 0.822E-03 -.344E-03
   -.219E-01 -.107E-01 0.136E+04   0.217E-01 0.103E-01 -.136E+04   -.486E-04 0.457E-04 0.856E-02   0.307E-03 0.277E-03 -.326E-03
   0.384E-01 -.248E-01 0.136E+04   -.382E-01 0.243E-01 -.136E+04   -.230E-03 0.853E-04 0.784E-02   -.271E-03 0.696E-03 -.322E-03
   0.813E-02 0.624E-02 0.136E+04   -.784E-02 -.622E-02 -.136E+04   -.108E-04 -.266E-03 0.793E-02   -.377E-03 -.336E-04 -.316E-03
   -.401E-02 0.349E-01 0.136E+04   0.385E-02 -.346E-01 -.136E+04   -.110E-03 -.259E-03 0.784E-02   0.424E-03 -.379E-03 -.327E-03
   -.415E-02 -.133E-01 0.136E+04   0.400E-02 0.130E-01 -.136E+04   0.123E-03 0.331E-04 0.837E-02   -.462E-04 0.144E-03 -.328E-03
   -.305E-02 -.746E-04 0.119E+04   0.271E-02 -.685E-11 -.120E+04   0.163E-02 0.928E-03 0.241E+01   0.892E-04 -.484E-04 -.799E-03
   -.366E-02 -.578E-04 0.119E+04   0.354E-02 -.180E-10 -.120E+04   -.110E-04 -.922E-03 0.241E+01   0.124E-03 -.408E-04 -.504E-03
   0.670E-02 -.131E-03 0.119E+04   -.625E-02 -.147E-10 -.120E+04   -.162E-02 0.889E-03 0.241E+01   -.213E-03 0.733E-05 -.605E-03
   -.329E-02 -.322E-02 0.119E+04   0.308E-02 0.310E-02 -.120E+04   -.793E-03 0.469E-03 0.241E+01   0.113E-03 0.167E-03 -.532E-03
   0.138E-02 -.244E-04 0.119E+04   -.127E-02 0.184E-05 -.120E+04   0.762E-03 0.459E-03 0.241E+01   -.103E-06 0.619E-04 -.420E-03
   0.193E-02 -.606E-02 0.119E+04   -.182E-02 0.539E-02 -.120E+04   0.353E-04 0.124E-02 0.241E+01   -.114E-03 0.432E-03 -.385E-03
   0.186E-02 0.588E-02 0.119E+04   -.182E-02 -.539E-02 -.120E+04   -.307E-04 -.187E-02 0.241E+01   -.388E-04 -.216E-03 -.553E-03
   -.353E-02 0.345E-02 0.119E+04   0.308E-02 -.310E-02 -.120E+04   0.107E-02 -.585E-03 0.241E+01   0.263E-03 -.245E-03 -.288E-03
   0.168E-02 0.239E-03 0.119E+04   -.127E-02 -.184E-05 -.120E+04   -.103E-02 -.612E-03 0.241E+01   -.225E-03 -.121E-03 -.206E-03
   -.390E-01 -.514E-04 -.318E+02   0.385E-01 -.803E-11 0.343E+02   0.311E-04 -.431E-04 -.247E+01   0.855E-04 -.533E-04 0.352E-03
   -.405E-01 0.117E-03 -.320E+02   0.403E-01 -.208E-10 0.345E+02   0.955E-04 -.387E-02 -.248E+01   0.128E-03 -.408E-04 0.586E-04
   0.778E-01 -.783E-05 -.320E+02   -.772E-01 -.171E-10 0.344E+02   -.195E-03 0.461E-04 -.247E+01   -.213E-03 0.839E-05 0.166E-03
   -.355E-01 -.371E-01 -.320E+02   0.353E-01 0.368E-01 0.345E+02   -.323E-02 0.205E-02 -.248E+01   0.116E-03 0.171E-03 0.899E-04
   0.124E-01 -.367E-04 -.320E+02   -.122E-01 0.195E-04 0.345E+02   0.328E-02 0.191E-02 -.248E+01   0.332E-05 0.601E-04 -.201E-04
   0.235E-01 -.658E-01 -.320E+02   -.234E-01 0.650E-01 0.345E+02   -.139E-03 0.210E-02 -.248E+01   -.120E-03 0.431E-03 -.593E-04
   0.236E-01 0.656E-01 -.320E+02   -.234E-01 -.650E-01 0.345E+02   -.683E-04 -.167E-03 -.247E+01   -.404E-04 -.213E-03 0.113E-03
   -.360E-01 0.371E-01 -.320E+02   0.353E-01 -.368E-01 0.345E+02   0.177E-02 -.106E-02 -.248E+01   0.262E-03 -.247E-03 -.153E-03
   0.126E-01 0.250E-03 -.320E+02   -.122E-01 -.195E-04 0.345E+02   -.170E-02 -.977E-03 -.248E+01   -.222E-03 -.119E-03 -.231E-03
   -.247E+01 -.264E-02 -.135E+04   0.253E+01 0.296E-02 0.135E+04   0.417E-01 -.440E-03 0.634E-01   0.245E-04 -.394E-04 0.333E-04
   0.825E+00 -.190E-03 -.136E+04   -.829E+00 -.673E-10 0.136E+04   0.110E-02 0.429E-02 -.549E-01   0.278E-04 -.913E-04 -.339E-04
   0.822E+00 0.730E-03 -.136E+04   -.826E+00 -.513E-10 0.136E+04   0.135E-02 -.450E-02 -.527E-01   -.484E-04 -.653E-04 0.194E-04
   -.122E-01 0.486E+00 -.136E+04   0.113E-01 -.488E+00 0.136E+04   -.705E-03 -.236E-02 -.549E-01   -.139E-04 0.354E-04 -.103E-04
   0.154E+00 -.289E-03 -.136E+04   -.154E+00 0.289E-03 0.136E+04   -.125E-02 -.613E-05 -.508E-01   0.665E-05 -.723E-05 0.940E-05
   -.170E-01 -.481E+00 -.136E+04   0.154E-01 0.483E+00 0.136E+04   -.429E-03 0.165E-02 -.549E-01   0.124E-04 0.520E-04 -.182E-04
   -.157E-01 0.481E+00 -.136E+04   0.154E-01 -.483E+00 0.136E+04   -.152E-02 0.508E-02 -.526E-01   -.455E-04 0.242E-04 -.118E-05
   -.116E-01 -.487E+00 -.136E+04   0.113E-01 0.488E+00 0.136E+04   -.196E-02 -.443E-02 -.549E-01   0.669E-04 0.491E-04 -.123E-04
   0.152E+00 0.224E-03 -.136E+04   -.154E+00 -.289E-03 0.136E+04   0.101E-02 0.275E-03 -.472E-01   -.223E-04 0.464E-04 -.709E-04
   0.112E+01 0.845E+00 0.576E+02   -.112E+01 -.844E+00 -.626E+02   -.433E-01 -.234E-01 0.492E+01   -.374E-04 0.211E-05 -.626E-04
   -.785E+00 0.255E+00 0.567E+02   0.797E+00 -.264E+00 -.617E+02   -.486E-02 0.499E-03 0.496E+01   0.430E-04 -.459E-04 -.538E-04
   0.127E+00 0.162E-01 0.569E+02   -.128E+00 -.156E-01 -.619E+02   0.152E-02 -.941E-03 0.497E+01   -.672E-05 -.287E-04 -.574E-04
   -.345E+00 -.110E+01 0.572E+02   0.341E+00 0.111E+01 -.621E+02   -.337E-02 0.219E-01 0.494E+01   0.260E-04 0.403E-04 -.748E-04
   -.187E-01 0.106E-01 0.569E+02   0.201E-01 -.105E-01 -.618E+02   -.202E-03 -.463E-03 0.497E+01   -.472E-05 0.435E-05 -.113E-03
   0.230E+00 -.154E+00 0.570E+02   -.231E+00 0.156E+00 -.619E+02   -.183E-03 0.660E-04 0.497E+01   -.202E-04 -.517E-05 -.105E-03
   0.309E-01 0.558E-01 0.569E+02   -.310E-01 -.563E-01 -.619E+02   0.164E-03 0.132E-02 0.497E+01   -.455E-04 -.116E-04 -.819E-04
   -.374E-01 0.143E+00 0.569E+02   0.385E-01 -.145E+00 -.619E+02   0.267E-03 0.553E-03 0.497E+01   0.422E-04 -.415E-05 -.108E-03
   0.289E-02 -.718E-01 0.569E+02   -.401E-02 0.717E-01 -.619E+02   0.120E-02 0.356E-03 0.496E+01   0.354E-05 0.468E-04 -.118E-03
   -.787E+00 -.258E+00 -.122E+04   0.798E+00 0.266E+00 0.122E+04   -.257E-02 0.148E-03 -.496E+01   -.307E-04 0.152E-04 -.230E-03
   0.110E+01 -.833E+00 -.122E+04   -.111E+01 0.832E+00 0.122E+04   -.433E-01 0.229E-01 -.500E+01   0.181E-04 -.325E-04 -.252E-03
   0.127E+00 -.170E-01 -.122E+04   -.128E+00 0.155E-01 0.122E+04   0.114E-02 0.152E-02 -.496E+01   0.149E-04 -.648E-05 -.273E-03
   -.340E+00 0.109E+01 -.122E+04   0.336E+00 -.110E+01 0.122E+04   -.326E-02 -.238E-01 -.498E+01   0.251E-04 0.108E-04 -.218E-03
   0.229E+00 0.153E+00 -.122E+04   -.230E+00 -.155E+00 0.122E+04   -.852E-03 -.656E-03 -.496E+01   -.766E-05 0.486E-06 -.226E-03
   -.198E-01 -.990E-02 -.122E+04   0.213E-01 0.992E-02 0.122E+04   0.864E-04 -.253E-03 -.495E+01   -.168E-04 -.286E-04 -.214E-03
   0.197E-02 0.721E-01 -.122E+04   -.386E-02 -.715E-01 0.122E+04   0.220E-02 -.191E-03 -.496E+01   -.284E-04 -.697E-05 -.256E-03
   -.368E-01 -.144E+00 -.122E+04   0.382E-01 0.145E+00 0.122E+04   -.198E-04 0.973E-03 -.495E+01   0.366E-04 0.550E-05 -.229E-03
   0.316E-01 -.549E-01 -.122E+04   -.309E-01 0.557E-01 0.122E+04   -.851E-03 -.710E-03 -.496E+01   -.781E-05 0.406E-04 -.268E-03
 -----------------------------------------------------------------------------------------------
   0.568E-01 0.364E-03 0.985E+00   0.106E-12 0.190E-12 -.159E-11   -.570E-01 -.713E-03 -.972E+00   0.944E-05 -.137E-05 -.993E-02
 
 
 POSITION                                       TOTAL-FORCE (eV/Angst)
 -----------------------------------------------------------------------------------
      0.00000      0.00000     10.13660        -0.000146     -0.000047     -0.003899
      3.25324      0.00000     10.13660         0.000436     -0.000041     -0.001670
      6.50648      0.00000     10.13660        -0.000283      0.000112     -0.001825
      1.62662      2.81739     10.13660         0.000148      0.000394     -0.001769
      4.87986      2.81739     10.13660         0.000024     -0.000019     -0.001166
      8.13310      2.81739     10.13660        -0.000229      0.000281     -0.001885
      3.25324      5.63478     10.13660        -0.000094     -0.000272     -0.001777
      6.50648      5.63478     10.13660         0.000156     -0.000309     -0.001894
      9.75972      5.63478     10.13660        -0.000072     -0.000043     -0.001206
      1.62662      0.93913      8.44958         0.001393      0.000811      0.000265
      4.87986      0.93913      8.44958        -0.000003     -0.001014     -0.000110
      8.13310      0.93913      8.44958        -0.001385      0.000772      0.000222
      3.25324      3.75652      8.44958        -0.000884      0.000514     -0.000101
      6.50648      3.75652      8.44958         0.000875      0.000505     -0.000100
      9.75972      3.75652      8.44958         0.000040      0.001011     -0.000917
      4.87986      6.57391      8.44958        -0.000023     -0.001583      0.000226
      8.13310      6.57391      8.44958         0.000884     -0.000467     -0.000923
     11.38635      6.57391      8.44958        -0.000840     -0.000489     -0.000957
      1.62662      0.93913     11.82231        -0.000348     -0.000141      0.006246
      4.87986      0.93913     11.82231        -0.000012     -0.003785      0.003561
      8.13310      0.93913     11.82231         0.000221      0.000053      0.005890
      3.25324      3.75652     11.82231        -0.003305      0.001879      0.003513
      6.50648      3.75652     11.82231         0.003447      0.001962      0.003854
      9.75972      3.75652     11.82231        -0.000201      0.001684      0.000641
      4.87986      6.57391     11.82231         0.000133      0.000233      0.005869
      8.13310      6.57391     11.82231         0.001372     -0.000968      0.000669
     11.38635      6.57391     11.82231        -0.001508     -0.000860      0.000837
      1.62224      0.93913     16.35466         0.102108     -0.000159      0.230132
      4.87986      0.93913     16.36364        -0.002615      0.004014     -0.001247
      8.13310      0.93913     16.36364        -0.003223     -0.003833      0.001140
      3.25324      3.75652     16.36364        -0.001603     -0.004360     -0.001148
      6.50648      3.75652     16.36364        -0.001336     -0.000007     -0.008413
      9.75972      3.75652     16.36364        -0.002038      0.004217     -0.001223
      4.87986      6.57391     16.36364        -0.001898      0.003015      0.001184
      8.13310      6.57391     16.36364        -0.002208     -0.003298     -0.001282
     11.38635      6.57391     16.36364        -0.000872      0.000263     -0.008409
      0.00000      0.00000     14.82098        -0.045730     -0.022616     -0.047818
      3.25324      0.00000     14.82098         0.007269     -0.008637     -0.022774
      6.50648      0.00000     14.82098         0.000583     -0.000337      0.003031
      1.62662      2.81739     14.82098        -0.007125      0.030307     -0.036130
      4.87986      2.81739     14.82098         0.001262     -0.000299      0.001803
      8.13310      2.81739     14.82098        -0.001526      0.001489      0.002415
      3.25324      5.63478     14.82098         0.000065      0.000856      0.003218
      6.50648      5.63478     14.82098         0.001416     -0.001050      0.002950
      9.75972      5.63478     14.82098         0.000087      0.000270      0.001363
      0.00000      0.00000     17.90688         0.008579      0.008807     -0.029355
      3.25324      0.00000     17.90688        -0.045530      0.021985     -0.053062
      6.50648      0.00000     17.90688         0.000397      0.000034     -0.001135
      1.62662      2.81739     17.90688        -0.007065     -0.031507     -0.040417
      4.87986      2.81739     17.90688        -0.001959     -0.002172     -0.001812
      8.13310      2.81739     17.90688         0.001572     -0.000249     -0.000982
      3.25324      5.63478     17.90688         0.000283      0.000503     -0.001326
      6.50648      5.63478     17.90688         0.001470      0.002477     -0.001435
      9.75972      5.63478     17.90688        -0.000159      0.000113     -0.000864
 -----------------------------------------------------------------------------------
    total drift:                               -0.000199     -0.000350      0.003484


--------------------------------------------------------------------------------------------------------



  FREE ENERGIE OF THE ION-ELECTRON SYSTEM (eV)
  ---------------------------------------------------
  free  energy   TOTEN  =      -412.39852663 eV

  energy  without entropy=     -412.39852663  energy(sigma->0) =     -412.39852663
 


--------------------------------------------------------------------------------------------------------


    POTLOK:  cpu time      0.1606: real time      0.1613


--------------------------------------------------------------------------------------------------------


     LOOP+:  cpu time    236.7095: real time    238.5094
    4ORBIT:  cpu time      0.0000: real time      0.0000

 total amount of memory used by VASP MPI-rank0   147274. kBytes
=======================================================================

   base                                    :      30000. kBytes
   nonlr-proj                              :      18792. kBytes
   fftplans                                :      13412. kBytes
   grid                                    :      23521. kBytes
   one-center                              :        217. kBytes
   wavefun                                 :      61332. kBytes
 
  
  
 General timing and accounting informations for this job:
 ========================================================
  
                  Total CPU time used (sec):      242.796
                            User time (sec):      237.049
                          System time (sec):        5.747
                         Elapsed time (sec):      245.337
  
                   Maximum memory used (kb):      453316.
                   Average memory used (kb):          N/A
  
                          Minor page faults:        47780
                          Major page faults:           81
                 Voluntary context switches:         1838
