Sn2                                     
   1.00000000000000     
     4.7000000000000002    0.0000000000000000    0.0000000000000000
     2.3500000000000001    4.0703193977868617    0.0000000000000000
     0.0000000000000000    0.0000000000000000   20.0000000000000000
   Sn
     2
Direct
     0.0000000000000000    0.0000000000000000    0.5210118502141223
     0.3333333333333357    0.3333333333333357    0.4789881497858769
 
  0.00000000E+00  0.00000000E+00  0.00000000E+00
  0.00000000E+00  0.00000000E+00  0.00000000E+00
