Bilayer MoSe2/MoSe2 3R (relaxed monolaye
   1.00000000000000     
     3.2835826082764727    0.0000000000000000    0.0000000000000000
     1.6417913041382364    2.8436659541921925    0.0000000000000000
     0.0000000000000000    0.0000000000000000   20.0000000000000000
   Mo   Se
     2     4
Direct
    -0.0000000000000000   -0.0000000000000000    0.5030541402752854
     0.3333333333333357    0.3333333333333357    0.8219944844477820
     0.3333333333333357    0.3333333333333357    0.4191815291641773
     0.3333333333333357    0.3333333333333357    0.5867568577530972
     0.6666666666666714    0.6666666666666714    0.7382328190312638
     0.6666666666666714    0.6666666666666714    0.9057801693282206
 
  0.00000000E+00  0.00000000E+00  0.00000000E+00
  0.00000000E+00  0.00000000E+00  0.00000000E+00
  0.00000000E+00  0.00000000E+00  0.00000000E+00
  0.00000000E+00  0.00000000E+00  0.00000000E+00
  0.00000000E+00  0.00000000E+00  0.00000000E+00
  0.00000000E+00  0.00000000E+00  0.00000000E+00
