Bilayer MoSe2/MoTe2 2H (relaxed monolaye
   1.00000000000000     
     3.3932708898819186    0.0000000000000000    0.0000000000000000
     1.6966354449409593    2.9386587925599699    0.0000000000000000
     0.0000000000000000    0.0000000000000000   20.0000000000000000
   Mo   Se   Te
     2     2     2
Direct
     0.0000000000000000   -0.0000000000000000    0.4970221100886432
     0.3333333333333357    0.3333333333333357    0.8279533507443977
     0.3333333333333357    0.3333333333333357    0.4151270816985770
     0.3333333333333357    0.3333333333333357    0.5790205735766714
    -0.0000000000000000   -0.0000000000000000    0.7348940704079360
     0.0000000000000000    0.0000000000000000    0.9209828134837619
 
  0.00000000E+00  0.00000000E+00  0.00000000E+00
  0.00000000E+00  0.00000000E+00  0.00000000E+00
  0.00000000E+00  0.00000000E+00  0.00000000E+00
  0.00000000E+00  0.00000000E+00  0.00000000E+00
  0.00000000E+00  0.00000000E+00  0.00000000E+00
  0.00000000E+00  0.00000000E+00  0.00000000E+00
