Bilayer WSe2/WTe2 3R (relaxed monolayers
   1.00000000000000     
     3.4148741595432632    0.0000000000000000    0.0000000000000000
     1.7074370797716316    2.9573677728914998    0.0000000000000000
     0.0000000000000000    0.0000000000000000   20.0000000000000000
   W    Se   Te
     2     2     2
Direct
    -0.0000000000000000    0.0000000000000000    0.4972738268016192
     0.3333333333333357    0.3333333333333357    0.8277728657362400
     0.3333333333333357    0.3333333333333357    0.4152320732310533
     0.3333333333333357    0.3333333333333357    0.5791722835814037
     0.6666666666666714    0.6666666666666714    0.7346175622111309
     0.6666666666666714    0.6666666666666714    0.9209313884385648
 
  0.00000000E+00  0.00000000E+00  0.00000000E+00
  0.00000000E+00  0.00000000E+00  0.00000000E+00
  0.00000000E+00  0.00000000E+00  0.00000000E+00
  0.00000000E+00  0.00000000E+00  0.00000000E+00
  0.00000000E+00  0.00000000E+00  0.00000000E+00
  0.00000000E+00  0.00000000E+00  0.00000000E+00
