  54  54   0   0
  0.3295884E+02  0.1013684E-08  0.1013684E-08  0.2000000E-08  0.5000000E-15
  1.000000000000000E-004
  CAR 
 MoS2_MoTe2_3R phonon                    
      9.62968366    -61.73081528  301      3.52300918      1.00000000
    -61.731  0.0000E+00  0.0000E+00
    -61.493  0.0000E+00  0.0000E+00
    -61.255  0.0000E+00  0.0000E+00
    -61.017  0.0000E+00  0.0000E+00
    -60.779  0.0000E+00  0.0000E+00
    -60.541  0.0000E+00  0.0000E+00
    -60.304  0.0000E+00  0.0000E+00
    -60.066  0.0000E+00  0.0000E+00
    -59.828  0.0000E+00  0.0000E+00
    -59.590  0.0000E+00  0.0000E+00
    -59.352  0.0000E+00  0.0000E+00
    -59.114  0.0000E+00  0.0000E+00
    -58.876  0.0000E+00  0.0000E+00
    -58.639  0.1746E-03  0.4154E-04
    -58.401  0.7422E+02  0.1766E+02
    -58.163  0.1449E+01  0.1800E+02
    -57.925  0.0000E+00  0.1800E+02
    -57.687  0.0000E+00  0.1800E+02
    -57.449  0.1307E-15  0.1800E+02
    -57.211  0.1979E+01  0.1847E+02
    -56.973  0.7369E+02  0.3600E+02
    -56.736  0.7862E-06  0.3600E+02
    -56.498  0.0000E+00  0.3600E+02
    -56.260  0.0000E+00  0.3600E+02
    -56.022  0.0000E+00  0.3600E+02
    -55.784  0.0000E+00  0.3600E+02
    -55.546  0.0000E+00  0.3600E+02
    -55.308  0.0000E+00  0.3600E+02
    -55.071  0.0000E+00  0.3600E+02
    -54.833  0.0000E+00  0.3600E+02
    -54.595  0.0000E+00  0.3600E+02
    -54.357  0.0000E+00  0.3600E+02
    -54.119  0.0000E+00  0.3600E+02
    -53.881  0.0000E+00  0.3600E+02
    -53.643  0.0000E+00  0.3600E+02
    -53.405  0.0000E+00  0.3600E+02
    -53.168  0.0000E+00  0.3600E+02
    -52.930  0.0000E+00  0.3600E+02
    -52.692  0.0000E+00  0.3600E+02
    -52.454  0.0000E+00  0.3600E+02
    -52.216  0.0000E+00  0.3600E+02
    -51.978  0.0000E+00  0.3600E+02
    -51.740  0.0000E+00  0.3600E+02
    -51.502  0.0000E+00  0.3600E+02
    -51.265  0.0000E+00  0.3600E+02
    -51.027  0.0000E+00  0.3600E+02
    -50.789  0.0000E+00  0.3600E+02
    -50.551  0.0000E+00  0.3600E+02
    -50.313  0.0000E+00  0.3600E+02
    -50.075  0.0000E+00  0.3600E+02
    -49.837  0.0000E+00  0.3600E+02
    -49.600  0.0000E+00  0.3600E+02
    -49.362  0.0000E+00  0.3600E+02
    -49.124  0.0000E+00  0.3600E+02
    -48.886  0.0000E+00  0.3600E+02
    -48.648  0.0000E+00  0.3600E+02
    -48.410  0.0000E+00  0.3600E+02
    -48.172  0.0000E+00  0.3600E+02
    -47.934  0.0000E+00  0.3600E+02
    -47.697  0.0000E+00  0.3600E+02
    -47.459  0.0000E+00  0.3600E+02
    -47.221  0.0000E+00  0.3600E+02
    -46.983  0.0000E+00  0.3600E+02
    -46.745  0.0000E+00  0.3600E+02
    -46.507  0.0000E+00  0.3600E+02
    -46.269  0.0000E+00  0.3600E+02
    -46.032  0.0000E+00  0.3600E+02
    -45.794  0.0000E+00  0.3600E+02
    -45.556  0.0000E+00  0.3600E+02
    -45.318  0.0000E+00  0.3600E+02
    -45.080  0.0000E+00  0.3600E+02
    -44.842  0.0000E+00  0.3600E+02
    -44.604  0.0000E+00  0.3600E+02
    -44.366  0.0000E+00  0.3600E+02
    -44.129  0.0000E+00  0.3600E+02
    -43.891  0.0000E+00  0.3600E+02
    -43.653  0.0000E+00  0.3600E+02
    -43.415  0.0000E+00  0.3600E+02
    -43.177  0.0000E+00  0.3600E+02
    -42.939  0.0000E+00  0.3600E+02
    -42.701  0.0000E+00  0.3600E+02
    -42.463  0.0000E+00  0.3600E+02
    -42.226  0.0000E+00  0.3600E+02
    -41.988  0.0000E+00  0.3600E+02
    -41.750  0.0000E+00  0.3600E+02
    -41.512  0.0000E+00  0.3600E+02
    -41.274  0.0000E+00  0.3600E+02
    -41.036  0.0000E+00  0.3600E+02
    -40.798  0.0000E+00  0.3600E+02
    -40.561  0.0000E+00  0.3600E+02
    -40.323  0.0000E+00  0.3600E+02
    -40.085  0.0000E+00  0.3600E+02
    -39.847  0.0000E+00  0.3600E+02
    -39.609  0.0000E+00  0.3600E+02
    -39.371  0.0000E+00  0.3600E+02
    -39.133  0.0000E+00  0.3600E+02
    -38.895  0.0000E+00  0.3600E+02
    -38.658  0.0000E+00  0.3600E+02
    -38.420  0.0000E+00  0.3600E+02
    -38.182  0.0000E+00  0.3600E+02
    -37.944  0.0000E+00  0.3600E+02
    -37.706  0.0000E+00  0.3600E+02
    -37.468  0.0000E+00  0.3600E+02
    -37.230  0.0000E+00  0.3600E+02
    -36.993  0.0000E+00  0.3600E+02
    -36.755  0.0000E+00  0.3600E+02
    -36.517  0.0000E+00  0.3600E+02
    -36.279  0.0000E+00  0.3600E+02
    -36.041  0.0000E+00  0.3600E+02
    -35.803  0.0000E+00  0.3600E+02
    -35.565  0.0000E+00  0.3600E+02
    -35.327  0.0000E+00  0.3600E+02
    -35.090  0.0000E+00  0.3600E+02
    -34.852  0.0000E+00  0.3600E+02
    -34.614  0.0000E+00  0.3600E+02
    -34.376  0.0000E+00  0.3600E+02
    -34.138  0.0000E+00  0.3600E+02
    -33.900  0.0000E+00  0.3600E+02
    -33.662  0.0000E+00  0.3600E+02
    -33.424  0.0000E+00  0.3600E+02
    -33.187  0.0000E+00  0.3600E+02
    -32.949  0.8689E-11  0.3600E+02
    -32.711  0.8664E+01  0.3806E+02
    -32.473  0.1872E+03  0.8259E+02
    -32.235  0.3117E+02  0.9000E+02
    -31.997  0.0000E+00  0.9000E+02
    -31.759  0.0000E+00  0.9000E+02
    -31.522  0.5696E-02  0.9000E+02
    -31.284  0.1164E+03  0.1177E+03
    -31.046  0.1106E+03  0.1440E+03
    -30.808  0.2379E-01  0.1440E+03
    -30.570  0.0000E+00  0.1440E+03
    -30.332  0.0000E+00  0.1440E+03
    -30.094  0.0000E+00  0.1440E+03
    -29.856  0.0000E+00  0.1440E+03
    -29.619  0.0000E+00  0.1440E+03
    -29.381  0.0000E+00  0.1440E+03
    -29.143  0.0000E+00  0.1440E+03
    -28.905  0.0000E+00  0.1440E+03
    -28.667  0.0000E+00  0.1440E+03
    -28.429  0.0000E+00  0.1440E+03
    -28.191  0.0000E+00  0.1440E+03
    -27.954  0.0000E+00  0.1440E+03
    -27.716  0.0000E+00  0.1440E+03
    -27.478  0.0000E+00  0.1440E+03
    -27.240  0.0000E+00  0.1440E+03
    -27.002  0.0000E+00  0.1440E+03
    -26.764  0.0000E+00  0.1440E+03
    -26.526  0.0000E+00  0.1440E+03
    -26.288  0.0000E+00  0.1440E+03
    -26.051  0.0000E+00  0.1440E+03
    -25.813  0.0000E+00  0.1440E+03
    -25.575  0.0000E+00  0.1440E+03
    -25.337  0.0000E+00  0.1440E+03
    -25.099  0.0000E+00  0.1440E+03
    -24.861  0.0000E+00  0.1440E+03
    -24.623  0.0000E+00  0.1440E+03
    -24.385  0.0000E+00  0.1440E+03
    -24.148  0.0000E+00  0.1440E+03
    -23.910  0.0000E+00  0.1440E+03
    -23.672  0.0000E+00  0.1440E+03
    -23.434  0.0000E+00  0.1440E+03
    -23.196  0.0000E+00  0.1440E+03
    -22.958  0.0000E+00  0.1440E+03
    -22.720  0.0000E+00  0.1440E+03
    -22.483  0.0000E+00  0.1440E+03
    -22.245  0.0000E+00  0.1440E+03
    -22.007  0.0000E+00  0.1440E+03
    -21.769  0.0000E+00  0.1440E+03
    -21.531  0.0000E+00  0.1440E+03
    -21.293  0.0000E+00  0.1440E+03
    -21.055  0.0000E+00  0.1440E+03
    -20.817  0.0000E+00  0.1440E+03
    -20.580  0.0000E+00  0.1440E+03
    -20.342  0.0000E+00  0.1440E+03
    -20.104  0.0000E+00  0.1440E+03
    -19.866  0.0000E+00  0.1440E+03
    -19.628  0.0000E+00  0.1440E+03
    -19.390  0.0000E+00  0.1440E+03
    -19.152  0.0000E+00  0.1440E+03
    -18.915  0.0000E+00  0.1440E+03
    -18.677  0.0000E+00  0.1440E+03
    -18.439  0.0000E+00  0.1440E+03
    -18.201  0.0000E+00  0.1440E+03
    -17.963  0.0000E+00  0.1440E+03
    -17.725  0.0000E+00  0.1440E+03
    -17.487  0.0000E+00  0.1440E+03
    -17.249  0.0000E+00  0.1440E+03
    -17.012  0.0000E+00  0.1440E+03
    -16.774  0.0000E+00  0.1440E+03
    -16.536  0.0000E+00  0.1440E+03
    -16.298  0.0000E+00  0.1440E+03
    -16.060  0.0000E+00  0.1440E+03
    -15.822  0.0000E+00  0.1440E+03
    -15.584  0.0000E+00  0.1440E+03
    -15.346  0.0000E+00  0.1440E+03
    -15.109  0.0000E+00  0.1440E+03
    -14.871  0.0000E+00  0.1440E+03
    -14.633  0.0000E+00  0.1440E+03
    -14.395  0.0000E+00  0.1440E+03
    -14.157  0.0000E+00  0.1440E+03
    -13.919  0.0000E+00  0.1440E+03
    -13.681  0.0000E+00  0.1440E+03
    -13.444  0.0000E+00  0.1440E+03
    -13.206  0.0000E+00  0.1440E+03
    -12.968  0.0000E+00  0.1440E+03
    -12.730  0.0000E+00  0.1440E+03
    -12.492  0.0000E+00  0.1440E+03
    -12.254  0.0000E+00  0.1440E+03
    -12.016  0.0000E+00  0.1440E+03
    -11.778  0.0000E+00  0.1440E+03
    -11.541  0.0000E+00  0.1440E+03
    -11.303  0.7674E-03  0.1440E+03
    -11.065  0.3166E+01  0.1448E+03
    -10.827  0.6918E+01  0.1464E+03
    -10.589  0.7501E+01  0.1482E+03
    -10.351  0.8085E+01  0.1501E+03
    -10.113  0.1056E+02  0.1526E+03
     -9.876  0.1907E+02  0.1572E+03
     -9.638  0.3382E+02  0.1652E+03
     -9.400  0.2943E+02  0.1722E+03
     -9.162  0.4236E+02  0.1823E+03
     -8.924  0.3011E+01  0.1830E+03
     -8.686  0.9766E+01  0.1853E+03
     -8.448  0.9851E+01  0.1877E+03
     -8.210  0.1224E+02  0.1906E+03
     -7.973  0.9062E+01  0.1927E+03
     -7.735  0.1588E+02  0.1965E+03
     -7.497  0.1405E+02  0.1998E+03
     -7.259  0.1784E+02  0.2041E+03
     -7.021  0.2893E+02  0.2110E+03
     -6.783  0.1943E+02  0.2156E+03
     -6.545  0.1713E+01  0.2160E+03
     -6.307  0.0000E+00  0.2160E+03
     -6.070  0.0000E+00  0.2160E+03
     -5.832  0.0000E+00  0.2160E+03
     -5.594  0.0000E+00  0.2160E+03
     -5.356  0.0000E+00  0.2160E+03
     -5.118  0.0000E+00  0.2160E+03
     -4.880  0.0000E+00  0.2160E+03
     -4.642  0.0000E+00  0.2160E+03
     -4.405  0.0000E+00  0.2160E+03
     -4.167  0.0000E+00  0.2160E+03
     -3.929  0.0000E+00  0.2160E+03
     -3.691  0.0000E+00  0.2160E+03
     -3.453  0.0000E+00  0.2160E+03
     -3.215  0.0000E+00  0.2160E+03
     -2.977  0.8265E-03  0.2160E+03
     -2.739  0.5780E+01  0.2174E+03
     -2.502  0.2521E+02  0.2234E+03
     -2.264  0.5090E+02  0.2355E+03
     -2.026  0.1825E+02  0.2398E+03
     -1.788  0.2506E+02  0.2458E+03
     -1.550  0.4156E+02  0.2557E+03
     -1.312  0.5925E+02  0.2698E+03
     -1.074  0.4983E+02  0.2816E+03
     -0.837  0.3338E+02  0.2896E+03
     -0.599  0.2912E+02  0.2965E+03
     -0.361  0.5119E+02  0.3087E+03
     -0.123  0.4919E+02  0.3204E+03
      0.115  0.6584E+02  0.3360E+03
      0.353  0.4739E+02  0.3473E+03
      0.591  0.3871E+02  0.3565E+03
      0.829  0.3647E+02  0.3652E+03
      1.066  0.3809E+02  0.3742E+03
      1.304  0.3311E+02  0.3821E+03
      1.542  0.4643E+02  0.3932E+03
      1.780  0.5853E+02  0.4071E+03
      2.018  0.5745E+02  0.4207E+03
      2.256  0.5677E+02  0.4342E+03
      2.494  0.3681E+02  0.4430E+03
      2.732  0.2571E+02  0.4491E+03
      2.969  0.1845E+02  0.4535E+03
      3.207  0.2926E+02  0.4605E+03
      3.445  0.2913E+02  0.4674E+03
      3.683  0.5980E+01  0.4688E+03
      3.921  0.3431E+01  0.4696E+03
      4.159  0.1142E+02  0.4723E+03
      4.397  0.2965E+02  0.4794E+03
      4.634  0.4360E+02  0.4898E+03
      4.872  0.5866E+02  0.5037E+03
      5.110  0.6192E+02  0.5185E+03
      5.348  0.5386E+02  0.5313E+03
      5.586  0.5899E+02  0.5453E+03
      5.824  0.5033E+02  0.5573E+03
      6.062  0.4643E+02  0.5683E+03
      6.300  0.1390E+02  0.5716E+03
      6.537  0.1597E+01  0.5720E+03
      6.775  0.5736E-05  0.5720E+03
      7.013  0.0000E+00  0.5720E+03
      7.251  0.0000E+00  0.5720E+03
      7.489  0.0000E+00  0.5720E+03
      7.727  0.0000E+00  0.5720E+03
      7.965  0.0000E+00  0.5720E+03
      8.202  0.0000E+00  0.5720E+03
      8.440  0.0000E+00  0.5720E+03
      8.678  0.0000E+00  0.5720E+03
      8.916  0.0000E+00  0.5720E+03
      9.154  0.0000E+00  0.5720E+03
      9.392  0.0000E+00  0.5720E+03
      9.630  0.0000E+00  0.5720E+03
