  36  36   0   0
  0.3524951E+02  0.8559482E-09  0.8559482E-09  0.2000000E-08  0.5000000E-15
  1.000000000000000E-004
  CAR 
 BN_GaN_AB phonon                        
      4.72384673    -20.57056925  301     -1.51017287      1.00000000
    -20.571  0.0000E+00  0.0000E+00
    -20.486  0.0000E+00  0.0000E+00
    -20.402  0.0000E+00  0.0000E+00
    -20.318  0.0000E+00  0.0000E+00
    -20.233  0.0000E+00  0.0000E+00
    -20.149  0.0000E+00  0.0000E+00
    -20.065  0.0000E+00  0.0000E+00
    -19.980  0.0000E+00  0.0000E+00
    -19.896  0.0000E+00  0.0000E+00
    -19.812  0.0000E+00  0.0000E+00
    -19.727  0.0000E+00  0.0000E+00
    -19.643  0.1534E-09  0.1293E-10
    -19.559  0.4524E-04  0.3814E-05
    -19.474  0.6434E-01  0.5428E-02
    -19.390  0.1781E+01  0.1556E+00
    -19.306  0.4569E+01  0.5408E+00
    -19.222  0.4641E+01  0.9321E+00
    -19.137  0.6221E+01  0.1457E+01
    -19.053  0.1521E+01  0.1585E+01
    -18.969  0.8549E+01  0.2306E+01
    -18.884  0.4989E+01  0.2726E+01
    -18.800  0.2783E+01  0.2961E+01
    -18.716  0.3767E+01  0.3279E+01
    -18.631  0.1122E+02  0.4224E+01
    -18.547  0.2797E+01  0.4460E+01
    -18.463  0.4764E+01  0.4862E+01
    -18.378  0.6420E+01  0.5403E+01
    -18.294  0.1315E+02  0.6512E+01
    -18.210  0.1332E+02  0.7636E+01
    -18.125  0.7478E+01  0.8266E+01
    -18.041  0.5924E+01  0.8766E+01
    -17.957  0.1182E+02  0.9762E+01
    -17.872  0.1849E+02  0.1132E+02
    -17.788  0.1207E+02  0.1234E+02
    -17.704  0.5266E+01  0.1278E+02
    -17.620  0.9540E+01  0.1359E+02
    -17.535  0.2451E+02  0.1565E+02
    -17.451  0.2152E+02  0.1747E+02
    -17.367  0.1163E+02  0.1845E+02
    -17.282  0.2779E+02  0.2079E+02
    -17.198  0.9188E+01  0.2157E+02
    -17.114  0.1350E+02  0.2271E+02
    -17.029  0.1323E+02  0.2382E+02
    -16.945  0.8791E+01  0.2456E+02
    -16.861  0.2810E+01  0.2480E+02
    -16.776  0.4831E+00  0.2484E+02
    -16.692  0.4322E+01  0.2520E+02
    -16.608  0.2490E+01  0.2541E+02
    -16.523  0.1073E+02  0.2632E+02
    -16.439  0.5470E+01  0.2678E+02
    -16.355  0.8529E+01  0.2750E+02
    -16.271  0.2140E+01  0.2768E+02
    -16.186  0.1290E+01  0.2779E+02
    -16.102  0.4489E+01  0.2817E+02
    -16.018  0.9701E+01  0.2899E+02
    -15.933  0.1295E+02  0.3008E+02
    -15.849  0.9741E+01  0.3090E+02
    -15.765  0.5067E+01  0.3133E+02
    -15.680  0.5029E+01  0.3175E+02
    -15.596  0.1485E+02  0.3300E+02
    -15.512  0.1588E+02  0.3434E+02
    -15.427  0.1473E+01  0.3446E+02
    -15.343  0.4536E+01  0.3485E+02
    -15.259  0.7146E+01  0.3545E+02
    -15.174  0.5032E+01  0.3587E+02
    -15.090  0.1408E+01  0.3599E+02
    -15.006  0.9061E-01  0.3600E+02
    -14.921  0.4826E-04  0.3600E+02
    -14.837  0.1161E-09  0.3600E+02
    -14.753  0.0000E+00  0.3600E+02
    -14.669  0.0000E+00  0.3600E+02
    -14.584  0.0000E+00  0.3600E+02
    -14.500  0.0000E+00  0.3600E+02
    -14.416  0.0000E+00  0.3600E+02
    -14.331  0.0000E+00  0.3600E+02
    -14.247  0.0000E+00  0.3600E+02
    -14.163  0.0000E+00  0.3600E+02
    -14.078  0.0000E+00  0.3600E+02
    -13.994  0.0000E+00  0.3600E+02
    -13.910  0.0000E+00  0.3600E+02
    -13.825  0.0000E+00  0.3600E+02
    -13.741  0.0000E+00  0.3600E+02
    -13.657  0.0000E+00  0.3600E+02
    -13.572  0.0000E+00  0.3600E+02
    -13.488  0.0000E+00  0.3600E+02
    -13.404  0.0000E+00  0.3600E+02
    -13.320  0.0000E+00  0.3600E+02
    -13.235  0.0000E+00  0.3600E+02
    -13.151  0.0000E+00  0.3600E+02
    -13.067  0.0000E+00  0.3600E+02
    -12.982  0.0000E+00  0.3600E+02
    -12.898  0.0000E+00  0.3600E+02
    -12.814  0.0000E+00  0.3600E+02
    -12.729  0.0000E+00  0.3600E+02
    -12.645  0.0000E+00  0.3600E+02
    -12.561  0.0000E+00  0.3600E+02
    -12.476  0.0000E+00  0.3600E+02
    -12.392  0.0000E+00  0.3600E+02
    -12.308  0.0000E+00  0.3600E+02
    -12.223  0.0000E+00  0.3600E+02
    -12.139  0.0000E+00  0.3600E+02
    -12.055  0.0000E+00  0.3600E+02
    -11.970  0.0000E+00  0.3600E+02
    -11.886  0.0000E+00  0.3600E+02
    -11.802  0.0000E+00  0.3600E+02
    -11.718  0.0000E+00  0.3600E+02
    -11.633  0.0000E+00  0.3600E+02
    -11.549  0.9554E-13  0.3600E+02
    -11.465  0.5888E-06  0.3600E+02
    -11.380  0.1601E-01  0.3600E+02
    -11.296  0.2818E+01  0.3624E+02
    -11.212  0.7961E+01  0.3691E+02
    -11.127  0.2367E+01  0.3711E+02
    -11.043  0.1349E+02  0.3825E+02
    -10.959  0.8750E+01  0.3898E+02
    -10.874  0.4226E+01  0.3934E+02
    -10.790  0.4814E+01  0.3975E+02
    -10.706  0.1387E+02  0.4092E+02
    -10.621  0.1818E+02  0.4245E+02
    -10.537  0.6831E+01  0.4302E+02
    -10.453  0.3920E+01  0.4336E+02
    -10.368  0.7004E+01  0.4395E+02
    -10.284  0.1235E+02  0.4499E+02
    -10.200  0.3449E+01  0.4528E+02
    -10.116  0.2076E-01  0.4528E+02
    -10.031  0.5473E-01  0.4528E+02
     -9.947  0.5795E+01  0.4577E+02
     -9.863  0.1099E+02  0.4670E+02
     -9.778  0.1962E+01  0.4687E+02
     -9.694  0.2983E+01  0.4712E+02
     -9.610  0.2836E+01  0.4736E+02
     -9.525  0.1702E+01  0.4750E+02
     -9.441  0.1975E+02  0.4916E+02
     -9.357  0.1263E+02  0.5023E+02
     -9.272  0.4514E+01  0.5061E+02
     -9.188  0.7445E+01  0.5124E+02
     -9.104  0.1237E+02  0.5228E+02
     -9.019  0.1692E+02  0.5371E+02
     -8.935  0.5039E+01  0.5413E+02
     -8.851  0.9494E+01  0.5493E+02
     -8.767  0.1831E+02  0.5648E+02
     -8.682  0.2142E+02  0.5828E+02
     -8.598  0.9059E+01  0.5905E+02
     -8.514  0.5912E+01  0.5954E+02
     -8.429  0.1016E+02  0.6040E+02
     -8.345  0.1520E+02  0.6168E+02
     -8.261  0.2890E+01  0.6193E+02
     -8.176  0.7663E+01  0.6257E+02
     -8.092  0.2546E+02  0.6472E+02
     -8.008  0.1154E+02  0.6569E+02
     -7.923  0.9141E+01  0.6646E+02
     -7.839  0.4635E+01  0.6685E+02
     -7.755  0.3006E+01  0.6711E+02
     -7.670  0.1034E+02  0.6798E+02
     -7.586  0.1282E+02  0.6906E+02
     -7.502  0.2408E+02  0.7109E+02
     -7.417  0.1267E+02  0.7216E+02
     -7.333  0.1690E+02  0.7358E+02
     -7.249  0.2571E+02  0.7575E+02
     -7.165  0.1639E+02  0.7713E+02
     -7.080  0.7707E+01  0.7778E+02
     -6.996  0.1621E+02  0.7915E+02
     -6.912  0.1010E+02  0.8000E+02
     -6.827  0.1555E+02  0.8131E+02
     -6.743  0.7548E+01  0.8195E+02
     -6.659  0.1878E+02  0.8353E+02
     -6.574  0.1930E+02  0.8516E+02
     -6.490  0.8425E+01  0.8587E+02
     -6.406  0.1669E+02  0.8728E+02
     -6.321  0.2065E+02  0.8902E+02
     -6.237  0.1602E+02  0.9037E+02
     -6.153  0.1924E+02  0.9199E+02
     -6.068  0.1417E+02  0.9319E+02
     -5.984  0.9132E+01  0.9396E+02
     -5.900  0.1187E+02  0.9496E+02
     -5.815  0.2327E+02  0.9692E+02
     -5.731  0.1713E+02  0.9836E+02
     -5.647  0.1315E+02  0.9947E+02
     -5.563  0.8511E+01  0.1002E+03
     -5.478  0.1262E+02  0.1013E+03
     -5.394  0.2299E+02  0.1032E+03
     -5.310  0.2194E+02  0.1050E+03
     -5.225  0.1308E+02  0.1061E+03
     -5.141  0.1037E+02  0.1070E+03
     -5.057  0.9572E+01  0.1078E+03
     -4.972  0.1729E+02  0.1093E+03
     -4.888  0.1449E+02  0.1105E+03
     -4.804  0.1785E+02  0.1120E+03
     -4.719  0.2093E+02  0.1138E+03
     -4.635  0.2333E+02  0.1157E+03
     -4.551  0.2081E+02  0.1175E+03
     -4.466  0.1086E+02  0.1184E+03
     -4.382  0.1165E+02  0.1194E+03
     -4.298  0.3433E+02  0.1223E+03
     -4.214  0.9364E+01  0.1231E+03
     -4.129  0.1493E+02  0.1243E+03
     -4.045  0.2998E+02  0.1269E+03
     -3.961  0.1875E+02  0.1284E+03
     -3.876  0.8353E+01  0.1291E+03
     -3.792  0.1498E+01  0.1293E+03
     -3.708  0.2938E+01  0.1295E+03
     -3.623  0.5455E+01  0.1300E+03
     -3.539  0.2005E+02  0.1317E+03
     -3.455  0.1993E+02  0.1334E+03
     -3.370  0.1282E+02  0.1344E+03
     -3.286  0.5850E+01  0.1349E+03
     -3.202  0.8922E+01  0.1357E+03
     -3.117  0.1840E+02  0.1372E+03
     -3.033  0.1361E+02  0.1384E+03
     -2.949  0.4153E+01  0.1387E+03
     -2.864  0.1395E+02  0.1399E+03
     -2.780  0.1811E+02  0.1414E+03
     -2.696  0.5091E+01  0.1419E+03
     -2.612  0.6766E+00  0.1419E+03
     -2.527  0.5501E-02  0.1419E+03
     -2.443  0.1328E-01  0.1419E+03
     -2.359  0.1858E+01  0.1421E+03
     -2.274  0.4575E+01  0.1425E+03
     -2.190  0.7373E+01  0.1431E+03
     -2.106  0.3217E+01  0.1434E+03
     -2.021  0.4882E-01  0.1434E+03
     -1.937  0.1290E+01  0.1435E+03
     -1.853  0.4112E+01  0.1438E+03
     -1.768  0.8542E+00  0.1439E+03
     -1.684  0.1269E+01  0.1440E+03
     -1.600  0.5968E-01  0.1440E+03
     -1.515  0.2079E-04  0.1440E+03
     -1.431  0.3201E-10  0.1440E+03
     -1.347  0.0000E+00  0.1440E+03
     -1.262  0.0000E+00  0.1440E+03
     -1.178  0.0000E+00  0.1440E+03
     -1.094  0.0000E+00  0.1440E+03
     -1.010  0.0000E+00  0.1440E+03
     -0.925  0.0000E+00  0.1440E+03
     -0.841  0.0000E+00  0.1440E+03
     -0.757  0.0000E+00  0.1440E+03
     -0.672  0.0000E+00  0.1440E+03
     -0.588  0.0000E+00  0.1440E+03
     -0.504  0.0000E+00  0.1440E+03
     -0.419  0.2444E-09  0.1440E+03
     -0.335  0.7809E-04  0.1440E+03
     -0.251  0.1142E+00  0.1440E+03
     -0.166  0.1549E+01  0.1441E+03
     -0.082  0.7291E+01  0.1448E+03
      0.002  0.9689E+01  0.1456E+03
      0.087  0.9490E+01  0.1464E+03
      0.171  0.1467E+02  0.1476E+03
      0.255  0.1288E+02  0.1487E+03
      0.339  0.8319E+01  0.1494E+03
      0.424  0.7208E+01  0.1500E+03
      0.508  0.4271E+01  0.1504E+03
      0.592  0.6093E+01  0.1509E+03
      0.677  0.8521E+01  0.1516E+03
      0.761  0.9442E+01  0.1524E+03
      0.845  0.1166E+02  0.1534E+03
      0.930  0.5100E+01  0.1538E+03
      1.014  0.3936E+01  0.1541E+03
      1.098  0.1288E+02  0.1552E+03
      1.183  0.1714E+01  0.1554E+03
      1.267  0.5844E+01  0.1559E+03
      1.351  0.1523E+02  0.1571E+03
      1.436  0.1236E+02  0.1582E+03
      1.520  0.1510E+02  0.1595E+03
      1.604  0.2590E+01  0.1597E+03
      1.689  0.1699E-01  0.1597E+03
      1.773  0.1451E+01  0.1598E+03
      1.857  0.2342E+02  0.1618E+03
      1.941  0.1922E+02  0.1634E+03
      2.026  0.1339E+02  0.1645E+03
      2.110  0.1197E+02  0.1655E+03
      2.194  0.8547E+01  0.1663E+03
      2.279  0.2116E+02  0.1680E+03
      2.363  0.2297E+02  0.1700E+03
      2.447  0.1729E+02  0.1714E+03
      2.532  0.2134E+02  0.1732E+03
      2.616  0.3833E+02  0.1765E+03
      2.700  0.1611E+02  0.1778E+03
      2.785  0.3031E+01  0.1781E+03
      2.869  0.2747E+01  0.1783E+03
      2.953  0.6494E+01  0.1789E+03
      3.038  0.1289E+02  0.1799E+03
      3.122  0.2972E+02  0.1825E+03
      3.206  0.4385E+02  0.1861E+03
      3.290  0.4086E+02  0.1896E+03
      3.375  0.2701E+02  0.1919E+03
      3.459  0.3568E+02  0.1949E+03
      3.543  0.2441E+02  0.1969E+03
      3.628  0.1200E+02  0.1980E+03
      3.712  0.5900E+00  0.1980E+03
      3.796  0.3209E-03  0.1980E+03
      3.881  0.9692E-09  0.1980E+03
      3.965  0.0000E+00  0.1980E+03
      4.049  0.0000E+00  0.1980E+03
      4.134  0.0000E+00  0.1980E+03
      4.218  0.0000E+00  0.1980E+03
      4.302  0.0000E+00  0.1980E+03
      4.387  0.0000E+00  0.1980E+03
      4.471  0.0000E+00  0.1980E+03
      4.555  0.0000E+00  0.1980E+03
      4.640  0.0000E+00  0.1980E+03
      4.724  0.0000E+00  0.1980E+03
