   36   36    1    1
  0.3524951E+02  0.8559482E-09  0.8559482E-09  0.2000000E-08  0.5000000E-15
  1.000000000000000E-004
  CAR 
 BN_GaN_AB phonon                        
    144     13     99
 
  0.1276756E-14  0.1276756E-14  0.1276756E-14  0.4000000E-01
      1        -19.420823   1.000000
      2        -18.450702   1.000000
      3        -18.084975   1.000000
      4        -18.083053   1.000000
      5        -18.081580   1.000000
      6        -18.081571   1.000000
      7        -18.080114   1.000000
      8        -18.078116   1.000000
      9        -17.063769   1.000000
     10        -17.063734   1.000000
     11        -16.727420   1.000000
     12        -16.727409   1.000000
     13        -16.727391   1.000000
     14        -16.727375   1.000000
     15        -16.727349   1.000000
     16        -16.727338   1.000000
     17        -15.149047   1.000000
     18        -15.149041   1.000000
     19        -10.499675   1.000000
     20        -10.495240   1.000000
     21         -9.948502   1.000000
     22         -9.944141   1.000000
     23         -9.942765   1.000000
     24         -9.942745   1.000000
     25         -9.941355   1.000000
     26         -9.936945   1.000000
     27         -9.820801   1.000000
     28         -9.820530   1.000000
     29         -8.448904   1.000000
     30         -8.448903   1.000000
     31         -8.054979   1.000000
     32         -8.054977   1.000000
     33         -7.563882   1.000000
     34         -7.563863   1.000000
     35         -7.563856   1.000000
     36         -7.563839   1.000000
     37         -7.563833   1.000000
     38         -7.563813   1.000000
     39         -7.391866   1.000000
     40         -7.013905   1.000000
     41         -7.008827   1.000000
     42         -7.007543   1.000000
     43         -7.007540   1.000000
     44         -7.006251   1.000000
     45         -7.001017   1.000000
     46         -6.530579   1.000000
     47         -5.543605   1.000000
     48         -5.541452   1.000000
     49         -5.540133   1.000000
     50         -5.540071   1.000000
     51         -5.538886   1.000000
     52         -5.536809   1.000000
     53         -5.483328   1.000000
     54         -5.476200   1.000000
     55         -4.360301   1.000000
     56         -4.360288   1.000000
     57         -4.360283   1.000000
     58         -4.360217   1.000000
     59         -4.360205   1.000000
     60         -4.360190   1.000000
     61         -4.092735   1.000000
     62         -4.092721   1.000000
     63         -4.092708   1.000000
     64         -4.092693   1.000000
     65         -4.092678   1.000000
     66         -4.092659   1.000000
     67         -3.849470   1.000000
     68         -3.849434   1.000000
     69         -2.709082   1.000000
     70         -2.709077   1.000000
     71         -1.749823   1.000000
     72         -1.749823   1.000000
     73         -0.195984   0.000000
     74         -0.195656   0.000000
     75          0.308128   0.000000
     76          0.857175   0.000000
     77          1.497060   0.000000
     78          1.504265   0.000000
     79          1.505063   0.000000
     80          1.505093   0.000000
     81          1.505879   0.000000
     82          1.513036   0.000000
     83          1.861259   0.000000
     84          2.232362   0.000000
     85          2.238583   0.000000
     86          2.239261   0.000000
     87          2.239425   0.000000
     88          2.240089   0.000000
     89          2.246120   0.000000
     90          2.514903   0.000000
     91          2.996455   0.000000
     92          3.415194   0.000000
     93          3.415635   0.000000
     94          3.416153   0.000000
     95          3.416410   0.000000
     96          3.416691   0.000000
     97          3.417770   0.000000
     98          3.454707   0.000000
     99          3.454711   0.000000
 
  0.2000000E+00  0.1284383E-14  0.1276756E-14  0.8000000E-01
      1        -19.359074   1.000000
      2        -18.506537   1.000000
      3        -18.375822   1.000000
      4        -18.259389   1.000000
      5        -18.257954   1.000000
      6        -17.841372   1.000000
      7        -17.840304   1.000000
      8        -17.685196   1.000000
      9        -17.300261   1.000000
     10        -17.131246   1.000000
     11        -17.131119   1.000000
     12        -16.969131   1.000000
     13        -16.969129   1.000000
     14        -16.386124   1.000000
     15        -16.386120   1.000000
     16        -16.159665   1.000000
     17        -15.267062   1.000000
     18        -15.267057   1.000000
     19        -10.782702   1.000000
     20        -10.656659   1.000000
     21        -10.653293   1.000000
     22        -10.376378   1.000000
     23        -10.373608   1.000000
     24         -9.451769   1.000000
     25         -9.449938   1.000000
     26         -9.440985   1.000000
     27         -9.437835   1.000000
     28         -8.891054   1.000000
     29         -8.744036   1.000000
     30         -8.727647   1.000000
     31         -8.727647   1.000000
     32         -8.173194   1.000000
     33         -8.173193   1.000000
     34         -7.459334   1.000000
     35         -7.459332   1.000000
     36         -7.349264   1.000000
     37         -7.345633   1.000000
     38         -7.309958   1.000000
     39         -7.250717   1.000000
     40         -7.037796   1.000000
     41         -7.034012   1.000000
     42         -6.878492   1.000000
     43         -6.878491   1.000000
     44         -6.665439   1.000000
     45         -6.430377   1.000000
     46         -6.150930   1.000000
     47         -6.140519   1.000000
     48         -5.816591   1.000000
     49         -5.799778   1.000000
     50         -5.798394   1.000000
     51         -5.588147   1.000000
     52         -5.178539   1.000000
     53         -5.177267   1.000000
     54         -5.050551   1.000000
     55         -4.930406   1.000000
     56         -4.649254   1.000000
     57         -4.649251   1.000000
     58         -4.583634   1.000000
     59         -4.583631   1.000000
     60         -4.494149   1.000000
     61         -4.088953   1.000000
     62         -4.088949   1.000000
     63         -3.981658   1.000000
     64         -3.981147   1.000000
     65         -3.967381   1.000000
     66         -3.967378   1.000000
     67         -3.708186   1.000000
     68         -3.547203   1.000000
     69         -2.816577   1.000000
     70         -2.816572   1.000000
     71         -2.191453   1.000000
     72         -1.910602   1.000000
     73         -0.088312   0.000000
     74         -0.087197   0.000000
     75          0.484405   0.000000
     76          0.688961   0.000000
     77          1.041970   0.000000
     78          1.054636   0.000000
     79          1.057661   0.000000
     80          1.869418   0.000000
     81          1.872855   0.000000
     82          1.952602   0.000000
     83          1.971669   0.000000
     84          2.250358   0.000000
     85          2.267945   0.000000
     86          2.366784   0.000000
     87          2.369717   0.000000
     88          2.548093   0.000000
     89          2.552820   0.000000
     90          2.643145   0.000000
     91          2.696681   0.000000
     92          3.101937   0.000000
     93          3.139999   0.000000
     94          3.140262   0.000000
     95          3.249742   0.000000
     96          3.283675   0.000000
     97          3.420305   0.000000
     98          3.433326   0.000000
     99          3.433642   0.000000
 
  0.2000000E+00  0.2000000E+00  0.1276756E-14  0.8000000E-01
      1        -19.359070   1.000000
      2        -18.506487   1.000000
      3        -18.375822   1.000000
      4        -18.259430   1.000000
      5        -18.257996   1.000000
      6        -17.841388   1.000000
      7        -17.840323   1.000000
      8        -17.685136   1.000000
      9        -17.300261   1.000000
     10        -17.131243   1.000000
     11        -17.131120   1.000000
     12        -16.969131   1.000000
     13        -16.969129   1.000000
     14        -16.386124   1.000000
     15        -16.386121   1.000000
     16        -16.159665   1.000000
     17        -15.267062   1.000000
     18        -15.267057   1.000000
     19        -10.780018   1.000000
     20        -10.656893   1.000000
     21        -10.653468   1.000000
     22        -10.377390   1.000000
     23        -10.374653   1.000000
     24         -9.451726   1.000000
     25         -9.449651   1.000000
     26         -9.443004   1.000000
     27         -9.440168   1.000000
     28         -8.887663   1.000000
     29         -8.744036   1.000000
     30         -8.727648   1.000000
     31         -8.727646   1.000000
     32         -8.173195   1.000000
     33         -8.173193   1.000000
     34         -7.459333   1.000000
     35         -7.459333   1.000000
     36         -7.347969   1.000000
     37         -7.344323   1.000000
     38         -7.309980   1.000000
     39         -7.254261   1.000000
     40         -7.035052   1.000000
     41         -7.031174   1.000000
     42         -6.878493   1.000000
     43         -6.878491   1.000000
     44         -6.669665   1.000000
     45         -6.430377   1.000000
     46         -6.151368   1.000000
     47         -6.140539   1.000000
     48         -5.810939   1.000000
     49         -5.799360   1.000000
     50         -5.797824   1.000000
     51         -5.594121   1.000000
     52         -5.178183   1.000000
     53         -5.176904   1.000000
     54         -5.050551   1.000000
     55         -4.931771   1.000000
     56         -4.649253   1.000000
     57         -4.649252   1.000000
     58         -4.583634   1.000000
     59         -4.583631   1.000000
     60         -4.494149   1.000000
     61         -4.088953   1.000000
     62         -4.088949   1.000000
     63         -3.981604   1.000000
     64         -3.981091   1.000000
     65         -3.967380   1.000000
     66         -3.967379   1.000000
     67         -3.708186   1.000000
     68         -3.547203   1.000000
     69         -2.816577   1.000000
     70         -2.816572   1.000000
     71         -2.191453   1.000000
     72         -1.910602   1.000000
     73         -0.088418   0.000000
     74         -0.087291   0.000000
     75          0.484541   0.000000
     76          0.692308   0.000000
     77          1.041981   0.000000
     78          1.053828   0.000000
     79          1.056671   0.000000
     80          1.867932   0.000000
     81          1.871416   0.000000
     82          1.952611   0.000000
     83          1.971623   0.000000
     84          2.251544   0.000000
     85          2.266553   0.000000
     86          2.366427   0.000000
     87          2.369397   0.000000
     88          2.548903   0.000000
     89          2.553770   0.000000
     90          2.643321   0.000000
     91          2.696817   0.000000
     92          3.101948   0.000000
     93          3.139772   0.000000
     94          3.140484   0.000000
     95          3.249687   0.000000
     96          3.283671   0.000000
     97          3.420480   0.000000
     98          3.433372   0.000000
     99          3.433637   0.000000
 
  0.1276756E-14  0.2000000E+00  0.1276756E-14  0.8000000E-01
      1        -19.359072   1.000000
      2        -18.506507   1.000000
      3        -18.375822   1.000000
      4        -18.260128   1.000000
      5        -18.257264   1.000000
      6        -17.841904   1.000000
      7        -17.839776   1.000000
      8        -17.685176   1.000000
      9        -17.300261   1.000000
     10        -17.131303   1.000000
     11        -17.131063   1.000000
     12        -16.969131   1.000000
     13        -16.969129   1.000000
     14        -16.386124   1.000000
     15        -16.386120   1.000000
     16        -16.159665   1.000000
     17        -15.267062   1.000000
     18        -15.267057   1.000000
     19        -10.781350   1.000000
     20        -10.656943   1.000000
     21        -10.653238   1.000000
     22        -10.377208   1.000000
     23        -10.373777   1.000000
     24         -9.452599   1.000000
     25         -9.449160   1.000000
     26         -9.442162   1.000000
     27         -9.438641   1.000000
     28         -8.889351   1.000000
     29         -8.744036   1.000000
     30         -8.727647   1.000000
     31         -8.727647   1.000000
     32         -8.173194   1.000000
     33         -8.173194   1.000000
     34         -7.459334   1.000000
     35         -7.459332   1.000000
     36         -7.348905   1.000000
     37         -7.344740   1.000000
     38         -7.309969   1.000000
     39         -7.252438   1.000000
     40         -7.036436   1.000000
     41         -7.032606   1.000000
     42         -6.878492   1.000000
     43         -6.878491   1.000000
     44         -6.667526   1.000000
     45         -6.430377   1.000000
     46         -6.151146   1.000000
     47         -6.140529   1.000000
     48         -5.813798   1.000000
     49         -5.800235   1.000000
     50         -5.797454   1.000000
     51         -5.591092   1.000000
     52         -5.178972   1.000000
     53         -5.176466   1.000000
     54         -5.050551   1.000000
     55         -4.931094   1.000000
     56         -4.649254   1.000000
     57         -4.649251   1.000000
     58         -4.583634   1.000000
     59         -4.583631   1.000000
     60         -4.494149   1.000000
     61         -4.088953   1.000000
     62         -4.088949   1.000000
     63         -3.981885   1.000000
     64         -3.980866   1.000000
     65         -3.967381   1.000000
     66         -3.967378   1.000000
     67         -3.708186   1.000000
     68         -3.547203   1.000000
     69         -2.816577   1.000000
     70         -2.816572   1.000000
     71         -2.191453   1.000000
     72         -1.910602   1.000000
     73         -0.088864   0.000000
     74         -0.086743   0.000000
     75          0.484472   0.000000
     76          0.690638   0.000000
     77          1.041945   0.000000
     78          1.052974   0.000000
     79          1.058460   0.000000
     80          1.867252   0.000000
     81          1.873529   0.000000
     82          1.952615   0.000000
     83          1.971610   0.000000
     84          2.250950   0.000000
     85          2.267115   0.000000
     86          2.367713   0.000000
     87          2.368615   0.000000
     88          2.549490   0.000000
     89          2.552306   0.000000
     90          2.643246   0.000000
     91          2.696748   0.000000
     92          3.101943   0.000000
     93          3.140010   0.000000
     94          3.140254   0.000000
     95          3.249700   0.000000
     96          3.283673   0.000000
     97          3.425455   0.000000
     98          3.432400   0.000000
     99          3.433679   0.000000
 
  0.4000000E+00  0.8373542E-14  0.1276756E-14  0.8000000E-01
      1        -19.177100   1.000000
      2        -18.885565   1.000000
      3        -18.352697   1.000000
      4        -18.351191   1.000000
      5        -18.152985   1.000000
      6        -17.788794   1.000000
      7        -17.570203   1.000000
      8        -17.569440   1.000000
      9        -17.432423   1.000000
     10        -17.315379   1.000000
     11        -17.314959   1.000000
     12        -17.093564   1.000000
     13        -17.093562   1.000000
     14        -15.981419   1.000000
     15        -15.981415   1.000000
     16        -15.772719   1.000000
     17        -15.577110   1.000000
     18        -15.577105   1.000000
     19        -11.262887   1.000000
     20        -10.761630   1.000000
     21        -10.758855   1.000000
     22        -10.664074   1.000000
     23        -10.661384   1.000000
     24         -9.450651   1.000000
     25         -9.033915   1.000000
     26         -9.030928   1.000000
     27         -8.816831   1.000000
     28         -8.816830   1.000000
     29         -8.750426   1.000000
     30         -8.747643   1.000000
     31         -8.613513   1.000000
     32         -8.613512   1.000000
     33         -7.989342   1.000000
     34         -7.986052   1.000000
     35         -7.750711   1.000000
     36         -7.378364   1.000000
     37         -7.245316   1.000000
     38         -7.241788   1.000000
     39         -7.067232   1.000000
     40         -6.674386   1.000000
     41         -6.660092   1.000000
     42         -6.494645   1.000000
     43         -6.494643   1.000000
     44         -6.317975   1.000000
     45         -6.317974   1.000000
     46         -6.269986   1.000000
     47         -6.135350   1.000000
     48         -5.934205   1.000000
     49         -5.932786   1.000000
     50         -5.881766   1.000000
     51         -5.663617   1.000000
     52         -5.462275   1.000000
     53         -5.462272   1.000000
     54         -4.801368   1.000000
     55         -4.801365   1.000000
     56         -4.750607   1.000000
     57         -4.749485   1.000000
     58         -4.705899   1.000000
     59         -4.652734   1.000000
     60         -4.505861   1.000000
     61         -4.352382   1.000000
     62         -4.352377   1.000000
     63         -4.319810   1.000000
     64         -4.318927   1.000000
     65         -3.525541   1.000000
     66         -3.525537   1.000000
     67         -3.283899   1.000000
     68         -3.266610   1.000000
     69         -3.112418   1.000000
     70         -3.112414   1.000000
     71         -2.930037   1.000000
     72         -2.342873   1.000000
     73          0.138836   0.000000
     74          0.199003   0.000000
     75          0.200904   0.000000
     76          0.599256   0.000000
     77          0.601793   0.000000
     78          0.904192   0.000000
     79          1.442946   0.000000
     80          1.466774   0.000000
     81          1.994674   0.000000
     82          2.070108   0.000000
     83          2.073713   0.000000
     84          2.211402   0.000000
     85          2.246965   0.000000
     86          2.521039   0.000000
     87          2.521708   0.000000
     88          2.539825   0.000000
     89          2.948535   0.000000
     90          3.015072   0.000000
     91          3.081846   0.000000
     92          3.082239   0.000000
     93          3.162727   0.000000
     94          3.316553   0.000000
     95          3.320068   0.000000
     96          3.347972   0.000000
     97          3.454441   0.000000
     98          3.454451   0.000000
     99          3.492913   0.000000
 
  0.4000000E+00  0.4000000E+00  0.1276756E-14  0.8000000E-01
      1        -19.177084   1.000000
      2        -18.885532   1.000000
      3        -18.352743   1.000000
      4        -18.351241   1.000000
      5        -18.152985   1.000000
      6        -17.788794   1.000000
      7        -17.570207   1.000000
      8        -17.569447   1.000000
      9        -17.432373   1.000000
     10        -17.315377   1.000000
     11        -17.314960   1.000000
     12        -17.093564   1.000000
     13        -17.093562   1.000000
     14        -15.981419   1.000000
     15        -15.981415   1.000000
     16        -15.772719   1.000000
     17        -15.577110   1.000000
     18        -15.577105   1.000000
     19        -11.260320   1.000000
     20        -10.762106   1.000000
     21        -10.759299   1.000000
     22        -10.664767   1.000000
     23        -10.662132   1.000000
     24         -9.450651   1.000000
     25         -9.037229   1.000000
     26         -9.034309   1.000000
     27         -8.816832   1.000000
     28         -8.816830   1.000000
     29         -8.749889   1.000000
     30         -8.747142   1.000000
     31         -8.613513   1.000000
     32         -8.613512   1.000000
     33         -7.988454   1.000000
     34         -7.985212   1.000000
     35         -7.746687   1.000000
     36         -7.381777   1.000000
     37         -7.241379   1.000000
     38         -7.237773   1.000000
     39         -7.067325   1.000000
     40         -6.674452   1.000000
     41         -6.655398   1.000000
     42         -6.494644   1.000000
     43         -6.494643   1.000000
     44         -6.317976   1.000000
     45         -6.317973   1.000000
     46         -6.274764   1.000000
     47         -6.135350   1.000000
     48         -5.933799   1.000000
     49         -5.932297   1.000000
     50         -5.887165   1.000000
     51         -5.663617   1.000000
     52         -5.462274   1.000000
     53         -5.462273   1.000000
     54         -4.801366   1.000000
     55         -4.801366   1.000000
     56         -4.750331   1.000000
     57         -4.749203   1.000000
     58         -4.705899   1.000000
     59         -4.652734   1.000000
     60         -4.507786   1.000000
     61         -4.352382   1.000000
     62         -4.352377   1.000000
     63         -4.319642   1.000000
     64         -4.318755   1.000000
     65         -3.525540   1.000000
     66         -3.525538   1.000000
     67         -3.283899   1.000000
     68         -3.266610   1.000000
     69         -3.112418   1.000000
     70         -3.112414   1.000000
     71         -2.930038   1.000000
     72         -2.342874   1.000000
     73          0.142892   0.000000
     74          0.198607   0.000000
     75          0.200621   0.000000
     76          0.598589   0.000000
     77          0.601198   0.000000
     78          0.904477   0.000000
     79          1.443218   0.000000
     80          1.466970   0.000000
     81          1.994818   0.000000
     82          2.068698   0.000000
     83          2.072000   0.000000
     84          2.211426   0.000000
     85          2.245312   0.000000
     86          2.519527   0.000000
     87          2.521486   0.000000
     88          2.540030   0.000000
     89          2.948934   0.000000
     90          3.015073   0.000000
     91          3.081483   0.000000
     92          3.082017   0.000000
     93          3.163026   0.000000
     94          3.317194   0.000000
     95          3.321183   0.000000
     96          3.348044   0.000000
     97          3.454445   0.000000
     98          3.454451   0.000000
     99          3.493055   0.000000
 
  0.1276756E-14  0.4000000E+00  0.1276756E-14  0.8000000E-01
      1        -19.177092   1.000000
      2        -18.885547   1.000000
      3        -18.353471   1.000000
      4        -18.350469   1.000000
      5        -18.152985   1.000000
      6        -17.788794   1.000000
      7        -17.570574   1.000000
      8        -17.569054   1.000000
      9        -17.432401   1.000000
     10        -17.315591   1.000000
     11        -17.314762   1.000000
     12        -17.093564   1.000000
     13        -17.093562   1.000000
     14        -15.981419   1.000000
     15        -15.981415   1.000000
     16        -15.772719   1.000000
     17        -15.577110   1.000000
     18        -15.577105   1.000000
     19        -11.261604   1.000000
     20        -10.762028   1.000000
     21        -10.758933   1.000000
     22        -10.664631   1.000000
     23        -10.661518   1.000000
     24         -9.450651   1.000000
     25         -9.035338   1.000000
     26         -9.032877   1.000000
     27         -8.816831   1.000000
     28         -8.816830   1.000000
     29         -8.750956   1.000000
     30         -8.746587   1.000000
     31         -8.613513   1.000000
     32         -8.613512   1.000000
     33         -7.989518   1.000000
     34         -7.985020   1.000000
     35         -7.748709   1.000000
     36         -7.380068   1.000000
     37         -7.243399   1.000000
     38         -7.239722   1.000000
     39         -7.067278   1.000000
     40         -6.674407   1.000000
     41         -6.657790   1.000000
     42         -6.494645   1.000000
     43         -6.494642   1.000000
     44         -6.317975   1.000000
     45         -6.317974   1.000000
     46         -6.272318   1.000000
     47         -6.135350   1.000000
     48         -5.934692   1.000000
     49         -5.931854   1.000000
     50         -5.884470   1.000000
     51         -5.663617   1.000000
     52         -5.462275   1.000000
     53         -5.462272   1.000000
     54         -4.801368   1.000000
     55         -4.801364   1.000000
     56         -4.751009   1.000000
     57         -4.748791   1.000000
     58         -4.705899   1.000000
     59         -4.652734   1.000000
     60         -4.506822   1.000000
     61         -4.352382   1.000000
     62         -4.352377   1.000000
     63         -4.320168   1.000000
     64         -4.318413   1.000000
     65         -3.525541   1.000000
     66         -3.525537   1.000000
     67         -3.283899   1.000000
     68         -3.266610   1.000000
     69         -3.112418   1.000000
     70         -3.112414   1.000000
     71         -2.930037   1.000000
     72         -2.342873   1.000000
     73          0.140919   0.000000
     74          0.197885   0.000000
     75          0.201638   0.000000
     76          0.597759   0.000000
     77          0.602655   0.000000
     78          0.904331   0.000000
     79          1.443079   0.000000
     80          1.466860   0.000000
     81          1.994732   0.000000
     82          2.068038   0.000000
     83          2.074206   0.000000
     84          2.211421   0.000000
     85          2.246053   0.000000
     86          2.520329   0.000000
     87          2.521593   0.000000
     88          2.539937   0.000000
     89          2.948716   0.000000
     90          3.015073   0.000000
     91          3.081758   0.000000
     92          3.082048   0.000000
     93          3.162852   0.000000
     94          3.317288   0.000000
     95          3.320375   0.000000
     96          3.347992   0.000000
     97          3.454442   0.000000
     98          3.454453   0.000000
     99          3.492983   0.000000
 
  0.4000000E+00  0.2000000E+00  0.1276756E-14  0.8000000E-01
      1        -19.237175   1.000000
      2        -18.663818   1.000000
      3        -18.663764   1.000000
      4        -18.226914   1.000000
      5        -17.945236   1.000000
      6        -17.945195   1.000000
      7        -17.504910   1.000000
      8        -17.504908   1.000000
      9        -17.504879   1.000000
     10        -17.504860   1.000000
     11        -17.310457   1.000000
     12        -17.201472   1.000000
     13        -16.532866   1.000000
     14        -16.532845   1.000000
     15        -15.884835   1.000000
     16        -15.884806   1.000000
     17        -15.568293   1.000000
     18        -15.388248   1.000000
     19        -11.037903   1.000000
     20        -11.035396   1.000000
     21        -10.934422   1.000000
     22        -10.545359   1.000000
     23         -9.927811   1.000000
     24         -9.926234   1.000000
     25         -9.130982   1.000000
     26         -9.130963   1.000000
     27         -9.103078   1.000000
     28         -9.067241   1.000000
     29         -8.857134   1.000000
     30         -8.501470   1.000000
     31         -8.372877   1.000000
     32         -8.368589   1.000000
     33         -7.682828   1.000000
     34         -7.680907   1.000000
     35         -7.548864   1.000000
     36         -7.548836   1.000000
     37         -7.545357   1.000000
     38         -7.542110   1.000000
     39         -7.147654   1.000000
     40         -6.941671   1.000000
     41         -6.641094   1.000000
     42         -6.638516   1.000000
     43         -6.633362   1.000000
     44         -6.380470   1.000000
     45         -6.369848   1.000000
     46         -6.368514   1.000000
     47         -6.232700   1.000000
     48         -5.815282   1.000000
     49         -5.453096   1.000000
     50         -5.453075   1.000000
     51         -5.339389   1.000000
     52         -5.338951   1.000000
     53         -5.305222   1.000000
     54         -5.305167   1.000000
     55         -5.006869   1.000000
     56         -5.006835   1.000000
     57         -4.900386   1.000000
     58         -4.900377   1.000000
     59         -4.636075   1.000000
     60         -4.634535   1.000000
     61         -4.314986   1.000000
     62         -4.141315   1.000000
     63         -4.141285   1.000000
     64         -4.108601   1.000000
     65         -3.469907   1.000000
     66         -3.469889   1.000000
     67         -3.409969   1.000000
     68         -3.409922   1.000000
     69         -3.109424   1.000000
     70         -2.923609   1.000000
     71         -2.912200   1.000000
     72         -2.237450   1.000000
     73         -0.038961   0.000000
     74          0.251086   0.000000
     75          0.347720   0.000000
     76          0.351152   0.000000
     77          0.780800   0.000000
     78          1.341898   0.000000
     79          1.344783   0.000000
     80          1.346605   0.000000
     81          1.852033   0.000000
     82          1.853354   0.000000
     83          2.128390   0.000000
     84          2.334645   0.000000
     85          2.337397   0.000000
     86          2.560132   0.000000
     87          2.561740   0.000000
     88          2.609058   0.000000
     89          2.610187   0.000000
     90          2.871513   0.000000
     91          3.094867   0.000000
     92          3.096045   0.000000
     93          3.178342   0.000000
     94          3.178411   0.000000
     95          3.228142   0.000000
     96          3.228841   0.000000
     97          3.279113   0.000000
     98          3.385309   0.000000
     99          3.574100   0.000000
 
  0.2000000E+00  0.4000000E+00  0.1276756E-14  0.8000000E-01
      1        -19.237169   1.000000
      2        -18.663832   1.000000
      3        -18.663747   1.000000
      4        -18.226914   1.000000
      5        -17.947283   1.000000
      6        -17.943185   1.000000
      7        -17.505565   1.000000
      8        -17.504910   1.000000
      9        -17.504877   1.000000
     10        -17.504178   1.000000
     11        -17.310447   1.000000
     12        -17.201484   1.000000
     13        -16.532868   1.000000
     14        -16.532842   1.000000
     15        -15.884837   1.000000
     16        -15.884804   1.000000
     17        -15.568293   1.000000
     18        -15.388248   1.000000
     19        -11.037487   1.000000
     20        -11.034338   1.000000
     21        -10.935701   1.000000
     22        -10.544002   1.000000
     23         -9.930083   1.000000
     24         -9.926687   1.000000
     25         -9.130980   1.000000
     26         -9.130965   1.000000
     27         -9.103078   1.000000
     28         -9.068744   1.000000
     29         -8.855676   1.000000
     30         -8.501470   1.000000
     31         -8.372985   1.000000
     32         -8.368014   1.000000
     33         -7.681973   1.000000
     34         -7.678501   1.000000
     35         -7.548865   1.000000
     36         -7.548835   1.000000
     37         -7.546507   1.000000
     38         -7.542853   1.000000
     39         -7.147688   1.000000
     40         -6.941671   1.000000
     41         -6.641094   1.000000
     42         -6.638923   1.000000
     43         -6.633481   1.000000
     44         -6.378199   1.000000
     45         -6.369810   1.000000
     46         -6.368220   1.000000
     47         -6.232700   1.000000
     48         -5.818165   1.000000
     49         -5.453095   1.000000
     50         -5.453076   1.000000
     51         -5.340777   1.000000
     52         -5.336874   1.000000
     53         -5.305221   1.000000
     54         -5.305168   1.000000
     55         -5.006867   1.000000
     56         -5.006837   1.000000
     57         -4.900389   1.000000
     58         -4.900375   1.000000
     59         -4.636551   1.000000
     60         -4.634986   1.000000
     61         -4.315472   1.000000
     62         -4.141315   1.000000
     63         -4.141285   1.000000
     64         -4.107904   1.000000
     65         -3.469907   1.000000
     66         -3.469889   1.000000
     67         -3.409968   1.000000
     68         -3.409922   1.000000
     69         -3.109424   1.000000
     70         -2.923609   1.000000
     71         -2.912200   1.000000
     72         -2.237450   1.000000
     73         -0.040371   0.000000
     74          0.252200   0.000000
     75          0.348575   0.000000
     76          0.352379   0.000000
     77          0.780952   0.000000
     78          1.339726   0.000000
     79          1.344637   0.000000
     80          1.346982   0.000000
     81          1.851065   0.000000
     82          1.854058   0.000000
     83          2.128401   0.000000
     84          2.333920   0.000000
     85          2.337985   0.000000
     86          2.557809   0.000000
     87          2.563406   0.000000
     88          2.608549   0.000000
     89          2.610713   0.000000
     90          2.871754   0.000000
     91          3.095238   0.000000
     92          3.095884   0.000000
     93          3.178332   0.000000
     94          3.178420   0.000000
     95          3.227818   0.000000
     96          3.229067   0.000000
     97          3.279139   0.000000
     98          3.385309   0.000000
     99          3.574101   0.000000
 
 -0.2000000E+00  0.2000000E+00  0.1276756E-14  0.8000000E-01
      1        -19.237181   1.000000
      2        -18.663833   1.000000
      3        -18.663752   1.000000
      4        -18.226914   1.000000
      5        -17.947234   1.000000
      6        -17.943142   1.000000
      7        -17.505594   1.000000
      8        -17.504917   1.000000
      9        -17.504870   1.000000
     10        -17.504212   1.000000
     11        -17.310476   1.000000
     12        -17.201462   1.000000
     13        -16.532874   1.000000
     14        -16.532837   1.000000
     15        -15.884842   1.000000
     16        -15.884799   1.000000
     17        -15.568293   1.000000
     18        -15.388248   1.000000
     19        -11.038930   1.000000
     20        -11.035821   1.000000
     21        -10.933147   1.000000
     22        -10.546714   1.000000
     23         -9.927398   1.000000
     24         -9.923923   1.000000
     25         -9.130990   1.000000
     26         -9.130955   1.000000
     27         -9.103077   1.000000
     28         -9.065734   1.000000
     29         -8.858603   1.000000
     30         -8.501470   1.000000
     31         -8.373471   1.000000
     32         -8.368470   1.000000
     33         -7.685238   1.000000
     34         -7.681793   1.000000
     35         -7.548862   1.000000
     36         -7.548837   1.000000
     37         -7.544614   1.000000
     38         -7.540943   1.000000
     39         -7.147620   1.000000
     40         -6.941671   1.000000
     41         -6.641094   1.000000
     42         -6.638373   1.000000
     43         -6.632931   1.000000
     44         -6.382866   1.000000
     45         -6.369854   1.000000
     46         -6.368721   1.000000
     47         -6.232701   1.000000
     48         -5.812416   1.000000
     49         -5.453093   1.000000
     50         -5.453078   1.000000
     51         -5.341444   1.000000
     52         -5.337575   1.000000
     53         -5.305229   1.000000
     54         -5.305160   1.000000
     55         -5.006879   1.000000
     56         -5.006825   1.000000
     57         -4.900392   1.000000
     58         -4.900371   1.000000
     59         -4.635620   1.000000
     60         -4.634061   1.000000
     61         -4.314514   1.000000
     62         -4.141322   1.000000
     63         -4.141278   1.000000
     64         -4.109297   1.000000
     65         -3.469907   1.000000
     66         -3.469890   1.000000
     67         -3.409976   1.000000
     68         -3.409915   1.000000
     69         -3.109424   1.000000
     70         -2.923609   1.000000
     71         -2.912200   1.000000
     72         -2.237450   1.000000
     73         -0.037559   0.000000
     74          0.250032   0.000000
     75          0.346518   0.000000
     76          0.350248   0.000000
     77          0.780645   0.000000
     78          1.341731   0.000000
     79          1.344294   0.000000
     80          1.349168   0.000000
     81          1.851375   0.000000
     82          1.854246   0.000000
     83          2.128383   0.000000
     84          2.334351   0.000000
     85          2.337800   0.000000
     86          2.558361   0.000000
     87          2.564089   0.000000
     88          2.608205   0.000000
     89          2.611043   0.000000
     90          2.871246   0.000000
     91          3.094997   0.000000
     92          3.095846   0.000000
     93          3.178346   0.000000
     94          3.178408   0.000000
     95          3.227385   0.000000
     96          3.229698   0.000000
     97          3.279077   0.000000
     98          3.385310   0.000000
     99          3.574100   0.000000
 
 -0.4000000E+00  0.2000000E+00  0.1276756E-14  0.8000000E-01
      1        -19.000168   1.000000
      2        -19.000110   1.000000
      3        -18.717524   1.000000
      4        -17.981820   1.000000
      5        -17.932963   1.000000
      6        -17.932930   1.000000
      7        -17.609890   1.000000
      8        -17.606148   1.000000
      9        -17.573916   1.000000
     10        -17.371712   1.000000
     11        -17.334514   1.000000
     12        -17.331718   1.000000
     13        -16.583434   1.000000
     14        -16.036763   1.000000
     15        -16.036735   1.000000
     16        -15.674493   1.000000
     17        -15.609163   1.000000
     18        -15.609132   1.000000
     19        -11.281864   1.000000
     20        -11.091244   1.000000
     21        -11.089194   1.000000
     22        -10.304492   1.000000
     23        -10.301525   1.000000
     24         -9.691787   1.000000
     25         -9.498262   1.000000
     26         -9.262089   1.000000
     27         -9.262077   1.000000
     28         -8.423992   1.000000
     29         -8.420782   1.000000
     30         -8.144667   1.000000
     31         -8.141758   1.000000
     32         -8.119084   1.000000
     33         -8.099038   1.000000
     34         -8.099033   1.000000
     35         -7.895600   1.000000
     36         -7.609253   1.000000
     37         -7.302048   1.000000
     38         -7.297379   1.000000
     39         -7.211782   1.000000
     40         -6.829336   1.000000
     41         -6.829175   1.000000
     42         -6.713438   1.000000
     43         -6.444281   1.000000
     44         -6.202714   1.000000
     45         -6.196612   1.000000
     46         -6.046214   1.000000
     47         -6.046210   1.000000
     48         -5.849025   1.000000
     49         -5.848971   1.000000
     50         -5.694789   1.000000
     51         -5.694776   1.000000
     52         -5.395473   1.000000
     53         -5.392244   1.000000
     54         -5.296457   1.000000
     55         -5.116794   1.000000
     56         -5.009199   1.000000
     57         -4.818283   1.000000
     58         -4.814586   1.000000
     59         -4.401123   1.000000
     60         -4.343652   1.000000
     61         -4.340661   1.000000
     62         -4.202280   1.000000
     63         -4.071173   1.000000
     64         -4.071157   1.000000
     65         -3.593899   1.000000
     66         -3.593866   1.000000
     67         -3.564265   1.000000
     68         -3.184995   1.000000
     69         -3.130936   1.000000
     70         -3.130898   1.000000
     71         -2.810897   1.000000
     72         -2.810870   1.000000
     73          0.052953   0.000000
     74          0.097711   0.000000
     75          0.101124   0.000000
     76          0.771353   0.000000
     77          0.775858   0.000000
     78          1.266055   0.000000
     79          1.267569   0.000000
     80          1.457801   0.000000
     81          1.822489   0.000000
     82          1.824004   0.000000
     83          1.825064   0.000000
     84          2.332962   0.000000
     85          2.433198   0.000000
     86          2.434333   0.000000
     87          2.552603   0.000000
     88          2.615500   0.000000
     89          3.022956   0.000000
     90          3.181455   0.000000
     91          3.183295   0.000000
     92          3.204927   0.000000
     93          3.204989   0.000000
     94          3.272351   0.000000
     95          3.276243   0.000000
     96          3.409778   0.000000
     97          3.490213   0.000000
     98          3.551690   0.000000
     99          3.556291   0.000000
 
  0.4000000E+00 -0.4000000E+00  0.1276756E-14  0.8000000E-01
      1        -19.000156   1.000000
      2        -19.000081   1.000000
      3        -18.717563   1.000000
      4        -17.981872   1.000000
      5        -17.932970   1.000000
      6        -17.932923   1.000000
      7        -17.609874   1.000000
      8        -17.606138   1.000000
      9        -17.573916   1.000000
     10        -17.371668   1.000000
     11        -17.334525   1.000000
     12        -17.331732   1.000000
     13        -16.583434   1.000000
     14        -16.036768   1.000000
     15        -16.036730   1.000000
     16        -15.674493   1.000000
     17        -15.609167   1.000000
     18        -15.609128   1.000000
     19        -11.279305   1.000000
     20        -11.092337   1.000000
     21        -11.090312   1.000000
     22        -10.303983   1.000000
     23        -10.300994   1.000000
     24         -9.695053   1.000000
     25         -9.498262   1.000000
     26         -9.262101   1.000000
     27         -9.262065   1.000000
     28         -8.424588   1.000000
     29         -8.421406   1.000000
     30         -8.143421   1.000000
     31         -8.140321   1.000000
     32         -8.123139   1.000000
     33         -8.099044   1.000000
     34         -8.099027   1.000000
     35         -7.891790   1.000000
     36         -7.612580   1.000000
     37         -7.298476   1.000000
     38         -7.293658   1.000000
     39         -7.211782   1.000000
     40         -6.829424   1.000000
     41         -6.829353   1.000000
     42         -6.708678   1.000000
     43         -6.443996   1.000000
     44         -6.206814   1.000000
     45         -6.200875   1.000000
     46         -6.046221   1.000000
     47         -6.046202   1.000000
     48         -5.849033   1.000000
     49         -5.848963   1.000000
     50         -5.694789   1.000000
     51         -5.694775   1.000000
     52         -5.394805   1.000000
     53         -5.392244   1.000000
     54         -5.296457   1.000000
     55         -5.116794   1.000000
     56         -5.009200   1.000000
     57         -4.818471   1.000000
     58         -4.814782   1.000000
     59         -4.403088   1.000000
     60         -4.342934   1.000000
     61         -4.339984   1.000000
     62         -4.202280   1.000000
     63         -4.071185   1.000000
     64         -4.071144   1.000000
     65         -3.593906   1.000000
     66         -3.593859   1.000000
     67         -3.564265   1.000000
     68         -3.184995   1.000000
     69         -3.130944   1.000000
     70         -3.130890   1.000000
     71         -2.810906   1.000000
     72         -2.810862   1.000000
     73          0.056998   0.000000
     74          0.096207   0.000000
     75          0.099742   0.000000
     76          0.771920   0.000000
     77          0.776373   0.000000
     78          1.266337   0.000000
     79          1.267834   0.000000
     80          1.455661   0.000000
     81          1.822123   0.000000
     82          1.824043   0.000000
     83          1.825226   0.000000
     84          2.332345   0.000000
     85          2.433326   0.000000
     86          2.434352   0.000000
     87          2.550975   0.000000
     88          2.614969   0.000000
     89          3.022955   0.000000
     90          3.181512   0.000000
     91          3.184086   0.000000
     92          3.204913   0.000000
     93          3.205022   0.000000
     94          3.271513   0.000000
     95          3.275376   0.000000
     96          3.390679   0.000000
     97          3.488548   0.000000
     98          3.553630   0.000000
     99          3.556045   0.000000
 
 -0.2000000E+00  0.4000000E+00  0.1276756E-14  0.8000000E-01
      1        -19.000145   1.000000
      2        -19.000111   1.000000
      3        -18.717546   1.000000
      4        -17.981852   1.000000
      5        -17.932961   1.000000
      6        -17.932932   1.000000
      7        -17.608043   1.000000
      8        -17.607976   1.000000
      9        -17.573916   1.000000
     10        -17.371715   1.000000
     11        -17.333162   1.000000
     12        -17.333056   1.000000
     13        -16.583434   1.000000
     14        -16.036760   1.000000
     15        -16.036737   1.000000
     16        -15.674493   1.000000
     17        -15.609161   1.000000
     18        -15.609135   1.000000
     19        -11.280588   1.000000
     20        -11.092119   1.000000
     21        -11.089418   1.000000
     22        -10.304408   1.000000
     23        -10.301084   1.000000
     24         -9.693424   1.000000
     25         -9.498262   1.000000
     26         -9.262091   1.000000
     27         -9.262075   1.000000
     28         -8.424612   1.000000
     29         -8.420774   1.000000
     30         -8.144225   1.000000
     31         -8.140921   1.000000
     32         -8.121081   1.000000
     33         -8.099036   1.000000
     34         -8.099035   1.000000
     35         -7.893689   1.000000
     36         -7.610915   1.000000
     37         -7.299400   1.000000
     38         -7.296367   1.000000
     39         -7.211782   1.000000
     40         -6.829388   1.000000
     41         -6.829255   1.000000
     42         -6.711082   1.000000
     43         -6.444140   1.000000
     44         -6.203482   1.000000
     45         -6.199988   1.000000
     46         -6.046215   1.000000
     47         -6.046208   1.000000
     48         -5.849025   1.000000
     49         -5.848970   1.000000
     50         -5.694787   1.000000
     51         -5.694777   1.000000
     52         -5.395143   1.000000
     53         -5.392244   1.000000
     54         -5.296457   1.000000
     55         -5.116794   1.000000
     56         -5.009199   1.000000
     57         -4.817049   1.000000
     58         -4.816007   1.000000
     59         -4.402118   1.000000
     60         -4.342687   1.000000
     61         -4.340916   1.000000
     62         -4.202280   1.000000
     63         -4.071172   1.000000
     64         -4.071158   1.000000
     65         -3.593899   1.000000
     66         -3.593866   1.000000
     67         -3.564265   1.000000
     68         -3.184995   1.000000
     69         -3.130936   1.000000
     70         -3.130897   1.000000
     71         -2.810899   1.000000
     72         -2.810868   1.000000
     73          0.054970   0.000000
     74          0.096841   0.000000
     75          0.100556   0.000000
     76          0.772509   0.000000
     77          0.775244   0.000000
     78          1.266571   0.000000
     79          1.267318   0.000000
     80          1.456726   0.000000
     81          1.822128   0.000000
     82          1.824395   0.000000
     83          1.824947   0.000000
     84          2.332651   0.000000
     85          2.433683   0.000000
     86          2.433924   0.000000
     87          2.551722   0.000000
     88          2.615238   0.000000
     89          3.022955   0.000000
     90          3.182184   0.000000
     91          3.182911   0.000000
     92          3.204950   0.000000
     93          3.204981   0.000000
     94          3.272039   0.000000
     95          3.275829   0.000000
     96          3.421089   0.000000
     97          3.488750   0.000000
     98          3.554296   0.000000
     99          3.556268   0.000000
