cpu-bind=MASK - c063, task  0  0 [3796818]: mask 0xfffffffffff0 set
 running  264 mpi-ranks, with    1 threads/rank, on    6 nodes
 distrk:  each k-point on   44 cores,    6 groups
 distr:  one band on    4 cores,   11 groups
 vasp.6.5.1 10Mar25 (build Aug 29 2025 00:30:47) complex                        
  
 POSCAR found type information on POSCAR B N Ga
 POSCAR found :  3 types and      36 ions
 scaLAPACK will be used
 LDA part: xc-table for (Slater+PW92), standard interpolation
 POSCAR, INCAR and KPOINTS ok, starting setup
 FFT: planning ... GRIDC
 FFT: planning ... GRID_SOFT
 FFT: planning ... GRID
 WAVECAR not read
 entering main loop
       N       E                     dE             d eps       ncg     rms          rms(c)
DAV:   1     0.125511307272E+04    0.12551E+04   -0.54286E+04  2596   0.113E+03
DAV:   2    -0.144612754557E+02   -0.12696E+04   -0.12199E+04  3828   0.257E+02
DAV:   3    -0.261345987017E+03   -0.24688E+03   -0.24481E+03  3047   0.121E+02
DAV:   4    -0.272379733381E+03   -0.11034E+02   -0.11007E+02  3322   0.313E+01
DAV:   5    -0.272667884162E+03   -0.28815E+00   -0.28786E+00  3432   0.432E+00    0.463E+01
DAV:   6    -0.225379954724E+03    0.47288E+02   -0.16598E+02  3025   0.320E+01    0.192E+01
DAV:   7    -0.223093994979E+03    0.22860E+01   -0.11222E+01  3223   0.743E+00    0.975E+00
DAV:   8    -0.221849760936E+03    0.12442E+01   -0.10629E+00  3289   0.297E+00    0.376E+00
DAV:   9    -0.221526715477E+03    0.32305E+00   -0.30198E-01  3278   0.144E+00    0.714E-01
DAV:  10    -0.221501988586E+03    0.24727E-01   -0.39040E-02  3256   0.415E-01    0.463E-01
DAV:  11    -0.221449304401E+03    0.52684E-01   -0.45221E-02  3179   0.529E-01    0.277E-01
DAV:  12    -0.221434917004E+03    0.14387E-01   -0.17194E-02  3201   0.280E-01    0.206E-01
DAV:  13    -0.221373016835E+03    0.61900E-01   -0.26082E-02  3080   0.295E-01    0.160E-01
DAV:  14    -0.221354304552E+03    0.18712E-01   -0.77283E-03  3245   0.196E-01    0.148E-01
DAV:  15    -0.221390719870E+03   -0.36415E-01   -0.24302E-02  2959   0.266E-01    0.889E-02
DAV:  16    -0.221395294774E+03   -0.45749E-02   -0.29090E-03  3245   0.113E-01    0.572E-02
DAV:  17    -0.221396144860E+03   -0.85009E-03   -0.55343E-04  3190   0.619E-02    0.331E-02
DAV:  18    -0.221398112215E+03   -0.19674E-02   -0.46627E-04  2992   0.421E-02    0.237E-02
DAV:  19    -0.221399016549E+03   -0.90433E-03   -0.10957E-04  3025   0.265E-02    0.117E-02
DAV:  20    -0.221399346641E+03   -0.33009E-03   -0.30872E-05  2981   0.135E-02    0.741E-03
DAV:  21    -0.221399463838E+03   -0.11720E-03   -0.17724E-05  3003   0.807E-03    0.394E-03
DAV:  22    -0.221399428934E+03    0.34904E-04   -0.16131E-05  2563   0.671E-03    0.278E-03
DAV:  23    -0.221399403779E+03    0.25155E-04   -0.38431E-06  2794   0.399E-03    0.269E-03
DAV:  24    -0.221399393337E+03    0.10442E-04   -0.33122E-06  2497   0.389E-03    0.303E-03
DAV:  25    -0.221399423052E+03   -0.29715E-04   -0.64025E-06  2651   0.475E-03    0.194E-03
DAV:  26    -0.221399463458E+03   -0.40406E-04   -0.53023E-06  2475   0.342E-03    0.698E-04
DAV:  27    -0.221399467156E+03   -0.36977E-05   -0.31822E-07  2277   0.120E-03    0.502E-04
DAV:  28    -0.221399468541E+03   -0.13857E-05   -0.20111E-07  2068   0.746E-04    0.304E-04
DAV:  29    -0.221399468826E+03   -0.28507E-06   -0.55747E-08  2101   0.437E-04
   1 F= -.22467714E+03 E0= -.22467714E+03  d E =-.237957E-12
