  36  36   0   0
  0.3524951E+02  0.8559482E-09  0.8559482E-09  0.2000000E-08  0.5000000E-15
  1.000000000000000E-004
  CAR 
 BN_GaN_AB phonon                        
      4.72113613    -20.57006300  301     -1.51209065      1.00000000
    -20.570  0.0000E+00  0.0000E+00
    -20.486  0.0000E+00  0.0000E+00
    -20.401  0.0000E+00  0.0000E+00
    -20.317  0.0000E+00  0.0000E+00
    -20.233  0.0000E+00  0.0000E+00
    -20.149  0.0000E+00  0.0000E+00
    -20.064  0.0000E+00  0.0000E+00
    -19.980  0.0000E+00  0.0000E+00
    -19.896  0.0000E+00  0.0000E+00
    -19.811  0.0000E+00  0.0000E+00
    -19.727  0.0000E+00  0.0000E+00
    -19.643  0.1542E-09  0.1300E-10
    -19.558  0.4534E-04  0.3822E-05
    -19.474  0.6437E-01  0.5430E-02
    -19.390  0.1781E+01  0.1556E+00
    -19.306  0.4569E+01  0.5408E+00
    -19.221  0.4641E+01  0.9320E+00
    -19.137  0.6223E+01  0.1457E+01
    -19.053  0.1527E+01  0.1585E+01
    -18.968  0.8534E+01  0.2305E+01
    -18.884  0.4995E+01  0.2726E+01
    -18.800  0.2788E+01  0.2961E+01
    -18.715  0.3761E+01  0.3278E+01
    -18.631  0.1121E+02  0.4223E+01
    -18.547  0.2813E+01  0.4460E+01
    -18.462  0.4802E+01  0.4865E+01
    -18.378  0.6558E+01  0.5418E+01
    -18.294  0.1301E+02  0.6515E+01
    -18.210  0.1349E+02  0.7652E+01
    -18.125  0.7424E+01  0.8278E+01
    -18.041  0.5764E+01  0.8764E+01
    -17.957  0.1210E+02  0.9784E+01
    -17.872  0.1830E+02  0.1133E+02
    -17.788  0.1216E+02  0.1235E+02
    -17.704  0.5096E+01  0.1278E+02
    -17.619  0.9603E+01  0.1359E+02
    -17.535  0.2476E+02  0.1568E+02
    -17.451  0.2130E+02  0.1747E+02
    -17.367  0.1154E+02  0.1845E+02
    -17.282  0.2788E+02  0.2080E+02
    -17.198  0.9113E+01  0.2156E+02
    -17.114  0.1377E+02  0.2273E+02
    -17.029  0.1313E+02  0.2383E+02
    -16.945  0.8915E+01  0.2458E+02
    -16.861  0.2554E+01  0.2480E+02
    -16.776  0.5472E+00  0.2485E+02
    -16.692  0.4354E+01  0.2521E+02
    -16.608  0.2563E+01  0.2543E+02
    -16.523  0.1091E+02  0.2635E+02
    -16.439  0.5241E+01  0.2679E+02
    -16.355  0.8623E+01  0.2752E+02
    -16.271  0.1930E+01  0.2768E+02
    -16.186  0.1413E+01  0.2780E+02
    -16.102  0.4468E+01  0.2818E+02
    -16.018  0.1007E+02  0.2902E+02
    -15.933  0.1274E+02  0.3010E+02
    -15.849  0.9687E+01  0.3092E+02
    -15.765  0.5028E+01  0.3134E+02
    -15.680  0.5080E+01  0.3177E+02
    -15.596  0.1533E+02  0.3306E+02
    -15.512  0.1528E+02  0.3435E+02
    -15.428  0.1460E+01  0.3447E+02
    -15.343  0.4548E+01  0.3486E+02
    -15.259  0.7346E+01  0.3547E+02
    -15.175  0.4784E+01  0.3588E+02
    -15.090  0.1371E+01  0.3599E+02
    -15.006  0.7864E-01  0.3600E+02
    -14.922  0.3618E-04  0.3600E+02
    -14.837  0.7471E-10  0.3600E+02
    -14.753  0.0000E+00  0.3600E+02
    -14.669  0.0000E+00  0.3600E+02
    -14.584  0.0000E+00  0.3600E+02
    -14.500  0.0000E+00  0.3600E+02
    -14.416  0.0000E+00  0.3600E+02
    -14.332  0.0000E+00  0.3600E+02
    -14.247  0.0000E+00  0.3600E+02
    -14.163  0.0000E+00  0.3600E+02
    -14.079  0.0000E+00  0.3600E+02
    -13.994  0.0000E+00  0.3600E+02
    -13.910  0.0000E+00  0.3600E+02
    -13.826  0.0000E+00  0.3600E+02
    -13.741  0.0000E+00  0.3600E+02
    -13.657  0.0000E+00  0.3600E+02
    -13.573  0.0000E+00  0.3600E+02
    -13.489  0.0000E+00  0.3600E+02
    -13.404  0.0000E+00  0.3600E+02
    -13.320  0.0000E+00  0.3600E+02
    -13.236  0.0000E+00  0.3600E+02
    -13.151  0.0000E+00  0.3600E+02
    -13.067  0.0000E+00  0.3600E+02
    -12.983  0.0000E+00  0.3600E+02
    -12.898  0.0000E+00  0.3600E+02
    -12.814  0.0000E+00  0.3600E+02
    -12.730  0.0000E+00  0.3600E+02
    -12.645  0.0000E+00  0.3600E+02
    -12.561  0.0000E+00  0.3600E+02
    -12.477  0.0000E+00  0.3600E+02
    -12.393  0.0000E+00  0.3600E+02
    -12.308  0.0000E+00  0.3600E+02
    -12.224  0.0000E+00  0.3600E+02
    -12.140  0.0000E+00  0.3600E+02
    -12.055  0.0000E+00  0.3600E+02
    -11.971  0.0000E+00  0.3600E+02
    -11.887  0.0000E+00  0.3600E+02
    -11.802  0.0000E+00  0.3600E+02
    -11.718  0.0000E+00  0.3600E+02
    -11.634  0.0000E+00  0.3600E+02
    -11.550  0.7680E-13  0.3600E+02
    -11.465  0.5055E-06  0.3600E+02
    -11.381  0.1462E-01  0.3600E+02
    -11.297  0.2720E+01  0.3623E+02
    -11.212  0.8026E+01  0.3691E+02
    -11.128  0.2320E+01  0.3710E+02
    -11.044  0.1338E+02  0.3823E+02
    -10.959  0.8873E+01  0.3898E+02
    -10.875  0.4276E+01  0.3934E+02
    -10.791  0.4673E+01  0.3973E+02
    -10.706  0.1385E+02  0.4090E+02
    -10.622  0.1818E+02  0.4243E+02
    -10.538  0.6922E+01  0.4302E+02
    -10.454  0.3982E+01  0.4335E+02
    -10.369  0.6855E+01  0.4393E+02
    -10.285  0.1239E+02  0.4498E+02
    -10.201  0.3587E+01  0.4528E+02
    -10.116  0.2306E-01  0.4528E+02
    -10.032  0.5042E-01  0.4528E+02
     -9.948  0.5596E+01  0.4576E+02
     -9.863  0.1114E+02  0.4670E+02
     -9.779  0.1997E+01  0.4686E+02
     -9.695  0.2923E+01  0.4711E+02
     -9.611  0.2913E+01  0.4736E+02
     -9.526  0.1779E+01  0.4751E+02
     -9.442  0.1948E+02  0.4915E+02
     -9.358  0.1282E+02  0.5023E+02
     -9.273  0.4728E+01  0.5063E+02
     -9.189  0.7330E+01  0.5124E+02
     -9.105  0.1246E+02  0.5230E+02
     -9.020  0.1655E+02  0.5369E+02
     -8.936  0.5180E+01  0.5413E+02
     -8.852  0.9537E+01  0.5493E+02
     -8.768  0.1842E+02  0.5648E+02
     -8.683  0.2142E+02  0.5829E+02
     -8.599  0.9136E+01  0.5906E+02
     -8.515  0.5828E+01  0.5955E+02
     -8.430  0.9883E+01  0.6039E+02
     -8.346  0.1522E+02  0.6167E+02
     -8.262  0.3059E+01  0.6193E+02
     -8.177  0.7729E+01  0.6258E+02
     -8.093  0.2546E+02  0.6472E+02
     -8.009  0.1133E+02  0.6568E+02
     -7.924  0.9178E+01  0.6645E+02
     -7.840  0.4707E+01  0.6685E+02
     -7.756  0.2924E+01  0.6710E+02
     -7.672  0.1024E+02  0.6796E+02
     -7.587  0.1305E+02  0.6906E+02
     -7.503  0.2416E+02  0.7110E+02
     -7.419  0.1258E+02  0.7216E+02
     -7.334  0.1646E+02  0.7354E+02
     -7.250  0.2581E+02  0.7572E+02
     -7.166  0.1667E+02  0.7713E+02
     -7.081  0.7583E+01  0.7776E+02
     -6.997  0.1621E+02  0.7913E+02
     -6.913  0.1046E+02  0.8001E+02
     -6.829  0.1525E+02  0.8130E+02
     -6.744  0.7583E+01  0.8194E+02
     -6.660  0.1846E+02  0.8349E+02
     -6.576  0.1972E+02  0.8516E+02
     -6.491  0.8597E+01  0.8588E+02
     -6.407  0.1636E+02  0.8726E+02
     -6.323  0.2085E+02  0.8902E+02
     -6.238  0.1591E+02  0.9036E+02
     -6.154  0.1930E+02  0.9199E+02
     -6.070  0.1437E+02  0.9320E+02
     -5.985  0.8945E+01  0.9395E+02
     -5.901  0.1170E+02  0.9494E+02
     -5.817  0.2314E+02  0.9689E+02
     -5.733  0.1753E+02  0.9837E+02
     -5.648  0.1320E+02  0.9948E+02
     -5.564  0.8253E+01  0.1002E+03
     -5.480  0.1296E+02  0.1013E+03
     -5.395  0.2277E+02  0.1032E+03
     -5.311  0.2202E+02  0.1050E+03
     -5.227  0.1297E+02  0.1061E+03
     -5.142  0.1035E+02  0.1070E+03
     -5.058  0.9827E+01  0.1078E+03
     -4.974  0.1721E+02  0.1093E+03
     -4.890  0.1445E+02  0.1105E+03
     -4.805  0.1765E+02  0.1120E+03
     -4.721  0.2100E+02  0.1138E+03
     -4.637  0.2342E+02  0.1157E+03
     -4.552  0.2086E+02  0.1175E+03
     -4.468  0.1079E+02  0.1184E+03
     -4.384  0.1154E+02  0.1194E+03
     -4.299  0.3407E+02  0.1223E+03
     -4.215  0.9850E+01  0.1231E+03
     -4.131  0.1501E+02  0.1244E+03
     -4.046  0.2994E+02  0.1269E+03
     -3.962  0.1854E+02  0.1284E+03
     -3.878  0.8428E+01  0.1291E+03
     -3.794  0.1520E+01  0.1293E+03
     -3.709  0.3007E+01  0.1295E+03
     -3.625  0.5507E+01  0.1300E+03
     -3.541  0.2021E+02  0.1317E+03
     -3.456  0.1984E+02  0.1334E+03
     -3.372  0.1272E+02  0.1344E+03
     -3.288  0.5891E+01  0.1349E+03
     -3.203  0.8903E+01  0.1357E+03
     -3.119  0.1859E+02  0.1373E+03
     -3.035  0.1335E+02  0.1384E+03
     -2.951  0.4257E+01  0.1387E+03
     -2.866  0.1395E+02  0.1399E+03
     -2.782  0.1813E+02  0.1414E+03
     -2.698  0.4974E+01  0.1419E+03
     -2.613  0.6604E+00  0.1419E+03
     -2.529  0.5138E-02  0.1419E+03
     -2.445  0.1421E-01  0.1419E+03
     -2.360  0.1901E+01  0.1421E+03
     -2.276  0.4569E+01  0.1425E+03
     -2.192  0.7401E+01  0.1431E+03
     -2.107  0.3154E+01  0.1434E+03
     -2.023  0.4675E-01  0.1434E+03
     -1.939  0.1324E+01  0.1435E+03
     -1.855  0.4090E+01  0.1438E+03
     -1.770  0.8554E+00  0.1439E+03
     -1.686  0.1259E+01  0.1440E+03
     -1.602  0.5719E-01  0.1440E+03
     -1.517  0.1912E-04  0.1440E+03
     -1.433  0.2826E-10  0.1440E+03
     -1.349  0.0000E+00  0.1440E+03
     -1.264  0.0000E+00  0.1440E+03
     -1.180  0.0000E+00  0.1440E+03
     -1.096  0.0000E+00  0.1440E+03
     -1.012  0.0000E+00  0.1440E+03
     -0.927  0.0000E+00  0.1440E+03
     -0.843  0.0000E+00  0.1440E+03
     -0.759  0.0000E+00  0.1440E+03
     -0.674  0.0000E+00  0.1440E+03
     -0.590  0.0000E+00  0.1440E+03
     -0.506  0.0000E+00  0.1440E+03
     -0.421  0.1601E-09  0.1440E+03
     -0.337  0.5935E-04  0.1440E+03
     -0.253  0.1001E+00  0.1440E+03
     -0.168  0.1503E+01  0.1441E+03
     -0.084  0.6982E+01  0.1447E+03
      0.000  0.9912E+01  0.1456E+03
      0.084  0.9197E+01  0.1463E+03
      0.169  0.1473E+02  0.1476E+03
      0.253  0.1300E+02  0.1487E+03
      0.337  0.8273E+01  0.1494E+03
      0.422  0.7471E+01  0.1500E+03
      0.506  0.4271E+01  0.1504E+03
      0.590  0.5837E+01  0.1509E+03
      0.675  0.8638E+01  0.1516E+03
      0.759  0.9279E+01  0.1524E+03
      0.843  0.1194E+02  0.1534E+03
      0.927  0.5142E+01  0.1538E+03
      1.012  0.3737E+01  0.1541E+03
      1.096  0.1291E+02  0.1552E+03
      1.180  0.1929E+01  0.1554E+03
      1.265  0.5766E+01  0.1559E+03
      1.349  0.1483E+02  0.1571E+03
      1.433  0.1252E+02  0.1582E+03
      1.518  0.1519E+02  0.1594E+03
      1.602  0.2826E+01  0.1597E+03
      1.686  0.1974E-01  0.1597E+03
      1.770  0.1327E+01  0.1598E+03
      1.855  0.2307E+02  0.1617E+03
      1.939  0.1945E+02  0.1634E+03
      2.023  0.1340E+02  0.1645E+03
      2.108  0.1198E+02  0.1655E+03
      2.192  0.8348E+01  0.1662E+03
      2.276  0.2052E+02  0.1679E+03
      2.361  0.2250E+02  0.1698E+03
      2.445  0.1837E+02  0.1714E+03
      2.529  0.2032E+02  0.1731E+03
      2.614  0.3930E+02  0.1764E+03
      2.698  0.1656E+02  0.1778E+03
      2.782  0.3105E+01  0.1781E+03
      2.866  0.2554E+01  0.1783E+03
      2.951  0.6491E+01  0.1788E+03
      3.035  0.1293E+02  0.1799E+03
      3.119  0.2931E+02  0.1824E+03
      3.204  0.4424E+02  0.1861E+03
      3.288  0.4054E+02  0.1896E+03
      3.372  0.2726E+02  0.1918E+03
      3.457  0.3544E+02  0.1948E+03
      3.541  0.2474E+02  0.1969E+03
      3.625  0.1218E+02  0.1979E+03
      3.709  0.6061E+00  0.1980E+03
      3.794  0.3280E-03  0.1980E+03
      3.878  0.9832E-09  0.1980E+03
      3.962  0.0000E+00  0.1980E+03
      4.047  0.0000E+00  0.1980E+03
      4.131  0.0000E+00  0.1980E+03
      4.215  0.0000E+00  0.1980E+03
      4.300  0.0000E+00  0.1980E+03
      4.384  0.0000E+00  0.1980E+03
      4.468  0.0000E+00  0.1980E+03
      4.553  0.0000E+00  0.1980E+03
      4.637  0.0000E+00  0.1980E+03
      4.721  0.0000E+00  0.1980E+03
