generated by phonopy                    
   1.00000000000000     
    10.4223027875742673    0.0000000000000000    0.0000000000000000
     5.2111513937871337    9.0259789799726846    0.0000000000000000
     0.0000000000000000    0.0000000000000000   20.0000000000000000
   Ta   Se
     9    18
Direct
     0.0004434058378351    0.0000000000000000    0.5004434058378351
     0.3333333333333357    0.0000000000000000    0.5000000000000000
     0.6666666666666643    0.0000000000000000    0.5000000000000000
     0.0000000000000000    0.3333333333333357    0.5000000000000000
     0.3333333333333357    0.3333333333333357    0.5000000000000000
     0.6666666666666643    0.3333333333333357    0.5000000000000000
     0.0000000000000000    0.6666666666666643    0.5000000000000000
     0.3333333333333357    0.6666666666666643    0.5000000000000000
     0.6666666666666643    0.6666666666666643    0.5000000000000000
     0.1111111111111143    0.1111111111111143    0.4164840383389077
     0.4444444444444429    0.1111111111111143    0.4164840383389077
     0.7777777777777786    0.1111111111111143    0.4164840383389077
     0.1111111111111143    0.4444444444444429    0.4164840383389077
     0.4444444444444429    0.4444444444444429    0.4164840383389077
     0.7777777777777786    0.4444444444444429    0.4164840383389077
     0.1111111111111143    0.7777777777777786    0.4164840383389077
     0.4444444444444429    0.7777777777777786    0.4164840383389077
     0.7777777777777786    0.7777777777777786    0.4164840383389077
     0.1111111111111143    0.1111111111111143    0.5835159616610923
     0.4444444444444429    0.1111111111111143    0.5835159616610923
     0.7777777777777786    0.1111111111111143    0.5835159616610923
     0.1111111111111143    0.4444444444444429    0.5835159616610923
     0.4444444444444429    0.4444444444444429    0.5835159616610923
     0.7777777777777786    0.4444444444444429    0.5835159616610923
     0.1111111111111143    0.7777777777777786    0.5835159616610923
     0.4444444444444429    0.7777777777777786    0.5835159616610923
     0.7777777777777786    0.7777777777777786    0.5835159616610923
 
  0.00000000E+00  0.00000000E+00  0.00000000E+00
  0.00000000E+00  0.00000000E+00  0.00000000E+00
  0.00000000E+00  0.00000000E+00  0.00000000E+00
  0.00000000E+00  0.00000000E+00  0.00000000E+00
  0.00000000E+00  0.00000000E+00  0.00000000E+00
  0.00000000E+00  0.00000000E+00  0.00000000E+00
  0.00000000E+00  0.00000000E+00  0.00000000E+00
  0.00000000E+00  0.00000000E+00  0.00000000E+00
  0.00000000E+00  0.00000000E+00  0.00000000E+00
  0.00000000E+00  0.00000000E+00  0.00000000E+00
  0.00000000E+00  0.00000000E+00  0.00000000E+00
  0.00000000E+00  0.00000000E+00  0.00000000E+00
  0.00000000E+00  0.00000000E+00  0.00000000E+00
  0.00000000E+00  0.00000000E+00  0.00000000E+00
  0.00000000E+00  0.00000000E+00  0.00000000E+00
  0.00000000E+00  0.00000000E+00  0.00000000E+00
  0.00000000E+00  0.00000000E+00  0.00000000E+00
  0.00000000E+00  0.00000000E+00  0.00000000E+00
  0.00000000E+00  0.00000000E+00  0.00000000E+00
  0.00000000E+00  0.00000000E+00  0.00000000E+00
  0.00000000E+00  0.00000000E+00  0.00000000E+00
  0.00000000E+00  0.00000000E+00  0.00000000E+00
  0.00000000E+00  0.00000000E+00  0.00000000E+00
  0.00000000E+00  0.00000000E+00  0.00000000E+00
  0.00000000E+00  0.00000000E+00  0.00000000E+00
  0.00000000E+00  0.00000000E+00  0.00000000E+00
  0.00000000E+00  0.00000000E+00  0.00000000E+00
