cpu-bind=MASK - c052, task  0  0 [234497]: mask 0xfffffffffff0 set
 running  264 mpi-ranks, with    1 threads/rank, on    6 nodes
 distrk:  each k-point on   44 cores,    6 groups
 distr:  one band on    4 cores,   11 groups
 vasp.6.5.1 10Mar25 (build Aug 29 2025 00:30:47) complex                        
  
 POSCAR found type information on POSCAR TaSe
 POSCAR found :  2 types and      27 ions
 scaLAPACK will be used
 LDA part: xc-table for (Slater+PW92), standard interpolation
 POSCAR, INCAR and KPOINTS ok, starting setup
 FFT: planning ... GRIDC
 FFT: planning ... GRID_SOFT
 FFT: planning ... GRID
 WAVECAR not read
 entering main loop
       N       E                     dE             d eps       ncg     rms          rms(c)
DAV:   1     0.153675735959E+04    0.15368E+04   -0.89274E+04  4290   0.121E+03
DAV:   2    -0.968407277192E+01   -0.15464E+04   -0.15120E+04  4752   0.245E+02
DAV:   3    -0.195921733149E+03   -0.18624E+03   -0.18485E+03  4235   0.808E+01
DAV:   4    -0.202068700731E+03   -0.61470E+01   -0.61066E+01  4191   0.163E+01
DAV:   5    -0.202291340661E+03   -0.22264E+00   -0.22222E+00  4763   0.273E+00    0.439E+01
DAV:   6    -0.192516993614E+03    0.97743E+01   -0.41950E+01  4279   0.158E+01    0.206E+01
DAV:   7    -0.191521965008E+03    0.99503E+00   -0.90251E+00  4136   0.620E+00    0.723E+00
DAV:   8    -0.191320211260E+03    0.20175E+00   -0.97887E-01  4433   0.270E+00    0.140E+00
DAV:   9    -0.191301257257E+03    0.18954E-01   -0.19975E-01  4752   0.110E+00    0.720E-01
DAV:  10    -0.191290191070E+03    0.11066E-01   -0.14105E-01  4598   0.906E-01    0.528E-01
DAV:  11    -0.191274564102E+03    0.15627E-01   -0.47145E-02  4554   0.542E-01    0.227E-01
DAV:  12    -0.191268759846E+03    0.58043E-02   -0.73027E-03  4389   0.223E-01    0.176E-01
DAV:  13    -0.191263544541E+03    0.52153E-02   -0.24517E-03  4147   0.133E-01    0.113E-01
DAV:  14    -0.191260082802E+03    0.34617E-02   -0.34926E-03  4323   0.154E-01    0.953E-02
DAV:  15    -0.191259162425E+03    0.92038E-03   -0.22747E-03  4543   0.133E-01    0.859E-02
DAV:  16    -0.191254100535E+03    0.50619E-02   -0.39505E-03  4004   0.126E-01    0.636E-02
DAV:  17    -0.191250388558E+03    0.37120E-02   -0.10153E-03  4235   0.845E-02    0.514E-02
DAV:  18    -0.191253598048E+03   -0.32095E-02   -0.57239E-04  4070   0.402E-02    0.406E-02
DAV:  19    -0.191258882113E+03   -0.52841E-02   -0.97845E-04  4334   0.677E-02    0.487E-02
DAV:  20    -0.191260828277E+03   -0.19462E-02   -0.37653E-04  4356   0.534E-02    0.504E-02
DAV:  21    -0.191264449882E+03   -0.36216E-02   -0.50132E-04  3916   0.357E-02    0.176E-02
DAV:  22    -0.191265686996E+03   -0.12371E-02   -0.11748E-04  4158   0.169E-02    0.968E-03
DAV:  23    -0.191266151255E+03   -0.46426E-03   -0.25322E-05  3718   0.991E-03    0.729E-03
DAV:  24    -0.191266359946E+03   -0.20869E-03   -0.12858E-05  3806   0.928E-03    0.543E-03
DAV:  25    -0.191266488713E+03   -0.12877E-03   -0.70274E-06  3586   0.635E-03    0.304E-03
DAV:  26    -0.191266547585E+03   -0.58871E-04   -0.17803E-06  3146   0.211E-03    0.174E-03
DAV:  27    -0.191266571360E+03   -0.23776E-04   -0.71357E-07  3058   0.150E-03    0.708E-04
DAV:  28    -0.191266580224E+03   -0.88638E-05   -0.25064E-07  2926   0.838E-04    0.402E-04
DAV:  29    -0.191266581884E+03   -0.16600E-05   -0.55090E-08  2607   0.515E-04    0.287E-04
DAV:  30    -0.191266583974E+03   -0.20897E-05   -0.60612E-08  2673   0.339E-04    0.132E-04
DAV:  31    -0.191266584469E+03   -0.49548E-06   -0.25086E-08  2508   0.172E-04
   1 F= -.19960658E+03 E0= -.19959152E+03  d E =-.301269E-01
