Mo S 
 1.0000000000000000
    11.1728326924565842    8.2936773804863044    0.0000000000000000
    -1.5961189560652271   13.8227956341438407    0.0000000000000000
     0.0000000000000000    0.0000000000000000   20.0000000000000000
 Mo  S  
  38  76
Direct
  0.1228070175438597  0.0175438596491228  0.8032973393413674
  0.8070175438596492  0.5438596491228069  0.8032973393413674
  0.8947368421052633  0.2631578947368421  0.4999999999999999
  0.8421052631578947  0.8947368421052632  0.4999999999999999
  0.4385964912280704  0.4912280701754385  0.8032973393413674
  0.7017543859649125  0.3859649122807015  0.8032973393413674
  0.0000000000000000  0.0000000000000000  0.4999999999999999
  0.7368421052631580  0.1578947368421051  0.4999999999999999
  0.1578947368421053  0.1052631578947368  0.4999999999999999
  0.5964912280701756  0.2280701754385963  0.8032973393413674
  0.3157894736842106  0.2105263157894737  0.4999999999999999
  0.5438596491228072  0.6491228070175438  0.8032973393413674
  0.4912280701754386  0.0701754385964911  0.8032973393413674
  0.4736842105263158  0.3157894736842105  0.4999999999999999
  0.5789473684210527  0.0526315789473684  0.4999999999999999
  0.6315789473684211  0.4210526315789473  0.4999999999999999
  0.7543859649122810  0.9649122807017542  0.8032973393413674
  0.7894736842105265  0.5263157894736842  0.4999999999999999
  0.9473684210526316  0.6315789473684209  0.4999999999999999
  0.0701754385964914  0.4385964912280702  0.8032973393413674
  0.6842105263157895  0.7894736842105262  0.4999999999999999
  0.5263157894736843  0.6842105263157897  0.4999999999999999
  0.1052631578947368  0.7368421052631580  0.4999999999999999
  0.2280701754385965  0.1754385964912280  0.8032973393413674
  0.3859649122807021  0.9122807017543858  0.8032973393413674
  0.2631578947368421  0.8421052631578948  0.4999999999999999
  0.9649122807017545  0.2807017543859646  0.8032973393413674
  0.4210526315789473  0.9473684210526315  0.4999999999999999
  0.8596491228070174  0.1228070175438595  0.8032973393413674
  0.0526315789473684  0.3684210526315790  0.4999999999999999
  0.6491228070175442  0.8070175438596489  0.8032973393413674
  0.3333333333333334  0.3333333333333333  0.8032973393413674
  0.2105263157894737  0.4736842105263158  0.4999999999999999
  0.0175438596491229  0.8596491228070174  0.8032973393413674
  0.3684210526315790  0.5789473684210527  0.4999999999999999
  0.1754385964912283  0.5964912280701753  0.8032973393413674
  0.9122807017543862  0.7017543859649120  0.8032973393413674
  0.2807017543859651  0.7543859649122805  0.8032973393413674
  0.3157894736842107  0.4736842105263156  0.8815041704065675
  0.3157894736842107  0.4736842105263156  0.7250905082761676
  0.2105263157894738  0.3157894736842104  0.7250905082761676
  0.1052631578947369  0.1578947368421052  0.8815041704065675
  0.2105263157894738  0.3157894736842104  0.8815041704065675
  0.4210526315789476  0.6315789473684208  0.8815041704065675
  0.5263157894736845  0.7894736842105261  0.7250905082761676
  0.4210526315789476  0.6315789473684208  0.7250905082761676
  0.2456140350877193  0.7192982456140351  0.4217931689348000
  0.6315789473684214  0.9473684210526312  0.7250905082761676
  0.9473684210526320  0.4210526315789471  0.7250905082761676
  0.8421052631578949  0.2631578947368415  0.8815041704065675
  0.8421052631578949  0.2631578947368415  0.7250905082761676
  0.7368421052631580  0.1052631578947368  0.8815041704065675
  0.7368421052631580  0.1052631578947368  0.7250905082761676
  0.8947368421052634  0.8421052631578941  0.8815041704065675
  0.8947368421052634  0.8421052631578941  0.7250905082761676
  0.7894736842105267  0.6842105263157889  0.8815041704065675
  0.5263157894736845  0.7894736842105261  0.8815041704065675
  0.7894736842105267  0.6842105263157889  0.7250905082761676
  0.6842105263157897  0.5263157894736840  0.7250905082761676
  0.5789473684210528  0.3684210526315788  0.8815041704065675
  0.5789473684210528  0.3684210526315788  0.7250905082761676
  0.4736842105263160  0.2105263157894735  0.8815041704065675
  0.1052631578947369  0.1578947368421052  0.7250905082761676
  0.3684210526315790  0.0526315789473684  0.8815041704065675
  0.3684210526315790  0.0526315789473684  0.7250905082761676
  0.6315789473684214  0.9473684210526312  0.8815041704065675
  0.6842105263157897  0.5263157894736840  0.8815041704065675
  0.4736842105263160  0.2105263157894735  0.7250905082761676
  0.0350877192982456  0.2456140350877193  0.5782068310652000
  0.0000000000000000  0.0000000000000000  0.7250905082761676
  0.1403508771929824  0.9824561403508772  0.5782068310652000
  0.1403508771929824  0.9824561403508772  0.4217931689348000
  0.9824561403508770  0.8771929824561404  0.5782068310652000
  0.9824561403508770  0.8771929824561404  0.4217931689348000
  0.8245614035087722  0.7719298245614034  0.5782068310652000
  0.8245614035087722  0.7719298245614034  0.4217931689348000
  0.6666666666666667  0.6666666666666666  0.5782068310652000
  0.6666666666666667  0.6666666666666666  0.4217931689348000
  0.5087719298245614  0.5614035087719298  0.5782068310652000
  0.5087719298245614  0.5614035087719298  0.4217931689348000
  0.3508771929824561  0.4561403508771928  0.5782068310652000
  0.3508771929824561  0.4561403508771928  0.4217931689348000
  0.1929824561403509  0.3508771929824562  0.5782068310652000
  0.1929824561403509  0.3508771929824562  0.4217931689348000
  0.5614035087719297  0.9298245614035087  0.5782068310652000
  0.5614035087719297  0.9298245614035087  0.4217931689348000
  0.4035087719298246  0.8245614035087721  0.5782068310652000
  0.4035087719298246  0.8245614035087721  0.4217931689348000
  0.2456140350877193  0.7192982456140351  0.5782068310652000
  0.2982456140350877  0.0877192982456140  0.4217931689348000
  0.0000000000000000  0.0000000000000000  0.8815041704065675
  0.2982456140350877  0.0877192982456140  0.5782068310652000
  0.4561403508771930  0.1929824561403509  0.5782068310652000
  0.2631578947368424  0.8947368421052632  0.8815041704065675
  0.2631578947368424  0.8947368421052632  0.7250905082761676
  0.1578947368421055  0.7368421052631576  0.8815041704065675
  0.1578947368421055  0.7368421052631576  0.7250905082761676
  0.0526315789473686  0.5789473684210525  0.8815041704065675
  0.0526315789473686  0.5789473684210525  0.7250905082761676
  0.0350877192982456  0.2456140350877193  0.4217931689348000
  0.8771929824561403  0.1403508771929822  0.5782068310652000
  0.8771929824561403  0.1403508771929822  0.4217931689348000
  0.7192982456140351  0.0350877192982457  0.5782068310652000
  0.7192982456140351  0.0350877192982457  0.4217931689348000
  0.0877192982456142  0.6140350877192983  0.5782068310652000
  0.0877192982456142  0.6140350877192983  0.4217931689348000
  0.9298245614035090  0.5087719298245612  0.5782068310652000
  0.9298245614035090  0.5087719298245612  0.4217931689348000
  0.7719298245614036  0.4035087719298244  0.5782068310652000
  0.7719298245614036  0.4035087719298244  0.4217931689348000
  0.6140350877192983  0.2982456140350876  0.5782068310652000
  0.6140350877192983  0.2982456140350876  0.4217931689348000
  0.4561403508771930  0.1929824561403509  0.4217931689348000
  0.9473684210526320  0.4210526315789471  0.8815041704065675
