Bilayer WSe2/WTe2 2H (relaxed monolayers
   1.00000000000000     
     3.4148741595432632    0.0000000000000000    0.0000000000000000
     1.7074370797716316    2.9573677728914998    0.0000000000000000
     0.0000000000000000    0.0000000000000000   20.0000000000000000
   W    Se   Te
     2     2     2
Direct
    -0.0000000000000000   -0.0000000000000000    0.4961214102319152
     0.3333333333333357    0.3333333333333357    0.8288634467216968
     0.3333333333333357    0.3333333333333357    0.4141264508642200
     0.3333333333333357    0.3333333333333357    0.5781744383005939
     0.0000000000000000    0.0000000000000000    0.7356467859679580
    -0.0000000000000000   -0.0000000000000000    0.9220674679136643
 
  0.00000000E+00  0.00000000E+00  0.00000000E+00
  0.00000000E+00  0.00000000E+00  0.00000000E+00
  0.00000000E+00  0.00000000E+00  0.00000000E+00
  0.00000000E+00  0.00000000E+00  0.00000000E+00
  0.00000000E+00  0.00000000E+00  0.00000000E+00
  0.00000000E+00  0.00000000E+00  0.00000000E+00
