Bilayer WSe2/TiS2 3R (relaxed monolayers
   1.00000000000000     
     3.3340425961166598    0.0000000000000000    0.0000000000000000
     1.6670212980583299    2.8873655855364482    0.0000000000000000
     0.0000000000000000    0.0000000000000000   20.0000000000000000
   W    Se   Ti   S 
     1     2     1     2
Direct
    -0.0000000000000000    0.0000000000000000    0.5000632034384344
     0.3333333333333357    0.3333333333333357    0.4164681373955102
     0.3333333333333357    0.3333333333333357    0.5836635249145127
     0.3333333333333357    0.3333333333333357    0.9837751636608496
     0.6666666666666714    0.6666666666666714    0.9085117323427065
     0.6666666666666714    0.6666666666666714    0.0589665371974823
 
  0.00000000E+00  0.00000000E+00  0.00000000E+00
  0.00000000E+00  0.00000000E+00  0.00000000E+00
  0.00000000E+00  0.00000000E+00  0.00000000E+00
  0.00000000E+00  0.00000000E+00  0.00000000E+00
  0.00000000E+00  0.00000000E+00  0.00000000E+00
  0.00000000E+00  0.00000000E+00  0.00000000E+00
