cpu-bind=MASK - c104, task  0  0 [822135]: mask 0x7ffefffefffe set
 running  264 mpi-ranks, with    1 threads/rank, on    6 nodes
 distrk:  each k-point on   44 cores,    6 groups
 distr:  one band on    4 cores,   11 groups
 vasp.6.5.1 10Mar25 (build Aug 29 2025 00:30:47) complex                        
  
 POSCAR found type information on POSCAR MoS 
 POSCAR found :  2 types and      54 ions
 scaLAPACK will be used
 LDA part: xc-table for (Slater+PW92), standard interpolation
 POSCAR, INCAR and KPOINTS ok, starting setup
 FFT: planning ... GRIDC
 FFT: planning ... GRID_SOFT
 FFT: planning ... GRID
 WAVECAR not read
 entering main loop
       N       E                     dE             d eps       ncg     rms          rms(c)
DAV:   1     0.417328262329E+04    0.41733E+04   -0.25381E+05  9130   0.146E+03
DAV:   2    -0.761855303223E+02   -0.42495E+04   -0.41254E+04  8976   0.356E+02
DAV:   3    -0.404148292563E+03   -0.32796E+03   -0.32151E+03  8877   0.856E+01
DAV:   4    -0.419440099276E+03   -0.15292E+02   -0.15184E+02  9878   0.170E+01
DAV:   5    -0.419929647475E+03   -0.48955E+00   -0.48776E+00 10175   0.308E+00    0.101E+02
DAV:   6    -0.399567452055E+03    0.20362E+02   -0.17838E+02  8404   0.251E+01    0.398E+01
DAV:   7    -0.395848721184E+03    0.37187E+01   -0.71565E+01  8217   0.162E+01    0.238E+01
DAV:   8    -0.392634679568E+03    0.32140E+01   -0.11396E+01  8756   0.695E+00    0.823E+00
DAV:   9    -0.392761121163E+03   -0.12644E+00   -0.21620E+00  9801   0.219E+00    0.400E+00
DAV:  10    -0.392641349519E+03    0.11977E+00   -0.51490E-01  8844   0.146E+00    0.115E+00
DAV:  11    -0.392627717825E+03    0.13632E-01   -0.46043E-02  9867   0.537E-01    0.570E-01
DAV:  12    -0.392619925347E+03    0.77925E-02   -0.15717E-02  9108   0.399E-01    0.345E-01
DAV:  13    -0.392616906205E+03    0.30191E-02   -0.35163E-03  9317   0.178E-01    0.209E-01
DAV:  14    -0.392609922576E+03    0.69836E-02   -0.57241E-03  8756   0.171E-01    0.160E-01
DAV:  15    -0.392604194983E+03    0.57276E-02   -0.76184E-03  8844   0.200E-01    0.289E-01
DAV:  16    -0.392603249501E+03    0.94548E-03   -0.22824E-03  9229   0.985E-02    0.284E-01
DAV:  17    -0.392605136915E+03   -0.18874E-02   -0.18439E-03  8976   0.763E-02    0.119E-01
DAV:  18    -0.392607984357E+03   -0.28474E-02   -0.63110E-04  9240   0.416E-02    0.667E-02
DAV:  19    -0.392609560714E+03   -0.15764E-02   -0.13791E-04  9603   0.329E-02    0.567E-02
DAV:  20    -0.392611643312E+03   -0.20826E-02   -0.10289E-04  8789   0.298E-02    0.307E-02
DAV:  21    -0.392613275684E+03   -0.16324E-02   -0.66932E-05  8767   0.219E-02    0.218E-02
DAV:  22    -0.392613590469E+03   -0.31478E-03   -0.19844E-05  8756   0.120E-02    0.209E-02
DAV:  23    -0.392613659856E+03   -0.69388E-04   -0.33499E-06  7579   0.597E-03    0.180E-02
DAV:  24    -0.392613735563E+03   -0.75707E-04   -0.12534E-06  5632   0.257E-03    0.136E-02
DAV:  25    -0.392613887620E+03   -0.15206E-03   -0.85049E-06  6413   0.491E-03    0.490E-03
DAV:  26    -0.392613897447E+03   -0.98273E-05   -0.20169E-06  6270   0.205E-03    0.317E-03
DAV:  27    -0.392613899454E+03   -0.20075E-05   -0.25926E-07  5203   0.125E-03    0.249E-03
DAV:  28    -0.392613897279E+03    0.21750E-05   -0.85111E-07  5841   0.215E-03    0.242E-03
DAV:  29    -0.392613894201E+03    0.30783E-05   -0.70132E-07  5665   0.217E-03    0.314E-03
DAV:  30    -0.392613893634E+03    0.56717E-06   -0.25758E-07  4752   0.957E-04
   1 F= -.41260704E+03 E0= -.41260704E+03  d E =-.242987E-23
