Bilayer MoS2/GaN 2H (relaxed monolayers)
 1.0000000000000000
  3.1983354153403925   0.0000000000000000   0.0000000000000000
  1.5991677076701962   2.7698397195082336   0.0000000000000000
  0.0000000000000000   0.0000000000000000  20.0000000000000000
   Mo   S   Ga   N
     1     2     1     1
Cartesian
  0.0000000000000000   0.0000000000000000  10.0000000000000000
  1.5991677076702075   0.9232799065027510   8.4459478836688664
  1.5991677076702075   0.9232799065027510  11.5540521163311301
  1.5991677076701962   0.9232799065027445  16.5000000000000000
  0.0000000000000000   0.0000000000000000  16.5000000000000000
