generated by phonopy                    
   1.00000000000000     
    10.6969636779253463    0.0000000000000000    0.0000000000000000
     5.3484818389626732    9.2638422884427722    0.0000000000000000
     0.0000000000000000    0.0000000000000000   20.0000000000000000
   Mo   Te
     9    18
Direct
     0.0004408988371551    0.0000000000000000    0.5004408988371551
     0.3333333333333357    0.0000000000000000    0.5000000000000000
     0.6666666666666643    0.0000000000000000    0.5000000000000000
     0.0000000000000000    0.3333333333333357    0.5000000000000000
     0.3333333333333357    0.3333333333333357    0.5000000000000000
     0.6666666666666643    0.3333333333333357    0.5000000000000000
     0.0000000000000000    0.6666666666666643    0.5000000000000000
     0.3333333333333357    0.6666666666666643    0.5000000000000000
     0.6666666666666643    0.6666666666666643    0.5000000000000000
     0.1111111111111143    0.1111111111111143    0.4102322183796403
     0.4444444444444429    0.1111111111111143    0.4102322183796403
     0.7777777777777786    0.1111111111111143    0.4102322183796403
     0.1111111111111143    0.4444444444444429    0.4102322183796403
     0.4444444444444429    0.4444444444444429    0.4102322183796403
     0.7777777777777786    0.4444444444444429    0.4102322183796403
     0.1111111111111143    0.7777777777777786    0.4102322183796403
     0.4444444444444429    0.7777777777777786    0.4102322183796403
     0.7777777777777786    0.7777777777777786    0.4102322183796403
     0.1111111111111143    0.1111111111111143    0.5897677816203597
     0.4444444444444429    0.1111111111111143    0.5897677816203597
     0.7777777777777786    0.1111111111111143    0.5897677816203597
     0.1111111111111143    0.4444444444444429    0.5897677816203597
     0.4444444444444429    0.4444444444444429    0.5897677816203597
     0.7777777777777786    0.4444444444444429    0.5897677816203597
     0.1111111111111143    0.7777777777777786    0.5897677816203597
     0.4444444444444429    0.7777777777777786    0.5897677816203597
     0.7777777777777786    0.7777777777777786    0.5897677816203597
 
  0.00000000E+00  0.00000000E+00  0.00000000E+00
  0.00000000E+00  0.00000000E+00  0.00000000E+00
  0.00000000E+00  0.00000000E+00  0.00000000E+00
  0.00000000E+00  0.00000000E+00  0.00000000E+00
  0.00000000E+00  0.00000000E+00  0.00000000E+00
  0.00000000E+00  0.00000000E+00  0.00000000E+00
  0.00000000E+00  0.00000000E+00  0.00000000E+00
  0.00000000E+00  0.00000000E+00  0.00000000E+00
  0.00000000E+00  0.00000000E+00  0.00000000E+00
  0.00000000E+00  0.00000000E+00  0.00000000E+00
  0.00000000E+00  0.00000000E+00  0.00000000E+00
  0.00000000E+00  0.00000000E+00  0.00000000E+00
  0.00000000E+00  0.00000000E+00  0.00000000E+00
  0.00000000E+00  0.00000000E+00  0.00000000E+00
  0.00000000E+00  0.00000000E+00  0.00000000E+00
  0.00000000E+00  0.00000000E+00  0.00000000E+00
  0.00000000E+00  0.00000000E+00  0.00000000E+00
  0.00000000E+00  0.00000000E+00  0.00000000E+00
  0.00000000E+00  0.00000000E+00  0.00000000E+00
  0.00000000E+00  0.00000000E+00  0.00000000E+00
  0.00000000E+00  0.00000000E+00  0.00000000E+00
  0.00000000E+00  0.00000000E+00  0.00000000E+00
  0.00000000E+00  0.00000000E+00  0.00000000E+00
  0.00000000E+00  0.00000000E+00  0.00000000E+00
  0.00000000E+00  0.00000000E+00  0.00000000E+00
  0.00000000E+00  0.00000000E+00  0.00000000E+00
  0.00000000E+00  0.00000000E+00  0.00000000E+00
