  27  27   0   0
  0.7340369E+02  0.1069696E-08  0.1069696E-08  0.2000000E-08  0.5000000E-15
  1.000000000000000E-004
  CAR 
 MoTe2 phonon                            
      5.74069188    -64.39684967  301     -0.27944710      1.00000000
    -64.397  0.0000E+00  0.0000E+00
    -64.163  0.0000E+00  0.0000E+00
    -63.929  0.0000E+00  0.0000E+00
    -63.695  0.0000E+00  0.0000E+00
    -63.462  0.0000E+00  0.0000E+00
    -63.228  0.0000E+00  0.0000E+00
    -62.994  0.0000E+00  0.0000E+00
    -62.760  0.0000E+00  0.0000E+00
    -62.527  0.0000E+00  0.0000E+00
    -62.293  0.0000E+00  0.0000E+00
    -62.059  0.0000E+00  0.0000E+00
    -61.825  0.0000E+00  0.0000E+00
    -61.591  0.0000E+00  0.0000E+00
    -61.358  0.4822E-03  0.1127E-03
    -61.124  0.7599E+02  0.1777E+02
    -60.890  0.9979E+00  0.1800E+02
    -60.656  0.0000E+00  0.1800E+02
    -60.422  0.0000E+00  0.1800E+02
    -60.189  0.0000E+00  0.1800E+02
    -59.955  0.0000E+00  0.1800E+02
    -59.721  0.0000E+00  0.1800E+02
    -59.487  0.0000E+00  0.1800E+02
    -59.253  0.0000E+00  0.1800E+02
    -59.020  0.0000E+00  0.1800E+02
    -58.786  0.0000E+00  0.1800E+02
    -58.552  0.0000E+00  0.1800E+02
    -58.318  0.0000E+00  0.1800E+02
    -58.084  0.0000E+00  0.1800E+02
    -57.851  0.0000E+00  0.1800E+02
    -57.617  0.0000E+00  0.1800E+02
    -57.383  0.0000E+00  0.1800E+02
    -57.149  0.0000E+00  0.1800E+02
    -56.916  0.0000E+00  0.1800E+02
    -56.682  0.0000E+00  0.1800E+02
    -56.448  0.0000E+00  0.1800E+02
    -56.214  0.0000E+00  0.1800E+02
    -55.980  0.0000E+00  0.1800E+02
    -55.747  0.0000E+00  0.1800E+02
    -55.513  0.0000E+00  0.1800E+02
    -55.279  0.0000E+00  0.1800E+02
    -55.045  0.0000E+00  0.1800E+02
    -54.811  0.0000E+00  0.1800E+02
    -54.578  0.0000E+00  0.1800E+02
    -54.344  0.0000E+00  0.1800E+02
    -54.110  0.0000E+00  0.1800E+02
    -53.876  0.0000E+00  0.1800E+02
    -53.642  0.0000E+00  0.1800E+02
    -53.409  0.0000E+00  0.1800E+02
    -53.175  0.0000E+00  0.1800E+02
    -52.941  0.0000E+00  0.1800E+02
    -52.707  0.0000E+00  0.1800E+02
    -52.473  0.0000E+00  0.1800E+02
    -52.240  0.0000E+00  0.1800E+02
    -52.006  0.0000E+00  0.1800E+02
    -51.772  0.0000E+00  0.1800E+02
    -51.538  0.0000E+00  0.1800E+02
    -51.305  0.0000E+00  0.1800E+02
    -51.071  0.0000E+00  0.1800E+02
    -50.837  0.0000E+00  0.1800E+02
    -50.603  0.0000E+00  0.1800E+02
    -50.369  0.0000E+00  0.1800E+02
    -50.136  0.0000E+00  0.1800E+02
    -49.902  0.0000E+00  0.1800E+02
    -49.668  0.0000E+00  0.1800E+02
    -49.434  0.0000E+00  0.1800E+02
    -49.200  0.0000E+00  0.1800E+02
    -48.967  0.0000E+00  0.1800E+02
    -48.733  0.0000E+00  0.1800E+02
    -48.499  0.0000E+00  0.1800E+02
    -48.265  0.0000E+00  0.1800E+02
    -48.031  0.0000E+00  0.1800E+02
    -47.798  0.0000E+00  0.1800E+02
    -47.564  0.0000E+00  0.1800E+02
    -47.330  0.0000E+00  0.1800E+02
    -47.096  0.0000E+00  0.1800E+02
    -46.862  0.0000E+00  0.1800E+02
    -46.629  0.0000E+00  0.1800E+02
    -46.395  0.0000E+00  0.1800E+02
    -46.161  0.0000E+00  0.1800E+02
    -45.927  0.0000E+00  0.1800E+02
    -45.694  0.0000E+00  0.1800E+02
    -45.460  0.0000E+00  0.1800E+02
    -45.226  0.0000E+00  0.1800E+02
    -44.992  0.0000E+00  0.1800E+02
    -44.758  0.0000E+00  0.1800E+02
    -44.525  0.0000E+00  0.1800E+02
    -44.291  0.0000E+00  0.1800E+02
    -44.057  0.0000E+00  0.1800E+02
    -43.823  0.0000E+00  0.1800E+02
    -43.589  0.0000E+00  0.1800E+02
    -43.356  0.0000E+00  0.1800E+02
    -43.122  0.0000E+00  0.1800E+02
    -42.888  0.0000E+00  0.1800E+02
    -42.654  0.0000E+00  0.1800E+02
    -42.420  0.0000E+00  0.1800E+02
    -42.187  0.0000E+00  0.1800E+02
    -41.953  0.0000E+00  0.1800E+02
    -41.719  0.0000E+00  0.1800E+02
    -41.485  0.0000E+00  0.1800E+02
    -41.251  0.0000E+00  0.1800E+02
    -41.018  0.0000E+00  0.1800E+02
    -40.784  0.0000E+00  0.1800E+02
    -40.550  0.0000E+00  0.1800E+02
    -40.316  0.0000E+00  0.1800E+02
    -40.083  0.0000E+00  0.1800E+02
    -39.849  0.0000E+00  0.1800E+02
    -39.615  0.0000E+00  0.1800E+02
    -39.381  0.0000E+00  0.1800E+02
    -39.147  0.0000E+00  0.1800E+02
    -38.914  0.0000E+00  0.1800E+02
    -38.680  0.0000E+00  0.1800E+02
    -38.446  0.0000E+00  0.1800E+02
    -38.212  0.0000E+00  0.1800E+02
    -37.978  0.0000E+00  0.1800E+02
    -37.745  0.0000E+00  0.1800E+02
    -37.511  0.0000E+00  0.1800E+02
    -37.277  0.0000E+00  0.1800E+02
    -37.043  0.0000E+00  0.1800E+02
    -36.809  0.0000E+00  0.1800E+02
    -36.576  0.0000E+00  0.1800E+02
    -36.342  0.0000E+00  0.1800E+02
    -36.108  0.0000E+00  0.1800E+02
    -35.874  0.0000E+00  0.1800E+02
    -35.640  0.4821E-13  0.1800E+02
    -35.407  0.5033E+01  0.1918E+02
    -35.173  0.2258E+03  0.7196E+02
    -34.939  0.1578E+00  0.7200E+02
    -34.705  0.0000E+00  0.7200E+02
    -34.471  0.0000E+00  0.7200E+02
    -34.238  0.0000E+00  0.7200E+02
    -34.004  0.0000E+00  0.7200E+02
    -33.770  0.0000E+00  0.7200E+02
    -33.536  0.0000E+00  0.7200E+02
    -33.303  0.0000E+00  0.7200E+02
    -33.069  0.0000E+00  0.7200E+02
    -32.835  0.0000E+00  0.7200E+02
    -32.601  0.0000E+00  0.7200E+02
    -32.367  0.0000E+00  0.7200E+02
    -32.134  0.0000E+00  0.7200E+02
    -31.900  0.0000E+00  0.7200E+02
    -31.666  0.0000E+00  0.7200E+02
    -31.432  0.0000E+00  0.7200E+02
    -31.198  0.0000E+00  0.7200E+02
    -30.965  0.0000E+00  0.7200E+02
    -30.731  0.0000E+00  0.7200E+02
    -30.497  0.0000E+00  0.7200E+02
    -30.263  0.0000E+00  0.7200E+02
    -30.029  0.0000E+00  0.7200E+02
    -29.796  0.0000E+00  0.7200E+02
    -29.562  0.0000E+00  0.7200E+02
    -29.328  0.0000E+00  0.7200E+02
    -29.094  0.0000E+00  0.7200E+02
    -28.860  0.0000E+00  0.7200E+02
    -28.627  0.0000E+00  0.7200E+02
    -28.393  0.0000E+00  0.7200E+02
    -28.159  0.0000E+00  0.7200E+02
    -27.925  0.0000E+00  0.7200E+02
    -27.692  0.0000E+00  0.7200E+02
    -27.458  0.0000E+00  0.7200E+02
    -27.224  0.0000E+00  0.7200E+02
    -26.990  0.0000E+00  0.7200E+02
    -26.756  0.0000E+00  0.7200E+02
    -26.523  0.0000E+00  0.7200E+02
    -26.289  0.0000E+00  0.7200E+02
    -26.055  0.0000E+00  0.7200E+02
    -25.821  0.0000E+00  0.7200E+02
    -25.587  0.0000E+00  0.7200E+02
    -25.354  0.0000E+00  0.7200E+02
    -25.120  0.0000E+00  0.7200E+02
    -24.886  0.0000E+00  0.7200E+02
    -24.652  0.0000E+00  0.7200E+02
    -24.418  0.0000E+00  0.7200E+02
    -24.185  0.0000E+00  0.7200E+02
    -23.951  0.0000E+00  0.7200E+02
    -23.717  0.0000E+00  0.7200E+02
    -23.483  0.0000E+00  0.7200E+02
    -23.249  0.0000E+00  0.7200E+02
    -23.016  0.0000E+00  0.7200E+02
    -22.782  0.0000E+00  0.7200E+02
    -22.548  0.0000E+00  0.7200E+02
    -22.314  0.0000E+00  0.7200E+02
    -22.081  0.0000E+00  0.7200E+02
    -21.847  0.0000E+00  0.7200E+02
    -21.613  0.0000E+00  0.7200E+02
    -21.379  0.0000E+00  0.7200E+02
    -21.145  0.0000E+00  0.7200E+02
    -20.912  0.0000E+00  0.7200E+02
    -20.678  0.0000E+00  0.7200E+02
    -20.444  0.0000E+00  0.7200E+02
    -20.210  0.0000E+00  0.7200E+02
    -19.976  0.0000E+00  0.7200E+02
    -19.743  0.0000E+00  0.7200E+02
    -19.509  0.0000E+00  0.7200E+02
    -19.275  0.0000E+00  0.7200E+02
    -19.041  0.0000E+00  0.7200E+02
    -18.807  0.0000E+00  0.7200E+02
    -18.574  0.0000E+00  0.7200E+02
    -18.340  0.0000E+00  0.7200E+02
    -18.106  0.0000E+00  0.7200E+02
    -17.872  0.0000E+00  0.7200E+02
    -17.638  0.0000E+00  0.7200E+02
    -17.405  0.0000E+00  0.7200E+02
    -17.171  0.0000E+00  0.7200E+02
    -16.937  0.0000E+00  0.7200E+02
    -16.703  0.0000E+00  0.7200E+02
    -16.470  0.0000E+00  0.7200E+02
    -16.236  0.0000E+00  0.7200E+02
    -16.002  0.0000E+00  0.7200E+02
    -15.768  0.0000E+00  0.7200E+02
    -15.534  0.0000E+00  0.7200E+02
    -15.301  0.0000E+00  0.7200E+02
    -15.067  0.0000E+00  0.7200E+02
    -14.833  0.0000E+00  0.7200E+02
    -14.599  0.0000E+00  0.7200E+02
    -14.365  0.0000E+00  0.7200E+02
    -14.132  0.0000E+00  0.7200E+02
    -13.898  0.0000E+00  0.7200E+02
    -13.664  0.0000E+00  0.7200E+02
    -13.430  0.0000E+00  0.7200E+02
    -13.196  0.1383E-05  0.7200E+02
    -12.963  0.1739E+01  0.7241E+02
    -12.729  0.4747E+01  0.7352E+02
    -12.495  0.5802E+01  0.7487E+02
    -12.261  0.6311E+01  0.7635E+02
    -12.027  0.5693E+01  0.7768E+02
    -11.794  0.1407E+02  0.8097E+02
    -11.560  0.1805E+02  0.8519E+02
    -11.326  0.1754E+02  0.8929E+02
    -11.092  0.2706E+02  0.9562E+02
    -10.859  0.3005E+02  0.1026E+03
    -10.625  0.2111E+02  0.1076E+03
    -10.391  0.1815E+01  0.1080E+03
    -10.157  0.0000E+00  0.1080E+03
     -9.923  0.0000E+00  0.1080E+03
     -9.690  0.0000E+00  0.1080E+03
     -9.456  0.0000E+00  0.1080E+03
     -9.222  0.0000E+00  0.1080E+03
     -8.988  0.0000E+00  0.1080E+03
     -8.754  0.0000E+00  0.1080E+03
     -8.521  0.0000E+00  0.1080E+03
     -8.287  0.0000E+00  0.1080E+03
     -8.053  0.0000E+00  0.1080E+03
     -7.819  0.0000E+00  0.1080E+03
     -7.585  0.0000E+00  0.1080E+03
     -7.352  0.0000E+00  0.1080E+03
     -7.118  0.0000E+00  0.1080E+03
     -6.884  0.0000E+00  0.1080E+03
     -6.650  0.0000E+00  0.1080E+03
     -6.416  0.0000E+00  0.1080E+03
     -6.183  0.0000E+00  0.1080E+03
     -5.949  0.8478E-05  0.1080E+03
     -5.715  0.4013E+01  0.1089E+03
     -5.481  0.8547E+01  0.1109E+03
     -5.248  0.1343E+02  0.1141E+03
     -5.014  0.1813E+02  0.1183E+03
     -4.780  0.3546E+02  0.1266E+03
     -4.546  0.2807E+02  0.1332E+03
     -4.312  0.8993E+01  0.1353E+03
     -4.079  0.6043E+01  0.1367E+03
     -3.845  0.2695E+02  0.1430E+03
     -3.611  0.3743E+02  0.1517E+03
     -3.377  0.1782E+02  0.1559E+03
     -3.143  0.2672E+02  0.1621E+03
     -2.910  0.2825E+02  0.1688E+03
     -2.676  0.2723E+02  0.1751E+03
     -2.442  0.1476E+02  0.1786E+03
     -2.208  0.2000E+02  0.1832E+03
     -1.974  0.4332E+02  0.1934E+03
     -1.741  0.3152E+02  0.2007E+03
     -1.507  0.3326E+02  0.2085E+03
     -1.273  0.2403E+02  0.2141E+03
     -1.039  0.3362E+02  0.2220E+03
     -0.805  0.3472E+02  0.2301E+03
     -0.572  0.1565E+02  0.2338E+03
     -0.338  0.9686E+00  0.2340E+03
     -0.104  0.0000E+00  0.2340E+03
      0.130  0.0000E+00  0.2340E+03
      0.363  0.6421E-05  0.2340E+03
      0.597  0.1378E+01  0.2343E+03
      0.831  0.1660E+02  0.2382E+03
      1.065  0.4650E+02  0.2491E+03
      1.299  0.3981E+02  0.2584E+03
      1.532  0.3116E+02  0.2657E+03
      1.766  0.3616E+02  0.2741E+03
      2.000  0.2285E+02  0.2795E+03
      2.234  0.1468E+02  0.2829E+03
      2.468  0.8830E+01  0.2850E+03
      2.701  0.4439E+01  0.2860E+03
      2.935  0.2459E-04  0.2860E+03
      3.169  0.0000E+00  0.2860E+03
      3.403  0.0000E+00  0.2860E+03
      3.637  0.0000E+00  0.2860E+03
      3.870  0.0000E+00  0.2860E+03
      4.104  0.0000E+00  0.2860E+03
      4.338  0.0000E+00  0.2860E+03
      4.572  0.0000E+00  0.2860E+03
      4.806  0.0000E+00  0.2860E+03
      5.039  0.0000E+00  0.2860E+03
      5.273  0.0000E+00  0.2860E+03
      5.507  0.0000E+00  0.2860E+03
      5.741  0.0000E+00  0.2860E+03
