generated by phonopy
   1.0
    10.6969636779253463    0.0000000000000000    0.0000000000000000
     5.3484818389626732    9.2638422884427722    0.0000000000000000
     0.0000000000000000    0.0000000000000000   20.0000000000000000
Mo Te
   9   18
Direct
  0.0004408988371516  0.0000000000000000  0.5004408988371516
  0.3333333333333334  0.0000000000000000  0.5000000000000000
  0.6666666666666667  0.0000000000000000  0.5000000000000000
  0.0000000000000000  0.3333333333333333  0.5000000000000000
  0.3333333333333333  0.3333333333333333  0.5000000000000000
  0.6666666666666667  0.3333333333333333  0.5000000000000000
  0.0000000000000001  0.6666666666666666  0.5000000000000000
  0.3333333333333334  0.6666666666666666  0.5000000000000000
  0.6666666666666666  0.6666666666666666  0.5000000000000000
  0.1111111111111119  0.1111111111111119  0.4102322183796437
  0.4444444444444453  0.1111111111111119  0.4102322183796437
  0.7777777777777786  0.1111111111111119  0.4102322183796437
  0.1111111111111120  0.4444444444444451  0.4102322183796437
  0.4444444444444453  0.4444444444444451  0.4102322183796437
  0.7777777777777786  0.4444444444444451  0.4102322183796437
  0.1111111111111120  0.7777777777777786  0.4102322183796437
  0.4444444444444452  0.7777777777777786  0.4102322183796437
  0.7777777777777786  0.7777777777777786  0.4102322183796437
  0.1111111111111119  0.1111111111111119  0.5897677816203564
  0.4444444444444453  0.1111111111111119  0.5897677816203564
  0.7777777777777786  0.1111111111111119  0.5897677816203564
  0.1111111111111120  0.4444444444444451  0.5897677816203564
  0.4444444444444453  0.4444444444444451  0.5897677816203564
  0.7777777777777786  0.4444444444444451  0.5897677816203564
  0.1111111111111120  0.7777777777777786  0.5897677816203564
  0.4444444444444452  0.7777777777777786  0.5897677816203564
  0.7777777777777786  0.7777777777777786  0.5897677816203564
