generated by phonopy
   1.0
    10.0155606456556576    0.0000000000000000    0.0000000000000000
     5.0077803228278288    8.6737299522814748    0.0000000000000000
     0.0000000000000000    0.0000000000000000   20.0000000000000000
Ta S
   9   18
Direct
  0.0000000000000000  0.0000000000000000  0.5000000000000000
  0.3333333333333333  0.0000000000000000  0.5000000000000000
  0.6666666666666666  0.0000000000000000  0.5000000000000000
  0.0000000000000000  0.3333333333333333  0.5000000000000000
  0.3333333333333334  0.3333333333333333  0.5000000000000000
  0.6666666666666666  0.3333333333333333  0.5000000000000000
  0.0000000000000000  0.6666666666666666  0.5000000000000000
  0.3333333333333333  0.6666666666666666  0.5000000000000000
  0.6666666666666667  0.6666666666666666  0.5000000000000000
  0.1106640367375046  0.1111111111111119  0.4216150948761640
  0.4444444444444453  0.1111111111111119  0.4220621692497713
  0.7777777777777786  0.1111111111111119  0.4220621692497713
  0.1111111111111119  0.4444444444444452  0.4220621692497713
  0.4444444444444453  0.4444444444444452  0.4220621692497713
  0.7777777777777786  0.4444444444444452  0.4220621692497713
  0.1111111111111120  0.7777777777777786  0.4220621692497713
  0.4444444444444452  0.7777777777777786  0.4220621692497713
  0.7777777777777786  0.7777777777777786  0.4220621692497713
  0.1111111111111119  0.1111111111111119  0.5779378307502289
  0.4444444444444453  0.1111111111111119  0.5779378307502289
  0.7777777777777786  0.1111111111111119  0.5779378307502289
  0.1111111111111119  0.4444444444444452  0.5779378307502289
  0.4444444444444453  0.4444444444444452  0.5779378307502289
  0.7777777777777786  0.4444444444444452  0.5779378307502289
  0.1111111111111120  0.7777777777777786  0.5779378307502289
  0.4444444444444452  0.7777777777777786  0.5779378307502289
  0.7777777777777786  0.7777777777777786  0.5779378307502289
