cpu-bind=MASK - c095, task  0  0 [1389968]: mask 0x7ffefffefffe set
 running  264 mpi-ranks, with    1 threads/rank, on    6 nodes
 distrk:  each k-point on   44 cores,    6 groups
 distr:  one band on    4 cores,   11 groups
 vasp.6.5.1 10Mar25 (build Aug 29 2025 00:30:47) complex                        
  
 POSCAR found type information on POSCAR MoS 
 POSCAR found :  2 types and      54 ions
 scaLAPACK will be used
 LDA part: xc-table for (Slater+PW92), standard interpolation
 POSCAR, INCAR and KPOINTS ok, starting setup
 FFT: planning ... GRIDC
 FFT: planning ... GRID_SOFT
 FFT: planning ... GRID
 WAVECAR not read
 entering main loop
       N       E                     dE             d eps       ncg     rms          rms(c)
DAV:   1     0.417313919323E+04    0.41731E+04   -0.25381E+05  9130   0.146E+03
DAV:   2    -0.767650149006E+02   -0.42499E+04   -0.41261E+04  8987   0.356E+02
DAV:   3    -0.404041721815E+03   -0.32728E+03   -0.32079E+03  8855   0.855E+01
DAV:   4    -0.419450778142E+03   -0.15409E+02   -0.15300E+02  9900   0.171E+01
DAV:   5    -0.419934384258E+03   -0.48361E+00   -0.48181E+00 10142   0.307E+00    0.100E+02
DAV:   6    -0.399574204723E+03    0.20360E+02   -0.17843E+02  8404   0.251E+01    0.398E+01
DAV:   7    -0.395846539725E+03    0.37277E+01   -0.71570E+01  8217   0.162E+01    0.239E+01
DAV:   8    -0.392637176472E+03    0.32094E+01   -0.11392E+01  8745   0.696E+00    0.820E+00
DAV:   9    -0.392761543869E+03   -0.12437E+00   -0.21590E+00  9823   0.219E+00    0.401E+00
DAV:  10    -0.392642608042E+03    0.11894E+00   -0.51397E-01  8778   0.146E+00    0.117E+00
DAV:  11    -0.392630385222E+03    0.12223E-01   -0.49334E-02  9911   0.563E-01    0.616E-01
DAV:  12    -0.392621075962E+03    0.93093E-02   -0.16559E-02  9185   0.396E-01    0.342E-01
DAV:  13    -0.392618060957E+03    0.30150E-02   -0.33307E-03  9295   0.167E-01    0.206E-01
DAV:  14    -0.392611702281E+03    0.63587E-02   -0.50714E-03  8822   0.166E-01    0.157E-01
DAV:  15    -0.392605677275E+03    0.60250E-02   -0.74484E-03  8800   0.193E-01    0.267E-01
DAV:  16    -0.392604403203E+03    0.12741E-02   -0.26700E-03  9229   0.980E-02    0.277E-01
DAV:  17    -0.392606226896E+03   -0.18237E-02   -0.18568E-03  8789   0.757E-02    0.120E-01
DAV:  18    -0.392609047357E+03   -0.28205E-02   -0.64926E-04  9658   0.419E-02    0.686E-02
DAV:  19    -0.392610478865E+03   -0.14315E-02   -0.99477E-05  9317   0.289E-02    0.548E-02
DAV:  20    -0.392612523404E+03   -0.20445E-02   -0.88263E-05  8756   0.300E-02    0.322E-02
DAV:  21    -0.392614485425E+03   -0.19620E-02   -0.89647E-05  8800   0.253E-02    0.223E-02
DAV:  22    -0.392614682202E+03   -0.19678E-03   -0.17534E-05  8360   0.933E-03    0.230E-02
DAV:  23    -0.392614717545E+03   -0.35343E-04   -0.14773E-06  5797   0.352E-03    0.204E-02
DAV:  24    -0.392614844233E+03   -0.12669E-03   -0.38688E-06  6424   0.437E-03    0.137E-02
DAV:  25    -0.392614991322E+03   -0.14709E-03   -0.66736E-06  6501   0.520E-03    0.692E-03
DAV:  26    -0.392615007690E+03   -0.16368E-04   -0.16087E-06  6193   0.234E-03    0.574E-03
DAV:  27    -0.392615010540E+03   -0.28502E-05   -0.21068E-07  4961   0.112E-03    0.430E-03
DAV:  28    -0.392615013795E+03   -0.32544E-05   -0.28638E-07  5115   0.160E-03    0.187E-03
DAV:  29    -0.392615010522E+03    0.32724E-05   -0.27760E-06  5742   0.302E-03    0.431E-03
DAV:  30    -0.392615008106E+03    0.24166E-05   -0.70223E-07  5687   0.150E-03    0.477E-03
DAV:  31    -0.392615007931E+03    0.17412E-06   -0.95623E-08  4279   0.515E-04
   1 F= -.41260760E+03 E0= -.41260760E+03  d E =-.198230E-23
