  45  45   0   0
  0.3543551E+02  0.9595006E-09  0.9595006E-09  0.2000000E-08  0.5000000E-15
  1.000000000000000E-004
  CAR 
 MoS2_GaN_2H phonon                      
      6.65652468    -65.20993760  301     -0.02106744      1.00000000
    -65.210  0.0000E+00  0.0000E+00
    -64.970  0.0000E+00  0.0000E+00
    -64.731  0.0000E+00  0.0000E+00
    -64.491  0.0000E+00  0.0000E+00
    -64.252  0.0000E+00  0.0000E+00
    -64.012  0.0000E+00  0.0000E+00
    -63.773  0.0000E+00  0.0000E+00
    -63.533  0.0000E+00  0.0000E+00
    -63.293  0.0000E+00  0.0000E+00
    -63.054  0.0000E+00  0.0000E+00
    -62.814  0.0000E+00  0.0000E+00
    -62.575  0.0000E+00  0.0000E+00
    -62.335  0.0000E+00  0.0000E+00
    -62.096  0.5867E-04  0.1405E-04
    -61.856  0.7143E+02  0.1711E+02
    -61.617  0.3714E+01  0.1800E+02
    -61.377  0.0000E+00  0.1800E+02
    -61.138  0.0000E+00  0.1800E+02
    -60.898  0.0000E+00  0.1800E+02
    -60.658  0.0000E+00  0.1800E+02
    -60.419  0.0000E+00  0.1800E+02
    -60.179  0.0000E+00  0.1800E+02
    -59.940  0.0000E+00  0.1800E+02
    -59.700  0.0000E+00  0.1800E+02
    -59.461  0.0000E+00  0.1800E+02
    -59.221  0.0000E+00  0.1800E+02
    -58.982  0.0000E+00  0.1800E+02
    -58.742  0.0000E+00  0.1800E+02
    -58.502  0.0000E+00  0.1800E+02
    -58.263  0.0000E+00  0.1800E+02
    -58.023  0.0000E+00  0.1800E+02
    -57.784  0.0000E+00  0.1800E+02
    -57.544  0.0000E+00  0.1800E+02
    -57.305  0.0000E+00  0.1800E+02
    -57.065  0.0000E+00  0.1800E+02
    -56.826  0.0000E+00  0.1800E+02
    -56.586  0.0000E+00  0.1800E+02
    -56.346  0.0000E+00  0.1800E+02
    -56.107  0.0000E+00  0.1800E+02
    -55.867  0.0000E+00  0.1800E+02
    -55.628  0.0000E+00  0.1800E+02
    -55.388  0.0000E+00  0.1800E+02
    -55.149  0.0000E+00  0.1800E+02
    -54.909  0.0000E+00  0.1800E+02
    -54.670  0.0000E+00  0.1800E+02
    -54.430  0.0000E+00  0.1800E+02
    -54.190  0.0000E+00  0.1800E+02
    -53.951  0.0000E+00  0.1800E+02
    -53.711  0.0000E+00  0.1800E+02
    -53.472  0.0000E+00  0.1800E+02
    -53.232  0.0000E+00  0.1800E+02
    -52.993  0.0000E+00  0.1800E+02
    -52.753  0.0000E+00  0.1800E+02
    -52.514  0.0000E+00  0.1800E+02
    -52.274  0.0000E+00  0.1800E+02
    -52.034  0.0000E+00  0.1800E+02
    -51.795  0.0000E+00  0.1800E+02
    -51.555  0.0000E+00  0.1800E+02
    -51.316  0.0000E+00  0.1800E+02
    -51.076  0.0000E+00  0.1800E+02
    -50.837  0.0000E+00  0.1800E+02
    -50.597  0.0000E+00  0.1800E+02
    -50.358  0.0000E+00  0.1800E+02
    -50.118  0.0000E+00  0.1800E+02
    -49.878  0.0000E+00  0.1800E+02
    -49.639  0.0000E+00  0.1800E+02
    -49.399  0.0000E+00  0.1800E+02
    -49.160  0.0000E+00  0.1800E+02
    -48.920  0.0000E+00  0.1800E+02
    -48.681  0.0000E+00  0.1800E+02
    -48.441  0.0000E+00  0.1800E+02
    -48.202  0.0000E+00  0.1800E+02
    -47.962  0.0000E+00  0.1800E+02
    -47.722  0.0000E+00  0.1800E+02
    -47.483  0.0000E+00  0.1800E+02
    -47.243  0.0000E+00  0.1800E+02
    -47.004  0.0000E+00  0.1800E+02
    -46.764  0.0000E+00  0.1800E+02
    -46.525  0.0000E+00  0.1800E+02
    -46.285  0.0000E+00  0.1800E+02
    -46.046  0.0000E+00  0.1800E+02
    -45.806  0.0000E+00  0.1800E+02
    -45.566  0.0000E+00  0.1800E+02
    -45.327  0.0000E+00  0.1800E+02
    -45.087  0.0000E+00  0.1800E+02
    -44.848  0.0000E+00  0.1800E+02
    -44.608  0.0000E+00  0.1800E+02
    -44.369  0.0000E+00  0.1800E+02
    -44.129  0.0000E+00  0.1800E+02
    -43.890  0.0000E+00  0.1800E+02
    -43.650  0.0000E+00  0.1800E+02
    -43.410  0.0000E+00  0.1800E+02
    -43.171  0.0000E+00  0.1800E+02
    -42.931  0.0000E+00  0.1800E+02
    -42.692  0.0000E+00  0.1800E+02
    -42.452  0.0000E+00  0.1800E+02
    -42.213  0.0000E+00  0.1800E+02
    -41.973  0.0000E+00  0.1800E+02
    -41.734  0.0000E+00  0.1800E+02
    -41.494  0.0000E+00  0.1800E+02
    -41.254  0.0000E+00  0.1800E+02
    -41.015  0.0000E+00  0.1800E+02
    -40.775  0.0000E+00  0.1800E+02
    -40.536  0.0000E+00  0.1800E+02
    -40.296  0.0000E+00  0.1800E+02
    -40.057  0.0000E+00  0.1800E+02
    -39.817  0.0000E+00  0.1800E+02
    -39.578  0.0000E+00  0.1800E+02
    -39.338  0.0000E+00  0.1800E+02
    -39.098  0.0000E+00  0.1800E+02
    -38.859  0.0000E+00  0.1800E+02
    -38.619  0.0000E+00  0.1800E+02
    -38.380  0.0000E+00  0.1800E+02
    -38.140  0.0000E+00  0.1800E+02
    -37.901  0.0000E+00  0.1800E+02
    -37.661  0.0000E+00  0.1800E+02
    -37.422  0.0000E+00  0.1800E+02
    -37.182  0.0000E+00  0.1800E+02
    -36.942  0.0000E+00  0.1800E+02
    -36.703  0.0000E+00  0.1800E+02
    -36.463  0.3834E-09  0.1800E+02
    -36.224  0.1089E+02  0.2061E+02
    -35.984  0.1482E+03  0.5610E+02
    -35.745  0.6636E+02  0.7200E+02
    -35.505  0.7541E-04  0.7200E+02
    -35.266  0.0000E+00  0.7200E+02
    -35.026  0.0000E+00  0.7200E+02
    -34.786  0.0000E+00  0.7200E+02
    -34.547  0.0000E+00  0.7200E+02
    -34.307  0.0000E+00  0.7200E+02
    -34.068  0.0000E+00  0.7200E+02
    -33.828  0.0000E+00  0.7200E+02
    -33.589  0.0000E+00  0.7200E+02
    -33.349  0.0000E+00  0.7200E+02
    -33.110  0.0000E+00  0.7200E+02
    -32.870  0.0000E+00  0.7200E+02
    -32.630  0.0000E+00  0.7200E+02
    -32.391  0.0000E+00  0.7200E+02
    -32.151  0.0000E+00  0.7200E+02
    -31.912  0.0000E+00  0.7200E+02
    -31.672  0.0000E+00  0.7200E+02
    -31.433  0.0000E+00  0.7200E+02
    -31.193  0.0000E+00  0.7200E+02
    -30.954  0.0000E+00  0.7200E+02
    -30.714  0.0000E+00  0.7200E+02
    -30.474  0.0000E+00  0.7200E+02
    -30.235  0.0000E+00  0.7200E+02
    -29.995  0.0000E+00  0.7200E+02
    -29.756  0.0000E+00  0.7200E+02
    -29.516  0.0000E+00  0.7200E+02
    -29.277  0.0000E+00  0.7200E+02
    -29.037  0.0000E+00  0.7200E+02
    -28.798  0.0000E+00  0.7200E+02
    -28.558  0.0000E+00  0.7200E+02
    -28.318  0.0000E+00  0.7200E+02
    -28.079  0.0000E+00  0.7200E+02
    -27.839  0.0000E+00  0.7200E+02
    -27.600  0.0000E+00  0.7200E+02
    -27.360  0.0000E+00  0.7200E+02
    -27.121  0.0000E+00  0.7200E+02
    -26.881  0.0000E+00  0.7200E+02
    -26.642  0.0000E+00  0.7200E+02
    -26.402  0.0000E+00  0.7200E+02
    -26.162  0.0000E+00  0.7200E+02
    -25.923  0.0000E+00  0.7200E+02
    -25.683  0.0000E+00  0.7200E+02
    -25.444  0.0000E+00  0.7200E+02
    -25.204  0.0000E+00  0.7200E+02
    -24.965  0.0000E+00  0.7200E+02
    -24.725  0.0000E+00  0.7200E+02
    -24.486  0.0000E+00  0.7200E+02
    -24.246  0.0000E+00  0.7200E+02
    -24.006  0.0000E+00  0.7200E+02
    -23.767  0.0000E+00  0.7200E+02
    -23.527  0.0000E+00  0.7200E+02
    -23.288  0.0000E+00  0.7200E+02
    -23.048  0.0000E+00  0.7200E+02
    -22.809  0.0000E+00  0.7200E+02
    -22.569  0.0000E+00  0.7200E+02
    -22.330  0.0000E+00  0.7200E+02
    -22.090  0.0000E+00  0.7200E+02
    -21.851  0.0000E+00  0.7200E+02
    -21.611  0.0000E+00  0.7200E+02
    -21.371  0.0000E+00  0.7200E+02
    -21.132  0.0000E+00  0.7200E+02
    -20.892  0.0000E+00  0.7200E+02
    -20.653  0.0000E+00  0.7200E+02
    -20.413  0.0000E+00  0.7200E+02
    -20.174  0.0000E+00  0.7200E+02
    -19.934  0.0000E+00  0.7200E+02
    -19.695  0.0000E+00  0.7200E+02
    -19.455  0.0000E+00  0.7200E+02
    -19.215  0.0000E+00  0.7200E+02
    -18.976  0.0000E+00  0.7200E+02
    -18.736  0.0000E+00  0.7200E+02
    -18.497  0.0000E+00  0.7200E+02
    -18.257  0.0000E+00  0.7200E+02
    -18.018  0.0000E+00  0.7200E+02
    -17.778  0.0000E+00  0.7200E+02
    -17.539  0.0000E+00  0.7200E+02
    -17.299  0.0000E+00  0.7200E+02
    -17.059  0.0000E+00  0.7200E+02
    -16.820  0.0000E+00  0.7200E+02
    -16.580  0.0000E+00  0.7200E+02
    -16.341  0.0000E+00  0.7200E+02
    -16.101  0.0000E+00  0.7200E+02
    -15.862  0.0000E+00  0.7200E+02
    -15.622  0.0000E+00  0.7200E+02
    -15.383  0.3392E-14  0.7200E+02
    -15.143  0.7086E-01  0.7202E+02
    -14.903  0.3889E+01  0.7295E+02
    -14.664  0.6699E+01  0.7455E+02
    -14.424  0.9002E+01  0.7671E+02
    -14.185  0.1272E+02  0.7976E+02
    -13.945  0.1502E+02  0.8335E+02
    -13.706  0.1906E+02  0.8792E+02
    -13.466  0.2919E+02  0.9491E+02
    -13.227  0.4576E+02  0.1059E+03
    -12.987  0.6387E+02  0.1212E+03
    -12.747  0.1977E+02  0.1259E+03
    -12.508  0.3666E+00  0.1260E+03
    -12.268  0.0000E+00  0.1260E+03
    -12.029  0.0000E+00  0.1260E+03
    -11.789  0.0000E+00  0.1260E+03
    -11.550  0.0000E+00  0.1260E+03
    -11.310  0.0000E+00  0.1260E+03
    -11.071  0.0000E+00  0.1260E+03
    -10.831  0.0000E+00  0.1260E+03
    -10.591  0.0000E+00  0.1260E+03
    -10.352  0.0000E+00  0.1260E+03
    -10.112  0.0000E+00  0.1260E+03
     -9.873  0.0000E+00  0.1260E+03
     -9.633  0.0000E+00  0.1260E+03
     -9.394  0.0000E+00  0.1260E+03
     -9.154  0.0000E+00  0.1260E+03
     -8.915  0.0000E+00  0.1260E+03
     -8.675  0.0000E+00  0.1260E+03
     -8.435  0.0000E+00  0.1260E+03
     -8.196  0.0000E+00  0.1260E+03
     -7.956  0.0000E+00  0.1260E+03
     -7.717  0.0000E+00  0.1260E+03
     -7.477  0.0000E+00  0.1260E+03
     -7.238  0.0000E+00  0.1260E+03
     -6.998  0.1413E-10  0.1260E+03
     -6.759  0.1288E+01  0.1263E+03
     -6.519  0.1259E+02  0.1293E+03
     -6.279  0.2643E+02  0.1357E+03
     -6.040  0.4772E+02  0.1471E+03
     -5.800  0.3604E+02  0.1557E+03
     -5.561  0.2275E+02  0.1612E+03
     -5.321  0.7340E+01  0.1629E+03
     -5.082  0.1628E+02  0.1668E+03
     -4.842  0.4991E+02  0.1788E+03
     -4.603  0.2808E+02  0.1855E+03
     -4.363  0.1879E+02  0.1900E+03
     -4.123  0.5228E+02  0.2025E+03
     -3.884  0.2365E+02  0.2082E+03
     -3.644  0.2880E+02  0.2151E+03
     -3.405  0.1576E+02  0.2189E+03
     -3.165  0.2007E+02  0.2237E+03
     -2.926  0.4059E+02  0.2334E+03
     -2.686  0.4548E+02  0.2443E+03
     -2.447  0.3577E+02  0.2529E+03
     -2.207  0.3068E+02  0.2602E+03
     -1.967  0.3665E+02  0.2690E+03
     -1.728  0.3906E+02  0.2784E+03
     -1.488  0.3010E+02  0.2856E+03
     -1.249  0.2917E+02  0.2926E+03
     -1.009  0.1977E+02  0.2973E+03
     -0.770  0.1643E+02  0.3012E+03
     -0.530  0.1481E+02  0.3048E+03
     -0.291  0.5095E+01  0.3060E+03
     -0.051  0.4113E-03  0.3060E+03
      0.189  0.0000E+00  0.3060E+03
      0.428  0.1147E-02  0.3060E+03
      0.668  0.1223E+01  0.3063E+03
      0.907  0.6165E+01  0.3078E+03
      1.147  0.4655E+02  0.3189E+03
      1.386  0.3252E+02  0.3267E+03
      1.626  0.5260E+02  0.3393E+03
      1.865  0.2517E+02  0.3453E+03
      2.105  0.2944E+02  0.3524E+03
      2.345  0.2029E+02  0.3573E+03
      2.584  0.1401E+02  0.3606E+03
      2.824  0.2165E+02  0.3658E+03
      3.063  0.9796E+01  0.3681E+03
      3.303  0.2213E+02  0.3734E+03
      3.542  0.2318E+01  0.3740E+03
      3.782  0.1620E-04  0.3740E+03
      4.021  0.0000E+00  0.3740E+03
      4.261  0.0000E+00  0.3740E+03
      4.501  0.0000E+00  0.3740E+03
      4.740  0.0000E+00  0.3740E+03
      4.980  0.0000E+00  0.3740E+03
      5.219  0.0000E+00  0.3740E+03
      5.459  0.0000E+00  0.3740E+03
      5.698  0.0000E+00  0.3740E+03
      5.938  0.0000E+00  0.3740E+03
      6.177  0.0000E+00  0.3740E+03
      6.417  0.0000E+00  0.3740E+03
      6.657  0.0000E+00  0.3740E+03
