  54  54   0   0
  0.3295884E+02  0.1013684E-08  0.1013684E-08  0.2000000E-08  0.5000000E-15
  1.000000000000000E-004
  CAR 
 MoS2_MoTe2_3R phonon                    
      9.62933985    -61.72967675  301      3.52400096      1.00000000
    -61.730  0.0000E+00  0.0000E+00
    -61.492  0.0000E+00  0.0000E+00
    -61.254  0.0000E+00  0.0000E+00
    -61.016  0.0000E+00  0.0000E+00
    -60.778  0.0000E+00  0.0000E+00
    -60.540  0.0000E+00  0.0000E+00
    -60.302  0.0000E+00  0.0000E+00
    -60.065  0.0000E+00  0.0000E+00
    -59.827  0.0000E+00  0.0000E+00
    -59.589  0.0000E+00  0.0000E+00
    -59.351  0.0000E+00  0.0000E+00
    -59.113  0.0000E+00  0.0000E+00
    -58.875  0.0000E+00  0.0000E+00
    -58.637  0.1747E-03  0.4156E-04
    -58.400  0.7422E+02  0.1766E+02
    -58.162  0.1449E+01  0.1800E+02
    -57.924  0.0000E+00  0.1800E+02
    -57.686  0.0000E+00  0.1800E+02
    -57.448  0.3547E-15  0.1800E+02
    -57.210  0.2158E+01  0.1851E+02
    -56.972  0.7352E+02  0.3600E+02
    -56.735  0.0000E+00  0.3600E+02
    -56.497  0.0000E+00  0.3600E+02
    -56.259  0.0000E+00  0.3600E+02
    -56.021  0.0000E+00  0.3600E+02
    -55.783  0.0000E+00  0.3600E+02
    -55.545  0.0000E+00  0.3600E+02
    -55.307  0.0000E+00  0.3600E+02
    -55.070  0.0000E+00  0.3600E+02
    -54.832  0.0000E+00  0.3600E+02
    -54.594  0.0000E+00  0.3600E+02
    -54.356  0.0000E+00  0.3600E+02
    -54.118  0.0000E+00  0.3600E+02
    -53.880  0.0000E+00  0.3600E+02
    -53.642  0.0000E+00  0.3600E+02
    -53.404  0.0000E+00  0.3600E+02
    -53.167  0.0000E+00  0.3600E+02
    -52.929  0.0000E+00  0.3600E+02
    -52.691  0.0000E+00  0.3600E+02
    -52.453  0.0000E+00  0.3600E+02
    -52.215  0.0000E+00  0.3600E+02
    -51.977  0.0000E+00  0.3600E+02
    -51.739  0.0000E+00  0.3600E+02
    -51.502  0.0000E+00  0.3600E+02
    -51.264  0.0000E+00  0.3600E+02
    -51.026  0.0000E+00  0.3600E+02
    -50.788  0.0000E+00  0.3600E+02
    -50.550  0.0000E+00  0.3600E+02
    -50.312  0.0000E+00  0.3600E+02
    -50.074  0.0000E+00  0.3600E+02
    -49.837  0.0000E+00  0.3600E+02
    -49.599  0.0000E+00  0.3600E+02
    -49.361  0.0000E+00  0.3600E+02
    -49.123  0.0000E+00  0.3600E+02
    -48.885  0.0000E+00  0.3600E+02
    -48.647  0.0000E+00  0.3600E+02
    -48.409  0.0000E+00  0.3600E+02
    -48.171  0.0000E+00  0.3600E+02
    -47.934  0.0000E+00  0.3600E+02
    -47.696  0.0000E+00  0.3600E+02
    -47.458  0.0000E+00  0.3600E+02
    -47.220  0.0000E+00  0.3600E+02
    -46.982  0.0000E+00  0.3600E+02
    -46.744  0.0000E+00  0.3600E+02
    -46.506  0.0000E+00  0.3600E+02
    -46.269  0.0000E+00  0.3600E+02
    -46.031  0.0000E+00  0.3600E+02
    -45.793  0.0000E+00  0.3600E+02
    -45.555  0.0000E+00  0.3600E+02
    -45.317  0.0000E+00  0.3600E+02
    -45.079  0.0000E+00  0.3600E+02
    -44.841  0.0000E+00  0.3600E+02
    -44.604  0.0000E+00  0.3600E+02
    -44.366  0.0000E+00  0.3600E+02
    -44.128  0.0000E+00  0.3600E+02
    -43.890  0.0000E+00  0.3600E+02
    -43.652  0.0000E+00  0.3600E+02
    -43.414  0.0000E+00  0.3600E+02
    -43.176  0.0000E+00  0.3600E+02
    -42.938  0.0000E+00  0.3600E+02
    -42.701  0.0000E+00  0.3600E+02
    -42.463  0.0000E+00  0.3600E+02
    -42.225  0.0000E+00  0.3600E+02
    -41.987  0.0000E+00  0.3600E+02
    -41.749  0.0000E+00  0.3600E+02
    -41.511  0.0000E+00  0.3600E+02
    -41.273  0.0000E+00  0.3600E+02
    -41.036  0.0000E+00  0.3600E+02
    -40.798  0.0000E+00  0.3600E+02
    -40.560  0.0000E+00  0.3600E+02
    -40.322  0.0000E+00  0.3600E+02
    -40.084  0.0000E+00  0.3600E+02
    -39.846  0.0000E+00  0.3600E+02
    -39.608  0.0000E+00  0.3600E+02
    -39.371  0.0000E+00  0.3600E+02
    -39.133  0.0000E+00  0.3600E+02
    -38.895  0.0000E+00  0.3600E+02
    -38.657  0.0000E+00  0.3600E+02
    -38.419  0.0000E+00  0.3600E+02
    -38.181  0.0000E+00  0.3600E+02
    -37.943  0.0000E+00  0.3600E+02
    -37.705  0.0000E+00  0.3600E+02
    -37.468  0.0000E+00  0.3600E+02
    -37.230  0.0000E+00  0.3600E+02
    -36.992  0.0000E+00  0.3600E+02
    -36.754  0.0000E+00  0.3600E+02
    -36.516  0.0000E+00  0.3600E+02
    -36.278  0.0000E+00  0.3600E+02
    -36.040  0.0000E+00  0.3600E+02
    -35.803  0.0000E+00  0.3600E+02
    -35.565  0.0000E+00  0.3600E+02
    -35.327  0.0000E+00  0.3600E+02
    -35.089  0.0000E+00  0.3600E+02
    -34.851  0.0000E+00  0.3600E+02
    -34.613  0.0000E+00  0.3600E+02
    -34.375  0.0000E+00  0.3600E+02
    -34.138  0.0000E+00  0.3600E+02
    -33.900  0.0000E+00  0.3600E+02
    -33.662  0.0000E+00  0.3600E+02
    -33.424  0.0000E+00  0.3600E+02
    -33.186  0.0000E+00  0.3600E+02
    -32.948  0.7798E-11  0.3600E+02
    -32.710  0.8488E+01  0.3802E+02
    -32.472  0.1869E+03  0.8247E+02
    -32.235  0.3167E+02  0.9000E+02
    -31.997  0.0000E+00  0.9000E+02
    -31.759  0.0000E+00  0.9000E+02
    -31.521  0.6139E-02  0.9000E+02
    -31.283  0.1168E+03  0.1178E+03
    -31.045  0.1102E+03  0.1440E+03
    -30.807  0.2252E-01  0.1440E+03
    -30.570  0.0000E+00  0.1440E+03
    -30.332  0.0000E+00  0.1440E+03
    -30.094  0.0000E+00  0.1440E+03
    -29.856  0.0000E+00  0.1440E+03
    -29.618  0.0000E+00  0.1440E+03
    -29.380  0.0000E+00  0.1440E+03
    -29.142  0.0000E+00  0.1440E+03
    -28.905  0.0000E+00  0.1440E+03
    -28.667  0.0000E+00  0.1440E+03
    -28.429  0.0000E+00  0.1440E+03
    -28.191  0.0000E+00  0.1440E+03
    -27.953  0.0000E+00  0.1440E+03
    -27.715  0.0000E+00  0.1440E+03
    -27.477  0.0000E+00  0.1440E+03
    -27.239  0.0000E+00  0.1440E+03
    -27.002  0.0000E+00  0.1440E+03
    -26.764  0.0000E+00  0.1440E+03
    -26.526  0.0000E+00  0.1440E+03
    -26.288  0.0000E+00  0.1440E+03
    -26.050  0.0000E+00  0.1440E+03
    -25.812  0.0000E+00  0.1440E+03
    -25.574  0.0000E+00  0.1440E+03
    -25.337  0.0000E+00  0.1440E+03
    -25.099  0.0000E+00  0.1440E+03
    -24.861  0.0000E+00  0.1440E+03
    -24.623  0.0000E+00  0.1440E+03
    -24.385  0.0000E+00  0.1440E+03
    -24.147  0.0000E+00  0.1440E+03
    -23.909  0.0000E+00  0.1440E+03
    -23.672  0.0000E+00  0.1440E+03
    -23.434  0.0000E+00  0.1440E+03
    -23.196  0.0000E+00  0.1440E+03
    -22.958  0.0000E+00  0.1440E+03
    -22.720  0.0000E+00  0.1440E+03
    -22.482  0.0000E+00  0.1440E+03
    -22.244  0.0000E+00  0.1440E+03
    -22.006  0.0000E+00  0.1440E+03
    -21.769  0.0000E+00  0.1440E+03
    -21.531  0.0000E+00  0.1440E+03
    -21.293  0.0000E+00  0.1440E+03
    -21.055  0.0000E+00  0.1440E+03
    -20.817  0.0000E+00  0.1440E+03
    -20.579  0.0000E+00  0.1440E+03
    -20.341  0.0000E+00  0.1440E+03
    -20.104  0.0000E+00  0.1440E+03
    -19.866  0.0000E+00  0.1440E+03
    -19.628  0.0000E+00  0.1440E+03
    -19.390  0.0000E+00  0.1440E+03
    -19.152  0.0000E+00  0.1440E+03
    -18.914  0.0000E+00  0.1440E+03
    -18.676  0.0000E+00  0.1440E+03
    -18.439  0.0000E+00  0.1440E+03
    -18.201  0.0000E+00  0.1440E+03
    -17.963  0.0000E+00  0.1440E+03
    -17.725  0.0000E+00  0.1440E+03
    -17.487  0.0000E+00  0.1440E+03
    -17.249  0.0000E+00  0.1440E+03
    -17.011  0.0000E+00  0.1440E+03
    -16.773  0.0000E+00  0.1440E+03
    -16.536  0.0000E+00  0.1440E+03
    -16.298  0.0000E+00  0.1440E+03
    -16.060  0.0000E+00  0.1440E+03
    -15.822  0.0000E+00  0.1440E+03
    -15.584  0.0000E+00  0.1440E+03
    -15.346  0.0000E+00  0.1440E+03
    -15.108  0.0000E+00  0.1440E+03
    -14.871  0.0000E+00  0.1440E+03
    -14.633  0.0000E+00  0.1440E+03
    -14.395  0.0000E+00  0.1440E+03
    -14.157  0.0000E+00  0.1440E+03
    -13.919  0.0000E+00  0.1440E+03
    -13.681  0.0000E+00  0.1440E+03
    -13.443  0.0000E+00  0.1440E+03
    -13.206  0.0000E+00  0.1440E+03
    -12.968  0.0000E+00  0.1440E+03
    -12.730  0.0000E+00  0.1440E+03
    -12.492  0.0000E+00  0.1440E+03
    -12.254  0.0000E+00  0.1440E+03
    -12.016  0.0000E+00  0.1440E+03
    -11.778  0.0000E+00  0.1440E+03
    -11.541  0.0000E+00  0.1440E+03
    -11.303  0.7042E-03  0.1440E+03
    -11.065  0.3139E+01  0.1447E+03
    -10.827  0.6912E+01  0.1464E+03
    -10.589  0.7496E+01  0.1482E+03
    -10.351  0.8064E+01  0.1501E+03
    -10.113  0.1055E+02  0.1526E+03
     -9.875  0.1902E+02  0.1571E+03
     -9.638  0.3385E+02  0.1652E+03
     -9.400  0.2935E+02  0.1722E+03
     -9.162  0.4251E+02  0.1823E+03
     -8.924  0.3041E+01  0.1830E+03
     -8.686  0.9775E+01  0.1853E+03
     -8.448  0.9815E+01  0.1877E+03
     -8.210  0.1228E+02  0.1906E+03
     -7.973  0.9019E+01  0.1927E+03
     -7.735  0.1591E+02  0.1965E+03
     -7.497  0.1399E+02  0.1998E+03
     -7.259  0.1785E+02  0.2041E+03
     -7.021  0.2890E+02  0.2110E+03
     -6.783  0.1947E+02  0.2156E+03
     -6.545  0.1758E+01  0.2160E+03
     -6.308  0.0000E+00  0.2160E+03
     -6.070  0.0000E+00  0.2160E+03
     -5.832  0.0000E+00  0.2160E+03
     -5.594  0.0000E+00  0.2160E+03
     -5.356  0.0000E+00  0.2160E+03
     -5.118  0.0000E+00  0.2160E+03
     -4.880  0.0000E+00  0.2160E+03
     -4.642  0.0000E+00  0.2160E+03
     -4.405  0.0000E+00  0.2160E+03
     -4.167  0.0000E+00  0.2160E+03
     -3.929  0.0000E+00  0.2160E+03
     -3.691  0.0000E+00  0.2160E+03
     -3.453  0.0000E+00  0.2160E+03
     -3.215  0.0000E+00  0.2160E+03
     -2.977  0.7603E-03  0.2160E+03
     -2.740  0.5709E+01  0.2174E+03
     -2.502  0.2509E+02  0.2233E+03
     -2.264  0.5093E+02  0.2354E+03
     -2.026  0.1834E+02  0.2398E+03
     -1.788  0.2504E+02  0.2458E+03
     -1.550  0.4144E+02  0.2556E+03
     -1.312  0.5923E+02  0.2697E+03
     -1.075  0.4968E+02  0.2815E+03
     -0.837  0.3359E+02  0.2895E+03
     -0.599  0.2906E+02  0.2964E+03
     -0.361  0.5118E+02  0.3086E+03
     -0.123  0.4917E+02  0.3203E+03
      0.115  0.6585E+02  0.3360E+03
      0.353  0.4733E+02  0.3472E+03
      0.591  0.3887E+02  0.3565E+03
      0.828  0.3648E+02  0.3651E+03
      1.066  0.3808E+02  0.3742E+03
      1.304  0.3312E+02  0.3821E+03
      1.542  0.4647E+02  0.3931E+03
      1.780  0.5844E+02  0.4070E+03
      2.018  0.5744E+02  0.4207E+03
      2.256  0.5677E+02  0.4342E+03
      2.493  0.3689E+02  0.4430E+03
      2.731  0.2579E+02  0.4491E+03
      2.969  0.1846E+02  0.4535E+03
      3.207  0.2914E+02  0.4604E+03
      3.445  0.2924E+02  0.4674E+03
      3.683  0.5976E+01  0.4688E+03
      3.921  0.3464E+01  0.4696E+03
      4.158  0.1136E+02  0.4723E+03
      4.396  0.2958E+02  0.4794E+03
      4.634  0.4348E+02  0.4897E+03
      4.872  0.5873E+02  0.5037E+03
      5.110  0.6217E+02  0.5185E+03
      5.348  0.5386E+02  0.5313E+03
      5.586  0.5888E+02  0.5453E+03
      5.824  0.5038E+02  0.5573E+03
      6.061  0.4632E+02  0.5683E+03
      6.299  0.1403E+02  0.5716E+03
      6.537  0.1608E+01  0.5720E+03
      6.775  0.5470E-05  0.5720E+03
      7.013  0.0000E+00  0.5720E+03
      7.251  0.0000E+00  0.5720E+03
      7.489  0.0000E+00  0.5720E+03
      7.726  0.0000E+00  0.5720E+03
      7.964  0.0000E+00  0.5720E+03
      8.202  0.0000E+00  0.5720E+03
      8.440  0.0000E+00  0.5720E+03
      8.678  0.0000E+00  0.5720E+03
      8.916  0.0000E+00  0.5720E+03
      9.154  0.0000E+00  0.5720E+03
      9.391  0.0000E+00  0.5720E+03
      9.629  0.0000E+00  0.5720E+03
