Te2 Mo1                                 
   1.00000000000000     
     3.5656545593084488    0.0000000000000000    0.0000000000000000
     1.7828272796542244    3.0879474294809239    0.0000000000000000
     0.0000000000000000    0.0000000000000000   20.0000000000000000
   Mo   Te
     1     2
Direct
    -0.0000000000000000   -0.0000000000000000    0.5000000000000000
     0.3333333333333357    0.3333333333333357    0.4102320157084076
     0.3333333333333357    0.3333333333333357    0.5897679842915912
 
  0.00000000E+00  0.00000000E+00  0.00000000E+00
  0.00000000E+00  0.00000000E+00  0.00000000E+00
  0.00000000E+00  0.00000000E+00  0.00000000E+00
