    3    3  400    1
  0.7340369E+02  0.3565655E-09  0.3565655E-09  0.2000000E-08  0.5000000E-15
  1.000000000000000E-004
  CAR 
 MoTe2 relaxation                        
     26     27     22
 
  0.1276756E-14  0.1276756E-14  0.1276756E-14  0.4444444E-02
      1        -61.209167   1.000000
      2        -35.350604   1.000000
      3        -35.257771   1.000000
      4        -35.257771   1.000000
      5        -13.039054   1.000000
      6        -12.072207   1.000000
      7         -5.417461   1.000000
      8         -2.210766   1.000000
      9         -2.210766   1.000000
     10         -2.152018   1.000000
     11         -1.429179   1.000000
     12         -1.429179   1.000000
     13         -0.917634   1.000000
     14          2.504502   0.000000
     15          2.504502   0.000000
     16          2.792127   0.000000
     17          2.792128   0.000000
     18          3.671707   0.000000
     19          4.034184   0.000000
     20          4.713324   0.000000
     21          5.606188   0.000000
     22          6.076278   0.000000
 
  0.6666667E-01  0.8381992E-14  0.1276756E-14  0.2666667E-01
      1        -61.208814   1.000000
      2        -35.349532   1.000000
      3        -35.262655   1.000000
      4        -35.258908   1.000000
      5        -12.979670   1.000000
      6        -12.031436   1.000000
      7         -5.351774   1.000000
      8         -2.346415   1.000000
      9         -2.296907   1.000000
     10         -2.161549   1.000000
     11         -1.510593   1.000000
     12         -1.341410   1.000000
     13         -0.924927   1.000000
     14          2.243391   0.000000
     15          2.421068   0.000000
     16          2.560668   0.000000
     17          2.659538   0.000000
     18          3.789416   0.000000
     19          4.108660   0.000000
     20          4.813604   0.000000
     21          5.871157   0.000000
     22          6.144990   0.000000
 
  0.1333333E+00  0.8379174E-14  0.1276756E-14  0.2666667E-01
      1        -61.207833   1.000000
      2        -35.346503   1.000000
      3        -35.276437   1.000000
      4        -35.262120   1.000000
      5        -12.805224   1.000000
      6        -11.911814   1.000000
      7         -5.164148   1.000000
      8         -2.722221   1.000000
      9         -2.608905   1.000000
     10         -2.019007   1.000000
     11         -1.724255   1.000000
     12         -1.269589   1.000000
     13         -0.970407   1.000000
     14          1.752387   0.000000
     15          1.785936   0.000000
     16          2.326193   0.000000
     17          2.698298   0.000000
     18          4.011562   0.000000
     19          4.323627   0.000000
     20          5.035644   0.000000
     21          6.345692   0.000000
     22          6.400005   0.000000
 
  0.2000000E+00  0.1274834E-14  0.1276756E-14  0.2666667E-01
      1        -61.206375   1.000000
      2        -35.342037   1.000000
      3        -35.296668   1.000000
      4        -35.266847   1.000000
      5        -12.527636   1.000000
      6        -11.722177   1.000000
      7         -4.890934   1.000000
      8         -3.264615   1.000000
      9         -3.019226   1.000000
     10         -2.004563   1.000000
     11         -1.799043   1.000000
     12         -1.408106   1.000000
     13         -1.107506   1.000000
     14          1.217311   0.000000
     15          1.595177   0.000000
     16          1.913615   0.000000
     17          2.855448   0.000000
     18          4.314596   0.000000
     19          4.666993   0.000000
     20          5.350358   0.000000
     21          6.578419   0.000000
     22          6.644147   0.000000
 
  0.2666667E+00  0.1290572E-14  0.1276756E-14  0.2666667E-01
      1        -61.204706   1.000000
      2        -35.336905   1.000000
      3        -35.319797   1.000000
      4        -35.272271   1.000000
      5        -12.170020   1.000000
      6        -11.480127   1.000000
      7         -4.655766   1.000000
      8         -3.833550   1.000000
      9         -3.539997   1.000000
     10         -2.289517   1.000000
     11         -1.676754   1.000000
     12         -1.530018   1.000000
     13         -1.319078   1.000000
     14          0.978980   0.000000
     15          1.516674   0.000000
     16          1.764458   0.000000
     17          2.985508   0.000000
     18          4.694310   0.000000
     19          5.111680   0.000000
     20          5.739499   0.000000
     21          6.128890   0.000000
     22          6.466872   0.000000
 
  0.3333333E+00  0.8397087E-14  0.1276756E-14  0.2666667E-01
      1        -61.203111   1.000000
      2        -35.341811   1.000000
      3        -35.331994   1.000000
      4        -35.277451   1.000000
      5        -11.773291   1.000000
      6        -11.216599   1.000000
      7         -4.903802   1.000000
      8         -4.120593   1.000000
      9         -3.982775   1.000000
     10         -2.534675   1.000000
     11         -1.895997   1.000000
     12         -1.449740   1.000000
     13         -1.254195   1.000000
     14          0.973029   0.000000
     15          1.192037   0.000000
     16          2.121880   0.000000
     17          3.072220   0.000000
     18          4.953737   0.000000
     19          5.300740   0.000000
     20          5.517632   0.000000
     21          6.095312   0.000000
     22          6.277801   0.000000
 
  0.4000000E+00  0.8412825E-14  0.1276756E-14  0.2666667E-01
      1        -61.201865   1.000000
      2        -35.358943   1.000000
      3        -35.328154   1.000000
      4        -35.281495   1.000000
      5        -11.407304   1.000000
      6        -10.980791   1.000000
      7         -5.439304   1.000000
      8         -4.627445   1.000000
      9         -3.868353   1.000000
     10         -2.711648   1.000000
     11         -2.021145   1.000000
     12         -1.392612   1.000000
     13         -1.025128   1.000000
     14          0.969567   0.000000
     15          1.072073   0.000000
     16          2.492345   0.000000
     17          3.120175   0.000000
     18          4.124417   0.000000
     19          5.485044   0.000000
     20          5.637549   0.000000
     21          6.263237   0.000000
     22          6.744785   0.000000
 
  0.4666667E+00  0.1311499E-14  0.1276756E-14  0.2666667E-01
      1        -61.201183   1.000000
      2        -35.368294   1.000000
      3        -35.326052   1.000000
      4        -35.283706   1.000000
      5        -11.175999   1.000000
      6        -10.836873   1.000000
      7         -5.788913   1.000000
      8         -4.923842   1.000000
      9         -3.814521   1.000000
     10         -2.803925   1.000000
     11         -2.074239   1.000000
     12         -1.259548   1.000000
     13         -0.894986   1.000000
     14          0.859363   0.000000
     15          1.174765   0.000000
     16          2.727992   0.000000
     17          3.140357   0.000000
     18          3.517225   0.000000
     19          5.429657   0.000000
     20          5.966371   0.000000
     21          6.236736   0.000000
     22          6.982515   0.000000
 
  0.1333333E+00  0.6666667E-01  0.1276756E-14  0.2666667E-01
      1        -61.208151   1.000000
      2        -35.347482   1.000000
      3        -35.271831   1.000000
      4        -35.261239   1.000000
      5        -12.862732   1.000000
      6        -11.951213   1.000000
      7         -5.224856   1.000000
      8         -2.597445   1.000000
      9         -2.506254   1.000000
     10         -2.070361   1.000000
     11         -1.703039   1.000000
     12         -1.230665   1.000000
     13         -0.950692   1.000000
     14          1.884827   0.000000
     15          1.949595   0.000000
     16          2.393906   0.000000
     17          2.656618   0.000000
     18          3.949025   0.000000
     19          4.253796   0.000000
     20          4.970921   0.000000
     21          6.280233   0.000000
     22          6.301824   0.000000
 
  0.2000000E+00  0.6666667E-01  0.1276756E-14  0.5333333E-01
      1        -61.206927   1.000000
      2        -35.343734   1.000000
      3        -35.288417   1.000000
      4        -35.265628   1.000000
      5        -12.636495   1.000000
      6        -11.796343   1.000000
      7         -4.991701   1.000000
      8         -3.041819   1.000000
      9         -2.820784   1.000000
     10         -2.045562   1.000000
     11         -1.909839   1.000000
     12         -1.200952   1.000000
     13         -1.037918   1.000000
     14          1.399484   0.000000
     15          1.556965   0.000000
     16          1.982012   0.000000
     17          2.793123   0.000000
     18          4.210992   0.000000
     19          4.535647   0.000000
     20          5.241217   0.000000
     21          6.539709   0.000000
     22          6.788354   0.000000
 
  0.2666667E+00  0.6666667E-01  0.1276756E-14  0.5333333E-01
      1        -61.205366   1.000000
      2        -35.338935   1.000000
      3        -35.309533   1.000000
      4        -35.271265   1.000000
      5        -12.318021   1.000000
      6        -11.579623   1.000000
      7         -4.717410   1.000000
      8         -3.589236   1.000000
      9         -3.257419   1.000000
     10         -2.390544   1.000000
     11         -1.738438   1.000000
     12         -1.376453   1.000000
     13         -1.183346   1.000000
     14          1.030226   0.000000
     15          1.552417   0.000000
     16          1.586728   0.000000
     17          2.911011   0.000000
     18          4.563234   0.000000
     19          4.936492   0.000000
     20          5.614215   0.000000
     21          6.629198   0.000000
     22          6.824931   0.000000
 
  0.3333333E+00  0.6666667E-01  0.1276756E-14  0.5333333E-01
      1        -61.203734   1.000000
      2        -35.333914   1.000000
      3        -35.331510   1.000000
      4        -35.277157   1.000000
      5        -11.938303   1.000000
      6        -11.324589   1.000000
      7         -4.678324   1.000000
      8         -3.964914   1.000000
      9         -3.821293   1.000000
     10         -2.632609   1.000000
     11         -1.700879   1.000000
     12         -1.647449   1.000000
     13         -1.187377   1.000000
     14          0.903439   0.000000
     15          1.284720   0.000000
     16          1.825635   0.000000
     17          2.981780   0.000000
     18          4.977520   0.000000
     19          5.408158   0.000000
     20          5.752311   0.000000
     21          6.103126   0.000000
     22          6.525662   0.000000
 
  0.4000000E+00  0.6666667E-01  0.1276756E-14  0.5333333E-01
      1        -61.202314   1.000000
      2        -35.350563   1.000000
      3        -35.329539   1.000000
      4        -35.282284   1.000000
      5        -11.551067   1.000000
      6        -11.070595   1.000000
      7         -5.148257   1.000000
      8         -4.385726   1.000000
      9         -3.893960   1.000000
     10         -2.780940   1.000000
     11         -1.878822   1.000000
     12         -1.710080   1.000000
     13         -1.026159   1.000000
     14          0.925642   0.000000
     15          1.108297   0.000000
     16          2.203779   0.000000
     17          2.998833   0.000000
     18          4.662976   0.000000
     19          5.540790   0.000000
     20          5.749689   0.000000
     21          6.385264   0.000000
     22          6.638085   0.000000
 
  0.4666667E+00  0.6666667E-01  0.1276756E-14  0.5333333E-01
      1        -61.201352   1.000000
      2        -35.363451   1.000000
      3        -35.326567   1.000000
      4        -35.285761   1.000000
      5        -11.243095   1.000000
      6        -10.875148   1.000000
      7         -5.603942   1.000000
      8         -4.800195   1.000000
      9         -3.811820   1.000000
     10         -2.864045   1.000000
     11         -2.020869   1.000000
     12         -1.622878   1.000000
     13         -0.873405   1.000000
     14          0.908457   0.000000
     15          1.138188   0.000000
     16          2.551829   0.000000
     17          2.955507   0.000000
     18          3.856559   0.000000
     19          5.821838   0.000000
     20          5.999217   0.000000
     21          6.434720   0.000000
     22          7.049106   0.000000
 
 -0.4666667E+00  0.6666667E-01  0.1276756E-14  0.2666667E-01
      1        -61.201010   1.000000
      2        -35.368001   1.000000
      3        -35.325516   1.000000
      4        -35.286991   1.000000
      5        -11.121874   1.000000
      6        -10.800315   1.000000
      7         -5.782917   1.000000
      8         -4.952954   1.000000
      9         -3.792260   1.000000
     10         -2.891427   1.000000
     11         -2.067599   1.000000
     12         -1.564507   1.000000
     13         -0.807075   1.000000
     14          0.871912   0.000000
     15          1.213225   0.000000
     16          2.750690   0.000000
     17          2.870713   0.000000
     18          3.521884   0.000000
     19          5.902520   0.000000
     20          6.246161   0.000000
     21          6.282613   0.000000
     22          7.086802   0.000000
 
  0.2666667E+00  0.1333333E+00  0.1276756E-14  0.2666667E-01
      1        -61.205598   1.000000
      2        -35.339654   1.000000
      3        -35.305145   1.000000
      4        -35.271666   1.000000
      5        -12.368769   1.000000
      6        -11.613761   1.000000
      7         -4.747279   1.000000
      8         -3.469089   1.000000
      9         -3.084855   1.000000
     10         -2.550452   1.000000
     11         -1.843323   1.000000
     12         -1.178526   1.000000
     13         -1.129144   1.000000
     14          1.065329   0.000000
     15          1.408956   0.000000
     16          1.554515   0.000000
     17          2.875609   0.000000
     18          4.527413   0.000000
     19          4.879007   0.000000
     20          5.574587   0.000000
     21          6.843661   0.000000
     22          7.023241   0.000000
 
  0.3333333E+00  0.1333333E+00  0.1276756E-14  0.5333333E-01
      1        -61.204078   1.000000
      2        -35.334965   1.000000
      3        -35.323865   1.000000
      4        -35.279010   1.000000
      5        -12.025635   1.000000
      6        -11.381659   1.000000
      7         -4.581718   1.000000
      8         -3.849802   1.000000
      9         -3.534809   1.000000
     10         -2.897576   1.000000
     11         -1.964762   1.000000
     12         -1.349966   1.000000
     13         -1.115373   1.000000
     14          0.833678   0.000000
     15          1.290254   0.000000
     16          1.499277   0.000000
     17          2.921330   0.000000
     18          4.933337   0.000000
     19          5.322354   0.000000
     20          6.018739   0.000000
     21          6.401348   0.000000
     22          7.126651   0.000000
 
  0.4000000E+00  0.1333333E+00  0.1276756E-14  0.5333333E-01
      1        -61.202620   1.000000
      2        -35.341524   1.000000
      3        -35.330479   1.000000
      4        -35.286197   1.000000
      5        -11.648202   1.000000
      6        -11.130383   1.000000
      7         -4.848728   1.000000
      8         -4.116040   1.000000
      9         -3.864359   1.000000
     10         -3.026420   1.000000
     11         -2.166819   1.000000
     12         -1.629768   1.000000
     13         -1.007675   1.000000
     14          0.812934   0.000000
     15          1.156601   0.000000
     16          1.757442   0.000000
     17          2.947720   0.000000
     18          5.227219   0.000000
     19          5.628214   0.000000
     20          5.792631   0.000000
     21          6.567084   0.000000
     22          7.072318   0.000000
 
  0.4666667E+00  0.1333333E+00  0.1276756E-14  0.5333333E-01
      1        -61.201483   1.000000
      2        -35.355213   1.000000
      3        -35.326972   1.000000
      4        -35.291869   1.000000
      5        -11.304302   1.000000
      6        -10.907082   1.000000
      7         -5.291927   1.000000
      8         -4.610649   1.000000
      9         -3.772251   1.000000
     10         -3.064808   1.000000
     11         -2.248470   1.000000
     12         -1.887720   1.000000
     13         -0.882733   1.000000
     14          0.929342   0.000000
     15          1.117645   0.000000
     16          2.023238   0.000000
     17          2.977535   0.000000
     18          4.425106   0.000000
     19          6.051033   0.000000
     20          6.115502   0.000000
     21          7.132881   0.000000
     22          7.175913   0.000000
 
 -0.4666667E+00  0.1333333E+00  0.1276756E-14  0.5333333E-01
      1        -61.200861   1.000000
      2        -35.362673   1.000000
      3        -35.325052   1.000000
      4        -35.294986   1.000000
      5        -11.089880   1.000000
      6        -10.771662   1.000000
      7         -5.583910   1.000000
      8         -4.893413   1.000000
      9         -3.752426   1.000000
     10         -3.067362   1.000000
     11         -2.235904   1.000000
     12         -2.040058   1.000000
     13         -0.771166   1.000000
     14          0.878013   0.000000
     15          1.298494   0.000000
     16          2.178309   0.000000
     17          3.007564   0.000000
     18          3.814344   0.000000
     19          6.254589   0.000000
     20          6.586310   0.000000
     21          7.022170   0.000000
     22          7.135851   0.000000
 
  0.4000000E+00  0.2000000E+00  0.1276756E-14  0.2666667E-01
      1        -61.202733   1.000000
      2        -35.337247   1.000000
      3        -35.330812   1.000000
      4        -35.288667   1.000000
      5        -11.682395   1.000000
      6        -11.151308   1.000000
      7         -4.717903   1.000000
      8         -3.962821   1.000000
      9         -3.820198   1.000000
     10         -3.183662   1.000000
     11         -2.393520   1.000000
     12         -1.504107   1.000000
     13         -1.004824   1.000000
     14          0.766791   0.000000
     15          1.168105   0.000000
     16          1.543966   0.000000
     17          2.947174   0.000000
     18          5.343133   0.000000
     19          5.773628   0.000000
     20          5.910816   0.000000
     21          6.517487   0.000000
     22          7.241295   0.000000
 
  0.4666667E+00  0.2000000E+00  0.1276756E-14  0.5333333E-01
      1        -61.201557   1.000000
      2        -35.347857   1.000000
      3        -35.327193   1.000000
      4        -35.298078   1.000000
      5        -11.340554   1.000000
      6        -10.925247   1.000000
      7         -5.013936   1.000000
      8         -4.440048   1.000000
      9         -3.684023   1.000000
     10         -3.263431   1.000000
     11         -2.783203   1.000000
     12         -1.765828   1.000000
     13         -0.905482   1.000000
     14          0.916567   0.000000
     15          1.119537   0.000000
     16          1.644684   0.000000
     17          3.040393   0.000000
     18          5.012805   0.000000
     19          5.970536   0.000000
     20          6.180191   0.000000
     21          6.581155   0.000000
     22          7.239364   0.000000
 
 -0.4666667E+00  0.2000000E+00  0.1276756E-14  0.5333333E-01
      1        -61.200758   1.000000
      2        -35.354553   1.000000
      3        -35.324738   1.000000
      4        -35.304949   1.000000
      5        -11.076705   1.000000
      6        -10.754028   1.000000
      7         -5.268400   1.000000
      8         -4.790384   1.000000
      9         -3.691982   1.000000
     10         -3.259789   1.000000
     11         -2.940246   1.000000
     12         -1.999161   1.000000
     13         -0.770769   1.000000
     14          0.836901   0.000000
     15          1.393454   0.000000
     16          1.716871   0.000000
     17          3.168482   0.000000
     18          4.295953   0.000000
     19          6.063252   0.000000
     20          6.400436   0.000000
     21          6.807094   0.000000
     22          7.834811   0.000000
 
 -0.4000000E+00  0.2000000E+00  0.1276756E-14  0.2666667E-01
      1        -61.200472   1.000000
      2        -35.356825   1.000000
      3        -35.323868   1.000000
      4        -35.307472   1.000000
      5        -10.975311   1.000000
      6        -10.689200   1.000000
      7         -5.369627   1.000000
      8         -4.918446   1.000000
      9         -3.736186   1.000000
     10         -3.246825   1.000000
     11         -2.955014   1.000000
     12         -2.093211   1.000000
     13         -0.688576   1.000000
     14          0.750897   0.000000
     15          1.582910   0.000000
     16          1.739561   0.000000
     17          3.230010   0.000000
     18          3.967986   0.000000
     19          6.013039   0.000000
     20          6.463180   0.000000
     21          7.182281   0.000000
     22          7.985081   0.000000
 
 -0.4666667E+00  0.2666667E+00  0.1276756E-14  0.2666667E-01
      1        -61.200724   1.000000
      2        -35.349831   1.000000
      3        -35.324627   1.000000
      4        -35.310330   1.000000
      5        -11.073724   1.000000
      6        -10.748159   1.000000
      7         -5.080333   1.000000
      8         -4.735000   1.000000
      9         -3.604722   1.000000
     10         -3.349582   1.000000
     11         -3.333821   1.000000
     12         -1.977404   1.000000
     13         -0.773137   1.000000
     14          0.813754   0.000000
     15          1.430430   0.000000
     16          1.546642   0.000000
     17          3.233911   0.000000
     18          4.689376   0.000000
     19          5.543912   0.000000
     20          6.471353   0.000000
     21          6.797894   0.000000
     22          7.919923   0.000000
 
 -0.4000000E+00  0.2666667E+00  0.1276756E-14  0.5333333E-01
      1        -61.200264   1.000000
      2        -35.348869   1.000000
      3        -35.323221   1.000000
      4        -35.319075   1.000000
      5        -10.915422   1.000000
      6        -10.643512   1.000000
      7         -5.055874   1.000000
      8         -4.910733   1.000000
      9         -3.897131   1.000000
     10         -3.385903   1.000000
     11         -3.359485   1.000000
     12         -2.132590   1.000000
     13         -0.619950   1.000000
     14          0.630566   0.000000
     15          1.491424   0.000000
     16          1.784663   0.000000
     17          3.389121   0.000000
     18          4.318068   0.000000
     19          5.204921   0.000000
     20          6.654712   0.000000
     21          7.417636   0.000000
     22          7.994428   0.000000
 
 -0.3333333E+00  0.3333333E+00  0.1276756E-14  0.8888889E-02
      1        -61.200093   1.000000
      2        -35.343069   1.000000
      3        -35.327865   1.000000
      4        -35.322685   1.000000
      5        -10.857103   1.000000
      6        -10.602979   1.000000
      7         -4.953630   1.000000
      8         -4.814081   1.000000
      9         -4.258164   1.000000
     10         -3.427057   1.000000
     11         -3.387799   1.000000
     12         -2.190889   1.000000
     13         -0.529624   1.000000
     14          0.514412   0.000000
     15          1.412178   0.000000
     16          1.973458   0.000000
     17          3.483404   0.000000
     18          4.534357   0.000000
     19          4.648184   0.000000
     20          6.821654   0.000000
     21          7.788046   0.000000
     22          7.813526   0.000000
