       N       E                     dE             d eps       ncg     rms          rms(c)
DAV:   1     0.995676726553E+02    0.99568E+02   -0.12963E+04  1639   0.907E+02
DAV:   2    -0.128391018316E+02   -0.11241E+03   -0.10778E+03  1551   0.178E+02
DAV:   3    -0.185511038049E+02   -0.57120E+01   -0.56590E+01  1606   0.354E+01
DAV:   4    -0.186927236370E+02   -0.14162E+00   -0.14157E+00  1826   0.548E+00
DAV:   5    -0.186938416944E+02   -0.11181E-02   -0.11180E-02  1727   0.484E-01    0.147E+01
DAV:   6    -0.183262854965E+02    0.36756E+00   -0.37814E+00  1276   0.109E+01    0.645E+00
DAV:   7    -0.182735407566E+02    0.52745E-01   -0.30355E+00  1540   0.903E+00    0.437E+00
DAV:   8    -0.180275634406E+02    0.24598E+00   -0.82535E-01  1441   0.495E+00    0.120E+00
DAV:   9    -0.180237239584E+02    0.38395E-02   -0.59653E-02  1716   0.124E+00    0.790E-01
DAV:  10    -0.180217801042E+02    0.19439E-02   -0.37159E-03  1672   0.373E-01    0.388E-01
DAV:  11    -0.180199865121E+02    0.17936E-02   -0.11588E-03  1628   0.193E-01    0.160E-01
DAV:  12    -0.180187765890E+02    0.12099E-02   -0.57854E-04  1573   0.118E-01    0.564E-02
DAV:  13    -0.180175450305E+02    0.12316E-02   -0.74094E-04  1606   0.120E-01    0.672E-02
DAV:  14    -0.180171536214E+02    0.39141E-03   -0.24055E-04  1309   0.691E-02    0.571E-02
DAV:  15    -0.180159076475E+02    0.12460E-02   -0.75131E-04  1386   0.883E-02    0.586E-02
DAV:  16    -0.180165098170E+02   -0.60217E-03   -0.18393E-04  1397   0.525E-02    0.369E-02
DAV:  17    -0.180179049603E+02   -0.13951E-02   -0.43512E-04  1386   0.647E-02    0.389E-02
DAV:  18    -0.180180904996E+02   -0.18554E-03   -0.20011E-05  1507   0.156E-02    0.299E-02
DAV:  19    -0.180183269087E+02   -0.23641E-03   -0.25689E-05  1441   0.124E-02    0.186E-02
DAV:  20    -0.180183976396E+02   -0.70731E-04   -0.10147E-05  1430   0.942E-03    0.269E-03
DAV:  21    -0.180184103241E+02   -0.12684E-04   -0.80558E-07  1144   0.273E-03    0.684E-04
DAV:  22    -0.180184143872E+02   -0.40632E-05   -0.26806E-07  1045   0.138E-03    0.709E-04
DAV:  23    -0.180184149291E+02   -0.54189E-06   -0.25642E-08  1089   0.552E-04
   1 F= -.19187930E+02 E0= -.19187930E+02  d E =-.191879E+02
       N       E                     dE             d eps       ncg     rms          rms(c)
DAV:   1    -0.180197141696E+02   -0.12998E-02   -0.10704E-02  1210   0.407E-01    0.695E-02
DAV:   2    -0.180197334954E+02   -0.19326E-04   -0.42558E-04  1430   0.994E-02    0.471E-02
DAV:   3    -0.180197294080E+02    0.40874E-05   -0.55564E-05  1496   0.409E-02    0.261E-02
DAV:   4    -0.180197257989E+02    0.36091E-05   -0.23365E-05  1529   0.240E-02    0.793E-03
DAV:   5    -0.180197244179E+02    0.13810E-05   -0.37943E-06  1177   0.107E-02    0.176E-03
DAV:   6    -0.180197240630E+02    0.35487E-06   -0.20590E-07  1122   0.286E-03
   2 F= -.19188285E+02 E0= -.19188285E+02  d E =-.354393E-03
       N       E                     dE             d eps       ncg     rms          rms(c)
DAV:   1    -0.180202159340E+02   -0.49152E-03   -0.23218E-03  1287   0.189E-01    0.322E-02
DAV:   2    -0.180202194212E+02   -0.34872E-05   -0.90867E-05  1496   0.461E-02    0.217E-02
DAV:   3    -0.180202180471E+02    0.13741E-05   -0.13237E-05  1529   0.198E-02    0.123E-02
DAV:   4    -0.180202164267E+02    0.16204E-05   -0.49775E-06  1210   0.112E-02    0.301E-03
DAV:   5    -0.180202160429E+02    0.38381E-06   -0.64179E-07  1177   0.467E-03
   3 F= -.19188333E+02 E0= -.19188333E+02  d E =-.480232E-04
       N       E                     dE             d eps       ncg     rms          rms(c)
DAV:   1    -0.180203588090E+02   -0.14238E-03   -0.23081E-04  1430   0.596E-02    0.987E-03
DAV:   2    -0.180203589632E+02   -0.15424E-06   -0.93248E-06  1386   0.148E-02
   4 F= -.19188336E+02 E0= -.19188336E+02  d E =-.307368E-05
       N       E                     dE             d eps       ncg     rms          rms(c)
DAV:   1    -0.180203418008E+02    0.17008E-04   -0.36845E-06  1595   0.937E-03    0.244E-03
DAV:   2    -0.180203417089E+02    0.91879E-07   -0.45815E-07   968   0.351E-03
   5 F= -.19188336E+02 E0= -.19188336E+02  d E =0.452668E-06
       N       E                     dE             d eps       ncg     rms          rms(c)
DAV:   1    -0.180203485773E+02   -0.67764E-05   -0.79667E-07  1078   0.383E-03    0.171E-03
DAV:   2    -0.180203485216E+02    0.55673E-07   -0.50177E-08   924   0.112E-03
   6 F= -.19188335E+02 E0= -.19188335E+02  d E =0.988525E-07
       N       E                     dE             d eps       ncg     rms          rms(c)
DAV:   1    -0.180203534942E+02   -0.49169E-05   -0.39727E-07  1023   0.261E-03    0.788E-04
DAV:   2    -0.180203535023E+02   -0.80940E-08   -0.10460E-07  1144   0.172E-03
   7 F= -.19188335E+02 E0= -.19188335E+02  d E =0.302889E-07
       N       E                     dE             d eps       ncg     rms          rms(c)
DAV:   1    -0.180203516740E+02    0.18202E-05   -0.39551E-08   715   0.105E-03    0.438E-04
DAV:   2    -0.180203517028E+02   -0.28803E-07   -0.54712E-09  1155   0.372E-04
   8 F= -.19188335E+02 E0= -.19188335E+02  d E =-.284275E-07
       N       E                     dE             d eps       ncg     rms          rms(c)
DAV:   1    -0.180203527142E+02   -0.10402E-05   -0.13124E-08  1243   0.534E-04    0.221E-04
DAV:   2    -0.180203527542E+02   -0.39989E-07   -0.34420E-09  1177   0.300E-04
   9 F= -.19188335E+02 E0= -.19188335E+02  d E =-.860699E-07
