cpu-bind=MASK - c046, task  0  0 [294949]: mask 0xfffffffffff0 set
 running  264 mpi-ranks, with    1 threads/rank, on    6 nodes
 distrk:  each k-point on   44 cores,    6 groups
 distr:  one band on    4 cores,   11 groups
 vasp.6.5.1 10Mar25 (build Aug 29 2025 00:30:47) complex                        
  
 POSCAR found type information on POSCAR MoTe
 POSCAR found :  2 types and       3 ions
 scaLAPACK will be used
 -----------------------------------------------------------------------------
|                                                                             |
|               ----> ADVICE to this user running VASP <----                  |
|                                                                             |
|     You have a (more or less) 'small supercell' and for smaller cells       |
|     it is recommended to use the reciprocal-space projection scheme!        |
|     The real-space optimization is not efficient for small cells and it     |
|     is also less accurate ...                                               |
|     Therefore, set LREAL=.FALSE. in the INCAR file.                         |
|                                                                             |
 -----------------------------------------------------------------------------

 LDA part: xc-table for (Slater+PW92), standard interpolation
 POSCAR, INCAR and KPOINTS ok, starting setup
 FFT: planning ... GRIDC
 FFT: planning ... GRID_SOFT
 FFT: planning ... GRID
 WAVECAR not read
 entering main loop
       N       E                     dE             d eps       ncg     rms          rms(c)
DAV:   1     0.995676726553E+02    0.99568E+02   -0.12963E+04  1639   0.907E+02
DAV:   2    -0.128391018316E+02   -0.11241E+03   -0.10778E+03  1551   0.178E+02
DAV:   3    -0.185511038049E+02   -0.57120E+01   -0.56590E+01  1606   0.354E+01
DAV:   4    -0.186927236370E+02   -0.14162E+00   -0.14157E+00  1826   0.548E+00
DAV:   5    -0.186938416944E+02   -0.11181E-02   -0.11180E-02  1727   0.484E-01    0.147E+01
DAV:   6    -0.183262854965E+02    0.36756E+00   -0.37814E+00  1276   0.109E+01    0.645E+00
DAV:   7    -0.182735407566E+02    0.52745E-01   -0.30355E+00  1540   0.903E+00    0.437E+00
DAV:   8    -0.180275634406E+02    0.24598E+00   -0.82535E-01  1441   0.495E+00    0.120E+00
DAV:   9    -0.180237239584E+02    0.38395E-02   -0.59653E-02  1716   0.124E+00    0.790E-01
DAV:  10    -0.180217801042E+02    0.19439E-02   -0.37159E-03  1672   0.373E-01    0.388E-01
DAV:  11    -0.180199865121E+02    0.17936E-02   -0.11588E-03  1628   0.193E-01    0.160E-01
DAV:  12    -0.180187765890E+02    0.12099E-02   -0.57854E-04  1573   0.118E-01    0.564E-02
DAV:  13    -0.180175450305E+02    0.12316E-02   -0.74094E-04  1606   0.120E-01    0.672E-02
DAV:  14    -0.180171536214E+02    0.39141E-03   -0.24055E-04  1309   0.691E-02    0.571E-02
DAV:  15    -0.180159076475E+02    0.12460E-02   -0.75131E-04  1386   0.883E-02    0.586E-02
DAV:  16    -0.180165098170E+02   -0.60217E-03   -0.18393E-04  1397   0.525E-02    0.369E-02
DAV:  17    -0.180179049603E+02   -0.13951E-02   -0.43512E-04  1386   0.647E-02    0.389E-02
DAV:  18    -0.180180904996E+02   -0.18554E-03   -0.20011E-05  1507   0.156E-02    0.299E-02
DAV:  19    -0.180183269087E+02   -0.23641E-03   -0.25689E-05  1441   0.124E-02    0.186E-02
DAV:  20    -0.180183976396E+02   -0.70731E-04   -0.10147E-05  1430   0.942E-03    0.269E-03
DAV:  21    -0.180184103249E+02   -0.12685E-04   -0.81412E-07  1320   0.273E-03    0.691E-04
DAV:  22    -0.180184143808E+02   -0.40559E-05   -0.25432E-07  1166   0.130E-03    0.723E-04
DAV:  23    -0.180184148125E+02   -0.43177E-06   -0.13010E-08  1078   0.425E-04
   1 F= -.19187930E+02 E0= -.19187930E+02  d E =-.191879E+02
 BRION: g(F)=  0.528E-03 g(S)=  0.000E+00
 bond charge predicted
       N       E                     dE             d eps       ncg     rms          rms(c)
DAV:   1    -0.180197140457E+02   -0.12997E-02   -0.10701E-02  1210   0.407E-01    0.695E-02
DAV:   2    -0.180197334117E+02   -0.19366E-04   -0.42611E-04  1452   0.995E-02    0.471E-02
DAV:   3    -0.180197293314E+02    0.40803E-05   -0.55536E-05  1507   0.408E-02    0.261E-02
DAV:   4    -0.180197257295E+02    0.36020E-05   -0.23373E-05  1518   0.240E-02    0.795E-03
DAV:   5    -0.180197243514E+02    0.13781E-05   -0.38760E-06  1474   0.107E-02    0.214E-03
DAV:   6    -0.180197239135E+02    0.43791E-06   -0.19615E-07  1386   0.246E-03
   2 F= -.19188285E+02 E0= -.19188285E+02  d E =-.354423E-03
 BRION: g(F)=  0.534E-04 g(S)=  0.000E+00 retain N=  1 mean eig= 1.47
 eig:   1.467
 bond charge predicted
       N       E                     dE             d eps       ncg     rms          rms(c)
DAV:   1    -0.180202174223E+02   -0.49307E-03   -0.23366E-03  1276   0.190E-01    0.321E-02
DAV:   2    -0.180202209024E+02   -0.34801E-05   -0.91162E-05  1485   0.462E-02    0.219E-02
DAV:   3    -0.180202195105E+02    0.13918E-05   -0.12985E-05  1529   0.197E-02    0.123E-02
DAV:   4    -0.180202179373E+02    0.15733E-05   -0.49741E-06  1430   0.111E-02    0.322E-03
DAV:   5    -0.180202175361E+02    0.40115E-06   -0.64969E-07  1452   0.443E-03
   3 F= -.19188333E+02 E0= -.19188333E+02  d E =-.481507E-04
 BRION: g(F)=  0.299E-05 g(S)=  0.000E+00 retain N=  1 mean eig= 1.92
 eig:   1.921
 bond charge predicted
       N       E                     dE             d eps       ncg     rms          rms(c)
DAV:   1    -0.180203585740E+02   -0.14064E-03   -0.22497E-04  1430   0.588E-02    0.964E-03
DAV:   2    -0.180203587121E+02   -0.13818E-06   -0.90654E-06  1386   0.146E-02
   4 F= -.19188336E+02 E0= -.19188336E+02  d E =-.302433E-05
 BRION: g(F)=  0.543E-07 g(S)=  0.000E+00 retain N=  1 mean eig= 1.69
 eig:   1.693
 bond charge predicted
       N       E                     dE             d eps       ncg     rms          rms(c)
DAV:   1    -0.180203419596E+02    0.16614E-04   -0.35052E-06  1595   0.914E-03    0.243E-03
DAV:   2    -0.180203418711E+02    0.88576E-07   -0.41820E-07  1144   0.332E-03
   5 F= -.19188336E+02 E0= -.19188336E+02  d E =0.441853E-06
 BRION: g(F)=  0.275E-07 g(S)=  0.000E+00 retain N=  1 mean eig= 0.99
 eig:   0.990
 bond charge predicted
       N       E                     dE             d eps       ncg     rms          rms(c)
DAV:   1    -0.180203486454E+02   -0.66858E-05   -0.77899E-07  1452   0.373E-03    0.183E-03
DAV:   2    -0.180203485927E+02    0.52773E-07   -0.40889E-08   957   0.104E-03
   6 F= -.19188335E+02 E0= -.19188335E+02  d E =0.927039E-07
 BRION: g(F)=  0.636E-08 g(S)=  0.000E+00 retain N=  1 mean eig= 1.91
 eig:   1.909
 bond charge predicted
       N       E                     dE             d eps       ncg     rms          rms(c)
DAV:   1    -0.180203548896E+02   -0.62442E-05   -0.57287E-07  1375   0.303E-03    0.102E-03
DAV:   2    -0.180203548892E+02    0.38563E-09   -0.92071E-08  1155   0.160E-03
   7 F= -.19188335E+02 E0= -.19188335E+02  d E =0.301772E-07
 BRION: g(F)=  0.271E-08 g(S)=  0.000E+00 retain N=  1 mean eig= 1.16
 eig:   1.155
 bond charge predicted
       N       E                     dE             d eps       ncg     rms          rms(c)
DAV:   1    -0.180203523893E+02    0.25003E-05   -0.72498E-08  1199   0.132E-03    0.355E-04
DAV:   2    -0.180203524161E+02   -0.26792E-07   -0.37632E-09  1210   0.276E-04
   8 F= -.19188335E+02 E0= -.19188335E+02  d E =-.248957E-07
 BRION: g(F)=  0.104E-08 g(S)=  0.000E+00 retain N=  1 mean eig= 0.71
 eig:   0.714
 bond charge predicted
       N       E                     dE             d eps       ncg     rms          rms(c)
DAV:   1    -0.180203534282E+02   -0.10389E-05   -0.11534E-08  1221   0.440E-04    0.149E-04
DAV:   2    -0.180203534706E+02   -0.42450E-07   -0.73667E-10  1243   0.110E-04
   9 F= -.19188336E+02 E0= -.19188336E+02  d E =-.997095E-07
 BRION: g(F)=  0.642E-10 g(S)=  0.000E+00 retain N=  1 mean eig= 0.95
 eig:   0.950
 bond charge predicted
       N       E                     dE             d eps       ncg     rms          rms(c)
DAV:   1    -0.180203539691E+02   -0.54095E-06   -0.47794E-09  1177   0.236E-04    0.759E-05
DAV:   2    -0.180203540260E+02   -0.56905E-07   -0.91203E-10  1298   0.153E-04
  10 F= -.19188336E+02 E0= -.19188336E+02  d E =-.239154E-06
 BRION: g(F)=  0.122E-10 g(S)=  0.000E+00 retain N=  1 mean eig= 1.68
 eig:   1.682
 bond charge predicted
       N       E                     dE             d eps       ncg     rms          rms(c)
DAV:   1    -0.180203543197E+02   -0.35054E-06   -0.10272E-09  1166   0.153E-04    0.608E-05
DAV:   2    -0.180203543730E+02   -0.53345E-07   -0.28864E-10  1155   0.804E-05
  11 F= -.19188336E+02 E0= -.19188336E+02  d E =-.103141E-06
 BRION: g(F)=  0.745E-11 g(S)=  0.000E+00 retain N=  1 mean eig= 0.94
 eig:   0.944
 bond charge predicted
       N       E                     dE             d eps       ncg     rms          rms(c)
DAV:   1    -0.180203543403E+02   -0.20605E-07   -0.54688E-10  1144   0.107E-04    0.605E-05
DAV:   2    -0.180203543905E+02   -0.50209E-07   -0.49416E-10  1177   0.110E-04
  12 F= -.19188336E+02 E0= -.19188336E+02  d E =-.124511E-06
 BRION: g(F)=  0.122E-12 g(S)=  0.000E+00 retain N=  1 mean eig= 0.84
 eig:   0.837
 bond charge predicted
       N       E                     dE             d eps       ncg     rms          rms(c)
DAV:   1    -0.180203544439E+02   -0.10358E-06   -0.25853E-10  1133   0.822E-05    0.487E-05
DAV:   2    -0.180203544908E+02   -0.46931E-07   -0.15785E-10  1155   0.591E-05
  13 F= -.19188336E+02 E0= -.19188336E+02  d E =-.881471E-07
 BRION: g(F)=  0.254E-11 g(S)=  0.000E+00 retain N=  1 mean eig= 0.15
 eig:   0.151
 bond charge predicted
       N       E                     dE             d eps       ncg     rms          rms(c)
DAV:   1    -0.180203545404E+02   -0.96557E-07   -0.22140E-10  1100   0.689E-05    0.482E-05
DAV:   2    -0.180203545830E+02   -0.42596E-07   -0.24626E-10  1166   0.776E-05
  14 F= -.19188336E+02 E0= -.19188336E+02  d E =-.102188E-06
 BRION: g(F)=  0.193E-11 g(S)=  0.000E+00 retain N=  1 mean eig= 1.17
 eig:   1.175
 bond charge predicted
       N       E                     dE             d eps       ncg     rms          rms(c)
DAV:   1    -0.180203545544E+02   -0.13962E-07   -0.24401E-10  1100   0.759E-05    0.419E-05
DAV:   2    -0.180203545933E+02   -0.38950E-07   -0.14952E-10  1133   0.613E-05
  15 F= -.19188336E+02 E0= -.19188336E+02  d E =-.781431E-07
 BRION: g(F)=  0.729E-13 g(S)=  0.000E+00 retain N=  1 mean eig= 1.46
 eig:   1.458
 reached required accuracy - stopping structural energy minimisation
