<?xml version="1.0" encoding="ISO-8859-1"?>
<modeling>
 <generator>
  <i name="program" type="string">vasp </i>
  <i name="version" type="string">6.5.1  </i>
  <i name="subversion" type="string">10Mar25 (build Aug 29 2025 00:30:47) complex                          parallel </i>
  <i name="platform" type="string">LinuxIFC </i>
  <i name="date" type="string">2026 06 01 </i>
  <i name="time" type="string">17:18:05 </i>
 </generator>
 <incar>
  <i type="string" name="SYSTEM">MoTe2 relaxation</i>
  <i type="string" name="PREC">Accurate</i>
  <i type="string" name="ALGO">Normal</i>
  <i name="AMIN">      0.01000000</i>
  <i type="int" name="NELM">   200</i>
  <i type="int" name="IBRION">     1</i>
  <i name="EDIFF">      0.00000100</i>
  <i name="EDIFFG">     -0.00010000</i>
  <i type="int" name="NSW">   600</i>
  <i type="int" name="ISIF">     2</i>
  <i name="ENCUT">    520.00000000</i>
  <i type="string" name="LREAL">Auto</i>
  <i type="int" name="ISMEAR">     0</i>
  <i name="SIGMA">      0.05000000</i>
  <i type="logical" name="LWAVE"> F  </i>
  <i type="logical" name="LCHARG"> F  </i>
  <i type="int" name="IVDW">    12</i>
 </incar>
 <primitive_cell>
  <structure name="primitive_cell" >
   <crystal>
    <varray name="basis" >
     <v>       3.56565456       0.00000000       0.00000000 </v>
     <v>       1.78282728       3.08794743       0.00000000 </v>
     <v>       0.00000000       0.00000000      20.00000000 </v>
    </varray>
    <i name="volume">    220.21107662 </i>
    <varray name="rec_basis" >
     <v>       0.28045342      -0.16191985       0.00000000 </v>
     <v>       0.00000000       0.32383971       0.00000000 </v>
     <v>       0.00000000       0.00000000       0.05000000 </v>
    </varray>
   </crystal>
   <varray name="positions" >
    <v>       0.00000000       0.00000000       0.50000000 </v>
    <v>       0.33333333       0.33333333       0.41051869 </v>
    <v>       0.33333333       0.33333333       0.58948131 </v>
   </varray>
  </structure>
  <varray name="primitive_index" >
   <v type="int" >        1 </v>
   <v type="int" >        2 </v>
   <v type="int" >        3 </v>
  </varray>
 </primitive_cell>
 <kpoints>
  <generation param="Gamma">
   <v type="int" name="divisions">      15       15        1 </v>
   <v name="usershift">      0.00000000       0.00000000       0.00000000 </v>
   <v name="genvec1">      0.06666667      -0.00000000       0.00000000 </v>
   <v name="genvec2">      0.00000000       0.06666667       0.00000000 </v>
   <v name="genvec3">      0.00000000       0.00000000       1.00000000 </v>
   <v name="shift">      0.00000000       0.00000000       0.00000000 </v>
  </generation>
  <varray name="kpointlist" >
   <v>       0.00000000       0.00000000       0.00000000 </v>
   <v>       0.06666667       0.00000000       0.00000000 </v>
   <v>       0.13333333       0.00000000       0.00000000 </v>
   <v>       0.20000000       0.00000000       0.00000000 </v>
   <v>       0.26666667       0.00000000       0.00000000 </v>
   <v>       0.33333333       0.00000000       0.00000000 </v>
   <v>       0.40000000       0.00000000       0.00000000 </v>
   <v>       0.46666667       0.00000000       0.00000000 </v>
   <v>       0.13333333       0.06666667       0.00000000 </v>
   <v>       0.20000000       0.06666667       0.00000000 </v>
   <v>       0.26666667       0.06666667       0.00000000 </v>
   <v>       0.33333333       0.06666667       0.00000000 </v>
   <v>       0.40000000       0.06666667       0.00000000 </v>
   <v>       0.46666667       0.06666667       0.00000000 </v>
   <v>      -0.46666667       0.06666667       0.00000000 </v>
   <v>       0.26666667       0.13333333       0.00000000 </v>
   <v>       0.33333333       0.13333333       0.00000000 </v>
   <v>       0.40000000       0.13333333       0.00000000 </v>
   <v>       0.46666667       0.13333333       0.00000000 </v>
   <v>      -0.46666667       0.13333333       0.00000000 </v>
   <v>       0.40000000       0.20000000       0.00000000 </v>
   <v>       0.46666667       0.20000000       0.00000000 </v>
   <v>      -0.46666667       0.20000000       0.00000000 </v>
   <v>      -0.40000000       0.20000000       0.00000000 </v>
   <v>      -0.46666667       0.26666667       0.00000000 </v>
   <v>      -0.40000000       0.26666667       0.00000000 </v>
   <v>      -0.33333333       0.33333333       0.00000000 </v>
  </varray>
  <varray name="weights" >
   <v>       0.00444444 </v>
   <v>       0.02666667 </v>
   <v>       0.02666667 </v>
   <v>       0.02666667 </v>
   <v>       0.02666667 </v>
   <v>       0.02666667 </v>
   <v>       0.02666667 </v>
   <v>       0.02666667 </v>
   <v>       0.02666667 </v>
   <v>       0.05333333 </v>
   <v>       0.05333333 </v>
   <v>       0.05333333 </v>
   <v>       0.05333333 </v>
   <v>       0.05333333 </v>
   <v>       0.02666667 </v>
   <v>       0.02666667 </v>
   <v>       0.05333333 </v>
   <v>       0.05333333 </v>
   <v>       0.05333333 </v>
   <v>       0.05333333 </v>
   <v>       0.02666667 </v>
   <v>       0.05333333 </v>
   <v>       0.05333333 </v>
   <v>       0.02666667 </v>
   <v>       0.02666667 </v>
   <v>       0.05333333 </v>
   <v>       0.00888889 </v>
  </varray>
 </kpoints>
 <parameters>
  <separator name="general" >
   <i type="string" name="SYSTEM">MoTe2 relaxation</i>
   <i type="logical" name="LCOMPAT"> F  </i>
  </separator>
  <separator name="electronic" >
   <i type="string" name="PREC">accura</i>
   <i name="ENMAX">    520.00000000</i>
   <i name="ENAUG">    446.01400000</i>
   <i name="EDIFF">      0.00000100</i>
   <i type="int" name="IALGO">    38</i>
   <i type="int" name="IWAVPR">    11</i>
   <i type="int" name="NBANDS">    22</i>
   <i type="int" name="NBANDSLOW">    -1</i>
   <i type="int" name="NBANDSHIGH">    -1</i>
   <i name="NELECT">     26.00000000</i>
   <i type="int" name="TURBO">     0</i>
   <i type="int" name="IRESTART">     0</i>
   <i type="int" name="NREBOOT">     0</i>
   <i type="int" name="NMIN">     0</i>
   <i name="EREF">      0.00000000</i>
   <separator name="electronic smearing" >
    <i type="int" name="ISMEAR">     0</i>
    <i name="SIGMA">      0.05000000</i>
    <i name="KSPACING">      0.50000000</i>
    <i type="logical" name="KGAMMA"> T  </i>
    <i type="logical" name="KBLOWUP"> T  </i>
   </separator>
   <separator name="electronic projectors" >
    <i type="logical" name="LREAL"> T  </i>
    <v name="ROPT">     -0.00025000     -0.00025000</v>
    <i type="int" name="LMAXPAW">  -100</i>
    <i type="int" name="LMAXMIX">     2</i>
    <i type="logical" name="NLSPLINE"> F  </i>
   </separator>
   <separator name="electronic startup" >
    <i type="int" name="ISTART">     0</i>
    <i type="int" name="ICHARG">     2</i>
    <i type="int" name="INIWAV">     1</i>
   </separator>
   <separator name="electronic spin" >
    <i type="int" name="ISPIN">     1</i>
    <i type="logical" name="LNONCOLLINEAR"> F  </i>
    <v name="MAGMOM">      1.00000000      1.00000000      1.00000000</v>
    <i name="NUPDOWN">     -1.00000000</i>
    <i type="logical" name="LSORBIT"> F  </i>
    <v name="SAXIS">      0.00000000      0.00000000      1.00000000</v>
    <i type="logical" name="LSPIRAL"> F  </i>
    <v name="QSPIRAL">      0.00000000      0.00000000      0.00000000</v>
    <i type="logical" name="LZEROZ"> F  </i>
   </separator>
   <separator name="electronic exchange-correlation" >
    <i type="logical" name="LASPH"> F  </i>
   </separator>
   <separator name="electronic convergence" >
    <i type="int" name="NELM">   200</i>
    <i type="int" name="NELMDL">    -5</i>
    <i type="int" name="NELMIN">     2</i>
    <i name="ENINI">    520.00000000</i>
    <separator name="electronic convergence detail" >
     <i type="logical" name="LDIAG"> T  </i>
     <i type="logical" name="LSUBROT"> F  </i>
     <i type="logical" name="LROBUST"> F  </i>
     <i type="int" name="ISEARCH">     0</i>
     <i name="WEIMIN">      0.00100000</i>
     <i name="EBREAK">      0.00000001</i>
     <i name="DEPER">      0.30000000</i>
     <i type="int" name="NRMM">     4</i>
     <i name="TIME">      0.40000000</i>
    </separator>
   </separator>
   <separator name="electronic mixer" >
    <i name="AMIX">      0.40000000</i>
    <i name="BMIX">      1.00000000</i>
    <i name="AMIN">      0.01000000</i>
    <i name="AMIX_MAG">      1.60000000</i>
    <i name="BMIX_MAG">      1.00000000</i>
    <separator name="electronic mixer details" >
     <i type="int" name="IMIX">     4</i>
     <i type="logical" name="MIXFIRST"> F  </i>
     <i type="int" name="MAXMIX">   -45</i>
     <i name="WC">    100.00000000</i>
     <i type="int" name="INIMIX">     1</i>
     <i type="int" name="MIXPRE">     1</i>
     <i type="int" name="MREMOVE">     5</i>
    </separator>
   </separator>
   <separator name="electronic dipolcorrection" >
    <i type="logical" name="LDIPOL"> F  </i>
    <i type="logical" name="LMONO"> F  </i>
    <i type="int" name="IDIPOL">     0</i>
    <i name="EPSILON">      1.00000000</i>
    <v name="DIPOL">   -100.00000000   -100.00000000   -100.00000000</v>
    <i name="EFIELD">      0.00000000</i>
    <i type="logical" name="LVACPOTAV"> F  </i>
   </separator>
  </separator>
  <separator name="grids" >
   <i type="int" name="NGX">    28</i>
   <i type="int" name="NGY">    28</i>
   <i type="int" name="NGZ">   150</i>
   <i type="int" name="NGXF">    56</i>
   <i type="int" name="NGYF">    56</i>
   <i type="int" name="NGZF">   300</i>
   <i type="logical" name="ADDGRID"> F  </i>
  </separator>
  <separator name="ionic" >
   <i type="int" name="NSW">   600</i>
   <i type="int" name="IBRION">     1</i>
   <i type="int" name="MDALGO">     0</i>
   <i type="int" name="ISIF">     2</i>
   <i name="PSTRESS">      0.00000000</i>
   <i name="EDIFFG">     -0.00010000</i>
   <i type="int" name="NFREE">     0</i>
   <i name="POTIM">      0.50000000</i>
   <i name="SMASS">     -3.00000000</i>
   <i name="SCALEE">      1.00000000</i>
  </separator>
  <separator name="ionic md" >
   <i name="TEBEG">      0.00010000</i>
   <i name="TEEND">      0.00010000</i>
   <i type="int" name="NBLOCK">     1</i>
   <i type="int" name="KBLOCK">   600</i>
   <i type="int" name="NPACO">   256</i>
   <i name="APACO">     10.00000000</i>
  </separator>
  <separator name="symmetry" >
   <i type="int" name="ISYM">     2</i>
   <i name="SYMPREC">      0.00001000</i>
  </separator>
  <separator name="dos" >
   <i type="int" name="LORBIT">     0</i>
   <v name="RWIGS">     -1.00000000     -1.00000000</v>
   <i type="int" name="NEDOS">   301</i>
   <i name="EMIN">     10.00000000</i>
   <i name="EMAX">    -10.00000000</i>
   <i name="EFERMI">      0.00000000</i>
  </separator>
  <separator name="writing" >
   <i type="int" name="NWRITE">     2</i>
   <i type="logical" name="LWAVE"> F  </i>
   <i type="logical" name="LDOWNSAMPLE"> F  </i>
   <i type="logical" name="LCHARG"> F  </i>
   <i type="logical" name="LPARD"> F  </i>
   <i type="logical" name="LVTOT"> F  </i>
   <i type="logical" name="LVHAR"> F  </i>
   <i type="logical" name="LELF"> F  </i>
   <i type="logical" name="LOPTICS"> F  </i>
   <v name="STM">      0.00000000      0.00000000      0.00000000      0.00000000      0.00000000      0.00000000      0.00000000</v>
  </separator>
  <separator name="performance" >
   <i type="int" name="NPAR">    11</i>
   <i type="int" name="NSIM">     4</i>
   <i type="int" name="NBLK">    -1</i>
   <i type="logical" name="LPLANE"> T  </i>
   <i type="logical" name="LSCALAPACK"> T  </i>
   <i type="logical" name="LSCAAWARE"> F  </i>
   <i type="logical" name="LSCALU"> F  </i>
   <i type="logical" name="LASYNC"> F  </i>
   <i type="logical" name="LORBITALREAL"> F  </i>
  </separator>
  <separator name="miscellaneous" >
   <i type="int" name="IDIOT">     3</i>
   <i type="int" name="PHON_NSTRUCT">    -1</i>
   <i type="logical" name="LMUSIC"> F  </i>
   <v name="POMASS">     95.94000000    127.60000000</v>
   <v name="DARWINR">      0.00000000      0.00000000</v>
   <v name="DARWINV">      1.00000000      1.00000000</v>
   <i type="logical" name="LCORR"> T  </i>
  </separator>
  <i type="logical" name="GGA_COMPAT"> T  </i>
  <i type="logical" name="LBERRY"> F  </i>
  <i type="int" name="ICORELEVEL">     0</i>
  <i type="logical" name="LDAU"> F  </i>
  <i type="int" name="I_CONSTRAINED_M">     0</i>
  <separator name="electronic exchange-correlation" >
   <i type="string" name="GGA    ">PE</i>
   <i type="string" name="XC_C">1</i>
   <i type="int" name="VOSKOWN">     0</i>
   <i type="logical" name="LHFCALC"> F  </i>
   <i type="string" name="PRECFOCK"></i>
   <i type="logical" name="LSYMGRAD"> F  </i>
   <i type="logical" name="LHFONE"> F  </i>
   <i type="logical" name="LRHFCALC"> F  </i>
   <i type="logical" name="LTHOMAS"> F  </i>
   <i type="logical" name="LMODELHF"> F  </i>
   <i type="logical" name="LFOCKACE"> F  </i>
   <i name="ENCUT4O">     -1.00000000</i>
   <i type="int" name="EXXOEP">     0</i>
   <i type="int" name="FOURORBIT">     0</i>
   <i name="AEXX">      0.00000000</i>
   <i name="HFALPHA">      0.00000000</i>
   <i name="MCALPHA">      0.00000000</i>
   <i name="ALDAX">      1.00000000</i>
   <i name="AGGAX">      1.00000000</i>
   <i name="AMGGAX">      1.00000000</i>
   <i name="ALDAC">      1.00000000</i>
   <i name="AGGAC">      1.00000000</i>
   <i name="AMGGAC">      1.00000000</i>
   <i type="int" name="NKREDX">     1</i>
   <i type="int" name="NKREDY">     1</i>
   <i type="int" name="NKREDZ">     1</i>
   <i type="logical" name="SHIFTRED"> F  </i>
   <i type="logical" name="ODDONLY"> F  </i>
   <i type="logical" name="EVENONLY"> F  </i>
   <i type="int" name="LMAXFOCK">     0</i>
   <i type="int" name="NMAXFOCKAE">     0</i>
   <i type="logical" name="LFOCKAEDFT"> F  </i>
   <i name="HFSCREEN">      0.00000000</i>
   <i name="HFSCREENC">      0.00000000</i>
   <i type="int" name="NBANDSGWLOW">     0</i>
  </separator>
  <separator name="vdW DFT" >
   <i type="logical" name="LUSE_VDW"> F  </i>
   <i type="int" name="IVDW_NL">    -1</i>
   <i type="logical" name="LSPIN_VDW"> F  </i>
   <i name="ZAB_VDW">     -0.84910000</i>
   <i name="GAMMA_VDW">      1.39626340</i>
   <i name="ALPHA_VDW">      0.00000000</i>
   <i name="PARAM1">      0.12340000</i>
   <i name="PARAM2">      1.00000000</i>
   <i name="BPARAM">      6.30000000</i>
   <i name="CPARAM">      0.00930000</i>
  </separator>
  <separator name="model GW" >
   <i type="int" name="MODEL_GW">     0</i>
   <i name="MODEL_EPS0">     44.04221532</i>
   <i name="MODEL_ALPHA">      1.00000000</i>
  </separator>
  <separator name="linear response parameters" >
   <i type="logical" name="LEPSILON"> F  </i>
   <i type="logical" name="LRPA"> F  </i>
   <i type="logical" name="LNABLA"> F  </i>
   <i type="logical" name="LVEL"> F  </i>
   <i name="CSHIFT">      0.10000000</i>
   <i name="OMEGAMAX">     -1.00000000</i>
   <i name="DEG_THRESHOLD">      0.00200000</i>
   <i name="RTIME">     -0.10000000</i>
   <i name="WPLASMAI">      0.00000000</i>
   <v name="DFIELD">      0.00000000      0.00000000      0.00000000</v>
   <v name="WPLASMA">      0.00000000      0.00000000      0.00000000      0.00000000      0.00000000      0.00000000      0.00000000      0.00000000      0.00000000</v>
  </separator>
  <separator name="orbital magnetization" >
   <i type="logical" name="NUCIND"> F  </i>
   <v name="MAGPOS">      0.00000000      0.00000000      0.00000000</v>
   <i type="logical" name="LNICSALL"> T  </i>
   <i type="logical" name="ORBITALMAG"> F  </i>
   <i type="logical" name="LMAGBLOCH"> F  </i>
   <i type="logical" name="LCHIMAG"> F  </i>
   <i type="logical" name="LGAUGE"> T  </i>
   <i type="int" name="MAGATOM">     0</i>
   <v name="MAGDIPOL">      0.00000000      0.00000000      0.00000000</v>
   <v name="AVECCONST">      0.00000000      0.00000000      0.00000000</v>
  </separator>
  <separator name="response functions" >
   <i type="logical" name="LALL_IN_ONE"> F  </i>
   <i type="int" name="IALL_IN_ONE">    -1</i>
   <i type="int" name="NBANDS_WAVE">    -1</i>
   <i type="logical" name="LFINITE_TEMPERATURE"> F  </i>
   <i type="logical" name="LADDER"> F  </i>
   <i type="logical" name="LRPAFORCE"> F  </i>
   <i type="logical" name="LFXC"> F  </i>
   <i type="logical" name="LHARTREE"> T  </i>
   <i type="int" name="IBSE">     2</i>
   <v type="int" name="KPOINT">    -1     0     0     0</v>
   <i type="logical" name="LTCTC"> F  </i>
   <i type="logical" name="LTCTE"> F  </i>
   <i type="logical" name="LTETE"> F  </i>
   <i type="logical" name="LTRIPLET"> F  </i>
   <i type="logical" name="LFXCEPS"> F  </i>
   <i type="logical" name="LFXHEG"> F  </i>
   <i type="int" name="NATURALO">     2</i>
   <i type="logical" name="LHOLEGF"> F  </i>
   <i type="logical" name="L2ORDER"> F  </i>
   <i type="logical" name="LDMP1"> F  </i>
   <i type="logical" name="LMP2LT"> F  </i>
   <i type="logical" name="LSMP2LT"> F  </i>
   <i type="logical" name="LGWLF"> F  </i>
   <i name="ENCUTGW">     -1.60000002</i>
   <i name="ENCUTGWSOFT">     -1.60000002</i>
   <i name="ENCUTLF">     -1.00000000</i>
   <i type="logical" name="ESF_SPLINES"> F  </i>
   <i name="ESF_CONV">      0.01000000</i>
   <i type="int" name="ESF_NINTER">    15</i>
   <i type="int" name="LMAXMP2">    -1</i>
   <i name="SCISSOR">      0.00000000</i>
   <i type="int" name="NOMEGA">     0</i>
   <i type="int" name="NOMEGAR">     0</i>
   <i type="int" name="NBANDSGW">    -1</i>
   <i type="int" name="NBANDSO">    -1</i>
   <i type="int" name="NBANDSV">    -1</i>
   <i type="int" name="NELMGW">     1</i>
   <i type="int" name="NELMHF">     1</i>
   <i type="int" name="DIM">     3</i>
   <i type="int" name="IESPILON">     4</i>
   <i type="int" name="ANTIRES">     0</i>
   <i name="OMEGAMAX">    -30.00000000</i>
   <i name="OMEGAMIN">    -30.00000000</i>
   <i name="OMEGATL">   -200.00000000</i>
   <i type="int" name="OMEGAGRID">     0</i>
   <i name="CSHIFT">     -0.10000000</i>
   <i type="logical" name="LSELFENERGY"> F  </i>
   <i type="logical" name="LSPECTRAL"> F  </i>
   <i type="logical" name="LSPECTRALGW"> F  </i>
   <i type="logical" name="LSINGLES"> F  </i>
   <i type="logical" name="LFERMIGW"> F  </i>
   <i type="logical" name="ODDONLYGW"> F  </i>
   <i type="logical" name="EVENONLYGW"> F  </i>
   <i type="int" name="NKREDLFX">     1</i>
   <i type="int" name="NKREDLFY">     1</i>
   <i type="int" name="NKREDLFZ">     1</i>
   <i type="int" name="MAXMEM">  2800</i>
   <i type="int" name="TELESCOPE">     0</i>
   <i type="int" name="NTAUPAR">    -1</i>
   <i type="int" name="NOMEGAPAR">    -1</i>
   <i name="DAMP_NEWTON">      0.80000001</i>
   <i name="LAMBDA">      1.00000000</i>
  </separator>
  <separator name="External order field" >
   <i name="OFIELD_KAPPA">      0.00000000</i>
   <v name="OFIELD_K">      0.00000000      0.00000000      0.00000000</v>
   <i name="OFIELD_Q6_NEAR">      0.00000000</i>
   <i name="OFIELD_Q6_FAR">      0.00000000</i>
   <i name="OFIELD_A">      0.00000000</i>
  </separator>
  <separator name="optional k-points parameters" >
   <i type="int" name="KPOINTS_OPT_MODE">     1</i>
   <i type="logical" name="LKPOINTS_OPT"> F  </i>
  </separator>
 </parameters>
 <atominfo>
  <atoms>       3 </atoms>
  <types>       2 </types>
  <array name="atoms" >
   <dimension dim="1">ion</dimension>
   <field type="string">element</field>
   <field type="int">atomtype</field>
   <set>
    <rc><c>Mo</c><c>   1</c></rc>
    <rc><c>Te</c><c>   2</c></rc>
    <rc><c>Te</c><c>   2</c></rc>
   </set>
  </array>
  <array name="atomtypes" >
   <dimension dim="1">type</dimension>
   <field type="int">atomspertype</field>
   <field type="string">element</field>
   <field>mass</field>
   <field>valence</field>
   <field type="string">pseudopotential</field>
   <set>
    <rc><c>   1</c><c>Mo</c><c>     95.94000000</c><c>     14.00000000</c><c>  PAW_PBE Mo_sv 02Feb2006               </c></rc>
    <rc><c>   2</c><c>Te</c><c>    127.60000000</c><c>      6.00000000</c><c>  PAW_PBE Te 08Apr2002                  </c></rc>
   </set>
  </array>
 </atominfo>
 <structure name="initialpos" >
  <crystal>
   <varray name="basis" >
    <v>       3.56565456       0.00000000       0.00000000 </v>
    <v>       1.78282728       3.08794743       0.00000000 </v>
    <v>       0.00000000       0.00000000      20.00000000 </v>
   </varray>
   <i name="volume">    220.21107662 </i>
   <varray name="rec_basis" >
    <v>       0.28045342      -0.16191985       0.00000000 </v>
    <v>       0.00000000       0.32383971       0.00000000 </v>
    <v>       0.00000000       0.00000000       0.05000000 </v>
   </varray>
  </crystal>
  <varray name="positions" >
   <v>       0.00000000       0.00000000       0.50000000 </v>
   <v>       0.33333333       0.33333333       0.41051869 </v>
   <v>       0.33333333       0.33333333       0.58948131 </v>
  </varray>
 </structure>
 <calculation>
  <scstep>
   <time name="dav">    0.10    0.11</time>
   <time name="total">    0.13    0.14</time>
   <energy>
    <i name="alphaZ">     16.56392204 </i>
    <i name="ewald">   3809.91197602 </i>
    <i name="hartreedc">  -5831.47601446 </i>
    <i name="XCdc">     10.44888381 </i>
    <i name="pawpsdc">   1913.30911084 </i>
    <i name="pawaedc">  -1817.85566431 </i>
    <i name="eentropy">     -0.00170097 </i>
    <i name="bandstr">   -310.15529830 </i>
    <i name="atom">   2308.82245799 </i>
    <i name="e_fr_energy">     99.56767266 </i>
    <i name="e_wo_entrp">     99.56937362 </i>
    <i name="e_0_energy">     99.56852314 </i>
   </energy>
  </scstep>
  <scstep>
   <time name="dav">    0.08    0.08</time>
   <time name="total">    0.08    0.08</time>
   <energy>
    <i name="e_fr_energy">    -12.83910183 </i>
    <i name="e_wo_entrp">    -12.83910183 </i>
    <i name="e_0_energy">    -12.83910183 </i>
   </energy>
  </scstep>
  <scstep>
   <time name="dav">    0.08    0.08</time>
   <time name="total">    0.08    0.08</time>
   <energy>
    <i name="e_fr_energy">    -18.55110380 </i>
    <i name="e_wo_entrp">    -18.55110380 </i>
    <i name="e_0_energy">    -18.55110380 </i>
   </energy>
  </scstep>
  <scstep>
   <time name="dav">    0.08    0.09</time>
   <time name="total">    0.08    0.09</time>
   <energy>
    <i name="e_fr_energy">    -18.69272364 </i>
    <i name="e_wo_entrp">    -18.69272364 </i>
    <i name="e_0_energy">    -18.69272364 </i>
   </energy>
  </scstep>
  <scstep>
   <time name="dav">    0.08    0.08</time>
   <time name="total">    0.10    0.10</time>
   <energy>
    <i name="e_fr_energy">    -18.69384169 </i>
    <i name="e_wo_entrp">    -18.69384169 </i>
    <i name="e_0_energy">    -18.69384169 </i>
   </energy>
  </scstep>
  <scstep>
   <time name="dav">    0.07    0.07</time>
   <time name="total">    0.10    0.10</time>
   <energy>
    <i name="e_fr_energy">    -18.32628550 </i>
    <i name="e_wo_entrp">    -18.32628550 </i>
    <i name="e_0_energy">    -18.32628550 </i>
   </energy>
  </scstep>
  <scstep>
   <time name="dav">    0.07    0.07</time>
   <time name="total">    0.11    0.11</time>
   <energy>
    <i name="e_fr_energy">    -18.27354076 </i>
    <i name="e_wo_entrp">    -18.27354076 </i>
    <i name="e_0_energy">    -18.27354076 </i>
   </energy>
  </scstep>
  <scstep>
   <time name="dav">    0.07    0.07</time>
   <time name="total">    0.11    0.11</time>
   <energy>
    <i name="e_fr_energy">    -18.02756344 </i>
    <i name="e_wo_entrp">    -18.02756344 </i>
    <i name="e_0_energy">    -18.02756344 </i>
   </energy>
  </scstep>
  <scstep>
   <time name="dav">    0.08    0.08</time>
   <time name="total">    0.12    0.12</time>
   <energy>
    <i name="e_fr_energy">    -18.02372396 </i>
    <i name="e_wo_entrp">    -18.02372396 </i>
    <i name="e_0_energy">    -18.02372396 </i>
   </energy>
  </scstep>
  <scstep>
   <time name="dav">    0.08    0.08</time>
   <time name="total">    0.12    0.12</time>
   <energy>
    <i name="e_fr_energy">    -18.02178010 </i>
    <i name="e_wo_entrp">    -18.02178010 </i>
    <i name="e_0_energy">    -18.02178010 </i>
   </energy>
  </scstep>
  <scstep>
   <time name="dav">    0.08    0.08</time>
   <time name="total">    0.12    0.13</time>
   <energy>
    <i name="e_fr_energy">    -18.01998651 </i>
    <i name="e_wo_entrp">    -18.01998651 </i>
    <i name="e_0_energy">    -18.01998651 </i>
   </energy>
  </scstep>
  <scstep>
   <time name="dav">    0.08    0.08</time>
   <time name="total">    0.12    0.12</time>
   <energy>
    <i name="e_fr_energy">    -18.01877659 </i>
    <i name="e_wo_entrp">    -18.01877659 </i>
    <i name="e_0_energy">    -18.01877659 </i>
   </energy>
  </scstep>
  <scstep>
   <time name="dav">    0.08    0.08</time>
   <time name="total">    0.12    0.12</time>
   <energy>
    <i name="e_fr_energy">    -18.01754503 </i>
    <i name="e_wo_entrp">    -18.01754503 </i>
    <i name="e_0_energy">    -18.01754503 </i>
   </energy>
  </scstep>
  <scstep>
   <time name="dav">    0.07    0.07</time>
   <time name="total">    0.11    0.11</time>
   <energy>
    <i name="e_fr_energy">    -18.01715362 </i>
    <i name="e_wo_entrp">    -18.01715362 </i>
    <i name="e_0_energy">    -18.01715362 </i>
   </energy>
  </scstep>
  <scstep>
   <time name="dav">    0.07    0.07</time>
   <time name="total">    0.10    0.11</time>
   <energy>
    <i name="e_fr_energy">    -18.01590765 </i>
    <i name="e_wo_entrp">    -18.01590765 </i>
    <i name="e_0_energy">    -18.01590765 </i>
   </energy>
  </scstep>
  <scstep>
   <time name="dav">    0.07    0.07</time>
   <time name="total">    0.11    0.11</time>
   <energy>
    <i name="e_fr_energy">    -18.01650982 </i>
    <i name="e_wo_entrp">    -18.01650982 </i>
    <i name="e_0_energy">    -18.01650982 </i>
   </energy>
  </scstep>
  <scstep>
   <time name="dav">    0.07    0.07</time>
   <time name="total">    0.10    0.11</time>
   <energy>
    <i name="e_fr_energy">    -18.01790496 </i>
    <i name="e_wo_entrp">    -18.01790496 </i>
    <i name="e_0_energy">    -18.01790496 </i>
   </energy>
  </scstep>
  <scstep>
   <time name="dav">    0.07    0.08</time>
   <time name="total">    0.11    0.11</time>
   <energy>
    <i name="e_fr_energy">    -18.01809050 </i>
    <i name="e_wo_entrp">    -18.01809050 </i>
    <i name="e_0_energy">    -18.01809050 </i>
   </energy>
  </scstep>
  <scstep>
   <time name="dav">    0.07    0.08</time>
   <time name="total">    0.11    0.11</time>
   <energy>
    <i name="e_fr_energy">    -18.01832691 </i>
    <i name="e_wo_entrp">    -18.01832691 </i>
    <i name="e_0_energy">    -18.01832691 </i>
   </energy>
  </scstep>
  <scstep>
   <time name="dav">    0.07    0.07</time>
   <time name="total">    0.11    0.11</time>
   <energy>
    <i name="e_fr_energy">    -18.01839764 </i>
    <i name="e_wo_entrp">    -18.01839764 </i>
    <i name="e_0_energy">    -18.01839764 </i>
   </energy>
  </scstep>
  <scstep>
   <time name="dav">    0.06    0.07</time>
   <time name="total">    0.10    0.10</time>
   <energy>
    <i name="e_fr_energy">    -18.01841032 </i>
    <i name="e_wo_entrp">    -18.01841032 </i>
    <i name="e_0_energy">    -18.01841032 </i>
   </energy>
  </scstep>
  <scstep>
   <time name="dav">    0.06    0.06</time>
   <time name="total">    0.09    0.10</time>
   <energy>
    <i name="e_fr_energy">    -18.01841439 </i>
    <i name="e_wo_entrp">    -18.01841439 </i>
    <i name="e_0_energy">    -18.01841439 </i>
   </energy>
  </scstep>
  <scstep>
   <time name="dav">    0.06    0.06</time>
   <time name="total">    0.08    0.08</time>
   <energy>
    <i name="alphaZ">     16.56392204 </i>
    <i name="ewald">   3809.91197602 </i>
    <i name="hartreedc">  -5835.05469002 </i>
    <i name="XCdc">      9.93966122 </i>
    <i name="pawpsdc">   2601.06174393 </i>
    <i name="pawaedc">  -2508.26558516 </i>
    <i name="eentropy">     -0.00000000 </i>
    <i name="bandstr">   -420.99790095 </i>
    <i name="atom">   2308.82245799 </i>
    <i name="e_fr_energy">    -18.01841493 </i>
    <i name="e_wo_entrp">    -18.01841493 </i>
    <i name="e_0_energy">    -18.01841493 </i>
   </energy>
  </scstep>
  <structure>
   <crystal>
    <varray name="basis" >
     <v>       3.56565456       0.00000000       0.00000000 </v>
     <v>       1.78282728       3.08794743       0.00000000 </v>
     <v>       0.00000000       0.00000000      20.00000000 </v>
    </varray>
    <i name="volume">    220.21107662 </i>
    <varray name="rec_basis" >
     <v>       0.28045342      -0.16191985       0.00000000 </v>
     <v>       0.00000000       0.32383971       0.00000000 </v>
     <v>       0.00000000       0.00000000       0.05000000 </v>
    </varray>
   </crystal>
   <varray name="positions" >
    <v>       0.00000000       0.00000000       0.50000000 </v>
    <v>       0.33333333       0.33333333       0.41051869 </v>
    <v>       0.33333333       0.33333333       0.58948131 </v>
   </varray>
  </structure>
  <varray name="forces" >
   <v>      -0.00000000      -0.00000000      -0.00000000 </v>
   <v>       0.00000000       0.00000000      -0.07397511 </v>
   <v>       0.00000000      -0.00000000       0.07397511 </v>
  </varray>
  <varray name="stress" >
   <v>      -8.18822485       0.00000000      -0.00000000 </v>
   <v>      -0.00000000      -8.18822485       0.00000000 </v>
   <v>       0.00000000       0.00000000       1.87336543 </v>
  </varray>
  <energy>
   <i name="e_fr_energy">    -19.18793047 </i>
   <i name="e_wo_entrp">    -19.18793047 </i>
   <i name="e_0_energy">    -19.18793047 </i>
  </energy>
  <time name="totalsc">    2.64    2.73</time>
 </calculation>
 <calculation>
  <scstep>
   <time name="dav">    0.06    0.06</time>
   <time name="total">    0.09    0.10</time>
   <energy>
    <i name="alphaZ">     16.56392204 </i>
    <i name="ewald">   3804.84818366 </i>
    <i name="hartreedc">  -5830.13577144 </i>
    <i name="XCdc">      9.92007840 </i>
    <i name="pawpsdc">   2601.07172610 </i>
    <i name="pawaedc">  -2508.27556384 </i>
    <i name="eentropy">     -0.00000000 </i>
    <i name="bandstr">   -420.83474709 </i>
    <i name="atom">   2308.82245799 </i>
    <i name="e_fr_energy">    -18.01971417 </i>
    <i name="e_wo_entrp">    -18.01971417 </i>
    <i name="e_0_energy">    -18.01971417 </i>
   </energy>
  </scstep>
  <scstep>
   <time name="dav">    0.07    0.07</time>
   <time name="total">    0.11    0.11</time>
   <energy>
    <i name="e_fr_energy">    -18.01973350 </i>
    <i name="e_wo_entrp">    -18.01973350 </i>
    <i name="e_0_energy">    -18.01973350 </i>
   </energy>
  </scstep>
  <scstep>
   <time name="dav">    0.07    0.07</time>
   <time name="total">    0.11    0.11</time>
   <energy>
    <i name="e_fr_energy">    -18.01972941 </i>
    <i name="e_wo_entrp">    -18.01972941 </i>
    <i name="e_0_energy">    -18.01972941 </i>
   </energy>
  </scstep>
  <scstep>
   <time name="dav">    0.07    0.07</time>
   <time name="total">    0.11    0.11</time>
   <energy>
    <i name="e_fr_energy">    -18.01972580 </i>
    <i name="e_wo_entrp">    -18.01972580 </i>
    <i name="e_0_energy">    -18.01972580 </i>
   </energy>
  </scstep>
  <scstep>
   <time name="dav">    0.06    0.06</time>
   <time name="total">    0.10    0.10</time>
   <energy>
    <i name="e_fr_energy">    -18.01972442 </i>
    <i name="e_wo_entrp">    -18.01972442 </i>
    <i name="e_0_energy">    -18.01972442 </i>
   </energy>
  </scstep>
  <scstep>
   <time name="dav">    0.06    0.06</time>
   <time name="total">    0.08    0.08</time>
   <energy>
    <i name="alphaZ">     16.56392204 </i>
    <i name="ewald">   3804.84818366 </i>
    <i name="hartreedc">  -5830.09540527 </i>
    <i name="XCdc">      9.92028959 </i>
    <i name="pawpsdc">   2596.13685341 </i>
    <i name="pawaedc">  -2503.33534064 </i>
    <i name="eentropy">     -0.00000000 </i>
    <i name="bandstr">   -420.88068484 </i>
    <i name="atom">   2308.82245799 </i>
    <i name="e_fr_energy">    -18.01972406 </i>
    <i name="e_wo_entrp">    -18.01972406 </i>
    <i name="e_0_energy">    -18.01972406 </i>
   </energy>
  </scstep>
  <structure>
   <crystal>
    <varray name="basis" >
     <v>       3.56565456       0.00000000       0.00000000 </v>
     <v>       1.78282728       3.08794743       0.00000000 </v>
     <v>       0.00000000       0.00000000      20.00000000 </v>
    </varray>
    <i name="volume">    220.21107662 </i>
    <varray name="rec_basis" >
     <v>       0.28045342      -0.16191985       0.00000000 </v>
     <v>       0.00000000       0.32383971       0.00000000 </v>
     <v>       0.00000000       0.00000000       0.05000000 </v>
    </varray>
   </crystal>
   <varray name="positions" >
    <v>      -0.00000000      -0.00000000       0.50000000 </v>
    <v>       0.33333333       0.33333333       0.41034025 </v>
    <v>       0.33333333       0.33333333       0.58965975 </v>
   </varray>
  </structure>
  <varray name="forces" >
   <v>       0.00000000       0.00000000      -0.00000000 </v>
   <v>      -0.00000000      -0.00000000      -0.02347995 </v>
   <v>      -0.00000000      -0.00000000       0.02347995 </v>
  </varray>
  <varray name="stress" >
   <v>      -8.67625717      -0.00000000      -0.00000000 </v>
   <v>       0.00000000      -8.67625717       0.00000000 </v>
   <v>      -0.00000000      -0.00000000       0.61242864 </v>
  </varray>
  <energy>
   <i name="e_fr_energy">    -19.18828486 </i>
   <i name="e_wo_entrp">    -19.18828486 </i>
   <i name="e_0_energy">    -19.18828486 </i>
  </energy>
  <time name="totalsc">    0.79    0.81</time>
 </calculation>
 <calculation>
  <scstep>
   <time name="dav">    0.06    0.07</time>
   <time name="total">    0.10    0.10</time>
   <energy>
    <i name="alphaZ">     16.56392204 </i>
    <i name="ewald">   3802.49392415 </i>
    <i name="hartreedc">  -5827.81005500 </i>
    <i name="XCdc">      9.91118264 </i>
    <i name="pawpsdc">   2596.17105905 </i>
    <i name="pawaedc">  -2503.36965952 </i>
    <i name="eentropy">     -0.00000000 </i>
    <i name="bandstr">   -420.80304727 </i>
    <i name="atom">   2308.82245799 </i>
    <i name="e_fr_energy">    -18.02021593 </i>
    <i name="e_wo_entrp">    -18.02021593 </i>
    <i name="e_0_energy">    -18.02021593 </i>
   </energy>
  </scstep>
  <scstep>
   <time name="dav">    0.07    0.07</time>
   <time name="total">    0.11    0.11</time>
   <energy>
    <i name="e_fr_energy">    -18.02021942 </i>
    <i name="e_wo_entrp">    -18.02021942 </i>
    <i name="e_0_energy">    -18.02021942 </i>
   </energy>
  </scstep>
  <scstep>
   <time name="dav">    0.07    0.07</time>
   <time name="total">    0.10    0.11</time>
   <energy>
    <i name="e_fr_energy">    -18.02021805 </i>
    <i name="e_wo_entrp">    -18.02021805 </i>
    <i name="e_0_energy">    -18.02021805 </i>
   </energy>
  </scstep>
  <scstep>
   <time name="dav">    0.06    0.06</time>
   <time name="total">    0.10    0.10</time>
   <energy>
    <i name="e_fr_energy">    -18.02021643 </i>
    <i name="e_wo_entrp">    -18.02021643 </i>
    <i name="e_0_energy">    -18.02021643 </i>
   </energy>
  </scstep>
  <scstep>
   <time name="dav">    0.06    0.06</time>
   <time name="total">    0.08    0.08</time>
   <energy>
    <i name="alphaZ">     16.56392204 </i>
    <i name="ewald">   3802.49392415 </i>
    <i name="hartreedc">  -5827.79568045 </i>
    <i name="XCdc">      9.91128487 </i>
    <i name="pawpsdc">   2593.86529632 </i>
    <i name="pawaedc">  -2501.06140684 </i>
    <i name="eentropy">     -0.00000000 </i>
    <i name="bandstr">   -420.82001412 </i>
    <i name="atom">   2308.82245799 </i>
    <i name="e_fr_energy">    -18.02021604 </i>
    <i name="e_wo_entrp">    -18.02021604 </i>
    <i name="e_0_energy">    -18.02021604 </i>
   </energy>
  </scstep>
  <structure>
   <crystal>
    <varray name="basis" >
     <v>       3.56565456       0.00000000       0.00000000 </v>
     <v>       1.78282728       3.08794743       0.00000000 </v>
     <v>       0.00000000       0.00000000      20.00000000 </v>
    </varray>
    <i name="volume">    220.21107662 </i>
    <varray name="rec_basis" >
     <v>       0.28045342      -0.16191985       0.00000000 </v>
     <v>       0.00000000       0.32383971       0.00000000 </v>
     <v>       0.00000000       0.00000000       0.05000000 </v>
    </varray>
   </crystal>
   <varray name="positions" >
    <v>       0.00000000       0.00000000       0.50000000 </v>
    <v>       0.33333333       0.33333333       0.41025728 </v>
    <v>       0.33333333       0.33333333       0.58974272 </v>
   </varray>
  </structure>
  <varray name="forces" >
   <v>      -0.00000000      -0.00000000       0.00000000 </v>
   <v>       0.00000000       0.00000000      -0.00562446 </v>
   <v>       0.00000000       0.00000000       0.00562446 </v>
  </varray>
  <varray name="stress" >
   <v>      -8.90978023       0.00000000       0.00000000 </v>
   <v>      -0.00000000      -8.90978023       0.00000000 </v>
   <v>      -0.00000000       0.00000000      -0.01191616 </v>
  </varray>
  <energy>
   <i name="e_fr_energy">    -19.18833289 </i>
   <i name="e_wo_entrp">    -19.18833289 </i>
   <i name="e_0_energy">    -19.18833289 </i>
  </energy>
  <time name="totalsc">    0.69    0.70</time>
 </calculation>
 <calculation>
  <scstep>
   <time name="dav">    0.07    0.07</time>
   <time name="total">    0.11    0.11</time>
   <energy>
    <i name="alphaZ">     16.56392204 </i>
    <i name="ewald">   3801.75238431 </i>
    <i name="hartreedc">  -5827.08142995 </i>
    <i name="XCdc">      9.90850333 </i>
    <i name="pawpsdc">   2593.83026936 </i>
    <i name="pawaedc">  -2501.02629964 </i>
    <i name="eentropy">     -0.00000000 </i>
    <i name="bandstr">   -420.79016625 </i>
    <i name="atom">   2308.82245799 </i>
    <i name="e_fr_energy">    -18.02035881 </i>
    <i name="e_wo_entrp">    -18.02035881 </i>
    <i name="e_0_energy">    -18.02035881 </i>
   </energy>
  </scstep>
  <scstep>
   <time name="dav">    0.07    0.07</time>
   <time name="total">    0.08    0.09</time>
   <energy>
    <i name="alphaZ">     16.56392204 </i>
    <i name="ewald">   3801.75238431 </i>
    <i name="hartreedc">  -5827.06544281 </i>
    <i name="XCdc">      9.90810310 </i>
    <i name="pawpsdc">   2593.49965894 </i>
    <i name="pawaedc">  -2500.69629831 </i>
    <i name="eentropy">     -0.00000000 </i>
    <i name="bandstr">   -420.80514422 </i>
    <i name="atom">   2308.82245799 </i>
    <i name="e_fr_energy">    -18.02035896 </i>
    <i name="e_wo_entrp">    -18.02035896 </i>
    <i name="e_0_energy">    -18.02035896 </i>
   </energy>
  </scstep>
  <structure>
   <crystal>
    <varray name="basis" >
     <v>       3.56565456       0.00000000       0.00000000 </v>
     <v>       1.78282728       3.08794743       0.00000000 </v>
     <v>       0.00000000       0.00000000      20.00000000 </v>
    </varray>
    <i name="volume">    220.21107662 </i>
    <varray name="rec_basis" >
     <v>       0.28045342      -0.16191985       0.00000000 </v>
     <v>       0.00000000       0.32383971       0.00000000 </v>
     <v>       0.00000000       0.00000000       0.05000000 </v>
    </varray>
   </crystal>
   <varray name="positions" >
    <v>      -0.00000000      -0.00000000       0.50000000 </v>
    <v>       0.33333333       0.33333333       0.41023115 </v>
    <v>       0.33333333       0.33333333       0.58976885 </v>
   </varray>
  </structure>
  <varray name="forces" >
   <v>       0.00000000      -0.00000000       0.00000000 </v>
   <v>      -0.00000000      -0.00000000       0.00076801 </v>
   <v>      -0.00000000       0.00000000      -0.00076801 </v>
  </varray>
  <varray name="stress" >
   <v>      -8.95385336       0.00000000      -0.00000000 </v>
   <v>      -0.00000000      -8.95385336      -0.00000000 </v>
   <v>       0.00000000      -0.00000000      -0.14435423 </v>
  </varray>
  <energy>
   <i name="e_fr_energy">    -19.18833596 </i>
   <i name="e_wo_entrp">    -19.18833596 </i>
   <i name="e_0_energy">    -19.18833596 </i>
  </energy>
  <time name="totalsc">    0.39    0.40</time>
 </calculation>
 <calculation>
  <scstep>
   <time name="dav">    0.07    0.07</time>
   <time name="total">    0.11    0.11</time>
   <energy>
    <i name="alphaZ">     16.56392204 </i>
    <i name="ewald">   3801.84147406 </i>
    <i name="hartreedc">  -5827.16664389 </i>
    <i name="XCdc">      9.90881869 </i>
    <i name="pawpsdc">   2593.39666980 </i>
    <i name="pawaedc">  -2500.59227476 </i>
    <i name="eentropy">     -0.00000000 </i>
    <i name="bandstr">   -420.79476574 </i>
    <i name="atom">   2308.82245799 </i>
    <i name="e_fr_energy">    -18.02034180 </i>
    <i name="e_wo_entrp">    -18.02034180 </i>
    <i name="e_0_energy">    -18.02034180 </i>
   </energy>
  </scstep>
  <scstep>
   <time name="dav">    0.06    0.06</time>
   <time name="total">    0.08    0.08</time>
   <energy>
    <i name="alphaZ">     16.56392204 </i>
    <i name="ewald">   3801.84147406 </i>
    <i name="hartreedc">  -5827.16136916 </i>
    <i name="XCdc">      9.90870273 </i>
    <i name="pawpsdc">   2593.33487678 </i>
    <i name="pawaedc">  -2500.53075756 </i>
    <i name="eentropy">     -0.00000000 </i>
    <i name="bandstr">   -420.79964858 </i>
    <i name="atom">   2308.82245799 </i>
    <i name="e_fr_energy">    -18.02034171 </i>
    <i name="e_wo_entrp">    -18.02034171 </i>
    <i name="e_0_energy">    -18.02034171 </i>
   </energy>
  </scstep>
  <structure>
   <crystal>
    <varray name="basis" >
     <v>       3.56565456       0.00000000       0.00000000 </v>
     <v>       1.78282728       3.08794743       0.00000000 </v>
     <v>       0.00000000       0.00000000      20.00000000 </v>
    </varray>
    <i name="volume">    220.21107662 </i>
    <varray name="rec_basis" >
     <v>       0.28045342      -0.16191985       0.00000000 </v>
     <v>       0.00000000       0.32383971       0.00000000 </v>
     <v>       0.00000000       0.00000000       0.05000000 </v>
    </varray>
   </crystal>
   <varray name="positions" >
    <v>       0.00000000      -0.00000000       0.50000000 </v>
    <v>       0.33333333       0.33333333       0.41023429 </v>
    <v>       0.33333333       0.33333333       0.58976571 </v>
   </varray>
  </structure>
  <varray name="forces" >
   <v>       0.00000000       0.00000000       0.00000000 </v>
   <v>      -0.00000000      -0.00000000      -0.00053671 </v>
   <v>      -0.00000000      -0.00000000       0.00053671 </v>
  </varray>
  <varray name="stress" >
   <v>      -8.96089629      -0.00000000       0.00000000 </v>
   <v>       0.00000000      -8.96089629       0.00000000 </v>
   <v>       0.00000000      -0.00000000      -0.18010625 </v>
  </varray>
  <energy>
   <i name="e_fr_energy">    -19.18833551 </i>
   <i name="e_wo_entrp">    -19.18833551 </i>
   <i name="e_0_energy">    -19.18833551 </i>
  </energy>
  <time name="totalsc">    0.39    0.40</time>
 </calculation>
 <calculation>
  <scstep>
   <time name="dav">    0.06    0.07</time>
   <time name="total">    0.10    0.10</time>
   <energy>
    <i name="alphaZ">     16.56392204 </i>
    <i name="ewald">   3801.80482618 </i>
    <i name="hartreedc">  -5827.13086176 </i>
    <i name="XCdc">      9.90867566 </i>
    <i name="pawpsdc">   2593.31732177 </i>
    <i name="pawaedc">  -2500.51290836 </i>
    <i name="eentropy">     -0.00000000 </i>
    <i name="bandstr">   -420.79378209 </i>
    <i name="atom">   2308.82245799 </i>
    <i name="e_fr_energy">    -18.02034858 </i>
    <i name="e_wo_entrp">    -18.02034858 </i>
    <i name="e_0_energy">    -18.02034858 </i>
   </energy>
  </scstep>
  <scstep>
   <time name="dav">    0.06    0.06</time>
   <time name="total">    0.08    0.08</time>
   <energy>
    <i name="alphaZ">     16.56392204 </i>
    <i name="ewald">   3801.80482618 </i>
    <i name="hartreedc">  -5827.13100827 </i>
    <i name="XCdc">      9.90866511 </i>
    <i name="pawpsdc">   2593.26359563 </i>
    <i name="pawaedc">  -2500.45919166 </i>
    <i name="eentropy">     -0.00000000 </i>
    <i name="bandstr">   -420.79361554 </i>
    <i name="atom">   2308.82245799 </i>
    <i name="e_fr_energy">    -18.02034852 </i>
    <i name="e_wo_entrp">    -18.02034852 </i>
    <i name="e_0_energy">    -18.02034852 </i>
   </energy>
  </scstep>
  <structure>
   <crystal>
    <varray name="basis" >
     <v>       3.56565456       0.00000000       0.00000000 </v>
     <v>       1.78282728       3.08794743       0.00000000 </v>
     <v>       0.00000000       0.00000000      20.00000000 </v>
    </varray>
    <i name="volume">    220.21107662 </i>
    <varray name="rec_basis" >
     <v>       0.28045342      -0.16191985       0.00000000 </v>
     <v>       0.00000000       0.32383971       0.00000000 </v>
     <v>       0.00000000       0.00000000       0.05000000 </v>
    </varray>
   </crystal>
   <varray name="positions" >
    <v>       0.00000000      -0.00000000       0.50000000 </v>
    <v>       0.33333333       0.33333333       0.41023299 </v>
    <v>       0.33333333       0.33333333       0.58976701 </v>
   </varray>
  </structure>
  <varray name="forces" >
   <v>       0.00000000       0.00000000       0.00000000 </v>
   <v>       0.00000000       0.00000000      -0.00022558 </v>
   <v>      -0.00000000      -0.00000000       0.00022558 </v>
  </varray>
  <varray name="stress" >
   <v>      -8.98214541      -0.00000000       0.00000000 </v>
   <v>      -0.00000000      -8.98214541       0.00000000 </v>
   <v>       0.00000000       0.00000000      -0.22166131 </v>
  </varray>
  <energy>
   <i name="e_fr_energy">    -19.18833541 </i>
   <i name="e_wo_entrp">    -19.18833541 </i>
   <i name="e_0_energy">    -19.18833541 </i>
  </energy>
  <time name="totalsc">    0.38    0.39</time>
 </calculation>
 <calculation>
  <scstep>
   <time name="dav">    0.06    0.06</time>
   <time name="total">    0.09    0.09</time>
   <energy>
    <i name="alphaZ">     16.56392204 </i>
    <i name="ewald">   3801.77825575 </i>
    <i name="hartreedc">  -5827.11018800 </i>
    <i name="XCdc">      9.90865272 </i>
    <i name="pawpsdc">   2593.21182388 </i>
    <i name="pawaedc">  -2500.40719171 </i>
    <i name="eentropy">     -0.00000000 </i>
    <i name="bandstr">   -420.78808616 </i>
    <i name="atom">   2308.82245799 </i>
    <i name="e_fr_energy">    -18.02035349 </i>
    <i name="e_wo_entrp">    -18.02035349 </i>
    <i name="e_0_energy">    -18.02035349 </i>
   </energy>
  </scstep>
  <scstep>
   <time name="dav">    0.06    0.06</time>
   <time name="total">    0.08    0.08</time>
   <energy>
    <i name="alphaZ">     16.56392204 </i>
    <i name="ewald">   3801.77825575 </i>
    <i name="hartreedc">  -5827.10811589 </i>
    <i name="XCdc">      9.90858316 </i>
    <i name="pawpsdc">   2593.18205305 </i>
    <i name="pawaedc">  -2500.37759966 </i>
    <i name="eentropy">     -0.00000000 </i>
    <i name="bandstr">   -420.78990994 </i>
    <i name="atom">   2308.82245799 </i>
    <i name="e_fr_energy">    -18.02035350 </i>
    <i name="e_wo_entrp">    -18.02035350 </i>
    <i name="e_0_energy">    -18.02035350 </i>
   </energy>
  </scstep>
  <structure>
   <crystal>
    <varray name="basis" >
     <v>       3.56565456       0.00000000       0.00000000 </v>
     <v>       1.78282728       3.08794743       0.00000000 </v>
     <v>       0.00000000       0.00000000      20.00000000 </v>
    </varray>
    <i name="volume">    220.21107662 </i>
    <varray name="rec_basis" >
     <v>       0.28045342      -0.16191985       0.00000000 </v>
     <v>       0.00000000       0.32383971       0.00000000 </v>
     <v>       0.00000000       0.00000000       0.05000000 </v>
    </varray>
   </crystal>
   <varray name="positions" >
    <v>       0.00000000       0.00000000       0.50000000 </v>
    <v>       0.33333333       0.33333333       0.41023206 </v>
    <v>       0.33333333       0.33333333       0.58976794 </v>
   </varray>
  </structure>
  <varray name="forces" >
   <v>       0.00000000       0.00000000      -0.00000000 </v>
   <v>       0.00000000       0.00000000       0.00012954 </v>
   <v>      -0.00000000      -0.00000000      -0.00012954 </v>
  </varray>
  <varray name="stress" >
   <v>      -8.97811968       0.00000000      -0.00000000 </v>
   <v>      -0.00000000      -8.97811968      -0.00000000 </v>
   <v>       0.00000000       0.00000000      -0.22188820 </v>
  </varray>
  <energy>
   <i name="e_fr_energy">    -19.18833538 </i>
   <i name="e_wo_entrp">    -19.18833538 </i>
   <i name="e_0_energy">    -19.18833538 </i>
  </energy>
  <time name="totalsc">    0.37    0.38</time>
 </calculation>
 <calculation>
  <scstep>
   <time name="dav">    0.05    0.05</time>
   <time name="total">    0.08    0.08</time>
   <energy>
    <i name="alphaZ">     16.56392204 </i>
    <i name="ewald">   3801.78794804 </i>
    <i name="hartreedc">  -5827.11976406 </i>
    <i name="XCdc">      9.90866405 </i>
    <i name="pawpsdc">   2593.17842233 </i>
    <i name="pawaedc">  -2500.37386222 </i>
    <i name="eentropy">     -0.00000000 </i>
    <i name="bandstr">   -420.78813984 </i>
    <i name="atom">   2308.82245799 </i>
    <i name="e_fr_energy">    -18.02035167 </i>
    <i name="e_wo_entrp">    -18.02035167 </i>
    <i name="e_0_energy">    -18.02035167 </i>
   </energy>
  </scstep>
  <scstep>
   <time name="dav">    0.06    0.06</time>
   <time name="total">    0.08    0.08</time>
   <energy>
    <i name="alphaZ">     16.56392204 </i>
    <i name="ewald">   3801.78794804 </i>
    <i name="hartreedc">  -5827.12146283 </i>
    <i name="XCdc">      9.90868957 </i>
    <i name="pawpsdc">   2593.17189071 </i>
    <i name="pawaedc">  -2500.36728054 </i>
    <i name="eentropy">     -0.00000000 </i>
    <i name="bandstr">   -420.78651668 </i>
    <i name="atom">   2308.82245799 </i>
    <i name="e_fr_energy">    -18.02035170 </i>
    <i name="e_wo_entrp">    -18.02035170 </i>
    <i name="e_0_energy">    -18.02035170 </i>
   </energy>
  </scstep>
  <structure>
   <crystal>
    <varray name="basis" >
     <v>       3.56565456       0.00000000       0.00000000 </v>
     <v>       1.78282728       3.08794743       0.00000000 </v>
     <v>       0.00000000       0.00000000      20.00000000 </v>
    </varray>
    <i name="volume">    220.21107662 </i>
    <varray name="rec_basis" >
     <v>       0.28045342      -0.16191985       0.00000000 </v>
     <v>       0.00000000       0.32383971       0.00000000 </v>
     <v>       0.00000000       0.00000000       0.05000000 </v>
    </varray>
   </crystal>
   <varray name="positions" >
    <v>       0.00000000       0.00000000       0.50000000 </v>
    <v>       0.33333333       0.33333333       0.41023240 </v>
    <v>       0.33333333       0.33333333       0.58976760 </v>
   </varray>
  </structure>
  <varray name="forces" >
   <v>       0.00000000       0.00000000      -0.00000000 </v>
   <v>      -0.00000000      -0.00000000      -0.00014498 </v>
   <v>       0.00000000      -0.00000000       0.00014498 </v>
  </varray>
  <varray name="stress" >
   <v>      -8.98854535       0.00000000      -0.00000000 </v>
   <v>      -0.00000000      -8.98854535       0.00000000 </v>
   <v>      -0.00000000       0.00000000      -0.24192856 </v>
  </varray>
  <energy>
   <i name="e_fr_energy">    -19.18833541 </i>
   <i name="e_wo_entrp">    -19.18833541 </i>
   <i name="e_0_energy">    -19.18833541 </i>
  </energy>
  <time name="totalsc">    0.36    0.37</time>
 </calculation>
 <calculation>
  <scstep>
   <time name="dav">    0.06    0.06</time>
   <time name="total">    0.10    0.10</time>
   <energy>
    <i name="alphaZ">     16.56392204 </i>
    <i name="ewald">   3801.78282928 </i>
    <i name="hartreedc">  -5827.11726786 </i>
    <i name="XCdc">      9.90866274 </i>
    <i name="pawpsdc">   2593.16410712 </i>
    <i name="pawaedc">  -2500.35953048 </i>
    <i name="eentropy">     -0.00000000 </i>
    <i name="bandstr">   -420.78553354 </i>
    <i name="atom">   2308.82245799 </i>
    <i name="e_fr_energy">    -18.02035271 </i>
    <i name="e_wo_entrp">    -18.02035271 </i>
    <i name="e_0_energy">    -18.02035271 </i>
   </energy>
  </scstep>
  <scstep>
   <time name="dav">    0.06    0.06</time>
   <time name="total">    0.08    0.08</time>
   <energy>
    <i name="alphaZ">     16.56392204 </i>
    <i name="ewald">   3801.78282928 </i>
    <i name="hartreedc">  -5827.11894309 </i>
    <i name="XCdc">      9.90868312 </i>
    <i name="pawpsdc">   2593.15880959 </i>
    <i name="pawaedc">  -2500.35419052 </i>
    <i name="eentropy">     -0.00000000 </i>
    <i name="bandstr">   -420.78392116 </i>
    <i name="atom">   2308.82245799 </i>
    <i name="e_fr_energy">    -18.02035275 </i>
    <i name="e_wo_entrp">    -18.02035275 </i>
    <i name="e_0_energy">    -18.02035275 </i>
   </energy>
  </scstep>
  <structure>
   <crystal>
    <varray name="basis" >
     <v>       3.56565456       0.00000000       0.00000000 </v>
     <v>       1.78282728       3.08794743       0.00000000 </v>
     <v>       0.00000000       0.00000000      20.00000000 </v>
    </varray>
    <i name="volume">    220.21107662 </i>
    <varray name="rec_basis" >
     <v>       0.28045342      -0.16191985       0.00000000 </v>
     <v>       0.00000000       0.32383971       0.00000000 </v>
     <v>       0.00000000       0.00000000       0.05000000 </v>
    </varray>
   </crystal>
   <varray name="positions" >
    <v>       0.00000000       0.00000000       0.50000000 </v>
    <v>       0.33333333       0.33333333       0.41023222 </v>
    <v>       0.33333333       0.33333333       0.58976778 </v>
   </varray>
  </structure>
  <varray name="forces" >
   <v>      -0.00000000      -0.00000000      -0.00000000 </v>
   <v>       0.00000000       0.00000000      -0.00008089 </v>
   <v>       0.00000000       0.00000000       0.00008089 </v>
  </varray>
  <varray name="stress" >
   <v>      -8.98917842      -0.00000000      -0.00000000 </v>
   <v>      -0.00000000      -8.98917842       0.00000000 </v>
   <v>       0.00000000      -0.00000000      -0.24476256 </v>
  </varray>
  <energy>
   <i name="e_fr_energy">    -19.18833549 </i>
   <i name="e_wo_entrp">    -19.18833549 </i>
   <i name="e_0_energy">    -19.18833549 </i>
  </energy>
  <time name="totalsc">    0.36    0.37</time>
  <eigenvalues>
   <array>
    <dimension dim="1">band</dimension>
    <dimension dim="2">kpoint</dimension>
    <dimension dim="3">spin</dimension>
    <field>eigene</field>
    <field>occ</field>
    <set>
     <set comment="spin 1">
      <set comment="kpoint 1">
       <r>  -61.2096    1.0000 </r>
       <r>  -35.3510    1.0000 </r>
       <r>  -35.2582    1.0000 </r>
       <r>  -35.2582    1.0000 </r>
       <r>  -13.0395    1.0000 </r>
       <r>  -12.0726    1.0000 </r>
       <r>   -5.4179    1.0000 </r>
       <r>   -2.2112    1.0000 </r>
       <r>   -2.2112    1.0000 </r>
       <r>   -2.1524    1.0000 </r>
       <r>   -1.4296    1.0000 </r>
       <r>   -1.4296    1.0000 </r>
       <r>   -0.9180    1.0000 </r>
       <r>    2.5041    0.0000 </r>
       <r>    2.5041    0.0000 </r>
       <r>    2.7917    0.0000 </r>
       <r>    2.7917    0.0000 </r>
       <r>    3.6669    0.0000 </r>
       <r>    4.0300    0.0000 </r>
       <r>    4.6936    0.0000 </r>
       <r>    5.6038    0.0000 </r>
       <r>    6.0608    0.0000 </r>
      </set>
      <set comment="kpoint 2">
       <r>  -61.2092    1.0000 </r>
       <r>  -35.3499    1.0000 </r>
       <r>  -35.2631    1.0000 </r>
       <r>  -35.2593    1.0000 </r>
       <r>  -12.9801    1.0000 </r>
       <r>  -12.0319    1.0000 </r>
       <r>   -5.3522    1.0000 </r>
       <r>   -2.3469    1.0000 </r>
       <r>   -2.2973    1.0000 </r>
       <r>   -2.1620    1.0000 </r>
       <r>   -1.5110    1.0000 </r>
       <r>   -1.3418    1.0000 </r>
       <r>   -0.9253    1.0000 </r>
       <r>    2.2430    0.0000 </r>
       <r>    2.4206    0.0000 </r>
       <r>    2.5602    0.0000 </r>
       <r>    2.6591    0.0000 </r>
       <r>    3.7842    0.0000 </r>
       <r>    4.1044    0.0000 </r>
       <r>    4.7938    0.0000 </r>
       <r>    5.8693    0.0000 </r>
       <r>    6.1295    0.0000 </r>
      </set>
      <set comment="kpoint 3">
       <r>  -61.2082    1.0000 </r>
       <r>  -35.3469    1.0000 </r>
       <r>  -35.2768    1.0000 </r>
       <r>  -35.2625    1.0000 </r>
       <r>  -12.8057    1.0000 </r>
       <r>  -11.9122    1.0000 </r>
       <r>   -5.1646    1.0000 </r>
       <r>   -2.7227    1.0000 </r>
       <r>   -2.6093    1.0000 </r>
       <r>   -2.0194    1.0000 </r>
       <r>   -1.7247    1.0000 </r>
       <r>   -1.2700    1.0000 </r>
       <r>   -0.9708    1.0000 </r>
       <r>    1.7520    0.0000 </r>
       <r>    1.7855    0.0000 </r>
       <r>    2.3258    0.0000 </r>
       <r>    2.6979    0.0000 </r>
       <r>    4.0062    0.0000 </r>
       <r>    4.3194    0.0000 </r>
       <r>    5.0157    0.0000 </r>
       <r>    6.3303    0.0000 </r>
       <r>    6.3980    0.0000 </r>
      </set>
      <set comment="kpoint 4">
       <r>  -61.2068    1.0000 </r>
       <r>  -35.3424    1.0000 </r>
       <r>  -35.2971    1.0000 </r>
       <r>  -35.2673    1.0000 </r>
       <r>  -12.5281    1.0000 </r>
       <r>  -11.7226    1.0000 </r>
       <r>   -4.8914    1.0000 </r>
       <r>   -3.2651    1.0000 </r>
       <r>   -3.0196    1.0000 </r>
       <r>   -2.0050    1.0000 </r>
       <r>   -1.7995    1.0000 </r>
       <r>   -1.4085    1.0000 </r>
       <r>   -1.1079    1.0000 </r>
       <r>    1.2169    0.0000 </r>
       <r>    1.5948    0.0000 </r>
       <r>    1.9132    0.0000 </r>
       <r>    2.8550    0.0000 </r>
       <r>    4.3098    0.0000 </r>
       <r>    4.6629    0.0000 </r>
       <r>    5.3304    0.0000 </r>
       <r>    6.5757    0.0000 </r>
       <r>    6.6297    0.0000 </r>
      </set>
      <set comment="kpoint 5">
       <r>  -61.2051    1.0000 </r>
       <r>  -35.3373    1.0000 </r>
       <r>  -35.3202    1.0000 </r>
       <r>  -35.2727    1.0000 </r>
       <r>  -12.1705    1.0000 </r>
       <r>  -11.4806    1.0000 </r>
       <r>   -4.6562    1.0000 </r>
       <r>   -3.8340    1.0000 </r>
       <r>   -3.5404    1.0000 </r>
       <r>   -2.2900    1.0000 </r>
       <r>   -1.6772    1.0000 </r>
       <r>   -1.5305    1.0000 </r>
       <r>   -1.3195    1.0000 </r>
       <r>    0.9786    0.0000 </r>
       <r>    1.5163    0.0000 </r>
       <r>    1.7641    0.0000 </r>
       <r>    2.9851    0.0000 </r>
       <r>    4.6906    0.0000 </r>
       <r>    5.1079    0.0000 </r>
       <r>    5.7215    0.0000 </r>
       <r>    6.1255    0.0000 </r>
       <r>    6.4648    0.0000 </r>
      </set>
      <set comment="kpoint 6">
       <r>  -61.2035    1.0000 </r>
       <r>  -35.3422    1.0000 </r>
       <r>  -35.3324    1.0000 </r>
       <r>  -35.2779    1.0000 </r>
       <r>  -11.7737    1.0000 </r>
       <r>  -11.2170    1.0000 </r>
       <r>   -4.9042    1.0000 </r>
       <r>   -4.1210    1.0000 </r>
       <r>   -3.9832    1.0000 </r>
       <r>   -2.5351    1.0000 </r>
       <r>   -1.8964    1.0000 </r>
       <r>   -1.4502    1.0000 </r>
       <r>   -1.2546    1.0000 </r>
       <r>    0.9726    0.0000 </r>
       <r>    1.1916    0.0000 </r>
       <r>    2.1215    0.0000 </r>
       <r>    3.0718    0.0000 </r>
       <r>    4.9526    0.0000 </r>
       <r>    5.2989    0.0000 </r>
       <r>    5.5155    0.0000 </r>
       <r>    6.0932    0.0000 </r>
       <r>    6.2593    0.0000 </r>
      </set>
      <set comment="kpoint 7">
       <r>  -61.2023    1.0000 </r>
       <r>  -35.3594    1.0000 </r>
       <r>  -35.3286    1.0000 </r>
       <r>  -35.2819    1.0000 </r>
       <r>  -11.4077    1.0000 </r>
       <r>  -10.9812    1.0000 </r>
       <r>   -5.4397    1.0000 </r>
       <r>   -4.6279    1.0000 </r>
       <r>   -3.8688    1.0000 </r>
       <r>   -2.7121    1.0000 </r>
       <r>   -2.0215    1.0000 </r>
       <r>   -1.3930    1.0000 </r>
       <r>   -1.0256    1.0000 </r>
       <r>    0.9691    0.0000 </r>
       <r>    1.0717    0.0000 </r>
       <r>    2.4920    0.0000 </r>
       <r>    3.1198    0.0000 </r>
       <r>    4.1240    0.0000 </r>
       <r>    5.4845    0.0000 </r>
       <r>    5.6363    0.0000 </r>
       <r>    6.2614    0.0000 </r>
       <r>    6.7351    0.0000 </r>
      </set>
      <set comment="kpoint 8">
       <r>  -61.2016    1.0000 </r>
       <r>  -35.3687    1.0000 </r>
       <r>  -35.3265    1.0000 </r>
       <r>  -35.2841    1.0000 </r>
       <r>  -11.1764    1.0000 </r>
       <r>  -10.8373    1.0000 </r>
       <r>   -5.7894    1.0000 </r>
       <r>   -4.9243    1.0000 </r>
       <r>   -3.8149    1.0000 </r>
       <r>   -2.8044    1.0000 </r>
       <r>   -2.0746    1.0000 </r>
       <r>   -1.2600    1.0000 </r>
       <r>   -0.8954    1.0000 </r>
       <r>    0.8589    0.0000 </r>
       <r>    1.1744    0.0000 </r>
       <r>    2.7276    0.0000 </r>
       <r>    3.1400    0.0000 </r>
       <r>    3.5168    0.0000 </r>
       <r>    5.4292    0.0000 </r>
       <r>    5.9658    0.0000 </r>
       <r>    6.2362    0.0000 </r>
       <r>    6.9807    0.0000 </r>
      </set>
      <set comment="kpoint 9">
       <r>  -61.2086    1.0000 </r>
       <r>  -35.3479    1.0000 </r>
       <r>  -35.2722    1.0000 </r>
       <r>  -35.2616    1.0000 </r>
       <r>  -12.8632    1.0000 </r>
       <r>  -11.9516    1.0000 </r>
       <r>   -5.2253    1.0000 </r>
       <r>   -2.5979    1.0000 </r>
       <r>   -2.5067    1.0000 </r>
       <r>   -2.0708    1.0000 </r>
       <r>   -1.7035    1.0000 </r>
       <r>   -1.2311    1.0000 </r>
       <r>   -0.9511    1.0000 </r>
       <r>    1.8844    0.0000 </r>
       <r>    1.9492    0.0000 </r>
       <r>    2.3935    0.0000 </r>
       <r>    2.6562    0.0000 </r>
       <r>    3.9435    0.0000 </r>
       <r>    4.2496    0.0000 </r>
       <r>    4.9510    0.0000 </r>
       <r>    6.2648    0.0000 </r>
       <r>    6.3002    0.0000 </r>
      </set>
      <set comment="kpoint 10">
       <r>  -61.2073    1.0000 </r>
       <r>  -35.3441    1.0000 </r>
       <r>  -35.2888    1.0000 </r>
       <r>  -35.2660    1.0000 </r>
       <r>  -12.6369    1.0000 </r>
       <r>  -11.7968    1.0000 </r>
       <r>   -4.9921    1.0000 </r>
       <r>   -3.0423    1.0000 </r>
       <r>   -2.8212    1.0000 </r>
       <r>   -2.0460    1.0000 </r>
       <r>   -1.9103    1.0000 </r>
       <r>   -1.2014    1.0000 </r>
       <r>   -1.0383    1.0000 </r>
       <r>    1.3991    0.0000 </r>
       <r>    1.5566    0.0000 </r>
       <r>    1.9816    0.0000 </r>
       <r>    2.7927    0.0000 </r>
       <r>    4.2057    0.0000 </r>
       <r>    4.5314    0.0000 </r>
       <r>    5.2212    0.0000 </r>
       <r>    6.5245    0.0000 </r>
       <r>    6.7855    0.0000 </r>
      </set>
      <set comment="kpoint 11">
       <r>  -61.2058    1.0000 </r>
       <r>  -35.3393    1.0000 </r>
       <r>  -35.3099    1.0000 </r>
       <r>  -35.2717    1.0000 </r>
       <r>  -12.3185    1.0000 </r>
       <r>  -11.5801    1.0000 </r>
       <r>   -4.7178    1.0000 </r>
       <r>   -3.5897    1.0000 </r>
       <r>   -3.2578    1.0000 </r>
       <r>   -2.3910    1.0000 </r>
       <r>   -1.7389    1.0000 </r>
       <r>   -1.3769    1.0000 </r>
       <r>   -1.1838    1.0000 </r>
       <r>    1.0298    0.0000 </r>
       <r>    1.5520    0.0000 </r>
       <r>    1.5863    0.0000 </r>
       <r>    2.9106    0.0000 </r>
       <r>    4.5587    0.0000 </r>
       <r>    4.9325    0.0000 </r>
       <r>    5.5940    0.0000 </r>
       <r>    6.6276    0.0000 </r>
       <r>    6.8137    0.0000 </r>
      </set>
      <set comment="kpoint 12">
       <r>  -61.2041    1.0000 </r>
       <r>  -35.3343    1.0000 </r>
       <r>  -35.3319    1.0000 </r>
       <r>  -35.2776    1.0000 </r>
       <r>  -11.9387    1.0000 </r>
       <r>  -11.3250    1.0000 </r>
       <r>   -4.6788    1.0000 </r>
       <r>   -3.9653    1.0000 </r>
       <r>   -3.8217    1.0000 </r>
       <r>   -2.6330    1.0000 </r>
       <r>   -1.7013    1.0000 </r>
       <r>   -1.6479    1.0000 </r>
       <r>   -1.1878    1.0000 </r>
       <r>    0.9030    0.0000 </r>
       <r>    1.2843    0.0000 </r>
       <r>    1.8252    0.0000 </r>
       <r>    2.9814    0.0000 </r>
       <r>    4.9743    0.0000 </r>
       <r>    5.4048    0.0000 </r>
       <r>    5.7512    0.0000 </r>
       <r>    6.0833    0.0000 </r>
       <r>    6.5238    0.0000 </r>
      </set>
      <set comment="kpoint 13">
       <r>  -61.2027    1.0000 </r>
       <r>  -35.3510    1.0000 </r>
       <r>  -35.3299    1.0000 </r>
       <r>  -35.2827    1.0000 </r>
       <r>  -11.5515    1.0000 </r>
       <r>  -11.0710    1.0000 </r>
       <r>   -5.1487    1.0000 </r>
       <r>   -4.3862    1.0000 </r>
       <r>   -3.8944    1.0000 </r>
       <r>   -2.7814    1.0000 </r>
       <r>   -1.8792    1.0000 </r>
       <r>   -1.7105    1.0000 </r>
       <r>   -1.0266    1.0000 </r>
       <r>    0.9252    0.0000 </r>
       <r>    1.1079    0.0000 </r>
       <r>    2.2034    0.0000 </r>
       <r>    2.9984    0.0000 </r>
       <r>    4.6625    0.0000 </r>
       <r>    5.5388    0.0000 </r>
       <r>    5.7483    0.0000 </r>
       <r>    6.3831    0.0000 </r>
       <r>    6.6209    0.0000 </r>
      </set>
      <set comment="kpoint 14">
       <r>  -61.2018    1.0000 </r>
       <r>  -35.3639    1.0000 </r>
       <r>  -35.3270    1.0000 </r>
       <r>  -35.2862    1.0000 </r>
       <r>  -11.2435    1.0000 </r>
       <r>  -10.8756    1.0000 </r>
       <r>   -5.6044    1.0000 </r>
       <r>   -4.8006    1.0000 </r>
       <r>   -3.8122    1.0000 </r>
       <r>   -2.8645    1.0000 </r>
       <r>   -2.0213    1.0000 </r>
       <r>   -1.6233    1.0000 </r>
       <r>   -0.8738    1.0000 </r>
       <r>    0.9080    0.0000 </r>
       <r>    1.1378    0.0000 </r>
       <r>    2.5514    0.0000 </r>
       <r>    2.9551    0.0000 </r>
       <r>    3.8562    0.0000 </r>
       <r>    5.8213    0.0000 </r>
       <r>    5.9983    0.0000 </r>
       <r>    6.4339    0.0000 </r>
       <r>    7.0443    0.0000 </r>
      </set>
      <set comment="kpoint 15">
       <r>  -61.2014    1.0000 </r>
       <r>  -35.3684    1.0000 </r>
       <r>  -35.3259    1.0000 </r>
       <r>  -35.2874    1.0000 </r>
       <r>  -11.1223    1.0000 </r>
       <r>  -10.8007    1.0000 </r>
       <r>   -5.7834    1.0000 </r>
       <r>   -4.9534    1.0000 </r>
       <r>   -3.7927    1.0000 </r>
       <r>   -2.8919    1.0000 </r>
       <r>   -2.0680    1.0000 </r>
       <r>   -1.5649    1.0000 </r>
       <r>   -0.8075    1.0000 </r>
       <r>    0.8715    0.0000 </r>
       <r>    1.2128    0.0000 </r>
       <r>    2.7503    0.0000 </r>
       <r>    2.8703    0.0000 </r>
       <r>    3.5215    0.0000 </r>
       <r>    5.9021    0.0000 </r>
       <r>    6.2456    0.0000 </r>
       <r>    6.2821    0.0000 </r>
       <r>    7.0858    0.0000 </r>
      </set>
      <set comment="kpoint 16">
       <r>  -61.2060    1.0000 </r>
       <r>  -35.3401    1.0000 </r>
       <r>  -35.3056    1.0000 </r>
       <r>  -35.2721    1.0000 </r>
       <r>  -12.3692    1.0000 </r>
       <r>  -11.6142    1.0000 </r>
       <r>   -4.7477    1.0000 </r>
       <r>   -3.4695    1.0000 </r>
       <r>   -3.0853    1.0000 </r>
       <r>   -2.5509    1.0000 </r>
       <r>   -1.8438    1.0000 </r>
       <r>   -1.1789    1.0000 </r>
       <r>   -1.1296    1.0000 </r>
       <r>    1.0649    0.0000 </r>
       <r>    1.4085    0.0000 </r>
       <r>    1.5541    0.0000 </r>
       <r>    2.8752    0.0000 </r>
       <r>    4.5225    0.0000 </r>
       <r>    4.8749    0.0000 </r>
       <r>    5.5543    0.0000 </r>
       <r>    6.8289    0.0000 </r>
       <r>    7.0212    0.0000 </r>
      </set>
      <set comment="kpoint 17">
       <r>  -61.2045    1.0000 </r>
       <r>  -35.3354    1.0000 </r>
       <r>  -35.3243    1.0000 </r>
       <r>  -35.2794    1.0000 </r>
       <r>  -12.0261    1.0000 </r>
       <r>  -11.3821    1.0000 </r>
       <r>   -4.5822    1.0000 </r>
       <r>   -3.8502    1.0000 </r>
       <r>   -3.5352    1.0000 </r>
       <r>   -2.8980    1.0000 </r>
       <r>   -1.9652    1.0000 </r>
       <r>   -1.3504    1.0000 </r>
       <r>   -1.1158    1.0000 </r>
       <r>    0.8333    0.0000 </r>
       <r>    1.2898    0.0000 </r>
       <r>    1.4989    0.0000 </r>
       <r>    2.9209    0.0000 </r>
       <r>    4.9293    0.0000 </r>
       <r>    5.3186    0.0000 </r>
       <r>    5.9981    0.0000 </r>
       <r>    6.4009    0.0000 </r>
       <r>    7.1164    0.0000 </r>
      </set>
      <set comment="kpoint 18">
       <r>  -61.2030    1.0000 </r>
       <r>  -35.3419    1.0000 </r>
       <r>  -35.3309    1.0000 </r>
       <r>  -35.2866    1.0000 </r>
       <r>  -11.6486    1.0000 </r>
       <r>  -11.1308    1.0000 </r>
       <r>   -4.8492    1.0000 </r>
       <r>   -4.1165    1.0000 </r>
       <r>   -3.8648    1.0000 </r>
       <r>   -3.0268    1.0000 </r>
       <r>   -2.1673    1.0000 </r>
       <r>   -1.6302    1.0000 </r>
       <r>   -1.0081    1.0000 </r>
       <r>    0.8125    0.0000 </r>
       <r>    1.1562    0.0000 </r>
       <r>    1.7570    0.0000 </r>
       <r>    2.9473    0.0000 </r>
       <r>    5.2259    0.0000 </r>
       <r>    5.6260    0.0000 </r>
       <r>    5.7899    0.0000 </r>
       <r>    6.5469    0.0000 </r>
       <r>    7.0687    0.0000 </r>
      </set>
      <set comment="kpoint 19">
       <r>  -61.2019    1.0000 </r>
       <r>  -35.3556    1.0000 </r>
       <r>  -35.3274    1.0000 </r>
       <r>  -35.2923    1.0000 </r>
       <r>  -11.3047    1.0000 </r>
       <r>  -10.9075    1.0000 </r>
       <r>   -5.2924    1.0000 </r>
       <r>   -4.6111    1.0000 </r>
       <r>   -3.7727    1.0000 </r>
       <r>   -3.0652    1.0000 </r>
       <r>   -2.2489    1.0000 </r>
       <r>   -1.8881    1.0000 </r>
       <r>   -0.8832    1.0000 </r>
       <r>    0.9289    0.0000 </r>
       <r>    1.1172    0.0000 </r>
       <r>    2.0228    0.0000 </r>
       <r>    2.9771    0.0000 </r>
       <r>    4.4247    0.0000 </r>
       <r>    6.0491    0.0000 </r>
       <r>    6.1143    0.0000 </r>
       <r>    7.1208    0.0000 </r>
       <r>    7.1737    0.0000 </r>
      </set>
      <set comment="kpoint 20">
       <r>  -61.2013    1.0000 </r>
       <r>  -35.3631    1.0000 </r>
       <r>  -35.3255    1.0000 </r>
       <r>  -35.2954    1.0000 </r>
       <r>  -11.0903    1.0000 </r>
       <r>  -10.7721    1.0000 </r>
       <r>   -5.5843    1.0000 </r>
       <r>   -4.8938    1.0000 </r>
       <r>   -3.7529    1.0000 </r>
       <r>   -3.0678    1.0000 </r>
       <r>   -2.2363    1.0000 </r>
       <r>   -2.0405    1.0000 </r>
       <r>   -0.7716    1.0000 </r>
       <r>    0.8776    0.0000 </r>
       <r>    1.2981    0.0000 </r>
       <r>    2.1779    0.0000 </r>
       <r>    3.0072    0.0000 </r>
       <r>    3.8140    0.0000 </r>
       <r>    6.2540    0.0000 </r>
       <r>    6.5854    0.0000 </r>
       <r>    7.0217    0.0000 </r>
       <r>    7.1354    0.0000 </r>
      </set>
      <set comment="kpoint 21">
       <r>  -61.2031    1.0000 </r>
       <r>  -35.3377    1.0000 </r>
       <r>  -35.3312    1.0000 </r>
       <r>  -35.2891    1.0000 </r>
       <r>  -11.6828    1.0000 </r>
       <r>  -11.1517    1.0000 </r>
       <r>   -4.7183    1.0000 </r>
       <r>   -3.9633    1.0000 </r>
       <r>   -3.8206    1.0000 </r>
       <r>   -3.1841    1.0000 </r>
       <r>   -2.3940    1.0000 </r>
       <r>   -1.5045    1.0000 </r>
       <r>   -1.0053    1.0000 </r>
       <r>    0.7664    0.0000 </r>
       <r>    1.1677    0.0000 </r>
       <r>    1.5436    0.0000 </r>
       <r>    2.9468    0.0000 </r>
       <r>    5.3404    0.0000 </r>
       <r>    5.7706    0.0000 </r>
       <r>    5.9096    0.0000 </r>
       <r>    6.4975    0.0000 </r>
       <r>    7.2394    0.0000 </r>
      </set>
      <set comment="kpoint 22">
       <r>  -61.2020    1.0000 </r>
       <r>  -35.3483    1.0000 </r>
       <r>  -35.3276    1.0000 </r>
       <r>  -35.2985    1.0000 </r>
       <r>  -11.3410    1.0000 </r>
       <r>  -10.9257    1.0000 </r>
       <r>   -5.0144    1.0000 </r>
       <r>   -4.4405    1.0000 </r>
       <r>   -3.6844    1.0000 </r>
       <r>   -3.2639    1.0000 </r>
       <r>   -2.7836    1.0000 </r>
       <r>   -1.7662    1.0000 </r>
       <r>   -0.9059    1.0000 </r>
       <r>    0.9162    0.0000 </r>
       <r>    1.1191    0.0000 </r>
       <r>    1.6443    0.0000 </r>
       <r>    3.0400    0.0000 </r>
       <r>    5.0124    0.0000 </r>
       <r>    5.9687    0.0000 </r>
       <r>    6.1784    0.0000 </r>
       <r>    6.5781    0.0000 </r>
       <r>    7.2199    0.0000 </r>
      </set>
      <set comment="kpoint 23">
       <r>  -61.2012    1.0000 </r>
       <r>  -35.3550    1.0000 </r>
       <r>  -35.3251    1.0000 </r>
       <r>  -35.3054    1.0000 </r>
       <r>  -11.0771    1.0000 </r>
       <r>  -10.7545    1.0000 </r>
       <r>   -5.2688    1.0000 </r>
       <r>   -4.7908    1.0000 </r>
       <r>   -3.6924    1.0000 </r>
       <r>   -3.2602    1.0000 </r>
       <r>   -2.9407    1.0000 </r>
       <r>   -1.9996    1.0000 </r>
       <r>   -0.7712    1.0000 </r>
       <r>    0.8365    0.0000 </r>
       <r>    1.3930    0.0000 </r>
       <r>    1.7165    0.0000 </r>
       <r>    3.1681    0.0000 </r>
       <r>    4.2956    0.0000 </r>
       <r>    6.0628    0.0000 </r>
       <r>    6.3997    0.0000 </r>
       <r>    6.8051    0.0000 </r>
       <r>    7.8306    0.0000 </r>
      </set>
      <set comment="kpoint 24">
       <r>  -61.2009    1.0000 </r>
       <r>  -35.3572    1.0000 </r>
       <r>  -35.3243    1.0000 </r>
       <r>  -35.3079    1.0000 </r>
       <r>  -10.9758    1.0000 </r>
       <r>  -10.6896    1.0000 </r>
       <r>   -5.3701    1.0000 </r>
       <r>   -4.9189    1.0000 </r>
       <r>   -3.7366    1.0000 </r>
       <r>   -3.2473    1.0000 </r>
       <r>   -2.9554    1.0000 </r>
       <r>   -2.0936    1.0000 </r>
       <r>   -0.6890    1.0000 </r>
       <r>    0.7505    0.0000 </r>
       <r>    1.5825    0.0000 </r>
       <r>    1.7392    0.0000 </r>
       <r>    3.2296    0.0000 </r>
       <r>    3.9676    0.0000 </r>
       <r>    6.0126    0.0000 </r>
       <r>    6.4627    0.0000 </r>
       <r>    7.1814    0.0000 </r>
       <r>    7.9832    0.0000 </r>
      </set>
      <set comment="kpoint 25">
       <r>  -61.2011    1.0000 </r>
       <r>  -35.3502    1.0000 </r>
       <r>  -35.3250    1.0000 </r>
       <r>  -35.3107    1.0000 </r>
       <r>  -11.0742    1.0000 </r>
       <r>  -10.7486    1.0000 </r>
       <r>   -5.0808    1.0000 </r>
       <r>   -4.7354    1.0000 </r>
       <r>   -3.6052    1.0000 </r>
       <r>   -3.3500    1.0000 </r>
       <r>   -3.3343    1.0000 </r>
       <r>   -1.9778    1.0000 </r>
       <r>   -0.7736    1.0000 </r>
       <r>    0.8133    0.0000 </r>
       <r>    1.4300    0.0000 </r>
       <r>    1.5462    0.0000 </r>
       <r>    3.2335    0.0000 </r>
       <r>    4.6890    0.0000 </r>
       <r>    5.5435    0.0000 </r>
       <r>    6.4705    0.0000 </r>
       <r>    6.7954    0.0000 </r>
       <r>    7.8996    0.0000 </r>
      </set>
      <set comment="kpoint 26">
       <r>  -61.2007    1.0000 </r>
       <r>  -35.3493    1.0000 </r>
       <r>  -35.3236    1.0000 </r>
       <r>  -35.3195    1.0000 </r>
       <r>  -10.9159    1.0000 </r>
       <r>  -10.6439    1.0000 </r>
       <r>   -5.0563    1.0000 </r>
       <r>   -4.9112    1.0000 </r>
       <r>   -3.8976    1.0000 </r>
       <r>   -3.3863    1.0000 </r>
       <r>   -3.3599    1.0000 </r>
       <r>   -2.1330    1.0000 </r>
       <r>   -0.6204    1.0000 </r>
       <r>    0.6301    0.0000 </r>
       <r>    1.4910    0.0000 </r>
       <r>    1.7843    0.0000 </r>
       <r>    3.3887    0.0000 </r>
       <r>    4.3177    0.0000 </r>
       <r>    5.2045    0.0000 </r>
       <r>    6.6542    0.0000 </r>
       <r>    7.4163    0.0000 </r>
       <r>    7.9932    0.0000 </r>
      </set>
      <set comment="kpoint 27">
       <r>  -61.2005    1.0000 </r>
       <r>  -35.3435    1.0000 </r>
       <r>  -35.3283    1.0000 </r>
       <r>  -35.3231    1.0000 </r>
       <r>  -10.8575    1.0000 </r>
       <r>  -10.6034    1.0000 </r>
       <r>   -4.9541    1.0000 </r>
       <r>   -4.8145    1.0000 </r>
       <r>   -4.2586    1.0000 </r>
       <r>   -3.4275    1.0000 </r>
       <r>   -3.3882    1.0000 </r>
       <r>   -2.1913    1.0000 </r>
       <r>   -0.5300    1.0000 </r>
       <r>    0.5140    0.0000 </r>
       <r>    1.4118    0.0000 </r>
       <r>    1.9731    0.0000 </r>
       <r>    3.4830    0.0000 </r>
       <r>    4.5340    0.0000 </r>
       <r>    4.6478    0.0000 </r>
       <r>    6.8212    0.0000 </r>
       <r>    7.7874    0.0000 </r>
       <r>    7.8128    0.0000 </r>
      </set>
     </set>
    </set>
   </array>
  </eigenvalues>
  <separator name="orbital magnetization" >
   <v name="MAGDIPOLOUT">      0.00000000      0.00000000      0.00000000</v>
  </separator>
 </calculation>
 <structure name="finalpos" >
  <crystal>
   <varray name="basis" >
    <v>       3.56565456       0.00000000       0.00000000 </v>
    <v>       1.78282728       3.08794743       0.00000000 </v>
    <v>       0.00000000       0.00000000      20.00000000 </v>
   </varray>
   <i name="volume">    220.21107662 </i>
   <varray name="rec_basis" >
    <v>       0.28045342      -0.16191985       0.00000000 </v>
    <v>       0.00000000       0.32383971       0.00000000 </v>
    <v>       0.00000000       0.00000000       0.05000000 </v>
   </varray>
  </crystal>
  <varray name="positions" >
   <v>       0.00000000       0.00000000       0.50000000 </v>
   <v>       0.33333333       0.33333333       0.41023222 </v>
   <v>       0.33333333       0.33333333       0.58976778 </v>
  </varray>
 </structure>
</modeling>
