MoTe2 relaxation                        
           1
     3.565655    0.000000    0.000000
     1.782827    3.087947    0.000000
     0.000000    0.000000   20.000000
   Mo   Te
     1     2
Direct configuration=     1
   0.00000000  0.00000000  0.50000000
   0.33333333  0.33333333  0.41051869
   0.33333333  0.33333333  0.58948131
Direct configuration=     2
  -0.00000000 -0.00000000  0.50000000
   0.33333333  0.33333333  0.41034025
   0.33333333  0.33333333  0.58965975
Direct configuration=     3
   0.00000000  0.00000000  0.50000000
   0.33333333  0.33333333  0.41025728
   0.33333333  0.33333333  0.58974272
Direct configuration=     4
  -0.00000000 -0.00000000  0.50000000
   0.33333333  0.33333333  0.41023115
   0.33333333  0.33333333  0.58976885
Direct configuration=     5
   0.00000000 -0.00000000  0.50000000
   0.33333333  0.33333333  0.41023429
   0.33333333  0.33333333  0.58976571
Direct configuration=     6
   0.00000000 -0.00000000  0.50000000
   0.33333333  0.33333333  0.41023299
   0.33333333  0.33333333  0.58976701
Direct configuration=     7
   0.00000000  0.00000000  0.50000000
   0.33333333  0.33333333  0.41023206
   0.33333333  0.33333333  0.58976794
Direct configuration=     8
   0.00000000  0.00000000  0.50000000
   0.33333333  0.33333333  0.41023240
   0.33333333  0.33333333  0.58976760
Direct configuration=     9
   0.00000000  0.00000000  0.50000000
   0.33333333  0.33333333  0.41023222
   0.33333333  0.33333333  0.58976778
