cpu-bind=MASK - c032, task  0  0 [2697939]: mask 0xfffffffffff0 set
 running  264 mpi-ranks, with    1 threads/rank, on    6 nodes
 distrk:  each k-point on   44 cores,    6 groups
 distr:  one band on    4 cores,   11 groups
 vasp.6.5.1 10Mar25 (build Aug 29 2025 00:30:47) complex                        
  
 POSCAR found type information on POSCAR W S 
 POSCAR found :  2 types and       3 ions
 scaLAPACK will be used
 -----------------------------------------------------------------------------
|                                                                             |
|               ----> ADVICE to this user running VASP <----                  |
|                                                                             |
|     You have a (more or less) 'small supercell' and for smaller cells       |
|     it is recommended to use the reciprocal-space projection scheme!        |
|     The real-space optimization is not efficient for small cells and it     |
|     is also less accurate ...                                               |
|     Therefore, set LREAL=.FALSE. in the INCAR file.                         |
|                                                                             |
 -----------------------------------------------------------------------------

 LDA part: xc-table for (Slater+PW92), standard interpolation
 POSCAR, INCAR and KPOINTS ok, starting setup
 FFT: planning ... GRIDC
 FFT: planning ... GRID_SOFT
 FFT: planning ... GRID
 WAVECAR not read
 entering main loop
       N       E                     dE             d eps       ncg     rms          rms(c)
DAV:   1     0.144491139982E+03    0.14449E+03   -0.14052E+04  1485   0.957E+02
DAV:   2    -0.136661818876E+02   -0.15816E+03   -0.14988E+03  1529   0.211E+02
DAV:   3    -0.248736296818E+02   -0.11207E+02   -0.11111E+02  1584   0.556E+01
DAV:   4    -0.250661015767E+02   -0.19247E+00   -0.19235E+00  1551   0.840E+00
DAV:   5    -0.250711191621E+02   -0.50176E-02   -0.50174E-02  1694   0.135E+00    0.264E+01
DAV:   6    -0.238537066733E+02    0.12174E+01   -0.46729E+00  1221   0.155E+01    0.108E+01
DAV:   7    -0.237372020505E+02    0.11650E+00   -0.97189E-01  1661   0.633E+00    0.497E+00
DAV:   8    -0.236697325785E+02    0.67469E-01   -0.23521E-01  1573   0.359E+00    0.882E-01
DAV:   9    -0.236674301835E+02    0.23024E-02   -0.15218E-02  1727   0.780E-01    0.490E-01
DAV:  10    -0.236663445413E+02    0.10856E-02   -0.23921E-03  1672   0.310E-01    0.120E-01
DAV:  11    -0.236659530462E+02    0.39150E-03   -0.34427E-04  1716   0.101E-01    0.972E-02
DAV:  12    -0.236656790193E+02    0.27403E-03   -0.45464E-05  1639   0.344E-02    0.414E-02
DAV:  13    -0.236650177298E+02    0.66129E-03   -0.25897E-04  1507   0.600E-02    0.264E-02
DAV:  14    -0.236647203944E+02    0.29734E-03   -0.22048E-04  1386   0.536E-02    0.628E-02
DAV:  15    -0.236643317342E+02    0.38866E-03   -0.18325E-04  1386   0.509E-02    0.148E-02
DAV:  16    -0.236648051838E+02   -0.47345E-03   -0.77302E-05  1518   0.342E-02    0.395E-02
DAV:  17    -0.236652357767E+02   -0.43059E-03   -0.63818E-05  1518   0.260E-02    0.168E-02
DAV:  18    -0.236655235008E+02   -0.28772E-03   -0.39016E-05  1507   0.154E-02    0.152E-02
DAV:  19    -0.236655964772E+02   -0.72976E-04   -0.56143E-06  1485   0.693E-03    0.102E-02
DAV:  20    -0.236656190355E+02   -0.22558E-04   -0.69365E-07  1463   0.267E-03    0.451E-03
DAV:  21    -0.236656266039E+02   -0.75684E-05   -0.29844E-07  1221   0.191E-03    0.162E-03
DAV:  22    -0.236656272985E+02   -0.69463E-06   -0.13060E-08  1210   0.497E-04
   1 F= -.24584531E+02 E0= -.24584531E+02  d E =-.245845E+02
 BRION: g(F)=  0.211E-02 g(S)=  0.000E+00
 bond charge predicted
       N       E                     dE             d eps       ncg     rms          rms(c)
DAV:   1    -0.236678067869E+02   -0.21802E-02   -0.10209E-01  1243   0.131E+00    0.322E-01
DAV:   2    -0.236681486936E+02   -0.34191E-03   -0.45774E-03  1496   0.336E-01    0.152E-01
DAV:   3    -0.236681420410E+02    0.66527E-05   -0.69892E-05  1518   0.506E-02    0.900E-02
DAV:   4    -0.236681381708E+02    0.38702E-05   -0.25257E-05  1463   0.261E-02    0.109E-02
DAV:   5    -0.236681376524E+02    0.51833E-06   -0.42297E-06  1606   0.105E-02
   2 F= -.24585633E+02 E0= -.24585633E+02  d E =-.110180E-02
 BRION: g(F)=  0.529E-05 g(S)=  0.000E+00 retain N=  1 mean eig= 1.05
 eig:   1.053
 bond charge predicted
       N       E                     dE             d eps       ncg     rms          rms(c)
DAV:   1    -0.236682136737E+02   -0.75503E-04   -0.29475E-04  1573   0.700E-02    0.195E-02
DAV:   2    -0.236682141405E+02   -0.46673E-06   -0.13229E-05  1573   0.178E-02    0.798E-03
DAV:   3    -0.236682138343E+02    0.30615E-06   -0.28928E-07  1463   0.311E-03
   3 F= -.24585635E+02 E0= -.24585635E+02  d E =-.192754E-05
 BRION: g(F)=  0.556E-10 g(S)=  0.000E+00 retain N=  1 mean eig= 1.05
 eig:   1.049
 bond charge predicted
       N       E                     dE             d eps       ncg     rms          rms(c)
DAV:   1    -0.236682131943E+02    0.94616E-06   -0.29107E-08  1188   0.107E-03    0.273E-04
DAV:   2    -0.236682131404E+02    0.53942E-07   -0.73641E-09  1276   0.602E-04
   4 F= -.24585635E+02 E0= -.24585635E+02  d E =0.454045E-06
 BRION: g(F)=  0.179E-08 g(S)=  0.000E+00 retain N=  1 mean eig= 0.16
 eig:   0.157
 bond charge predicted
       N       E                     dE             d eps       ncg     rms          rms(c)
DAV:   1    -0.236682133163E+02   -0.12196E-06   -0.43154E-09  1089   0.343E-04    0.128E-04
DAV:   2    -0.236682132992E+02    0.17101E-07   -0.11260E-09  1111   0.173E-04
   5 F= -.24585635E+02 E0= -.24585635E+02  d E =0.451786E-07
 BRION: g(F)=  0.908E-09 g(S)=  0.000E+00 retain N=  1 mean eig= 0.54
 eig:   0.545
 bond charge predicted
       N       E                     dE             d eps       ncg     rms          rms(c)
DAV:   1    -0.236682137373E+02   -0.42101E-06   -0.34467E-08  1001   0.654E-04    0.177E-04
DAV:   2    -0.236682137844E+02   -0.47160E-07   -0.27709E-09  1155   0.263E-04
   6 F= -.24585635E+02 E0= -.24585635E+02  d E =0.179039E-07
 BRION: g(F)=  0.619E-10 g(S)=  0.000E+00 retain N=  1 mean eig= 0.74
 eig:   0.737
 bond charge predicted
       N       E                     dE             d eps       ncg     rms          rms(c)
DAV:   1    -0.236682140378E+02   -0.30046E-06   -0.29002E-09  1199   0.229E-04    0.911E-05
DAV:   2    -0.236682140834E+02   -0.45602E-07   -0.57424E-10  1298   0.120E-04
   7 F= -.24585635E+02 E0= -.24585635E+02  d E =-.121109E-06
 BRION: g(F)=  0.372E-10 g(S)=  0.000E+00 retain N=  1 mean eig= 3.28
 eig:   3.280
 bond charge predicted
       N       E                     dE             d eps       ncg     rms          rms(c)
DAV:   1    -0.236682148171E+02   -0.77931E-06   -0.20474E-08  1243   0.588E-04    0.139E-04
DAV:   2    -0.236682148581E+02   -0.41018E-07   -0.19096E-09  1364   0.231E-04
   8 F= -.24585635E+02 E0= -.24585635E+02  d E =-.161578E-06
 BRION: g(F)=  0.397E-09 g(S)=  0.000E+00 retain N=  1 mean eig= 0.77
 eig:   0.769
 bond charge predicted
       N       E                     dE             d eps       ncg     rms          rms(c)
DAV:   1    -0.236682144569E+02    0.36014E-06   -0.93551E-09  1265   0.424E-04    0.684E-05
DAV:   2    -0.236682144976E+02   -0.40646E-07   -0.86620E-10  1298   0.157E-04
   9 F= -.24585635E+02 E0= -.24585635E+02  d E =-.108905E-06
 BRION: g(F)=  0.313E-09 g(S)=  0.000E+00 retain N=  1 mean eig= 0.41
 eig:   0.407
 bond charge predicted
       N       E                     dE             d eps       ncg     rms          rms(c)
DAV:   1    -0.236682147936E+02   -0.33669E-06   -0.20911E-09  1221   0.204E-04    0.476E-05
DAV:   2    -0.236682148284E+02   -0.34789E-07   -0.21186E-10  1287   0.687E-05
  10 F= -.24585635E+02 E0= -.24585635E+02  d E =-.110062E-06
 BRION: g(F)=  0.216E-10 g(S)=  0.000E+00 retain N=  1 mean eig= 0.32
 eig:   0.322
 bond charge predicted
       N       E                     dE             d eps       ncg     rms          rms(c)
DAV:   1    -0.236682148724E+02   -0.78834E-07   -0.22421E-10  1155   0.533E-05    0.360E-05
DAV:   2    -0.236682149031E+02   -0.30674E-07   -0.20848E-11  1287   0.252E-05
  11 F= -.24585635E+02 E0= -.24585635E+02  d E =-.120673E-06
 BRION: g(F)=  0.509E-11 g(S)=  0.000E+00 retain N=  1 mean eig= 0.22
 eig:   0.217
 bond charge predicted
       N       E                     dE             d eps       ncg     rms          rms(c)
DAV:   1    -0.236682150951E+02   -0.22270E-06   -0.60656E-10  1100   0.520E-05    0.322E-05
DAV:   2    -0.236682151159E+02   -0.20802E-07   -0.33308E-11  1331   0.352E-05
  12 F= -.24585635E+02 E0= -.24585635E+02  d E =-.197813E-06
 BRION: g(F)=  0.120E-12 g(S)=  0.000E+00 retain N=  1 mean eig= 0.26
 eig:   0.256
 bond charge predicted
       N       E                     dE             d eps       ncg     rms          rms(c)
DAV:   1    -0.236682151466E+02   -0.51425E-07   -0.19825E-11  1133   0.242E-05    0.224E-05
DAV:   2    -0.236682151650E+02   -0.18451E-07   -0.29287E-12  1210   0.145E-05
  13 F= -.24585635E+02 E0= -.24585635E+02  d E =-.463542E-07
 BRION: g(F)=  0.504E-12 g(S)=  0.000E+00 retain N=  1 mean eig= 0.24
 eig:   0.244
 bond charge predicted
       N       E                     dE             d eps       ncg     rms          rms(c)
DAV:   1    -0.236682152436E+02   -0.97079E-07   -0.13499E-10  1012   0.293E-05    0.176E-05
DAV:   2    -0.236682152567E+02   -0.13017E-07   -0.62361E-12  1309   0.228E-05
  14 F= -.24585635E+02 E0= -.24585635E+02  d E =-.969470E-07
 BRION: g(F)=  0.104E-11 g(S)=  0.000E+00 retain N=  1 mean eig= 0.56
 eig:   0.557
 bond charge predicted
       N       E                     dE             d eps       ncg     rms          rms(c)
DAV:   1    -0.236682152948E+02   -0.51113E-07   -0.21390E-11  1111   0.228E-05    0.155E-05
DAV:   2    -0.236682153059E+02   -0.11162E-07    0.21580E-12  1221   0.125E-05
  15 F= -.24585635E+02 E0= -.24585635E+02  d E =-.318270E-07
 BRION: g(F)=  0.109E-13 g(S)=  0.000E+00 retain N=  1 mean eig= 0.62
 eig:   0.621
 reached required accuracy - stopping structural energy minimisation
