cpu-bind=MASK - c068, task  0  0 [104673]: mask 0xfffffffffff0 set
 running  264 mpi-ranks, with    1 threads/rank, on    6 nodes
 distrk:  each k-point on   44 cores,    6 groups
 distr:  one band on    4 cores,   11 groups
 vasp.6.5.1 10Mar25 (build Aug 29 2025 00:30:47) complex                        
  
 POSCAR found type information on POSCAR W S 
 POSCAR found :  2 types and       3 ions
 scaLAPACK will be used
 -----------------------------------------------------------------------------
|                                                                             |
|               ----> ADVICE to this user running VASP <----                  |
|                                                                             |
|     You have a (more or less) 'small supercell' and for smaller cells       |
|     it is recommended to use the reciprocal-space projection scheme!        |
|     The real-space optimization is not efficient for small cells and it     |
|     is also less accurate ...                                               |
|     Therefore, set LREAL=.FALSE. in the INCAR file.                         |
|                                                                             |
 -----------------------------------------------------------------------------

 LDA part: xc-table for (Slater+PW92), standard interpolation
 POSCAR, INCAR and KPOINTS ok, starting setup
 FFT: planning ... GRIDC
 FFT: planning ... GRID_SOFT
 FFT: planning ... GRID
 WAVECAR not read
 entering main loop
       N       E                     dE             d eps       ncg     rms          rms(c)
DAV:   1     0.144491139982E+03    0.14449E+03   -0.14052E+04  1485   0.957E+02
DAV:   2    -0.136661818876E+02   -0.15816E+03   -0.14988E+03  1529   0.211E+02
DAV:   3    -0.248736296818E+02   -0.11207E+02   -0.11111E+02  1584   0.556E+01
DAV:   4    -0.250661015767E+02   -0.19247E+00   -0.19235E+00  1551   0.840E+00
DAV:   5    -0.250711191621E+02   -0.50176E-02   -0.50174E-02  1694   0.135E+00    0.264E+01
DAV:   6    -0.238537066733E+02    0.12174E+01   -0.46729E+00  1221   0.155E+01    0.108E+01
DAV:   7    -0.237372020505E+02    0.11650E+00   -0.97189E-01  1661   0.633E+00    0.497E+00
DAV:   8    -0.236697325785E+02    0.67469E-01   -0.23521E-01  1573   0.359E+00    0.882E-01
DAV:   9    -0.236674301835E+02    0.23024E-02   -0.15218E-02  1727   0.780E-01    0.490E-01
DAV:  10    -0.236663445413E+02    0.10856E-02   -0.23921E-03  1672   0.310E-01    0.120E-01
DAV:  11    -0.236659530462E+02    0.39150E-03   -0.34427E-04  1716   0.101E-01    0.972E-02
DAV:  12    -0.236656790193E+02    0.27403E-03   -0.45464E-05  1639   0.344E-02    0.414E-02
DAV:  13    -0.236650177298E+02    0.66129E-03   -0.25897E-04  1507   0.600E-02    0.264E-02
DAV:  14    -0.236647203944E+02    0.29734E-03   -0.22048E-04  1386   0.536E-02    0.628E-02
DAV:  15    -0.236643317342E+02    0.38866E-03   -0.18325E-04  1386   0.509E-02    0.148E-02
DAV:  16    -0.236648051838E+02   -0.47345E-03   -0.77302E-05  1518   0.342E-02    0.395E-02
DAV:  17    -0.236652357767E+02   -0.43059E-03   -0.63818E-05  1518   0.260E-02    0.168E-02
DAV:  18    -0.236655235008E+02   -0.28772E-03   -0.39016E-05  1507   0.154E-02    0.152E-02
DAV:  19    -0.236655964760E+02   -0.72975E-04   -0.56020E-06  1397   0.693E-03    0.102E-02
DAV:  20    -0.236656190940E+02   -0.22618E-04   -0.69326E-07  1199   0.272E-03    0.447E-03
DAV:  21    -0.236656266111E+02   -0.75171E-05   -0.29620E-07  1089   0.187E-03    0.182E-03
DAV:  22    -0.236656273680E+02   -0.75688E-06   -0.18763E-08  1210   0.582E-04
   1 F= -.24584531E+02 E0= -.24584531E+02  d E =-.245845E+02
 BRION: g(F)=  0.211E-02 g(S)=  0.000E+00
 bond charge predicted
       N       E                     dE             d eps       ncg     rms          rms(c)
DAV:   1    -0.236678068072E+02   -0.21802E-02   -0.10211E-01  1243   0.131E+00    0.322E-01
DAV:   2    -0.236681488354E+02   -0.34203E-03   -0.45788E-03  1485   0.336E-01    0.152E-01
DAV:   3    -0.236681421921E+02    0.66433E-05   -0.69926E-05  1518   0.506E-02    0.900E-02
DAV:   4    -0.236681383133E+02    0.38787E-05   -0.25304E-05  1474   0.262E-02    0.109E-02
DAV:   5    -0.236681377927E+02    0.52063E-06   -0.42391E-06  1606   0.105E-02
   2 F= -.24585633E+02 E0= -.24585633E+02  d E =-.110174E-02
 BRION: g(F)=  0.527E-05 g(S)=  0.000E+00 retain N=  1 mean eig= 1.05
 eig:   1.053
 bond charge predicted
       N       E                     dE             d eps       ncg     rms          rms(c)
DAV:   1    -0.236682136568E+02   -0.75343E-04   -0.29359E-04  1573   0.699E-02    0.194E-02
DAV:   2    -0.236682141205E+02   -0.46371E-06   -0.13182E-05  1573   0.178E-02    0.796E-03
DAV:   3    -0.236682138111E+02    0.30942E-06   -0.25071E-07  1177   0.311E-03
   3 F= -.24585635E+02 E0= -.24585635E+02  d E =-.191389E-05
 BRION: g(F)=  0.623E-08 g(S)=  0.000E+00 retain N=  1 mean eig= 1.02
 eig:   1.018
 bond charge predicted
       N       E                     dE             d eps       ncg     rms          rms(c)
DAV:   1    -0.236682109502E+02    0.31703E-05   -0.27983E-07  1177   0.274E-03    0.416E-04
DAV:   2    -0.236682109032E+02    0.47010E-07   -0.38002E-08  1232   0.126E-03
   4 F= -.24585635E+02 E0= -.24585635E+02  d E =0.446313E-06
 BRION: g(F)=  0.330E-07 g(S)=  0.000E+00 retain N=  1 mean eig= 0.31
 eig:   0.308
 bond charge predicted
       N       E                     dE             d eps       ncg     rms          rms(c)
DAV:   1    -0.236682126000E+02   -0.16498E-05   -0.11829E-07  1122   0.157E-03    0.197E-04
DAV:   2    -0.236682125796E+02    0.20376E-07   -0.12252E-08  1166   0.589E-04
   5 F= -.24585635E+02 E0= -.24585635E+02  d E =0.401414E-07
 BRION: g(F)=  0.733E-09 g(S)=  0.000E+00 retain N=  1 mean eig= 0.36
 eig:   0.362
 reached required accuracy - stopping structural energy minimisation
