WS2 relaxation                          
           1
     3.184223    0.000000    0.000000
     1.592111    2.757618    0.000000
     0.000000    0.000000   20.000000
   W    S 
     1     2
Direct configuration=     1
   0.00000000  0.00000000  0.50000000
   0.33333333  0.33333333  0.42200340
   0.33333333  0.33333333  0.57799660
Direct configuration=     2
  -0.00000000 -0.00000000  0.50000000
   0.33333333  0.33333333  0.42164658
   0.33333333  0.33333333  0.57835342
Direct configuration=     3
  -0.00000000 -0.00000000  0.50000000
   0.33333333  0.33333333  0.42162777
   0.33333333  0.33333333  0.57837223
Direct configuration=     4
  -0.00000000 -0.00000000  0.50000000
   0.33333333  0.33333333  0.42162783
   0.33333333  0.33333333  0.57837217
Direct configuration=     5
  -0.00000000 -0.00000000  0.50000000
   0.33333333  0.33333333  0.42162778
   0.33333333  0.33333333  0.57837222
Direct configuration=     6
   0.00000000  0.00000000  0.50000000
   0.33333333  0.33333333  0.42162765
   0.33333333  0.33333333  0.57837235
Direct configuration=     7
   0.00000000  0.00000000  0.50000000
   0.33333333  0.33333333  0.42162761
   0.33333333  0.33333333  0.57837239
Direct configuration=     8
   0.00000000  0.00000000  0.50000000
   0.33333333  0.33333333  0.42162745
   0.33333333  0.33333333  0.57837255
Direct configuration=     9
   0.00000000  0.00000000  0.50000000
   0.33333333  0.33333333  0.42162757
   0.33333333  0.33333333  0.57837243
Direct configuration=    10
  -0.00000000  0.00000000  0.50000000
   0.33333333  0.33333333  0.42162751
   0.33333333  0.33333333  0.57837249
Direct configuration=    11
  -0.00000000  0.00000000  0.50000000
   0.33333333  0.33333333  0.42162753
   0.33333333  0.33333333  0.57837247
Direct configuration=    12
  -0.00000000 -0.00000000  0.50000000
   0.33333333  0.33333333  0.42162752
   0.33333333  0.33333333  0.57837248
Direct configuration=    13
  -0.00000000 -0.00000000  0.50000000
   0.33333333  0.33333333  0.42162752
   0.33333333  0.33333333  0.57837248
Direct configuration=    14
  -0.00000000  0.00000000  0.50000000
   0.33333333  0.33333333  0.42162752
   0.33333333  0.33333333  0.57837248
Direct configuration=    15
  -0.00000000 -0.00000000  0.50000000
   0.33333333  0.33333333  0.42162752
   0.33333333  0.33333333  0.57837248
