  45  45   0   0
  0.3543551E+02  0.9595006E-09  0.9595006E-09  0.2000000E-08  0.5000000E-15
  1.000000000000000E-004
  CAR 
 MoS2_GaN_2H phonon                      
      6.65584175    -65.20979022  301     -0.02167322      1.00000000
    -65.210  0.0000E+00  0.0000E+00
    -64.970  0.0000E+00  0.0000E+00
    -64.731  0.0000E+00  0.0000E+00
    -64.491  0.0000E+00  0.0000E+00
    -64.252  0.0000E+00  0.0000E+00
    -64.012  0.0000E+00  0.0000E+00
    -63.772  0.0000E+00  0.0000E+00
    -63.533  0.0000E+00  0.0000E+00
    -63.293  0.0000E+00  0.0000E+00
    -63.054  0.0000E+00  0.0000E+00
    -62.814  0.0000E+00  0.0000E+00
    -62.575  0.0000E+00  0.0000E+00
    -62.335  0.0000E+00  0.0000E+00
    -62.096  0.5868E-04  0.1406E-04
    -61.856  0.7143E+02  0.1711E+02
    -61.617  0.3714E+01  0.1800E+02
    -61.377  0.0000E+00  0.1800E+02
    -61.137  0.0000E+00  0.1800E+02
    -60.898  0.0000E+00  0.1800E+02
    -60.658  0.0000E+00  0.1800E+02
    -60.419  0.0000E+00  0.1800E+02
    -60.179  0.0000E+00  0.1800E+02
    -59.940  0.0000E+00  0.1800E+02
    -59.700  0.0000E+00  0.1800E+02
    -59.461  0.0000E+00  0.1800E+02
    -59.221  0.0000E+00  0.1800E+02
    -58.981  0.0000E+00  0.1800E+02
    -58.742  0.0000E+00  0.1800E+02
    -58.502  0.0000E+00  0.1800E+02
    -58.263  0.0000E+00  0.1800E+02
    -58.023  0.0000E+00  0.1800E+02
    -57.784  0.0000E+00  0.1800E+02
    -57.544  0.0000E+00  0.1800E+02
    -57.305  0.0000E+00  0.1800E+02
    -57.065  0.0000E+00  0.1800E+02
    -56.825  0.0000E+00  0.1800E+02
    -56.586  0.0000E+00  0.1800E+02
    -56.346  0.0000E+00  0.1800E+02
    -56.107  0.0000E+00  0.1800E+02
    -55.867  0.0000E+00  0.1800E+02
    -55.628  0.0000E+00  0.1800E+02
    -55.388  0.0000E+00  0.1800E+02
    -55.149  0.0000E+00  0.1800E+02
    -54.909  0.0000E+00  0.1800E+02
    -54.669  0.0000E+00  0.1800E+02
    -54.430  0.0000E+00  0.1800E+02
    -54.190  0.0000E+00  0.1800E+02
    -53.951  0.0000E+00  0.1800E+02
    -53.711  0.0000E+00  0.1800E+02
    -53.472  0.0000E+00  0.1800E+02
    -53.232  0.0000E+00  0.1800E+02
    -52.993  0.0000E+00  0.1800E+02
    -52.753  0.0000E+00  0.1800E+02
    -52.514  0.0000E+00  0.1800E+02
    -52.274  0.0000E+00  0.1800E+02
    -52.034  0.0000E+00  0.1800E+02
    -51.795  0.0000E+00  0.1800E+02
    -51.555  0.0000E+00  0.1800E+02
    -51.316  0.0000E+00  0.1800E+02
    -51.076  0.0000E+00  0.1800E+02
    -50.837  0.0000E+00  0.1800E+02
    -50.597  0.0000E+00  0.1800E+02
    -50.358  0.0000E+00  0.1800E+02
    -50.118  0.0000E+00  0.1800E+02
    -49.878  0.0000E+00  0.1800E+02
    -49.639  0.0000E+00  0.1800E+02
    -49.399  0.0000E+00  0.1800E+02
    -49.160  0.0000E+00  0.1800E+02
    -48.920  0.0000E+00  0.1800E+02
    -48.681  0.0000E+00  0.1800E+02
    -48.441  0.0000E+00  0.1800E+02
    -48.202  0.0000E+00  0.1800E+02
    -47.962  0.0000E+00  0.1800E+02
    -47.722  0.0000E+00  0.1800E+02
    -47.483  0.0000E+00  0.1800E+02
    -47.243  0.0000E+00  0.1800E+02
    -47.004  0.0000E+00  0.1800E+02
    -46.764  0.0000E+00  0.1800E+02
    -46.525  0.0000E+00  0.1800E+02
    -46.285  0.0000E+00  0.1800E+02
    -46.046  0.0000E+00  0.1800E+02
    -45.806  0.0000E+00  0.1800E+02
    -45.567  0.0000E+00  0.1800E+02
    -45.327  0.0000E+00  0.1800E+02
    -45.087  0.0000E+00  0.1800E+02
    -44.848  0.0000E+00  0.1800E+02
    -44.608  0.0000E+00  0.1800E+02
    -44.369  0.0000E+00  0.1800E+02
    -44.129  0.0000E+00  0.1800E+02
    -43.890  0.0000E+00  0.1800E+02
    -43.650  0.0000E+00  0.1800E+02
    -43.411  0.0000E+00  0.1800E+02
    -43.171  0.0000E+00  0.1800E+02
    -42.931  0.0000E+00  0.1800E+02
    -42.692  0.0000E+00  0.1800E+02
    -42.452  0.0000E+00  0.1800E+02
    -42.213  0.0000E+00  0.1800E+02
    -41.973  0.0000E+00  0.1800E+02
    -41.734  0.0000E+00  0.1800E+02
    -41.494  0.0000E+00  0.1800E+02
    -41.255  0.0000E+00  0.1800E+02
    -41.015  0.0000E+00  0.1800E+02
    -40.775  0.0000E+00  0.1800E+02
    -40.536  0.0000E+00  0.1800E+02
    -40.296  0.0000E+00  0.1800E+02
    -40.057  0.0000E+00  0.1800E+02
    -39.817  0.0000E+00  0.1800E+02
    -39.578  0.0000E+00  0.1800E+02
    -39.338  0.0000E+00  0.1800E+02
    -39.099  0.0000E+00  0.1800E+02
    -38.859  0.0000E+00  0.1800E+02
    -38.620  0.0000E+00  0.1800E+02
    -38.380  0.0000E+00  0.1800E+02
    -38.140  0.0000E+00  0.1800E+02
    -37.901  0.0000E+00  0.1800E+02
    -37.661  0.0000E+00  0.1800E+02
    -37.422  0.0000E+00  0.1800E+02
    -37.182  0.0000E+00  0.1800E+02
    -36.943  0.0000E+00  0.1800E+02
    -36.703  0.0000E+00  0.1800E+02
    -36.464  0.3630E-09  0.1800E+02
    -36.224  0.1080E+02  0.2059E+02
    -35.984  0.1479E+03  0.5603E+02
    -35.745  0.6668E+02  0.7200E+02
    -35.505  0.7834E-04  0.7200E+02
    -35.266  0.0000E+00  0.7200E+02
    -35.026  0.0000E+00  0.7200E+02
    -34.787  0.0000E+00  0.7200E+02
    -34.547  0.0000E+00  0.7200E+02
    -34.308  0.0000E+00  0.7200E+02
    -34.068  0.0000E+00  0.7200E+02
    -33.828  0.0000E+00  0.7200E+02
    -33.589  0.0000E+00  0.7200E+02
    -33.349  0.0000E+00  0.7200E+02
    -33.110  0.0000E+00  0.7200E+02
    -32.870  0.0000E+00  0.7200E+02
    -32.631  0.0000E+00  0.7200E+02
    -32.391  0.0000E+00  0.7200E+02
    -32.152  0.0000E+00  0.7200E+02
    -31.912  0.0000E+00  0.7200E+02
    -31.672  0.0000E+00  0.7200E+02
    -31.433  0.0000E+00  0.7200E+02
    -31.193  0.0000E+00  0.7200E+02
    -30.954  0.0000E+00  0.7200E+02
    -30.714  0.0000E+00  0.7200E+02
    -30.475  0.0000E+00  0.7200E+02
    -30.235  0.0000E+00  0.7200E+02
    -29.996  0.0000E+00  0.7200E+02
    -29.756  0.0000E+00  0.7200E+02
    -29.517  0.0000E+00  0.7200E+02
    -29.277  0.0000E+00  0.7200E+02
    -29.037  0.0000E+00  0.7200E+02
    -28.798  0.0000E+00  0.7200E+02
    -28.558  0.0000E+00  0.7200E+02
    -28.319  0.0000E+00  0.7200E+02
    -28.079  0.0000E+00  0.7200E+02
    -27.840  0.0000E+00  0.7200E+02
    -27.600  0.0000E+00  0.7200E+02
    -27.361  0.0000E+00  0.7200E+02
    -27.121  0.0000E+00  0.7200E+02
    -26.881  0.0000E+00  0.7200E+02
    -26.642  0.0000E+00  0.7200E+02
    -26.402  0.0000E+00  0.7200E+02
    -26.163  0.0000E+00  0.7200E+02
    -25.923  0.0000E+00  0.7200E+02
    -25.684  0.0000E+00  0.7200E+02
    -25.444  0.0000E+00  0.7200E+02
    -25.205  0.0000E+00  0.7200E+02
    -24.965  0.0000E+00  0.7200E+02
    -24.725  0.0000E+00  0.7200E+02
    -24.486  0.0000E+00  0.7200E+02
    -24.246  0.0000E+00  0.7200E+02
    -24.007  0.0000E+00  0.7200E+02
    -23.767  0.0000E+00  0.7200E+02
    -23.528  0.0000E+00  0.7200E+02
    -23.288  0.0000E+00  0.7200E+02
    -23.049  0.0000E+00  0.7200E+02
    -22.809  0.0000E+00  0.7200E+02
    -22.570  0.0000E+00  0.7200E+02
    -22.330  0.0000E+00  0.7200E+02
    -22.090  0.0000E+00  0.7200E+02
    -21.851  0.0000E+00  0.7200E+02
    -21.611  0.0000E+00  0.7200E+02
    -21.372  0.0000E+00  0.7200E+02
    -21.132  0.0000E+00  0.7200E+02
    -20.893  0.0000E+00  0.7200E+02
    -20.653  0.0000E+00  0.7200E+02
    -20.414  0.0000E+00  0.7200E+02
    -20.174  0.0000E+00  0.7200E+02
    -19.934  0.0000E+00  0.7200E+02
    -19.695  0.0000E+00  0.7200E+02
    -19.455  0.0000E+00  0.7200E+02
    -19.216  0.0000E+00  0.7200E+02
    -18.976  0.0000E+00  0.7200E+02
    -18.737  0.0000E+00  0.7200E+02
    -18.497  0.0000E+00  0.7200E+02
    -18.258  0.0000E+00  0.7200E+02
    -18.018  0.0000E+00  0.7200E+02
    -17.778  0.0000E+00  0.7200E+02
    -17.539  0.0000E+00  0.7200E+02
    -17.299  0.0000E+00  0.7200E+02
    -17.060  0.0000E+00  0.7200E+02
    -16.820  0.0000E+00  0.7200E+02
    -16.581  0.0000E+00  0.7200E+02
    -16.341  0.0000E+00  0.7200E+02
    -16.102  0.0000E+00  0.7200E+02
    -15.862  0.0000E+00  0.7200E+02
    -15.623  0.0000E+00  0.7200E+02
    -15.383  0.3022E-14  0.7200E+02
    -15.143  0.6921E-01  0.7202E+02
    -14.904  0.3874E+01  0.7294E+02
    -14.664  0.6696E+01  0.7455E+02
    -14.425  0.9007E+01  0.7671E+02
    -14.185  0.1272E+02  0.7975E+02
    -13.946  0.1502E+02  0.8335E+02
    -13.706  0.1901E+02  0.8791E+02
    -13.467  0.2919E+02  0.9490E+02
    -13.227  0.4570E+02  0.1058E+03
    -12.987  0.6395E+02  0.1212E+03
    -12.748  0.1982E+02  0.1259E+03
    -12.508  0.3654E+00  0.1260E+03
    -12.269  0.0000E+00  0.1260E+03
    -12.029  0.0000E+00  0.1260E+03
    -11.790  0.0000E+00  0.1260E+03
    -11.550  0.0000E+00  0.1260E+03
    -11.311  0.0000E+00  0.1260E+03
    -11.071  0.0000E+00  0.1260E+03
    -10.831  0.0000E+00  0.1260E+03
    -10.592  0.0000E+00  0.1260E+03
    -10.352  0.0000E+00  0.1260E+03
    -10.113  0.0000E+00  0.1260E+03
     -9.873  0.0000E+00  0.1260E+03
     -9.634  0.0000E+00  0.1260E+03
     -9.394  0.0000E+00  0.1260E+03
     -9.155  0.0000E+00  0.1260E+03
     -8.915  0.0000E+00  0.1260E+03
     -8.675  0.0000E+00  0.1260E+03
     -8.436  0.0000E+00  0.1260E+03
     -8.196  0.0000E+00  0.1260E+03
     -7.957  0.0000E+00  0.1260E+03
     -7.717  0.0000E+00  0.1260E+03
     -7.478  0.0000E+00  0.1260E+03
     -7.238  0.0000E+00  0.1260E+03
     -6.999  0.1250E-10  0.1260E+03
     -6.759  0.1266E+01  0.1263E+03
     -6.520  0.1257E+02  0.1293E+03
     -6.280  0.2642E+02  0.1356E+03
     -6.040  0.4767E+02  0.1471E+03
     -5.801  0.3610E+02  0.1557E+03
     -5.561  0.2276E+02  0.1612E+03
     -5.322  0.7327E+01  0.1629E+03
     -5.082  0.1626E+02  0.1668E+03
     -4.843  0.4983E+02  0.1788E+03
     -4.603  0.2820E+02  0.1855E+03
     -4.364  0.1877E+02  0.1900E+03
     -4.124  0.5221E+02  0.2025E+03
     -3.884  0.2371E+02  0.2082E+03
     -3.645  0.2877E+02  0.2151E+03
     -3.405  0.1582E+02  0.2189E+03
     -3.166  0.2005E+02  0.2237E+03
     -2.926  0.4059E+02  0.2334E+03
     -2.687  0.4546E+02  0.2443E+03
     -2.447  0.3576E+02  0.2529E+03
     -2.208  0.3072E+02  0.2602E+03
     -1.968  0.3665E+02  0.2690E+03
     -1.728  0.3904E+02  0.2783E+03
     -1.489  0.3008E+02  0.2856E+03
     -1.249  0.2922E+02  0.2926E+03
     -1.010  0.1978E+02  0.2973E+03
     -0.770  0.1645E+02  0.3012E+03
     -0.531  0.1481E+02  0.3048E+03
     -0.291  0.5098E+01  0.3060E+03
     -0.052  0.4140E-03  0.3060E+03
      0.188  0.0000E+00  0.3060E+03
      0.427  0.1073E-02  0.3060E+03
      0.667  0.1205E+01  0.3063E+03
      0.907  0.6130E+01  0.3078E+03
      1.146  0.4640E+02  0.3189E+03
      1.386  0.3254E+02  0.3267E+03
      1.625  0.5266E+02  0.3393E+03
      1.865  0.2523E+02  0.3453E+03
      2.104  0.2942E+02  0.3524E+03
      2.344  0.2026E+02  0.3572E+03
      2.583  0.1408E+02  0.3606E+03
      2.823  0.2166E+02  0.3658E+03
      3.063  0.9758E+01  0.3681E+03
      3.302  0.2213E+02  0.3734E+03
      3.542  0.2385E+01  0.3740E+03
      3.781  0.1615E-04  0.3740E+03
      4.021  0.0000E+00  0.3740E+03
      4.260  0.0000E+00  0.3740E+03
      4.500  0.0000E+00  0.3740E+03
      4.739  0.0000E+00  0.3740E+03
      4.979  0.0000E+00  0.3740E+03
      5.219  0.0000E+00  0.3740E+03
      5.458  0.0000E+00  0.3740E+03
      5.698  0.0000E+00  0.3740E+03
      5.937  0.0000E+00  0.3740E+03
      6.177  0.0000E+00  0.3740E+03
      6.416  0.0000E+00  0.3740E+03
      6.656  0.0000E+00  0.3740E+03
