  27  27   0   0
  0.5853913E+02  0.9552669E-09  0.9552669E-09  0.2000000E-08  0.5000000E-15
  1.000000000000000E-004
  CAR 
 WS2 phonon                              
      5.88296998    -79.82387059  301     -1.50924502      1.00000000
    -79.824  0.0000E+00  0.0000E+00
    -79.538  0.0000E+00  0.0000E+00
    -79.252  0.0000E+00  0.0000E+00
    -78.967  0.0000E+00  0.0000E+00
    -78.681  0.0000E+00  0.0000E+00
    -78.395  0.0000E+00  0.0000E+00
    -78.110  0.0000E+00  0.0000E+00
    -77.824  0.0000E+00  0.0000E+00
    -77.538  0.0000E+00  0.0000E+00
    -77.253  0.0000E+00  0.0000E+00
    -76.967  0.0000E+00  0.0000E+00
    -76.681  0.0000E+00  0.0000E+00
    -76.396  0.0000E+00  0.0000E+00
    -76.110  0.1789E-05  0.5111E-06
    -75.824  0.6268E+02  0.1791E+02
    -75.539  0.3258E+00  0.1800E+02
    -75.253  0.0000E+00  0.1800E+02
    -74.967  0.0000E+00  0.1800E+02
    -74.681  0.0000E+00  0.1800E+02
    -74.396  0.0000E+00  0.1800E+02
    -74.110  0.0000E+00  0.1800E+02
    -73.824  0.0000E+00  0.1800E+02
    -73.539  0.0000E+00  0.1800E+02
    -73.253  0.0000E+00  0.1800E+02
    -72.967  0.0000E+00  0.1800E+02
    -72.682  0.0000E+00  0.1800E+02
    -72.396  0.0000E+00  0.1800E+02
    -72.110  0.0000E+00  0.1800E+02
    -71.825  0.0000E+00  0.1800E+02
    -71.539  0.0000E+00  0.1800E+02
    -71.253  0.0000E+00  0.1800E+02
    -70.967  0.0000E+00  0.1800E+02
    -70.682  0.0000E+00  0.1800E+02
    -70.396  0.0000E+00  0.1800E+02
    -70.110  0.0000E+00  0.1800E+02
    -69.825  0.0000E+00  0.1800E+02
    -69.539  0.0000E+00  0.1800E+02
    -69.253  0.0000E+00  0.1800E+02
    -68.968  0.0000E+00  0.1800E+02
    -68.682  0.0000E+00  0.1800E+02
    -68.396  0.0000E+00  0.1800E+02
    -68.111  0.0000E+00  0.1800E+02
    -67.825  0.0000E+00  0.1800E+02
    -67.539  0.0000E+00  0.1800E+02
    -67.254  0.0000E+00  0.1800E+02
    -66.968  0.0000E+00  0.1800E+02
    -66.682  0.0000E+00  0.1800E+02
    -66.396  0.0000E+00  0.1800E+02
    -66.111  0.0000E+00  0.1800E+02
    -65.825  0.0000E+00  0.1800E+02
    -65.539  0.0000E+00  0.1800E+02
    -65.254  0.0000E+00  0.1800E+02
    -64.968  0.0000E+00  0.1800E+02
    -64.682  0.0000E+00  0.1800E+02
    -64.397  0.0000E+00  0.1800E+02
    -64.111  0.0000E+00  0.1800E+02
    -63.825  0.0000E+00  0.1800E+02
    -63.540  0.0000E+00  0.1800E+02
    -63.254  0.0000E+00  0.1800E+02
    -62.968  0.0000E+00  0.1800E+02
    -62.683  0.0000E+00  0.1800E+02
    -62.397  0.0000E+00  0.1800E+02
    -62.111  0.0000E+00  0.1800E+02
    -61.825  0.0000E+00  0.1800E+02
    -61.540  0.0000E+00  0.1800E+02
    -61.254  0.0000E+00  0.1800E+02
    -60.968  0.0000E+00  0.1800E+02
    -60.683  0.0000E+00  0.1800E+02
    -60.397  0.0000E+00  0.1800E+02
    -60.111  0.0000E+00  0.1800E+02
    -59.826  0.0000E+00  0.1800E+02
    -59.540  0.0000E+00  0.1800E+02
    -59.254  0.0000E+00  0.1800E+02
    -58.969  0.0000E+00  0.1800E+02
    -58.683  0.0000E+00  0.1800E+02
    -58.397  0.0000E+00  0.1800E+02
    -58.111  0.0000E+00  0.1800E+02
    -57.826  0.0000E+00  0.1800E+02
    -57.540  0.0000E+00  0.1800E+02
    -57.254  0.0000E+00  0.1800E+02
    -56.969  0.0000E+00  0.1800E+02
    -56.683  0.0000E+00  0.1800E+02
    -56.397  0.0000E+00  0.1800E+02
    -56.112  0.0000E+00  0.1800E+02
    -55.826  0.0000E+00  0.1800E+02
    -55.540  0.0000E+00  0.1800E+02
    -55.255  0.0000E+00  0.1800E+02
    -54.969  0.0000E+00  0.1800E+02
    -54.683  0.0000E+00  0.1800E+02
    -54.398  0.0000E+00  0.1800E+02
    -54.112  0.0000E+00  0.1800E+02
    -53.826  0.0000E+00  0.1800E+02
    -53.540  0.0000E+00  0.1800E+02
    -53.255  0.0000E+00  0.1800E+02
    -52.969  0.0000E+00  0.1800E+02
    -52.683  0.0000E+00  0.1800E+02
    -52.398  0.0000E+00  0.1800E+02
    -52.112  0.0000E+00  0.1800E+02
    -51.826  0.0000E+00  0.1800E+02
    -51.541  0.0000E+00  0.1800E+02
    -51.255  0.0000E+00  0.1800E+02
    -50.969  0.0000E+00  0.1800E+02
    -50.684  0.0000E+00  0.1800E+02
    -50.398  0.0000E+00  0.1800E+02
    -50.112  0.0000E+00  0.1800E+02
    -49.826  0.0000E+00  0.1800E+02
    -49.541  0.0000E+00  0.1800E+02
    -49.255  0.0000E+00  0.1800E+02
    -48.969  0.0000E+00  0.1800E+02
    -48.684  0.0000E+00  0.1800E+02
    -48.398  0.0000E+00  0.1800E+02
    -48.112  0.0000E+00  0.1800E+02
    -47.827  0.0000E+00  0.1800E+02
    -47.541  0.0000E+00  0.1800E+02
    -47.255  0.0000E+00  0.1800E+02
    -46.970  0.0000E+00  0.1800E+02
    -46.684  0.0000E+00  0.1800E+02
    -46.398  0.0000E+00  0.1800E+02
    -46.113  0.0000E+00  0.1800E+02
    -45.827  0.0000E+00  0.1800E+02
    -45.541  0.0000E+00  0.1800E+02
    -45.255  0.0000E+00  0.1800E+02
    -44.970  0.0000E+00  0.1800E+02
    -44.684  0.0000E+00  0.1800E+02
    -44.398  0.0000E+00  0.1800E+02
    -44.113  0.0000E+00  0.1800E+02
    -43.827  0.0000E+00  0.1800E+02
    -43.541  0.0000E+00  0.1800E+02
    -43.256  0.0000E+00  0.1800E+02
    -42.970  0.0000E+00  0.1800E+02
    -42.684  0.0000E+00  0.1800E+02
    -42.399  0.0000E+00  0.1800E+02
    -42.113  0.0000E+00  0.1800E+02
    -41.827  0.0000E+00  0.1800E+02
    -41.541  0.0000E+00  0.1800E+02
    -41.256  0.0000E+00  0.1800E+02
    -40.970  0.0000E+00  0.1800E+02
    -40.684  0.0000E+00  0.1800E+02
    -40.399  0.3133E+00  0.1809E+02
    -40.113  0.1104E+03  0.4962E+02
    -39.827  0.7833E+02  0.7200E+02
    -39.542  0.0000E+00  0.7200E+02
    -39.256  0.0000E+00  0.7200E+02
    -38.970  0.0000E+00  0.7200E+02
    -38.685  0.0000E+00  0.7200E+02
    -38.399  0.0000E+00  0.7200E+02
    -38.113  0.0000E+00  0.7200E+02
    -37.828  0.0000E+00  0.7200E+02
    -37.542  0.0000E+00  0.7200E+02
    -37.256  0.0000E+00  0.7200E+02
    -36.970  0.0000E+00  0.7200E+02
    -36.685  0.0000E+00  0.7200E+02
    -36.399  0.0000E+00  0.7200E+02
    -36.113  0.0000E+00  0.7200E+02
    -35.828  0.0000E+00  0.7200E+02
    -35.542  0.0000E+00  0.7200E+02
    -35.256  0.0000E+00  0.7200E+02
    -34.971  0.0000E+00  0.7200E+02
    -34.685  0.0000E+00  0.7200E+02
    -34.399  0.0000E+00  0.7200E+02
    -34.114  0.0000E+00  0.7200E+02
    -33.828  0.0000E+00  0.7200E+02
    -33.542  0.0000E+00  0.7200E+02
    -33.256  0.0000E+00  0.7200E+02
    -32.971  0.0000E+00  0.7200E+02
    -32.685  0.0000E+00  0.7200E+02
    -32.399  0.0000E+00  0.7200E+02
    -32.114  0.0000E+00  0.7200E+02
    -31.828  0.0000E+00  0.7200E+02
    -31.542  0.0000E+00  0.7200E+02
    -31.257  0.0000E+00  0.7200E+02
    -30.971  0.0000E+00  0.7200E+02
    -30.685  0.0000E+00  0.7200E+02
    -30.400  0.0000E+00  0.7200E+02
    -30.114  0.0000E+00  0.7200E+02
    -29.828  0.0000E+00  0.7200E+02
    -29.543  0.0000E+00  0.7200E+02
    -29.257  0.0000E+00  0.7200E+02
    -28.971  0.0000E+00  0.7200E+02
    -28.685  0.0000E+00  0.7200E+02
    -28.400  0.0000E+00  0.7200E+02
    -28.114  0.0000E+00  0.7200E+02
    -27.828  0.0000E+00  0.7200E+02
    -27.543  0.0000E+00  0.7200E+02
    -27.257  0.0000E+00  0.7200E+02
    -26.971  0.0000E+00  0.7200E+02
    -26.686  0.0000E+00  0.7200E+02
    -26.400  0.0000E+00  0.7200E+02
    -26.114  0.0000E+00  0.7200E+02
    -25.829  0.0000E+00  0.7200E+02
    -25.543  0.0000E+00  0.7200E+02
    -25.257  0.0000E+00  0.7200E+02
    -24.971  0.0000E+00  0.7200E+02
    -24.686  0.0000E+00  0.7200E+02
    -24.400  0.0000E+00  0.7200E+02
    -24.114  0.0000E+00  0.7200E+02
    -23.829  0.0000E+00  0.7200E+02
    -23.543  0.0000E+00  0.7200E+02
    -23.257  0.0000E+00  0.7200E+02
    -22.972  0.0000E+00  0.7200E+02
    -22.686  0.0000E+00  0.7200E+02
    -22.400  0.0000E+00  0.7200E+02
    -22.115  0.0000E+00  0.7200E+02
    -21.829  0.0000E+00  0.7200E+02
    -21.543  0.0000E+00  0.7200E+02
    -21.258  0.0000E+00  0.7200E+02
    -20.972  0.0000E+00  0.7200E+02
    -20.686  0.0000E+00  0.7200E+02
    -20.400  0.0000E+00  0.7200E+02
    -20.115  0.0000E+00  0.7200E+02
    -19.829  0.0000E+00  0.7200E+02
    -19.543  0.0000E+00  0.7200E+02
    -19.258  0.0000E+00  0.7200E+02
    -18.972  0.0000E+00  0.7200E+02
    -18.686  0.0000E+00  0.7200E+02
    -18.401  0.0000E+00  0.7200E+02
    -18.115  0.0000E+00  0.7200E+02
    -17.829  0.0000E+00  0.7200E+02
    -17.544  0.0000E+00  0.7200E+02
    -17.258  0.0000E+00  0.7200E+02
    -16.972  0.0000E+00  0.7200E+02
    -16.686  0.3065E-01  0.7201E+02
    -16.401  0.3390E+01  0.7298E+02
    -16.115  0.4819E+01  0.7435E+02
    -15.829  0.3462E+01  0.7534E+02
    -15.544  0.5353E+01  0.7687E+02
    -15.258  0.6755E+01  0.7880E+02
    -14.972  0.8668E+01  0.8128E+02
    -14.687  0.2096E+02  0.8727E+02
    -14.401  0.3451E+02  0.9712E+02
    -14.115  0.3657E+02  0.1076E+03
    -13.830  0.1493E+01  0.1080E+03
    -13.544  0.0000E+00  0.1080E+03
    -13.258  0.0000E+00  0.1080E+03
    -12.973  0.0000E+00  0.1080E+03
    -12.687  0.0000E+00  0.1080E+03
    -12.401  0.0000E+00  0.1080E+03
    -12.115  0.0000E+00  0.1080E+03
    -11.830  0.0000E+00  0.1080E+03
    -11.544  0.0000E+00  0.1080E+03
    -11.258  0.0000E+00  0.1080E+03
    -10.973  0.0000E+00  0.1080E+03
    -10.687  0.0000E+00  0.1080E+03
    -10.401  0.0000E+00  0.1080E+03
    -10.116  0.0000E+00  0.1080E+03
     -9.830  0.0000E+00  0.1080E+03
     -9.544  0.0000E+00  0.1080E+03
     -9.259  0.0000E+00  0.1080E+03
     -8.973  0.0000E+00  0.1080E+03
     -8.687  0.0000E+00  0.1080E+03
     -8.402  0.4997E-01  0.1080E+03
     -8.116  0.8869E+01  0.1105E+03
     -7.830  0.1332E+02  0.1144E+03
     -7.544  0.2113E+02  0.1204E+03
     -7.259  0.2653E+02  0.1280E+03
     -6.973  0.1208E+02  0.1314E+03
     -6.687  0.1032E+02  0.1344E+03
     -6.402  0.1724E+02  0.1393E+03
     -6.116  0.4331E+02  0.1517E+03
     -5.830  0.1322E+02  0.1554E+03
     -5.545  0.9385E+01  0.1581E+03
     -5.259  0.3846E+02  0.1691E+03
     -4.973  0.2366E+02  0.1759E+03
     -4.688  0.1403E+02  0.1799E+03
     -4.402  0.9375E+01  0.1826E+03
     -4.116  0.2913E+02  0.1909E+03
     -3.830  0.3306E+02  0.2003E+03
     -3.545  0.2804E+02  0.2083E+03
     -3.259  0.1760E+02  0.2134E+03
     -2.973  0.1261E+02  0.2170E+03
     -2.688  0.2158E+02  0.2231E+03
     -2.402  0.1907E+02  0.2286E+03
     -2.116  0.1103E+02  0.2317E+03
     -1.831  0.7899E+01  0.2340E+03
     -1.545  0.1755E-01  0.2340E+03
     -1.259  0.0000E+00  0.2340E+03
     -0.974  0.0000E+00  0.2340E+03
     -0.688  0.0000E+00  0.2340E+03
     -0.402  0.0000E+00  0.2340E+03
     -0.117  0.8794E-01  0.2340E+03
      0.169  0.4221E+01  0.2352E+03
      0.455  0.2277E+02  0.2417E+03
      0.741  0.2973E+02  0.2502E+03
      1.026  0.4471E+02  0.2630E+03
      1.312  0.2850E+02  0.2711E+03
      1.598  0.3232E+02  0.2804E+03
      1.883  0.1747E+02  0.2854E+03
      2.169  0.2217E+01  0.2860E+03
      2.455  0.0000E+00  0.2860E+03
      2.740  0.0000E+00  0.2860E+03
      3.026  0.0000E+00  0.2860E+03
      3.312  0.0000E+00  0.2860E+03
      3.597  0.0000E+00  0.2860E+03
      3.883  0.0000E+00  0.2860E+03
      4.169  0.0000E+00  0.2860E+03
      4.455  0.0000E+00  0.2860E+03
      4.740  0.0000E+00  0.2860E+03
      5.026  0.0000E+00  0.2860E+03
      5.312  0.0000E+00  0.2860E+03
      5.597  0.0000E+00  0.2860E+03
      5.883  0.0000E+00  0.2860E+03
