cpu-bind=MASK - c019, task  0  0 [564203]: mask 0xfffffffffff0 set
 running  264 mpi-ranks, with    1 threads/rank, on    6 nodes
 distrk:  each k-point on   44 cores,    6 groups
 distr:  one band on    4 cores,   11 groups
 vasp.6.5.1 10Mar25 (build Aug 29 2025 00:30:47) complex                        
  
 POSCAR found type information on POSCAR W S 
 POSCAR found :  2 types and      27 ions
 scaLAPACK will be used
 LDA part: xc-table for (Slater+PW92), standard interpolation
 POSCAR, INCAR and KPOINTS ok, starting setup
 FFT: planning ... GRIDC
 FFT: planning ... GRID_SOFT
 FFT: planning ... GRID
 WAVECAR not read
 entering main loop
       N       E                     dE             d eps       ncg     rms          rms(c)
DAV:   1     0.220417171049E+04    0.22042E+04   -0.11739E+05  4543   0.134E+03
DAV:   2    -0.752928006515E+01   -0.22117E+04   -0.21743E+04  4906   0.323E+02
DAV:   3    -0.218623798257E+03   -0.21109E+03   -0.20946E+03  4521   0.978E+01
DAV:   4    -0.225503563948E+03   -0.68798E+01   -0.68259E+01  4796   0.187E+01
DAV:   5    -0.225725726203E+03   -0.22216E+00   -0.22159E+00  5093   0.331E+00    0.786E+01
DAV:   6    -0.214589259690E+03    0.11136E+02   -0.56337E+01  4532   0.216E+01    0.349E+01
DAV:   7    -0.213519946454E+03    0.10693E+01   -0.13338E+01  4433   0.867E+00    0.128E+01
DAV:   8    -0.213050730635E+03    0.46922E+00   -0.18410E+00  4675   0.410E+00    0.333E+00
DAV:   9    -0.213040656343E+03    0.10074E-01   -0.26311E-01  4840   0.124E+00    0.176E+00
DAV:  10    -0.213022484703E+03    0.18172E-01   -0.10888E-01  4675   0.104E+00    0.625E-01
DAV:  11    -0.213017106547E+03    0.53782E-02   -0.13130E-02  4587   0.489E-01    0.243E-01
DAV:  12    -0.213015034001E+03    0.20725E-02   -0.34347E-03  4807   0.215E-01    0.233E-01
DAV:  13    -0.213010376035E+03    0.46580E-02   -0.31661E-03  4565   0.160E-01    0.176E-01
DAV:  14    -0.213007576908E+03    0.27991E-02   -0.14980E-03  4499   0.117E-01    0.107E-01
DAV:  15    -0.213007376532E+03    0.20038E-03   -0.36499E-04  4664   0.794E-02    0.735E-02
DAV:  16    -0.213002701916E+03    0.46746E-02   -0.34438E-03  4224   0.883E-02    0.510E-02
DAV:  17    -0.213001926480E+03    0.77544E-03   -0.27396E-04  4587   0.316E-02    0.415E-02
DAV:  18    -0.213006016918E+03   -0.40904E-02   -0.62263E-04  4444   0.535E-02    0.524E-02
DAV:  19    -0.213008376058E+03   -0.23591E-02   -0.24304E-04  4664   0.467E-02    0.534E-02
DAV:  20    -0.213010478466E+03   -0.21024E-02   -0.20314E-04  4576   0.341E-02    0.229E-02
DAV:  21    -0.213012189487E+03   -0.17110E-02   -0.19222E-04  4620   0.264E-02    0.204E-02
DAV:  22    -0.213012681004E+03   -0.49152E-03   -0.33149E-05  4268   0.157E-02    0.141E-02
DAV:  23    -0.213012840984E+03   -0.15998E-03   -0.62723E-06  3927   0.802E-03    0.960E-03
DAV:  24    -0.213013030251E+03   -0.18927E-03   -0.78240E-06  3663   0.535E-03    0.467E-03
DAV:  25    -0.213013088196E+03   -0.57945E-04   -0.15541E-06  3388   0.216E-03    0.313E-03
DAV:  26    -0.213013115560E+03   -0.27364E-04   -0.78093E-07  3091   0.127E-03    0.199E-03
DAV:  27    -0.213013124728E+03   -0.91680E-05   -0.32061E-07  2904   0.116E-03    0.450E-04
DAV:  28    -0.213013125848E+03   -0.11204E-05   -0.50511E-08  2552   0.506E-04    0.397E-04
DAV:  29    -0.213013126515E+03   -0.66662E-06   -0.20525E-08  2354   0.277E-04
   1 F= -.22126992E+03 E0= -.22126992E+03  d E =-.174872E-28
