WS2 phonon                              
           1
     9.552669    0.000000    0.000000
     4.776334    8.272854    0.000000
     0.000000    0.000000   20.000000
   W    S 
     9    18
Direct configuration=     1
   0.00045118  0.00000000  0.50045118
   0.33333333  0.00000000  0.50000000
   0.66666667  0.00000000  0.50000000
   0.00000000  0.33333333  0.50000000
   0.33333333  0.33333333  0.50000000
   0.66666667  0.33333333  0.50000000
   0.00000000  0.66666667  0.50000000
   0.33333333  0.66666667  0.50000000
   0.66666667  0.66666667  0.50000000
   0.11111111  0.11111111  0.42162796
   0.44444444  0.11111111  0.42162796
   0.77777778  0.11111111  0.42162796
   0.11111111  0.44444444  0.42162796
   0.44444444  0.44444444  0.42162796
   0.77777778  0.44444444  0.42162796
   0.11111111  0.77777778  0.42162796
   0.44444444  0.77777778  0.42162796
   0.77777778  0.77777778  0.42162796
   0.11111111  0.11111111  0.57837204
   0.44444444  0.11111111  0.57837204
   0.77777778  0.11111111  0.57837204
   0.11111111  0.44444444  0.57837204
   0.44444444  0.44444444  0.57837204
   0.77777778  0.44444444  0.57837204
   0.11111111  0.77777778  0.57837204
   0.44444444  0.77777778  0.57837204
   0.77777778  0.77777778  0.57837204
