  45  45   0   0
  0.3686441E+02  0.9786549E-09  0.9786549E-09  0.2000000E-08  0.5000000E-15
  1.000000000000000E-004
  CAR 
 WSe2_GaN_TM_TX phonon                   
      7.85932460    -78.28690783  301     -0.10920190      1.00000000
    -78.287  0.0000E+00  0.0000E+00
    -78.000  0.0000E+00  0.0000E+00
    -77.713  0.0000E+00  0.0000E+00
    -77.425  0.0000E+00  0.0000E+00
    -77.138  0.0000E+00  0.0000E+00
    -76.851  0.0000E+00  0.0000E+00
    -76.564  0.0000E+00  0.0000E+00
    -76.277  0.0000E+00  0.0000E+00
    -75.990  0.0000E+00  0.0000E+00
    -75.703  0.0000E+00  0.0000E+00
    -75.415  0.0000E+00  0.0000E+00
    -75.128  0.0000E+00  0.0000E+00
    -74.841  0.0000E+00  0.0000E+00
    -74.554  0.2276E-05  0.6535E-06
    -74.267  0.6246E+02  0.1794E+02
    -73.980  0.2226E+00  0.1800E+02
    -73.692  0.0000E+00  0.1800E+02
    -73.405  0.0000E+00  0.1800E+02
    -73.118  0.0000E+00  0.1800E+02
    -72.831  0.0000E+00  0.1800E+02
    -72.544  0.0000E+00  0.1800E+02
    -72.257  0.0000E+00  0.1800E+02
    -71.970  0.0000E+00  0.1800E+02
    -71.682  0.0000E+00  0.1800E+02
    -71.395  0.0000E+00  0.1800E+02
    -71.108  0.0000E+00  0.1800E+02
    -70.821  0.0000E+00  0.1800E+02
    -70.534  0.0000E+00  0.1800E+02
    -70.247  0.0000E+00  0.1800E+02
    -69.959  0.0000E+00  0.1800E+02
    -69.672  0.0000E+00  0.1800E+02
    -69.385  0.0000E+00  0.1800E+02
    -69.098  0.0000E+00  0.1800E+02
    -68.811  0.0000E+00  0.1800E+02
    -68.524  0.0000E+00  0.1800E+02
    -68.237  0.0000E+00  0.1800E+02
    -67.949  0.0000E+00  0.1800E+02
    -67.662  0.0000E+00  0.1800E+02
    -67.375  0.0000E+00  0.1800E+02
    -67.088  0.0000E+00  0.1800E+02
    -66.801  0.0000E+00  0.1800E+02
    -66.514  0.0000E+00  0.1800E+02
    -66.226  0.0000E+00  0.1800E+02
    -65.939  0.0000E+00  0.1800E+02
    -65.652  0.0000E+00  0.1800E+02
    -65.365  0.0000E+00  0.1800E+02
    -65.078  0.0000E+00  0.1800E+02
    -64.791  0.0000E+00  0.1800E+02
    -64.504  0.0000E+00  0.1800E+02
    -64.216  0.0000E+00  0.1800E+02
    -63.929  0.0000E+00  0.1800E+02
    -63.642  0.0000E+00  0.1800E+02
    -63.355  0.0000E+00  0.1800E+02
    -63.068  0.0000E+00  0.1800E+02
    -62.781  0.0000E+00  0.1800E+02
    -62.493  0.0000E+00  0.1800E+02
    -62.206  0.0000E+00  0.1800E+02
    -61.919  0.0000E+00  0.1800E+02
    -61.632  0.0000E+00  0.1800E+02
    -61.345  0.0000E+00  0.1800E+02
    -61.058  0.0000E+00  0.1800E+02
    -60.771  0.0000E+00  0.1800E+02
    -60.483  0.0000E+00  0.1800E+02
    -60.196  0.0000E+00  0.1800E+02
    -59.909  0.0000E+00  0.1800E+02
    -59.622  0.0000E+00  0.1800E+02
    -59.335  0.0000E+00  0.1800E+02
    -59.048  0.0000E+00  0.1800E+02
    -58.760  0.0000E+00  0.1800E+02
    -58.473  0.0000E+00  0.1800E+02
    -58.186  0.0000E+00  0.1800E+02
    -57.899  0.0000E+00  0.1800E+02
    -57.612  0.0000E+00  0.1800E+02
    -57.325  0.0000E+00  0.1800E+02
    -57.038  0.0000E+00  0.1800E+02
    -56.750  0.0000E+00  0.1800E+02
    -56.463  0.0000E+00  0.1800E+02
    -56.176  0.0000E+00  0.1800E+02
    -55.889  0.0000E+00  0.1800E+02
    -55.602  0.0000E+00  0.1800E+02
    -55.315  0.0000E+00  0.1800E+02
    -55.027  0.0000E+00  0.1800E+02
    -54.740  0.0000E+00  0.1800E+02
    -54.453  0.0000E+00  0.1800E+02
    -54.166  0.0000E+00  0.1800E+02
    -53.879  0.0000E+00  0.1800E+02
    -53.592  0.0000E+00  0.1800E+02
    -53.305  0.0000E+00  0.1800E+02
    -53.017  0.0000E+00  0.1800E+02
    -52.730  0.0000E+00  0.1800E+02
    -52.443  0.0000E+00  0.1800E+02
    -52.156  0.0000E+00  0.1800E+02
    -51.869  0.0000E+00  0.1800E+02
    -51.582  0.0000E+00  0.1800E+02
    -51.294  0.0000E+00  0.1800E+02
    -51.007  0.0000E+00  0.1800E+02
    -50.720  0.0000E+00  0.1800E+02
    -50.433  0.0000E+00  0.1800E+02
    -50.146  0.0000E+00  0.1800E+02
    -49.859  0.0000E+00  0.1800E+02
    -49.571  0.0000E+00  0.1800E+02
    -49.284  0.0000E+00  0.1800E+02
    -48.997  0.0000E+00  0.1800E+02
    -48.710  0.0000E+00  0.1800E+02
    -48.423  0.0000E+00  0.1800E+02
    -48.136  0.0000E+00  0.1800E+02
    -47.849  0.0000E+00  0.1800E+02
    -47.561  0.0000E+00  0.1800E+02
    -47.274  0.0000E+00  0.1800E+02
    -46.987  0.0000E+00  0.1800E+02
    -46.700  0.0000E+00  0.1800E+02
    -46.413  0.0000E+00  0.1800E+02
    -46.126  0.0000E+00  0.1800E+02
    -45.838  0.0000E+00  0.1800E+02
    -45.551  0.0000E+00  0.1800E+02
    -45.264  0.0000E+00  0.1800E+02
    -44.977  0.0000E+00  0.1800E+02
    -44.690  0.0000E+00  0.1800E+02
    -44.403  0.0000E+00  0.1800E+02
    -44.116  0.0000E+00  0.1800E+02
    -43.828  0.0000E+00  0.1800E+02
    -43.541  0.0000E+00  0.1800E+02
    -43.254  0.0000E+00  0.1800E+02
    -42.967  0.0000E+00  0.1800E+02
    -42.680  0.0000E+00  0.1800E+02
    -42.393  0.0000E+00  0.1800E+02
    -42.105  0.0000E+00  0.1800E+02
    -41.818  0.0000E+00  0.1800E+02
    -41.531  0.0000E+00  0.1800E+02
    -41.244  0.0000E+00  0.1800E+02
    -40.957  0.0000E+00  0.1800E+02
    -40.670  0.0000E+00  0.1800E+02
    -40.383  0.0000E+00  0.1800E+02
    -40.095  0.0000E+00  0.1800E+02
    -39.808  0.0000E+00  0.1800E+02
    -39.521  0.0000E+00  0.1800E+02
    -39.234  0.0000E+00  0.1800E+02
    -38.947  0.2426E-09  0.1800E+02
    -38.660  0.3441E+02  0.2788E+02
    -38.372  0.1536E+03  0.7200E+02
    -38.085  0.1004E-01  0.7200E+02
    -37.798  0.0000E+00  0.7200E+02
    -37.511  0.0000E+00  0.7200E+02
    -37.224  0.0000E+00  0.7200E+02
    -36.937  0.0000E+00  0.7200E+02
    -36.650  0.0000E+00  0.7200E+02
    -36.362  0.0000E+00  0.7200E+02
    -36.075  0.0000E+00  0.7200E+02
    -35.788  0.0000E+00  0.7200E+02
    -35.501  0.0000E+00  0.7200E+02
    -35.214  0.0000E+00  0.7200E+02
    -34.927  0.0000E+00  0.7200E+02
    -34.639  0.0000E+00  0.7200E+02
    -34.352  0.0000E+00  0.7200E+02
    -34.065  0.0000E+00  0.7200E+02
    -33.778  0.0000E+00  0.7200E+02
    -33.491  0.0000E+00  0.7200E+02
    -33.204  0.0000E+00  0.7200E+02
    -32.917  0.0000E+00  0.7200E+02
    -32.629  0.0000E+00  0.7200E+02
    -32.342  0.0000E+00  0.7200E+02
    -32.055  0.0000E+00  0.7200E+02
    -31.768  0.0000E+00  0.7200E+02
    -31.481  0.0000E+00  0.7200E+02
    -31.194  0.0000E+00  0.7200E+02
    -30.906  0.0000E+00  0.7200E+02
    -30.619  0.0000E+00  0.7200E+02
    -30.332  0.0000E+00  0.7200E+02
    -30.045  0.0000E+00  0.7200E+02
    -29.758  0.0000E+00  0.7200E+02
    -29.471  0.0000E+00  0.7200E+02
    -29.184  0.0000E+00  0.7200E+02
    -28.896  0.0000E+00  0.7200E+02
    -28.609  0.0000E+00  0.7200E+02
    -28.322  0.0000E+00  0.7200E+02
    -28.035  0.0000E+00  0.7200E+02
    -27.748  0.0000E+00  0.7200E+02
    -27.461  0.0000E+00  0.7200E+02
    -27.173  0.0000E+00  0.7200E+02
    -26.886  0.0000E+00  0.7200E+02
    -26.599  0.0000E+00  0.7200E+02
    -26.312  0.0000E+00  0.7200E+02
    -26.025  0.0000E+00  0.7200E+02
    -25.738  0.0000E+00  0.7200E+02
    -25.451  0.0000E+00  0.7200E+02
    -25.163  0.0000E+00  0.7200E+02
    -24.876  0.0000E+00  0.7200E+02
    -24.589  0.0000E+00  0.7200E+02
    -24.302  0.0000E+00  0.7200E+02
    -24.015  0.0000E+00  0.7200E+02
    -23.728  0.0000E+00  0.7200E+02
    -23.440  0.0000E+00  0.7200E+02
    -23.153  0.0000E+00  0.7200E+02
    -22.866  0.0000E+00  0.7200E+02
    -22.579  0.0000E+00  0.7200E+02
    -22.292  0.0000E+00  0.7200E+02
    -22.005  0.0000E+00  0.7200E+02
    -21.718  0.0000E+00  0.7200E+02
    -21.430  0.0000E+00  0.7200E+02
    -21.143  0.0000E+00  0.7200E+02
    -20.856  0.0000E+00  0.7200E+02
    -20.569  0.0000E+00  0.7200E+02
    -20.282  0.0000E+00  0.7200E+02
    -19.995  0.0000E+00  0.7200E+02
    -19.707  0.0000E+00  0.7200E+02
    -19.420  0.0000E+00  0.7200E+02
    -19.133  0.0000E+00  0.7200E+02
    -18.846  0.0000E+00  0.7200E+02
    -18.559  0.0000E+00  0.7200E+02
    -18.272  0.0000E+00  0.7200E+02
    -17.985  0.0000E+00  0.7200E+02
    -17.697  0.0000E+00  0.7200E+02
    -17.410  0.0000E+00  0.7200E+02
    -17.123  0.0000E+00  0.7200E+02
    -16.836  0.0000E+00  0.7200E+02
    -16.549  0.0000E+00  0.7200E+02
    -16.262  0.0000E+00  0.7200E+02
    -15.974  0.0000E+00  0.7200E+02
    -15.687  0.0000E+00  0.7200E+02
    -15.400  0.2810E-06  0.7200E+02
    -15.113  0.1833E+01  0.7253E+02
    -14.826  0.5244E+01  0.7403E+02
    -14.539  0.1121E+02  0.7725E+02
    -14.252  0.1293E+02  0.8096E+02
    -13.964  0.1491E+02  0.8525E+02
    -13.677  0.2331E+02  0.9194E+02
    -13.390  0.3174E+02  0.1011E+03
    -13.103  0.4361E+02  0.1136E+03
    -12.816  0.3929E+02  0.1249E+03
    -12.529  0.3979E+01  0.1260E+03
    -12.241  0.0000E+00  0.1260E+03
    -11.954  0.0000E+00  0.1260E+03
    -11.667  0.0000E+00  0.1260E+03
    -11.380  0.0000E+00  0.1260E+03
    -11.093  0.0000E+00  0.1260E+03
    -10.806  0.0000E+00  0.1260E+03
    -10.519  0.0000E+00  0.1260E+03
    -10.231  0.0000E+00  0.1260E+03
     -9.944  0.0000E+00  0.1260E+03
     -9.657  0.0000E+00  0.1260E+03
     -9.370  0.0000E+00  0.1260E+03
     -9.083  0.0000E+00  0.1260E+03
     -8.796  0.0000E+00  0.1260E+03
     -8.508  0.0000E+00  0.1260E+03
     -8.221  0.0000E+00  0.1260E+03
     -7.934  0.0000E+00  0.1260E+03
     -7.647  0.0000E+00  0.1260E+03
     -7.360  0.0000E+00  0.1260E+03
     -7.073  0.7423E-15  0.1260E+03
     -6.786  0.1653E+01  0.1265E+03
     -6.498  0.1651E+02  0.1312E+03
     -6.211  0.2512E+02  0.1384E+03
     -5.924  0.2395E+02  0.1453E+03
     -5.637  0.2550E+02  0.1526E+03
     -5.350  0.2998E+02  0.1612E+03
     -5.063  0.1310E+02  0.1650E+03
     -4.775  0.2029E+02  0.1708E+03
     -4.488  0.3796E+02  0.1817E+03
     -4.201  0.2185E+02  0.1880E+03
     -3.914  0.1736E+02  0.1930E+03
     -3.627  0.3337E+02  0.2026E+03
     -3.340  0.3536E+02  0.2127E+03
     -3.053  0.2684E+02  0.2204E+03
     -2.765  0.1960E+02  0.2261E+03
     -2.478  0.6032E+02  0.2434E+03
     -2.191  0.3982E+02  0.2548E+03
     -1.904  0.2896E+02  0.2631E+03
     -1.617  0.2699E+02  0.2709E+03
     -1.330  0.3336E+02  0.2805E+03
     -1.042  0.4162E+02  0.2924E+03
     -0.755  0.3778E+02  0.3033E+03
     -0.468  0.8491E+01  0.3057E+03
     -0.181  0.1060E+01  0.3060E+03
      0.106  0.0000E+00  0.3060E+03
      0.393  0.0000E+00  0.3060E+03
      0.680  0.0000E+00  0.3060E+03
      0.968  0.0000E+00  0.3060E+03
      1.255  0.1152E+01  0.3063E+03
      1.542  0.1910E+02  0.3118E+03
      1.829  0.2576E+02  0.3192E+03
      2.116  0.2666E+02  0.3269E+03
      2.403  0.4447E+02  0.3396E+03
      2.691  0.4351E+02  0.3521E+03
      2.978  0.2262E+02  0.3586E+03
      3.265  0.2008E+02  0.3644E+03
      3.552  0.1325E+02  0.3682E+03
      3.839  0.1722E+02  0.3731E+03
      4.126  0.2969E+01  0.3740E+03
      4.413  0.0000E+00  0.3740E+03
      4.701  0.0000E+00  0.3740E+03
      4.988  0.0000E+00  0.3740E+03
      5.275  0.0000E+00  0.3740E+03
      5.562  0.0000E+00  0.3740E+03
      5.849  0.0000E+00  0.3740E+03
      6.136  0.0000E+00  0.3740E+03
      6.424  0.0000E+00  0.3740E+03
      6.711  0.0000E+00  0.3740E+03
      6.998  0.0000E+00  0.3740E+03
      7.285  0.0000E+00  0.3740E+03
      7.572  0.0000E+00  0.3740E+03
      7.859  0.0000E+00  0.3740E+03
