  27  27   0   0
  0.7323466E+02  0.1068464E-08  0.1068464E-08  0.2000000E-08  0.5000000E-15
  1.000000000000000E-004
  CAR 
 WTe2 phonon                             
      6.71355677    -78.21425062  301     -0.00989465      1.00000000
    -78.214  0.0000E+00  0.0000E+00
    -77.931  0.0000E+00  0.0000E+00
    -77.648  0.0000E+00  0.0000E+00
    -77.365  0.0000E+00  0.0000E+00
    -77.082  0.0000E+00  0.0000E+00
    -76.799  0.0000E+00  0.0000E+00
    -76.516  0.0000E+00  0.0000E+00
    -76.233  0.0000E+00  0.0000E+00
    -75.950  0.0000E+00  0.0000E+00
    -75.666  0.0000E+00  0.0000E+00
    -75.383  0.0000E+00  0.0000E+00
    -75.100  0.0000E+00  0.0000E+00
    -74.817  0.0000E+00  0.0000E+00
    -74.534  0.7190E-05  0.2036E-05
    -74.251  0.6343E+02  0.1796E+02
    -73.968  0.1511E+00  0.1800E+02
    -73.685  0.0000E+00  0.1800E+02
    -73.402  0.0000E+00  0.1800E+02
    -73.119  0.0000E+00  0.1800E+02
    -72.835  0.0000E+00  0.1800E+02
    -72.552  0.0000E+00  0.1800E+02
    -72.269  0.0000E+00  0.1800E+02
    -71.986  0.0000E+00  0.1800E+02
    -71.703  0.0000E+00  0.1800E+02
    -71.420  0.0000E+00  0.1800E+02
    -71.137  0.0000E+00  0.1800E+02
    -70.854  0.0000E+00  0.1800E+02
    -70.571  0.0000E+00  0.1800E+02
    -70.288  0.0000E+00  0.1800E+02
    -70.005  0.0000E+00  0.1800E+02
    -69.721  0.0000E+00  0.1800E+02
    -69.438  0.0000E+00  0.1800E+02
    -69.155  0.0000E+00  0.1800E+02
    -68.872  0.0000E+00  0.1800E+02
    -68.589  0.0000E+00  0.1800E+02
    -68.306  0.0000E+00  0.1800E+02
    -68.023  0.0000E+00  0.1800E+02
    -67.740  0.0000E+00  0.1800E+02
    -67.457  0.0000E+00  0.1800E+02
    -67.174  0.0000E+00  0.1800E+02
    -66.891  0.0000E+00  0.1800E+02
    -66.607  0.0000E+00  0.1800E+02
    -66.324  0.0000E+00  0.1800E+02
    -66.041  0.0000E+00  0.1800E+02
    -65.758  0.0000E+00  0.1800E+02
    -65.475  0.0000E+00  0.1800E+02
    -65.192  0.0000E+00  0.1800E+02
    -64.909  0.0000E+00  0.1800E+02
    -64.626  0.0000E+00  0.1800E+02
    -64.343  0.0000E+00  0.1800E+02
    -64.060  0.0000E+00  0.1800E+02
    -63.777  0.0000E+00  0.1800E+02
    -63.493  0.0000E+00  0.1800E+02
    -63.210  0.0000E+00  0.1800E+02
    -62.927  0.0000E+00  0.1800E+02
    -62.644  0.0000E+00  0.1800E+02
    -62.361  0.0000E+00  0.1800E+02
    -62.078  0.0000E+00  0.1800E+02
    -61.795  0.0000E+00  0.1800E+02
    -61.512  0.0000E+00  0.1800E+02
    -61.229  0.0000E+00  0.1800E+02
    -60.946  0.0000E+00  0.1800E+02
    -60.663  0.0000E+00  0.1800E+02
    -60.379  0.0000E+00  0.1800E+02
    -60.096  0.0000E+00  0.1800E+02
    -59.813  0.0000E+00  0.1800E+02
    -59.530  0.0000E+00  0.1800E+02
    -59.247  0.0000E+00  0.1800E+02
    -58.964  0.0000E+00  0.1800E+02
    -58.681  0.0000E+00  0.1800E+02
    -58.398  0.0000E+00  0.1800E+02
    -58.115  0.0000E+00  0.1800E+02
    -57.832  0.0000E+00  0.1800E+02
    -57.548  0.0000E+00  0.1800E+02
    -57.265  0.0000E+00  0.1800E+02
    -56.982  0.0000E+00  0.1800E+02
    -56.699  0.0000E+00  0.1800E+02
    -56.416  0.0000E+00  0.1800E+02
    -56.133  0.0000E+00  0.1800E+02
    -55.850  0.0000E+00  0.1800E+02
    -55.567  0.0000E+00  0.1800E+02
    -55.284  0.0000E+00  0.1800E+02
    -55.001  0.0000E+00  0.1800E+02
    -54.718  0.0000E+00  0.1800E+02
    -54.434  0.0000E+00  0.1800E+02
    -54.151  0.0000E+00  0.1800E+02
    -53.868  0.0000E+00  0.1800E+02
    -53.585  0.0000E+00  0.1800E+02
    -53.302  0.0000E+00  0.1800E+02
    -53.019  0.0000E+00  0.1800E+02
    -52.736  0.0000E+00  0.1800E+02
    -52.453  0.0000E+00  0.1800E+02
    -52.170  0.0000E+00  0.1800E+02
    -51.887  0.0000E+00  0.1800E+02
    -51.604  0.0000E+00  0.1800E+02
    -51.320  0.0000E+00  0.1800E+02
    -51.037  0.0000E+00  0.1800E+02
    -50.754  0.0000E+00  0.1800E+02
    -50.471  0.0000E+00  0.1800E+02
    -50.188  0.0000E+00  0.1800E+02
    -49.905  0.0000E+00  0.1800E+02
    -49.622  0.0000E+00  0.1800E+02
    -49.339  0.0000E+00  0.1800E+02
    -49.056  0.0000E+00  0.1800E+02
    -48.773  0.0000E+00  0.1800E+02
    -48.490  0.0000E+00  0.1800E+02
    -48.206  0.0000E+00  0.1800E+02
    -47.923  0.0000E+00  0.1800E+02
    -47.640  0.0000E+00  0.1800E+02
    -47.357  0.0000E+00  0.1800E+02
    -47.074  0.0000E+00  0.1800E+02
    -46.791  0.0000E+00  0.1800E+02
    -46.508  0.0000E+00  0.1800E+02
    -46.225  0.0000E+00  0.1800E+02
    -45.942  0.0000E+00  0.1800E+02
    -45.659  0.0000E+00  0.1800E+02
    -45.375  0.0000E+00  0.1800E+02
    -45.092  0.0000E+00  0.1800E+02
    -44.809  0.0000E+00  0.1800E+02
    -44.526  0.0000E+00  0.1800E+02
    -44.243  0.0000E+00  0.1800E+02
    -43.960  0.0000E+00  0.1800E+02
    -43.677  0.0000E+00  0.1800E+02
    -43.394  0.0000E+00  0.1800E+02
    -43.111  0.0000E+00  0.1800E+02
    -42.828  0.0000E+00  0.1800E+02
    -42.545  0.0000E+00  0.1800E+02
    -42.261  0.0000E+00  0.1800E+02
    -41.978  0.0000E+00  0.1800E+02
    -41.695  0.0000E+00  0.1800E+02
    -41.412  0.0000E+00  0.1800E+02
    -41.129  0.0000E+00  0.1800E+02
    -40.846  0.0000E+00  0.1800E+02
    -40.563  0.0000E+00  0.1800E+02
    -40.280  0.0000E+00  0.1800E+02
    -39.997  0.0000E+00  0.1800E+02
    -39.714  0.0000E+00  0.1800E+02
    -39.431  0.0000E+00  0.1800E+02
    -39.147  0.0000E+00  0.1800E+02
    -38.864  0.2841E-10  0.1800E+02
    -38.581  0.6134E+02  0.3537E+02
    -38.298  0.1294E+03  0.7200E+02
    -38.015  0.0000E+00  0.7200E+02
    -37.732  0.0000E+00  0.7200E+02
    -37.449  0.0000E+00  0.7200E+02
    -37.166  0.0000E+00  0.7200E+02
    -36.883  0.0000E+00  0.7200E+02
    -36.600  0.0000E+00  0.7200E+02
    -36.317  0.0000E+00  0.7200E+02
    -36.033  0.0000E+00  0.7200E+02
    -35.750  0.0000E+00  0.7200E+02
    -35.467  0.0000E+00  0.7200E+02
    -35.184  0.0000E+00  0.7200E+02
    -34.901  0.0000E+00  0.7200E+02
    -34.618  0.0000E+00  0.7200E+02
    -34.335  0.0000E+00  0.7200E+02
    -34.052  0.0000E+00  0.7200E+02
    -33.769  0.0000E+00  0.7200E+02
    -33.486  0.0000E+00  0.7200E+02
    -33.203  0.0000E+00  0.7200E+02
    -32.919  0.0000E+00  0.7200E+02
    -32.636  0.0000E+00  0.7200E+02
    -32.353  0.0000E+00  0.7200E+02
    -32.070  0.0000E+00  0.7200E+02
    -31.787  0.0000E+00  0.7200E+02
    -31.504  0.0000E+00  0.7200E+02
    -31.221  0.0000E+00  0.7200E+02
    -30.938  0.0000E+00  0.7200E+02
    -30.655  0.0000E+00  0.7200E+02
    -30.372  0.0000E+00  0.7200E+02
    -30.088  0.0000E+00  0.7200E+02
    -29.805  0.0000E+00  0.7200E+02
    -29.522  0.0000E+00  0.7200E+02
    -29.239  0.0000E+00  0.7200E+02
    -28.956  0.0000E+00  0.7200E+02
    -28.673  0.0000E+00  0.7200E+02
    -28.390  0.0000E+00  0.7200E+02
    -28.107  0.0000E+00  0.7200E+02
    -27.824  0.0000E+00  0.7200E+02
    -27.541  0.0000E+00  0.7200E+02
    -27.258  0.0000E+00  0.7200E+02
    -26.974  0.0000E+00  0.7200E+02
    -26.691  0.0000E+00  0.7200E+02
    -26.408  0.0000E+00  0.7200E+02
    -26.125  0.0000E+00  0.7200E+02
    -25.842  0.0000E+00  0.7200E+02
    -25.559  0.0000E+00  0.7200E+02
    -25.276  0.0000E+00  0.7200E+02
    -24.993  0.0000E+00  0.7200E+02
    -24.710  0.0000E+00  0.7200E+02
    -24.427  0.0000E+00  0.7200E+02
    -24.144  0.0000E+00  0.7200E+02
    -23.860  0.0000E+00  0.7200E+02
    -23.577  0.0000E+00  0.7200E+02
    -23.294  0.0000E+00  0.7200E+02
    -23.011  0.0000E+00  0.7200E+02
    -22.728  0.0000E+00  0.7200E+02
    -22.445  0.0000E+00  0.7200E+02
    -22.162  0.0000E+00  0.7200E+02
    -21.879  0.0000E+00  0.7200E+02
    -21.596  0.0000E+00  0.7200E+02
    -21.313  0.0000E+00  0.7200E+02
    -21.030  0.0000E+00  0.7200E+02
    -20.746  0.0000E+00  0.7200E+02
    -20.463  0.0000E+00  0.7200E+02
    -20.180  0.0000E+00  0.7200E+02
    -19.897  0.0000E+00  0.7200E+02
    -19.614  0.0000E+00  0.7200E+02
    -19.331  0.0000E+00  0.7200E+02
    -19.048  0.0000E+00  0.7200E+02
    -18.765  0.0000E+00  0.7200E+02
    -18.482  0.0000E+00  0.7200E+02
    -18.199  0.0000E+00  0.7200E+02
    -17.916  0.0000E+00  0.7200E+02
    -17.632  0.0000E+00  0.7200E+02
    -17.349  0.0000E+00  0.7200E+02
    -17.066  0.0000E+00  0.7200E+02
    -16.783  0.0000E+00  0.7200E+02
    -16.500  0.0000E+00  0.7200E+02
    -16.217  0.0000E+00  0.7200E+02
    -15.934  0.0000E+00  0.7200E+02
    -15.651  0.0000E+00  0.7200E+02
    -15.368  0.0000E+00  0.7200E+02
    -15.085  0.0000E+00  0.7200E+02
    -14.801  0.0000E+00  0.7200E+02
    -14.518  0.0000E+00  0.7200E+02
    -14.235  0.0000E+00  0.7200E+02
    -13.952  0.0000E+00  0.7200E+02
    -13.669  0.9412E-16  0.7200E+02
    -13.386  0.1847E+00  0.7205E+02
    -13.103  0.4830E+01  0.7342E+02
    -12.820  0.4837E+01  0.7479E+02
    -12.537  0.5613E+01  0.7638E+02
    -12.254  0.4749E+01  0.7772E+02
    -11.971  0.1087E+02  0.8080E+02
    -11.687  0.1715E+02  0.8565E+02
    -11.404  0.2025E+02  0.9139E+02
    -11.121  0.2470E+02  0.9838E+02
    -10.838  0.2691E+02  0.1060E+03
    -10.555  0.7077E+01  0.1080E+03
    -10.272  0.0000E+00  0.1080E+03
     -9.989  0.0000E+00  0.1080E+03
     -9.706  0.0000E+00  0.1080E+03
     -9.423  0.0000E+00  0.1080E+03
     -9.140  0.0000E+00  0.1080E+03
     -8.857  0.0000E+00  0.1080E+03
     -8.573  0.0000E+00  0.1080E+03
     -8.290  0.0000E+00  0.1080E+03
     -8.007  0.0000E+00  0.1080E+03
     -7.724  0.0000E+00  0.1080E+03
     -7.441  0.0000E+00  0.1080E+03
     -7.158  0.0000E+00  0.1080E+03
     -6.875  0.0000E+00  0.1080E+03
     -6.592  0.0000E+00  0.1080E+03
     -6.309  0.9942E-01  0.1080E+03
     -6.026  0.7579E+01  0.1102E+03
     -5.743  0.9137E+01  0.1128E+03
     -5.459  0.1842E+02  0.1180E+03
     -5.176  0.1075E+02  0.1210E+03
     -4.893  0.3308E+02  0.1304E+03
     -4.610  0.1104E+02  0.1335E+03
     -4.327  0.1522E+02  0.1378E+03
     -4.044  0.2463E+02  0.1448E+03
     -3.761  0.2956E+02  0.1532E+03
     -3.478  0.1673E+02  0.1579E+03
     -3.195  0.2222E+02  0.1642E+03
     -2.912  0.2691E+02  0.1718E+03
     -2.629  0.1904E+02  0.1772E+03
     -2.345  0.2130E+02  0.1832E+03
     -2.062  0.3140E+02  0.1921E+03
     -1.779  0.4063E+02  0.2036E+03
     -1.496  0.2487E+02  0.2106E+03
     -1.213  0.2246E+02  0.2170E+03
     -0.930  0.2940E+02  0.2253E+03
     -0.647  0.2582E+02  0.2326E+03
     -0.364  0.4707E+01  0.2340E+03
     -0.081  0.9902E-01  0.2340E+03
      0.202  0.0000E+00  0.2340E+03
      0.486  0.4433E-05  0.2340E+03
      0.769  0.6922E+00  0.2342E+03
      1.052  0.1258E+02  0.2378E+03
      1.335  0.3743E+02  0.2484E+03
      1.618  0.3775E+02  0.2590E+03
      1.901  0.3813E+02  0.2698E+03
      2.184  0.3177E+02  0.2788E+03
      2.467  0.1133E+02  0.2820E+03
      2.750  0.1192E+02  0.2854E+03
      3.033  0.2079E+01  0.2860E+03
      3.316  0.0000E+00  0.2860E+03
      3.600  0.0000E+00  0.2860E+03
      3.883  0.0000E+00  0.2860E+03
      4.166  0.0000E+00  0.2860E+03
      4.449  0.0000E+00  0.2860E+03
      4.732  0.0000E+00  0.2860E+03
      5.015  0.0000E+00  0.2860E+03
      5.298  0.0000E+00  0.2860E+03
      5.581  0.0000E+00  0.2860E+03
      5.864  0.0000E+00  0.2860E+03
      6.147  0.0000E+00  0.2860E+03
      6.430  0.0000E+00  0.2860E+03
      6.714  0.0000E+00  0.2860E+03
