WTe2 phonon                             
           1
    10.684640    0.000000    0.000000
     5.342320    9.253170    0.000000
     0.000000    0.000000   20.000000
   W    Te
     9    18
Direct configuration=     1
   0.00000000  0.00000000  0.50000000
   0.33333333  0.00000000  0.50000000
   0.66666667  0.00000000  0.50000000
   0.00000000  0.33333333  0.50000000
   0.33333333  0.33333333  0.50000000
   0.66666667  0.33333333  0.50000000
   0.00000000  0.66666667  0.50000000
   0.33333333  0.66666667  0.50000000
   0.66666667  0.66666667  0.50000000
   0.11067010  0.11111111  0.40932561
   0.44444444  0.11111111  0.40976663
   0.77777778  0.11111111  0.40976663
   0.11111111  0.44444444  0.40976663
   0.44444444  0.44444444  0.40976663
   0.77777778  0.44444444  0.40976663
   0.11111111  0.77777778  0.40976663
   0.44444444  0.77777778  0.40976663
   0.77777778  0.77777778  0.40976663
   0.11111111  0.11111111  0.59023337
   0.44444444  0.11111111  0.59023337
   0.77777778  0.11111111  0.59023337
   0.11111111  0.44444444  0.59023337
   0.44444444  0.44444444  0.59023337
   0.77777778  0.44444444  0.59023337
   0.11111111  0.77777778  0.59023337
   0.44444444  0.77777778  0.59023337
   0.77777778  0.77777778  0.59023337
