Bilayer structure
 1.0000000000000000
  3.3209909999999998   0.0000000000000000   0.0000000000000000
  1.6604954999999999   2.8760625717394865   0.0000000000000000
  0.0000000000000000   0.0000000000000000  20.0000000000000000
   Mo   S   Te
     2     2     2
Direct
  0.0000000000000000   0.0000000000000000   0.5000000000000000
  0.3333333333333333   0.3333333333333333   0.8228984500000001
  0.3333333333333333   0.3333333333333333   0.4153757750000000
  0.3333333333333333   0.3333333333333333   0.5846242250000000
  0.6666666666666666   0.6666666666666666   0.7382742250000001
  0.6666666666666666   0.6666666666666666   0.9075226750000001
