Bilayer MoSe2/WSe2 2H (relaxed monolayer
   1.00000000000000     
     3.3017577650387437    0.0000000000000000    0.0000000000000000
     1.6508788825193719    2.8594061016660834    0.0000000000000000
     0.0000000000000000    0.0000000000000000   20.0000000000000000
   Mo   Se   W 
     1     4     1
Direct
    -0.0000000000000000    0.0000000000000000    0.5031283334150076
     0.3333333333333357    0.3333333333333357    0.4196592454366702
     0.3333333333333357    0.3333333333333357    0.5865678122263550
     0.0000000000000000   -0.0000000000000000    0.7378435664110284
     0.0000000000000000    0.0000000000000000    0.9059258298663833
     0.3333333333333357    0.3333333333333357    0.8218752126448710
 
  0.00000000E+00  0.00000000E+00  0.00000000E+00
  0.00000000E+00  0.00000000E+00  0.00000000E+00
  0.00000000E+00  0.00000000E+00  0.00000000E+00
  0.00000000E+00  0.00000000E+00  0.00000000E+00
  0.00000000E+00  0.00000000E+00  0.00000000E+00
  0.00000000E+00  0.00000000E+00  0.00000000E+00
