  54  54   0   0
  0.3295884E+02  0.1013684E-08  0.1013684E-08  0.2000000E-08  0.5000000E-15
  1.000000000000000E-004
  CAR 
 MoS2_MoTe2_3R phonon                    
      9.62889110    -61.73084768  301      3.52440365      1.00000000
    -61.731  0.0000E+00  0.0000E+00
    -61.493  0.0000E+00  0.0000E+00
    -61.255  0.0000E+00  0.0000E+00
    -61.017  0.0000E+00  0.0000E+00
    -60.779  0.0000E+00  0.0000E+00
    -60.542  0.0000E+00  0.0000E+00
    -60.304  0.0000E+00  0.0000E+00
    -60.066  0.0000E+00  0.0000E+00
    -59.828  0.0000E+00  0.0000E+00
    -59.590  0.0000E+00  0.0000E+00
    -59.352  0.0000E+00  0.0000E+00
    -59.114  0.0000E+00  0.0000E+00
    -58.876  0.0000E+00  0.0000E+00
    -58.639  0.1746E-03  0.4152E-04
    -58.401  0.7422E+02  0.1765E+02
    -58.163  0.1452E+01  0.1800E+02
    -57.925  0.0000E+00  0.1800E+02
    -57.687  0.0000E+00  0.1800E+02
    -57.449  0.1307E-15  0.1800E+02
    -57.211  0.1943E+01  0.1846E+02
    -56.974  0.7373E+02  0.3600E+02
    -56.736  0.1576E-05  0.3600E+02
    -56.498  0.0000E+00  0.3600E+02
    -56.260  0.0000E+00  0.3600E+02
    -56.022  0.0000E+00  0.3600E+02
    -55.784  0.0000E+00  0.3600E+02
    -55.546  0.0000E+00  0.3600E+02
    -55.308  0.0000E+00  0.3600E+02
    -55.071  0.0000E+00  0.3600E+02
    -54.833  0.0000E+00  0.3600E+02
    -54.595  0.0000E+00  0.3600E+02
    -54.357  0.0000E+00  0.3600E+02
    -54.119  0.0000E+00  0.3600E+02
    -53.881  0.0000E+00  0.3600E+02
    -53.643  0.0000E+00  0.3600E+02
    -53.406  0.0000E+00  0.3600E+02
    -53.168  0.0000E+00  0.3600E+02
    -52.930  0.0000E+00  0.3600E+02
    -52.692  0.0000E+00  0.3600E+02
    -52.454  0.0000E+00  0.3600E+02
    -52.216  0.0000E+00  0.3600E+02
    -51.978  0.0000E+00  0.3600E+02
    -51.740  0.0000E+00  0.3600E+02
    -51.503  0.0000E+00  0.3600E+02
    -51.265  0.0000E+00  0.3600E+02
    -51.027  0.0000E+00  0.3600E+02
    -50.789  0.0000E+00  0.3600E+02
    -50.551  0.0000E+00  0.3600E+02
    -50.313  0.0000E+00  0.3600E+02
    -50.075  0.0000E+00  0.3600E+02
    -49.838  0.0000E+00  0.3600E+02
    -49.600  0.0000E+00  0.3600E+02
    -49.362  0.0000E+00  0.3600E+02
    -49.124  0.0000E+00  0.3600E+02
    -48.886  0.0000E+00  0.3600E+02
    -48.648  0.0000E+00  0.3600E+02
    -48.410  0.0000E+00  0.3600E+02
    -48.172  0.0000E+00  0.3600E+02
    -47.935  0.0000E+00  0.3600E+02
    -47.697  0.0000E+00  0.3600E+02
    -47.459  0.0000E+00  0.3600E+02
    -47.221  0.0000E+00  0.3600E+02
    -46.983  0.0000E+00  0.3600E+02
    -46.745  0.0000E+00  0.3600E+02
    -46.507  0.0000E+00  0.3600E+02
    -46.270  0.0000E+00  0.3600E+02
    -46.032  0.0000E+00  0.3600E+02
    -45.794  0.0000E+00  0.3600E+02
    -45.556  0.0000E+00  0.3600E+02
    -45.318  0.0000E+00  0.3600E+02
    -45.080  0.0000E+00  0.3600E+02
    -44.842  0.0000E+00  0.3600E+02
    -44.605  0.0000E+00  0.3600E+02
    -44.367  0.0000E+00  0.3600E+02
    -44.129  0.0000E+00  0.3600E+02
    -43.891  0.0000E+00  0.3600E+02
    -43.653  0.0000E+00  0.3600E+02
    -43.415  0.0000E+00  0.3600E+02
    -43.177  0.0000E+00  0.3600E+02
    -42.939  0.0000E+00  0.3600E+02
    -42.702  0.0000E+00  0.3600E+02
    -42.464  0.0000E+00  0.3600E+02
    -42.226  0.0000E+00  0.3600E+02
    -41.988  0.0000E+00  0.3600E+02
    -41.750  0.0000E+00  0.3600E+02
    -41.512  0.0000E+00  0.3600E+02
    -41.274  0.0000E+00  0.3600E+02
    -41.037  0.0000E+00  0.3600E+02
    -40.799  0.0000E+00  0.3600E+02
    -40.561  0.0000E+00  0.3600E+02
    -40.323  0.0000E+00  0.3600E+02
    -40.085  0.0000E+00  0.3600E+02
    -39.847  0.0000E+00  0.3600E+02
    -39.609  0.0000E+00  0.3600E+02
    -39.371  0.0000E+00  0.3600E+02
    -39.134  0.0000E+00  0.3600E+02
    -38.896  0.0000E+00  0.3600E+02
    -38.658  0.0000E+00  0.3600E+02
    -38.420  0.0000E+00  0.3600E+02
    -38.182  0.0000E+00  0.3600E+02
    -37.944  0.0000E+00  0.3600E+02
    -37.706  0.0000E+00  0.3600E+02
    -37.469  0.0000E+00  0.3600E+02
    -37.231  0.0000E+00  0.3600E+02
    -36.993  0.0000E+00  0.3600E+02
    -36.755  0.0000E+00  0.3600E+02
    -36.517  0.0000E+00  0.3600E+02
    -36.279  0.0000E+00  0.3600E+02
    -36.041  0.0000E+00  0.3600E+02
    -35.803  0.0000E+00  0.3600E+02
    -35.566  0.0000E+00  0.3600E+02
    -35.328  0.0000E+00  0.3600E+02
    -35.090  0.0000E+00  0.3600E+02
    -34.852  0.0000E+00  0.3600E+02
    -34.614  0.0000E+00  0.3600E+02
    -34.376  0.0000E+00  0.3600E+02
    -34.138  0.0000E+00  0.3600E+02
    -33.901  0.0000E+00  0.3600E+02
    -33.663  0.0000E+00  0.3600E+02
    -33.425  0.0000E+00  0.3600E+02
    -33.187  0.0000E+00  0.3600E+02
    -32.949  0.7639E-11  0.3600E+02
    -32.711  0.8457E+01  0.3801E+02
    -32.473  0.1870E+03  0.8250E+02
    -32.235  0.3152E+02  0.9000E+02
    -31.998  0.0000E+00  0.9000E+02
    -31.760  0.0000E+00  0.9000E+02
    -31.522  0.5302E-02  0.9000E+02
    -31.284  0.1159E+03  0.1176E+03
    -31.046  0.1111E+03  0.1440E+03
    -30.808  0.2560E-01  0.1440E+03
    -30.570  0.0000E+00  0.1440E+03
    -30.333  0.0000E+00  0.1440E+03
    -30.095  0.0000E+00  0.1440E+03
    -29.857  0.0000E+00  0.1440E+03
    -29.619  0.0000E+00  0.1440E+03
    -29.381  0.0000E+00  0.1440E+03
    -29.143  0.0000E+00  0.1440E+03
    -28.905  0.0000E+00  0.1440E+03
    -28.668  0.0000E+00  0.1440E+03
    -28.430  0.0000E+00  0.1440E+03
    -28.192  0.0000E+00  0.1440E+03
    -27.954  0.0000E+00  0.1440E+03
    -27.716  0.0000E+00  0.1440E+03
    -27.478  0.0000E+00  0.1440E+03
    -27.240  0.0000E+00  0.1440E+03
    -27.002  0.0000E+00  0.1440E+03
    -26.765  0.0000E+00  0.1440E+03
    -26.527  0.0000E+00  0.1440E+03
    -26.289  0.0000E+00  0.1440E+03
    -26.051  0.0000E+00  0.1440E+03
    -25.813  0.0000E+00  0.1440E+03
    -25.575  0.0000E+00  0.1440E+03
    -25.337  0.0000E+00  0.1440E+03
    -25.100  0.0000E+00  0.1440E+03
    -24.862  0.0000E+00  0.1440E+03
    -24.624  0.0000E+00  0.1440E+03
    -24.386  0.0000E+00  0.1440E+03
    -24.148  0.0000E+00  0.1440E+03
    -23.910  0.0000E+00  0.1440E+03
    -23.672  0.0000E+00  0.1440E+03
    -23.434  0.0000E+00  0.1440E+03
    -23.197  0.0000E+00  0.1440E+03
    -22.959  0.0000E+00  0.1440E+03
    -22.721  0.0000E+00  0.1440E+03
    -22.483  0.0000E+00  0.1440E+03
    -22.245  0.0000E+00  0.1440E+03
    -22.007  0.0000E+00  0.1440E+03
    -21.769  0.0000E+00  0.1440E+03
    -21.532  0.0000E+00  0.1440E+03
    -21.294  0.0000E+00  0.1440E+03
    -21.056  0.0000E+00  0.1440E+03
    -20.818  0.0000E+00  0.1440E+03
    -20.580  0.0000E+00  0.1440E+03
    -20.342  0.0000E+00  0.1440E+03
    -20.104  0.0000E+00  0.1440E+03
    -19.866  0.0000E+00  0.1440E+03
    -19.629  0.0000E+00  0.1440E+03
    -19.391  0.0000E+00  0.1440E+03
    -19.153  0.0000E+00  0.1440E+03
    -18.915  0.0000E+00  0.1440E+03
    -18.677  0.0000E+00  0.1440E+03
    -18.439  0.0000E+00  0.1440E+03
    -18.201  0.0000E+00  0.1440E+03
    -17.964  0.0000E+00  0.1440E+03
    -17.726  0.0000E+00  0.1440E+03
    -17.488  0.0000E+00  0.1440E+03
    -17.250  0.0000E+00  0.1440E+03
    -17.012  0.0000E+00  0.1440E+03
    -16.774  0.0000E+00  0.1440E+03
    -16.536  0.0000E+00  0.1440E+03
    -16.298  0.0000E+00  0.1440E+03
    -16.061  0.0000E+00  0.1440E+03
    -15.823  0.0000E+00  0.1440E+03
    -15.585  0.0000E+00  0.1440E+03
    -15.347  0.0000E+00  0.1440E+03
    -15.109  0.0000E+00  0.1440E+03
    -14.871  0.0000E+00  0.1440E+03
    -14.633  0.0000E+00  0.1440E+03
    -14.396  0.0000E+00  0.1440E+03
    -14.158  0.0000E+00  0.1440E+03
    -13.920  0.0000E+00  0.1440E+03
    -13.682  0.0000E+00  0.1440E+03
    -13.444  0.0000E+00  0.1440E+03
    -13.206  0.0000E+00  0.1440E+03
    -12.968  0.0000E+00  0.1440E+03
    -12.730  0.0000E+00  0.1440E+03
    -12.493  0.0000E+00  0.1440E+03
    -12.255  0.0000E+00  0.1440E+03
    -12.017  0.0000E+00  0.1440E+03
    -11.779  0.0000E+00  0.1440E+03
    -11.541  0.0000E+00  0.1440E+03
    -11.303  0.6108E-03  0.1440E+03
    -11.065  0.3098E+01  0.1447E+03
    -10.828  0.6901E+01  0.1464E+03
    -10.590  0.7488E+01  0.1482E+03
    -10.352  0.8035E+01  0.1501E+03
    -10.114  0.1053E+02  0.1526E+03
     -9.876  0.1897E+02  0.1571E+03
     -9.638  0.3396E+02  0.1652E+03
     -9.400  0.2930E+02  0.1721E+03
     -9.163  0.4256E+02  0.1823E+03
     -8.925  0.3071E+01  0.1830E+03
     -8.687  0.9741E+01  0.1853E+03
     -8.449  0.9777E+01  0.1876E+03
     -8.211  0.1229E+02  0.1906E+03
     -7.973  0.9004E+01  0.1927E+03
     -7.735  0.1597E+02  0.1965E+03
     -7.497  0.1389E+02  0.1998E+03
     -7.260  0.1786E+02  0.2040E+03
     -7.022  0.2891E+02  0.2109E+03
     -6.784  0.1953E+02  0.2156E+03
     -6.546  0.1800E+01  0.2160E+03
     -6.308  0.0000E+00  0.2160E+03
     -6.070  0.0000E+00  0.2160E+03
     -5.832  0.0000E+00  0.2160E+03
     -5.595  0.0000E+00  0.2160E+03
     -5.357  0.0000E+00  0.2160E+03
     -5.119  0.0000E+00  0.2160E+03
     -4.881  0.0000E+00  0.2160E+03
     -4.643  0.0000E+00  0.2160E+03
     -4.405  0.0000E+00  0.2160E+03
     -4.167  0.0000E+00  0.2160E+03
     -3.929  0.0000E+00  0.2160E+03
     -3.692  0.0000E+00  0.2160E+03
     -3.454  0.0000E+00  0.2160E+03
     -3.216  0.0000E+00  0.2160E+03
     -2.978  0.6954E-03  0.2160E+03
     -2.740  0.5647E+01  0.2173E+03
     -2.502  0.2492E+02  0.2233E+03
     -2.264  0.5093E+02  0.2354E+03
     -2.027  0.1846E+02  0.2398E+03
     -1.789  0.2505E+02  0.2457E+03
     -1.551  0.4135E+02  0.2556E+03
     -1.313  0.5924E+02  0.2697E+03
     -1.075  0.4954E+02  0.2814E+03
     -0.837  0.3374E+02  0.2895E+03
     -0.599  0.2904E+02  0.2964E+03
     -0.361  0.5122E+02  0.3086E+03
     -0.124  0.4913E+02  0.3202E+03
      0.114  0.6567E+02  0.3359E+03
      0.352  0.4729E+02  0.3471E+03
      0.590  0.3913E+02  0.3564E+03
      0.828  0.3643E+02  0.3651E+03
      1.066  0.3827E+02  0.3742E+03
      1.304  0.3315E+02  0.3821E+03
      1.541  0.4634E+02  0.3931E+03
      1.779  0.5858E+02  0.4070E+03
      2.017  0.5731E+02  0.4207E+03
      2.255  0.5672E+02  0.4342E+03
      2.493  0.3695E+02  0.4430E+03
      2.731  0.2580E+02  0.4491E+03
      2.969  0.1850E+02  0.4535E+03
      3.207  0.2902E+02  0.4604E+03
      3.444  0.2936E+02  0.4674E+03
      3.682  0.5966E+01  0.4688E+03
      3.920  0.3494E+01  0.4696E+03
      4.158  0.1136E+02  0.4723E+03
      4.396  0.2963E+02  0.4794E+03
      4.634  0.4350E+02  0.4897E+03
      4.872  0.5898E+02  0.5038E+03
      5.109  0.6176E+02  0.5184E+03
      5.347  0.5383E+02  0.5312E+03
      5.585  0.5893E+02  0.5453E+03
      5.823  0.5042E+02  0.5573E+03
      6.061  0.4635E+02  0.5683E+03
      6.299  0.1404E+02  0.5716E+03
      6.537  0.1597E+01  0.5720E+03
      6.775  0.6134E-05  0.5720E+03
      7.012  0.0000E+00  0.5720E+03
      7.250  0.0000E+00  0.5720E+03
      7.488  0.0000E+00  0.5720E+03
      7.726  0.0000E+00  0.5720E+03
      7.964  0.0000E+00  0.5720E+03
      8.202  0.0000E+00  0.5720E+03
      8.440  0.0000E+00  0.5720E+03
      8.677  0.0000E+00  0.5720E+03
      8.915  0.0000E+00  0.5720E+03
      9.153  0.0000E+00  0.5720E+03
      9.391  0.0000E+00  0.5720E+03
      9.629  0.0000E+00  0.5720E+03
