       N       E                     dE             d eps       ncg     rms          rms(c)
DAV:   1     0.395689978785E+04    0.39569E+04   -0.24377E+05  9064   0.143E+03
DAV:   2    -0.459201053899E+02   -0.40028E+04   -0.38898E+04  8976   0.336E+02
DAV:   3    -0.359933454867E+03   -0.31401E+03   -0.30699E+03  8987   0.806E+01
DAV:   4    -0.375238820134E+03   -0.15305E+02   -0.15153E+02 10175   0.162E+01
DAV:   5    -0.375749048225E+03   -0.51023E+00   -0.50725E+00 10340   0.296E+00    0.785E+01
DAV:   6    -0.360858659414E+03    0.14890E+02   -0.14584E+02  8371   0.203E+01    0.353E+01
DAV:   7    -0.360064518672E+03    0.79414E+00   -0.10216E+02  8415   0.164E+01    0.223E+01
DAV:   8    -0.354357523697E+03    0.57070E+01   -0.14577E+01  8294   0.705E+00    0.865E+00
DAV:   9    -0.354175992066E+03    0.18153E+00   -0.39186E+00  9801   0.295E+00    0.507E+00
DAV:  10    -0.354062354494E+03    0.11364E+00   -0.37227E-01  8910   0.124E+00    0.286E+00
DAV:  11    -0.354075478112E+03   -0.13124E-01   -0.49989E-01  9207   0.174E+00    0.257E+00
DAV:  12    -0.353959534551E+03    0.11594E+00   -0.36473E-01  9339   0.119E+00    0.103E+00
DAV:  13    -0.353954344710E+03    0.51898E-02   -0.50262E-02  9185   0.455E-01    0.849E-01
DAV:  14    -0.353950968988E+03    0.33757E-02   -0.61825E-03  9394   0.214E-01    0.635E-01
DAV:  15    -0.353943326029E+03    0.76430E-02   -0.14435E-02  9152   0.277E-01    0.399E-01
DAV:  16    -0.353935953102E+03    0.73729E-02   -0.16195E-02  9207   0.285E-01    0.402E-01
DAV:  17    -0.353934190074E+03    0.17630E-02   -0.45603E-03  9218   0.158E-01    0.276E-01
DAV:  18    -0.353933199845E+03    0.99023E-03   -0.13037E-03  9416   0.977E-02    0.226E-01
DAV:  19    -0.353932110797E+03    0.10890E-02   -0.33894E-03  8789   0.129E-01    0.174E-01
DAV:  20    -0.353933154111E+03   -0.10433E-02   -0.27603E-03  9097   0.120E-01    0.243E-01
DAV:  21    -0.353934052355E+03   -0.89824E-03   -0.51269E-04  9614   0.569E-02    0.232E-01
DAV:  22    -0.353936470585E+03   -0.24182E-02   -0.24191E-03  8426   0.760E-02    0.926E-02
DAV:  23    -0.353938522955E+03   -0.20524E-02   -0.62140E-04  8844   0.512E-02    0.977E-02
DAV:  24    -0.353938988166E+03   -0.46521E-03   -0.14617E-04  9009   0.336E-02    0.845E-02
DAV:  25    -0.353939328060E+03   -0.33989E-03   -0.33322E-05  9163   0.170E-02    0.565E-02
DAV:  26    -0.353939743476E+03   -0.41542E-03   -0.47488E-05  8954   0.179E-02    0.228E-02
DAV:  27    -0.353939795317E+03   -0.51841E-04   -0.20262E-05  7876   0.105E-02    0.222E-02
DAV:  28    -0.353939802018E+03   -0.67005E-05   -0.25787E-06  6853   0.524E-03    0.135E-02
DAV:  29    -0.353939809233E+03   -0.72153E-05   -0.11625E-06  5401   0.180E-03    0.646E-03
DAV:  30    -0.353939830074E+03   -0.20841E-04   -0.23528E-06  5973   0.197E-03    0.263E-03
DAV:  31    -0.353939834760E+03   -0.46854E-05   -0.97198E-07  6083   0.137E-03    0.228E-03
DAV:  32    -0.353939835601E+03   -0.84130E-06   -0.11115E-07  4598   0.921E-04
   1 F= -.37672648E+03 E0= -.37672285E+03  d E =-.726399E-02
