Bilayer MoS2/MoS2 3R (relaxed monolayers
   1.00000000000000     
     3.1922379121304525    0.0000000000000000    0.0000000000000000
     1.5961189560652262    2.7645591268287681    0.0000000000000000
     0.0000000000000000    0.0000000000000000   20.0000000000000000
   Mo   S 
     2     4
Direct
    -0.0000000000000000   -0.0000000000000000    0.5129823452428834
     0.3333333333333357    0.3333333333333357    0.8120552004289023
     0.3333333333333357    0.3333333333333357    0.4352767722686535
     0.3333333333333357    0.3333333333333357    0.5904875422331989
     0.6666666666666714    0.6666666666666714    0.7344860252762712
     0.6666666666666714    0.6666666666666714    0.8897121145509926
 
  0.00000000E+00  0.00000000E+00  0.00000000E+00
  0.00000000E+00  0.00000000E+00  0.00000000E+00
  0.00000000E+00  0.00000000E+00  0.00000000E+00
  0.00000000E+00  0.00000000E+00  0.00000000E+00
  0.00000000E+00  0.00000000E+00  0.00000000E+00
  0.00000000E+00  0.00000000E+00  0.00000000E+00
