Bilayer WTe2/silicene TM_H (relaxed mono
   1.00000000000000     
     3.6705664289085038    0.0000000000000000    0.0000000000000000
     1.8352832144542519    3.1788037737130916    0.0000000000000000
     0.0000000000000000    0.0000000000000000   20.0000000000000000
   W    Te   Si
     1     2     2
Direct
    -0.0000000000000000    0.0000000000000000    0.4993112492742044
     0.3333333333333357    0.3333333333333357    0.4110212367311192
     0.3333333333333357    0.3333333333333357    0.5875884152472799
     0.3333333333333357    0.3333333333333357    0.9432136481701112
     0.6666666666666714    0.6666666666666714    0.9103979435014500
 
  0.00000000E+00  0.00000000E+00  0.00000000E+00
  0.00000000E+00  0.00000000E+00  0.00000000E+00
  0.00000000E+00  0.00000000E+00  0.00000000E+00
  0.00000000E+00  0.00000000E+00  0.00000000E+00
  0.00000000E+00  0.00000000E+00  0.00000000E+00
