  45  45   0   0
  0.3686441E+02  0.9786549E-09  0.9786549E-09  0.2000000E-08  0.5000000E-15
  1.000000000000000E-004
  CAR 
 WSe2_GaN_TM_TX phonon                   
      7.85981396    -78.28682228  301     -0.10874989      1.00000000
    -78.287  0.0000E+00  0.0000E+00
    -78.000  0.0000E+00  0.0000E+00
    -77.713  0.0000E+00  0.0000E+00
    -77.425  0.0000E+00  0.0000E+00
    -77.138  0.0000E+00  0.0000E+00
    -76.851  0.0000E+00  0.0000E+00
    -76.564  0.0000E+00  0.0000E+00
    -76.277  0.0000E+00  0.0000E+00
    -75.990  0.0000E+00  0.0000E+00
    -75.702  0.0000E+00  0.0000E+00
    -75.415  0.0000E+00  0.0000E+00
    -75.128  0.0000E+00  0.0000E+00
    -74.841  0.0000E+00  0.0000E+00
    -74.554  0.2278E-05  0.6541E-06
    -74.267  0.6246E+02  0.1794E+02
    -73.979  0.2226E+00  0.1800E+02
    -73.692  0.0000E+00  0.1800E+02
    -73.405  0.0000E+00  0.1800E+02
    -73.118  0.0000E+00  0.1800E+02
    -72.831  0.0000E+00  0.1800E+02
    -72.544  0.0000E+00  0.1800E+02
    -72.257  0.0000E+00  0.1800E+02
    -71.969  0.0000E+00  0.1800E+02
    -71.682  0.0000E+00  0.1800E+02
    -71.395  0.0000E+00  0.1800E+02
    -71.108  0.0000E+00  0.1800E+02
    -70.821  0.0000E+00  0.1800E+02
    -70.534  0.0000E+00  0.1800E+02
    -70.246  0.0000E+00  0.1800E+02
    -69.959  0.0000E+00  0.1800E+02
    -69.672  0.0000E+00  0.1800E+02
    -69.385  0.0000E+00  0.1800E+02
    -69.098  0.0000E+00  0.1800E+02
    -68.811  0.0000E+00  0.1800E+02
    -68.524  0.0000E+00  0.1800E+02
    -68.236  0.0000E+00  0.1800E+02
    -67.949  0.0000E+00  0.1800E+02
    -67.662  0.0000E+00  0.1800E+02
    -67.375  0.0000E+00  0.1800E+02
    -67.088  0.0000E+00  0.1800E+02
    -66.801  0.0000E+00  0.1800E+02
    -66.513  0.0000E+00  0.1800E+02
    -66.226  0.0000E+00  0.1800E+02
    -65.939  0.0000E+00  0.1800E+02
    -65.652  0.0000E+00  0.1800E+02
    -65.365  0.0000E+00  0.1800E+02
    -65.078  0.0000E+00  0.1800E+02
    -64.791  0.0000E+00  0.1800E+02
    -64.503  0.0000E+00  0.1800E+02
    -64.216  0.0000E+00  0.1800E+02
    -63.929  0.0000E+00  0.1800E+02
    -63.642  0.0000E+00  0.1800E+02
    -63.355  0.0000E+00  0.1800E+02
    -63.068  0.0000E+00  0.1800E+02
    -62.780  0.0000E+00  0.1800E+02
    -62.493  0.0000E+00  0.1800E+02
    -62.206  0.0000E+00  0.1800E+02
    -61.919  0.0000E+00  0.1800E+02
    -61.632  0.0000E+00  0.1800E+02
    -61.345  0.0000E+00  0.1800E+02
    -61.057  0.0000E+00  0.1800E+02
    -60.770  0.0000E+00  0.1800E+02
    -60.483  0.0000E+00  0.1800E+02
    -60.196  0.0000E+00  0.1800E+02
    -59.909  0.0000E+00  0.1800E+02
    -59.622  0.0000E+00  0.1800E+02
    -59.335  0.0000E+00  0.1800E+02
    -59.047  0.0000E+00  0.1800E+02
    -58.760  0.0000E+00  0.1800E+02
    -58.473  0.0000E+00  0.1800E+02
    -58.186  0.0000E+00  0.1800E+02
    -57.899  0.0000E+00  0.1800E+02
    -57.612  0.0000E+00  0.1800E+02
    -57.324  0.0000E+00  0.1800E+02
    -57.037  0.0000E+00  0.1800E+02
    -56.750  0.0000E+00  0.1800E+02
    -56.463  0.0000E+00  0.1800E+02
    -56.176  0.0000E+00  0.1800E+02
    -55.889  0.0000E+00  0.1800E+02
    -55.602  0.0000E+00  0.1800E+02
    -55.314  0.0000E+00  0.1800E+02
    -55.027  0.0000E+00  0.1800E+02
    -54.740  0.0000E+00  0.1800E+02
    -54.453  0.0000E+00  0.1800E+02
    -54.166  0.0000E+00  0.1800E+02
    -53.879  0.0000E+00  0.1800E+02
    -53.591  0.0000E+00  0.1800E+02
    -53.304  0.0000E+00  0.1800E+02
    -53.017  0.0000E+00  0.1800E+02
    -52.730  0.0000E+00  0.1800E+02
    -52.443  0.0000E+00  0.1800E+02
    -52.156  0.0000E+00  0.1800E+02
    -51.869  0.0000E+00  0.1800E+02
    -51.581  0.0000E+00  0.1800E+02
    -51.294  0.0000E+00  0.1800E+02
    -51.007  0.0000E+00  0.1800E+02
    -50.720  0.0000E+00  0.1800E+02
    -50.433  0.0000E+00  0.1800E+02
    -50.146  0.0000E+00  0.1800E+02
    -49.858  0.0000E+00  0.1800E+02
    -49.571  0.0000E+00  0.1800E+02
    -49.284  0.0000E+00  0.1800E+02
    -48.997  0.0000E+00  0.1800E+02
    -48.710  0.0000E+00  0.1800E+02
    -48.423  0.0000E+00  0.1800E+02
    -48.135  0.0000E+00  0.1800E+02
    -47.848  0.0000E+00  0.1800E+02
    -47.561  0.0000E+00  0.1800E+02
    -47.274  0.0000E+00  0.1800E+02
    -46.987  0.0000E+00  0.1800E+02
    -46.700  0.0000E+00  0.1800E+02
    -46.413  0.0000E+00  0.1800E+02
    -46.125  0.0000E+00  0.1800E+02
    -45.838  0.0000E+00  0.1800E+02
    -45.551  0.0000E+00  0.1800E+02
    -45.264  0.0000E+00  0.1800E+02
    -44.977  0.0000E+00  0.1800E+02
    -44.690  0.0000E+00  0.1800E+02
    -44.402  0.0000E+00  0.1800E+02
    -44.115  0.0000E+00  0.1800E+02
    -43.828  0.0000E+00  0.1800E+02
    -43.541  0.0000E+00  0.1800E+02
    -43.254  0.0000E+00  0.1800E+02
    -42.967  0.0000E+00  0.1800E+02
    -42.680  0.0000E+00  0.1800E+02
    -42.392  0.0000E+00  0.1800E+02
    -42.105  0.0000E+00  0.1800E+02
    -41.818  0.0000E+00  0.1800E+02
    -41.531  0.0000E+00  0.1800E+02
    -41.244  0.0000E+00  0.1800E+02
    -40.957  0.0000E+00  0.1800E+02
    -40.669  0.0000E+00  0.1800E+02
    -40.382  0.0000E+00  0.1800E+02
    -40.095  0.0000E+00  0.1800E+02
    -39.808  0.0000E+00  0.1800E+02
    -39.521  0.0000E+00  0.1800E+02
    -39.234  0.0000E+00  0.1800E+02
    -38.947  0.2926E-09  0.1800E+02
    -38.659  0.3490E+02  0.2802E+02
    -38.372  0.1531E+03  0.7200E+02
    -38.085  0.9293E-02  0.7200E+02
    -37.798  0.0000E+00  0.7200E+02
    -37.511  0.0000E+00  0.7200E+02
    -37.224  0.0000E+00  0.7200E+02
    -36.936  0.0000E+00  0.7200E+02
    -36.649  0.0000E+00  0.7200E+02
    -36.362  0.0000E+00  0.7200E+02
    -36.075  0.0000E+00  0.7200E+02
    -35.788  0.0000E+00  0.7200E+02
    -35.501  0.0000E+00  0.7200E+02
    -35.214  0.0000E+00  0.7200E+02
    -34.926  0.0000E+00  0.7200E+02
    -34.639  0.0000E+00  0.7200E+02
    -34.352  0.0000E+00  0.7200E+02
    -34.065  0.0000E+00  0.7200E+02
    -33.778  0.0000E+00  0.7200E+02
    -33.491  0.0000E+00  0.7200E+02
    -33.203  0.0000E+00  0.7200E+02
    -32.916  0.0000E+00  0.7200E+02
    -32.629  0.0000E+00  0.7200E+02
    -32.342  0.0000E+00  0.7200E+02
    -32.055  0.0000E+00  0.7200E+02
    -31.768  0.0000E+00  0.7200E+02
    -31.480  0.0000E+00  0.7200E+02
    -31.193  0.0000E+00  0.7200E+02
    -30.906  0.0000E+00  0.7200E+02
    -30.619  0.0000E+00  0.7200E+02
    -30.332  0.0000E+00  0.7200E+02
    -30.045  0.0000E+00  0.7200E+02
    -29.758  0.0000E+00  0.7200E+02
    -29.470  0.0000E+00  0.7200E+02
    -29.183  0.0000E+00  0.7200E+02
    -28.896  0.0000E+00  0.7200E+02
    -28.609  0.0000E+00  0.7200E+02
    -28.322  0.0000E+00  0.7200E+02
    -28.035  0.0000E+00  0.7200E+02
    -27.747  0.0000E+00  0.7200E+02
    -27.460  0.0000E+00  0.7200E+02
    -27.173  0.0000E+00  0.7200E+02
    -26.886  0.0000E+00  0.7200E+02
    -26.599  0.0000E+00  0.7200E+02
    -26.312  0.0000E+00  0.7200E+02
    -26.025  0.0000E+00  0.7200E+02
    -25.737  0.0000E+00  0.7200E+02
    -25.450  0.0000E+00  0.7200E+02
    -25.163  0.0000E+00  0.7200E+02
    -24.876  0.0000E+00  0.7200E+02
    -24.589  0.0000E+00  0.7200E+02
    -24.302  0.0000E+00  0.7200E+02
    -24.014  0.0000E+00  0.7200E+02
    -23.727  0.0000E+00  0.7200E+02
    -23.440  0.0000E+00  0.7200E+02
    -23.153  0.0000E+00  0.7200E+02
    -22.866  0.0000E+00  0.7200E+02
    -22.579  0.0000E+00  0.7200E+02
    -22.292  0.0000E+00  0.7200E+02
    -22.004  0.0000E+00  0.7200E+02
    -21.717  0.0000E+00  0.7200E+02
    -21.430  0.0000E+00  0.7200E+02
    -21.143  0.0000E+00  0.7200E+02
    -20.856  0.0000E+00  0.7200E+02
    -20.569  0.0000E+00  0.7200E+02
    -20.281  0.0000E+00  0.7200E+02
    -19.994  0.0000E+00  0.7200E+02
    -19.707  0.0000E+00  0.7200E+02
    -19.420  0.0000E+00  0.7200E+02
    -19.133  0.0000E+00  0.7200E+02
    -18.846  0.0000E+00  0.7200E+02
    -18.558  0.0000E+00  0.7200E+02
    -18.271  0.0000E+00  0.7200E+02
    -17.984  0.0000E+00  0.7200E+02
    -17.697  0.0000E+00  0.7200E+02
    -17.410  0.0000E+00  0.7200E+02
    -17.123  0.0000E+00  0.7200E+02
    -16.836  0.0000E+00  0.7200E+02
    -16.548  0.0000E+00  0.7200E+02
    -16.261  0.0000E+00  0.7200E+02
    -15.974  0.0000E+00  0.7200E+02
    -15.687  0.0000E+00  0.7200E+02
    -15.400  0.5192E-06  0.7200E+02
    -15.113  0.1866E+01  0.7254E+02
    -14.825  0.5257E+01  0.7405E+02
    -14.538  0.1118E+02  0.7725E+02
    -14.251  0.1298E+02  0.8098E+02
    -13.964  0.1499E+02  0.8529E+02
    -13.677  0.2337E+02  0.9200E+02
    -13.390  0.3175E+02  0.1011E+03
    -13.103  0.4373E+02  0.1137E+03
    -12.815  0.3918E+02  0.1249E+03
    -12.528  0.3737E+01  0.1260E+03
    -12.241  0.0000E+00  0.1260E+03
    -11.954  0.0000E+00  0.1260E+03
    -11.667  0.0000E+00  0.1260E+03
    -11.380  0.0000E+00  0.1260E+03
    -11.092  0.0000E+00  0.1260E+03
    -10.805  0.0000E+00  0.1260E+03
    -10.518  0.0000E+00  0.1260E+03
    -10.231  0.0000E+00  0.1260E+03
     -9.944  0.0000E+00  0.1260E+03
     -9.657  0.0000E+00  0.1260E+03
     -9.370  0.0000E+00  0.1260E+03
     -9.082  0.0000E+00  0.1260E+03
     -8.795  0.0000E+00  0.1260E+03
     -8.508  0.0000E+00  0.1260E+03
     -8.221  0.0000E+00  0.1260E+03
     -7.934  0.0000E+00  0.1260E+03
     -7.647  0.0000E+00  0.1260E+03
     -7.359  0.0000E+00  0.1260E+03
     -7.072  0.1299E-14  0.1260E+03
     -6.785  0.1742E+01  0.1265E+03
     -6.498  0.1659E+02  0.1313E+03
     -6.211  0.2508E+02  0.1385E+03
     -5.924  0.2409E+02  0.1454E+03
     -5.636  0.2555E+02  0.1527E+03
     -5.349  0.2975E+02  0.1613E+03
     -5.062  0.1310E+02  0.1650E+03
     -4.775  0.2058E+02  0.1709E+03
     -4.488  0.3828E+02  0.1819E+03
     -4.201  0.2129E+02  0.1880E+03
     -3.914  0.1736E+02  0.1930E+03
     -3.626  0.3357E+02  0.2027E+03
     -3.339  0.3538E+02  0.2128E+03
     -3.052  0.2653E+02  0.2204E+03
     -2.765  0.1967E+02  0.2261E+03
     -2.478  0.6029E+02  0.2434E+03
     -2.191  0.3998E+02  0.2549E+03
     -1.903  0.2891E+02  0.2632E+03
     -1.616  0.2683E+02  0.2709E+03
     -1.329  0.3333E+02  0.2805E+03
     -1.042  0.4176E+02  0.2925E+03
     -0.755  0.3779E+02  0.3033E+03
     -0.468  0.8352E+01  0.3057E+03
     -0.181  0.1015E+01  0.3060E+03
      0.107  0.0000E+00  0.3060E+03
      0.394  0.0000E+00  0.3060E+03
      0.681  0.0000E+00  0.3060E+03
      0.968  0.0000E+00  0.3060E+03
      1.255  0.1093E+01  0.3063E+03
      1.542  0.1910E+02  0.3118E+03
      1.830  0.2586E+02  0.3192E+03
      2.117  0.2668E+02  0.3269E+03
      2.404  0.4433E+02  0.3396E+03
      2.691  0.4357E+02  0.3521E+03
      2.978  0.2261E+02  0.3586E+03
      3.265  0.2009E+02  0.3644E+03
      3.552  0.1324E+02  0.3682E+03
      3.840  0.1711E+02  0.3731E+03
      4.127  0.3105E+01  0.3740E+03
      4.414  0.0000E+00  0.3740E+03
      4.701  0.0000E+00  0.3740E+03
      4.988  0.0000E+00  0.3740E+03
      5.275  0.0000E+00  0.3740E+03
      5.563  0.0000E+00  0.3740E+03
      5.850  0.0000E+00  0.3740E+03
      6.137  0.0000E+00  0.3740E+03
      6.424  0.0000E+00  0.3740E+03
      6.711  0.0000E+00  0.3740E+03
      6.998  0.0000E+00  0.3740E+03
      7.286  0.0000E+00  0.3740E+03
      7.573  0.0000E+00  0.3740E+03
      7.860  0.0000E+00  0.3740E+03
