   45   45    1    1
  0.3686441E+02  0.9786549E-09  0.9786549E-09  0.2000000E-08  0.5000000E-15
  1.000000000000000E-004
  CAR 
 WSe2_GaN_TM_TX phonon                   
    306     13    187
 
  0.1276756E-14  0.1276756E-14  0.1276756E-14  0.4000000E-01
      1        -74.371066   1.000000
      2        -74.363020   1.000000
      3        -74.362964   1.000000
      4        -74.362912   1.000000
      5        -74.362118   1.000000
      6        -74.361800   1.000000
      7        -74.361400   1.000000
      8        -74.357931   1.000000
      9        -74.357540   1.000000
     10        -38.661568   1.000000
     11        -38.661466   1.000000
     12        -38.661329   1.000000
     13        -38.661284   1.000000
     14        -38.660701   1.000000
     15        -38.660530   1.000000
     16        -38.659609   1.000000
     17        -38.658925   1.000000
     18        -38.635176   1.000000
     19        -38.635107   1.000000
     20        -38.634374   1.000000
     21        -38.598564   1.000000
     22        -38.598492   1.000000
     23        -38.598421   1.000000
     24        -38.597527   1.000000
     25        -38.597499   1.000000
     26        -38.597489   1.000000
     27        -38.579748   1.000000
     28        -38.579709   1.000000
     29        -38.517261   1.000000
     30        -38.517198   1.000000
     31        -38.517088   1.000000
     32        -38.517061   1.000000
     33        -38.517046   1.000000
     34        -38.516136   1.000000
     35        -38.472226   1.000000
     36        -38.472171   1.000000
     37        -15.236222   1.000000
     38        -14.901017   1.000000
     39        -14.007784   1.000000
     40        -13.883232   1.000000
     41        -13.882081   1.000000
     42        -13.882055   1.000000
     43        -13.882026   1.000000
     44        -13.882014   1.000000
     45        -13.881986   1.000000
     46        -13.789509   1.000000
     47        -13.782341   1.000000
     48        -13.782239   1.000000
     49        -13.782207   1.000000
     50        -13.781948   1.000000
     51        -13.781795   1.000000
     52        -13.275557   1.000000
     53        -13.271728   1.000000
     54        -13.271678   1.000000
     55        -13.271603   1.000000
     56        -13.271264   1.000000
     57        -13.271008   1.000000
     58        -13.119377   1.000000
     59        -13.119372   1.000000
     60        -12.819301   1.000000
     61        -12.816761   1.000000
     62        -12.765105   1.000000
     63        -12.762919   1.000000
     64         -6.700185   1.000000
     65         -6.269543   1.000000
     66         -6.269531   1.000000
     67         -5.870075   1.000000
     68         -5.869220   1.000000
     69         -5.868500   1.000000
     70         -5.865486   1.000000
     71         -5.865403   1.000000
     72         -5.864315   1.000000
     73         -5.817442   1.000000
     74         -5.816102   1.000000
     75         -5.690656   1.000000
     76         -5.688201   1.000000
     77         -5.599331   1.000000
     78         -5.599324   1.000000
     79         -5.599258   1.000000
     80         -5.599134   1.000000
     81         -5.599112   1.000000
     82         -5.599070   1.000000
     83         -4.891193   1.000000
     84         -4.890665   1.000000
     85         -4.843429   1.000000
     86         -4.841785   1.000000
     87         -4.841697   1.000000
     88         -4.840595   1.000000
     89         -4.840464   1.000000
     90         -4.840346   1.000000
     91         -4.803982   1.000000
     92         -4.802523   1.000000
     93         -4.801923   1.000000
     94         -4.800206   1.000000
     95         -4.798967   1.000000
     96         -4.798114   1.000000
     97         -4.770362   1.000000
     98         -4.768521   1.000000
     99         -4.109420   1.000000
    100         -4.107414   1.000000
    101         -3.764147   1.000000
    102         -3.761695   1.000000
    103         -3.490172   1.000000
    104         -2.942259   1.000000
    105         -2.939657   1.000000
    106         -2.935620   1.000000
    107         -2.935131   1.000000
    108         -2.935032   1.000000
    109         -2.934766   1.000000
    110         -2.844738   1.000000
    111         -2.843392   1.000000
    112         -2.586100   1.000000
    113         -2.585587   1.000000
    114         -2.554086   1.000000
    115         -2.553902   1.000000
    116         -2.553676   1.000000
    117         -2.553172   1.000000
    118         -2.552689   1.000000
    119         -2.548772   1.000000
    120         -2.510526   1.000000
    121         -2.510519   1.000000
    122         -2.510507   1.000000
    123         -2.510501   1.000000
    124         -2.510490   1.000000
    125         -2.510486   1.000000
    126         -2.431248   1.000000
    127         -1.793414   1.000000
    128         -1.792622   1.000000
    129         -1.792491   1.000000
    130         -1.792220   1.000000
    131         -1.791841   1.000000
    132         -1.788413   1.000000
    133         -1.540232   1.000000
    134         -1.539962   1.000000
    135         -1.539335   1.000000
    136         -1.539261   1.000000
    137         -1.539243   1.000000
    138         -1.538725   1.000000
    139         -1.451584   1.000000
    140         -1.448504   1.000000
    141         -1.442654   1.000000
    142         -1.441425   1.000000
    143         -1.438095   1.000000
    144         -1.437851   1.000000
    145         -1.437822   1.000000
    146         -1.437540   1.000000
    147         -1.259136   1.000000
    148         -1.259129   1.000000
    149         -0.840590   1.000000
    150         -0.770870   1.000000
    151         -0.770832   1.000000
    152         -0.357278   1.000000
    153         -0.357123   1.000000
    154          1.326331   0.000000
    155          1.421067   0.000000
    156          1.421253   0.000000
    157          1.723163   0.000000
    158          1.723195   0.000000
    159          1.723586   0.000000
    160          1.725477   0.000000
    161          1.726429   0.000000
    162          1.727266   0.000000
    163          2.017377   0.000000
    164          2.017619   0.000000
    165          2.018046   0.000000
    166          2.018506   0.000000
    167          2.020253   0.000000
    168          2.020772   0.000000
    169          2.312469   0.000000
    170          2.313879   0.000000
    171          2.687458   0.000000
    172          2.689701   0.000000
    173          2.821109   0.000000
    174          2.822226   0.000000
    175          2.824228   0.000000
    176          2.824261   0.000000
    177          2.824753   0.000000
    178          2.827234   0.000000
    179          2.828503   0.000000
    180          2.831066   0.000000
    181          3.202196   0.000000
    182          3.206375   0.000000
    183          3.860570   0.000000
    184          3.861099   0.000000
    185          3.943883   0.000000
    186          3.943918   0.000000
    187          3.944058   0.000000
 
  0.2000000E+00  0.1282215E-14  0.1276756E-14  0.8000000E-01
      1        -74.370568   1.000000
      2        -74.364827   1.000000
      3        -74.363498   1.000000
      4        -74.363059   1.000000
      5        -74.361341   1.000000
      6        -74.361256   1.000000
      7        -74.360311   1.000000
      8        -74.358152   1.000000
      9        -74.357721   1.000000
     10        -38.699308   1.000000
     11        -38.680768   1.000000
     12        -38.680382   1.000000
     13        -38.675311   1.000000
     14        -38.674841   1.000000
     15        -38.638286   1.000000
     16        -38.637879   1.000000
     17        -38.632291   1.000000
     18        -38.612696   1.000000
     19        -38.612494   1.000000
     20        -38.611943   1.000000
     21        -38.607635   1.000000
     22        -38.601801   1.000000
     23        -38.601729   1.000000
     24        -38.593227   1.000000
     25        -38.593181   1.000000
     26        -38.590418   1.000000
     27        -38.580792   1.000000
     28        -38.580753   1.000000
     29        -38.528079   1.000000
     30        -38.527928   1.000000
     31        -38.526061   1.000000
     32        -38.516442   1.000000
     33        -38.516254   1.000000
     34        -38.505172   1.000000
     35        -38.483291   1.000000
     36        -38.474765   1.000000
     37        -15.167118   1.000000
     38        -14.851609   1.000000
     39        -14.259323   1.000000
     40        -14.166549   1.000000
     41        -14.029312   1.000000
     42        -14.028267   1.000000
     43        -13.971404   1.000000
     44        -13.950777   1.000000
     45        -13.948800   1.000000
     46        -13.694799   1.000000
     47        -13.694677   1.000000
     48        -13.579637   1.000000
     49        -13.551918   1.000000
     50        -13.549037   1.000000
     51        -13.491705   1.000000
     52        -13.401431   1.000000
     53        -13.360851   1.000000
     54        -13.359769   1.000000
     55        -13.168228   1.000000
     56        -13.168224   1.000000
     57        -13.152964   1.000000
     58        -13.151579   1.000000
     59        -13.082579   1.000000
     60        -12.880420   1.000000
     61        -12.877791   1.000000
     62        -12.799020   1.000000
     63        -12.796992   1.000000
     64         -6.610328   1.000000
     65         -6.429569   1.000000
     66         -6.319182   1.000000
     67         -6.319163   1.000000
     68         -6.292629   1.000000
     69         -6.115531   1.000000
     70         -6.114883   1.000000
     71         -5.962584   1.000000
     72         -5.962453   1.000000
     73         -5.904726   1.000000
     74         -5.903291   1.000000
     75         -5.743662   1.000000
     76         -5.742189   1.000000
     77         -5.621082   1.000000
     78         -5.594267   1.000000
     79         -5.593605   1.000000
     80         -5.296640   1.000000
     81         -5.181159   1.000000
     82         -5.181057   1.000000
     83         -5.068967   1.000000
     84         -5.068308   1.000000
     85         -4.885648   1.000000
     86         -4.884967   1.000000
     87         -4.761313   1.000000
     88         -4.713193   1.000000
     89         -4.710931   1.000000
     90         -4.667794   1.000000
     91         -4.662846   1.000000
     92         -4.646014   1.000000
     93         -4.645917   1.000000
     94         -4.503623   1.000000
     95         -4.503377   1.000000
     96         -4.496952   1.000000
     97         -4.496260   1.000000
     98         -4.223045   1.000000
     99         -4.022071   1.000000
    100         -4.020934   1.000000
    101         -3.788650   1.000000
    102         -3.786372   1.000000
    103         -3.464933   1.000000
    104         -3.293906   1.000000
    105         -3.291974   1.000000
    106         -3.156174   1.000000
    107         -3.140539   1.000000
    108         -3.139497   1.000000
    109         -2.820099   1.000000
    110         -2.820092   1.000000
    111         -2.798573   1.000000
    112         -2.754360   1.000000
    113         -2.753166   1.000000
    114         -2.727429   1.000000
    115         -2.636535   1.000000
    116         -2.626783   1.000000
    117         -2.540898   1.000000
    118         -2.540891   1.000000
    119         -2.538682   1.000000
    120         -2.518208   1.000000
    121         -2.516120   1.000000
    122         -2.447551   1.000000
    123         -2.446349   1.000000
    124         -2.299535   1.000000
    125         -2.299433   1.000000
    126         -2.216409   1.000000
    127         -2.033503   1.000000
    128         -2.032150   1.000000
    129         -1.980604   1.000000
    130         -1.979598   1.000000
    131         -1.913326   1.000000
    132         -1.758262   1.000000
    133         -1.757344   1.000000
    134         -1.719783   1.000000
    135         -1.688837   1.000000
    136         -1.668168   1.000000
    137         -1.569102   1.000000
    138         -1.481015   1.000000
    139         -1.480870   1.000000
    140         -1.439005   1.000000
    141         -1.422738   1.000000
    142         -1.343338   1.000000
    143         -1.271489   1.000000
    144         -1.270699   1.000000
    145         -1.269908   1.000000
    146         -1.254214   1.000000
    147         -1.138009   1.000000
    148         -1.137232   1.000000
    149         -0.836752   1.000000
    150         -0.835903   1.000000
    151         -0.835803   1.000000
    152         -0.506387   1.000000
    153         -0.506295   1.000000
    154          1.472322   0.000000
    155          1.473379   0.000000
    156          1.511223   0.000000
    157          1.603364   0.000000
    158          1.603860   0.000000
    159          1.626678   0.000000
    160          1.707263   0.000000
    161          1.709135   0.000000
    162          2.048199   0.000000
    163          2.062925   0.000000
    164          2.094153   0.000000
    165          2.095844   0.000000
    166          2.101728   0.000000
    167          2.221691   0.000000
    168          2.222979   0.000000
    169          2.403834   0.000000
    170          2.405238   0.000000
    171          2.496797   0.000000
    172          2.509638   0.000000
    173          2.537059   0.000000
    174          2.577608   0.000000
    175          2.578142   0.000000
    176          2.730363   0.000000
    177          2.808102   0.000000
    178          2.916932   0.000000
    179          2.918613   0.000000
    180          3.028123   0.000000
    181          3.031018   0.000000
    182          3.065029   0.000000
    183          3.580065   0.000000
    184          3.751208   0.000000
    185          3.787217   0.000000
    186          3.800785   0.000000
    187          3.852500   0.000000
 
  0.2000000E+00  0.2000000E+00  0.1276756E-14  0.8000000E-01
      1        -74.370569   1.000000
      2        -74.364819   1.000000
      3        -74.363384   1.000000
      4        -74.363196   1.000000
      5        -74.361471   1.000000
      6        -74.361096   1.000000
      7        -74.360325   1.000000
      8        -74.358136   1.000000
      9        -74.357738   1.000000
     10        -38.699246   1.000000
     11        -38.680777   1.000000
     12        -38.680414   1.000000
     13        -38.675326   1.000000
     14        -38.674828   1.000000
     15        -38.638283   1.000000
     16        -38.637973   1.000000
     17        -38.632291   1.000000
     18        -38.612757   1.000000
     19        -38.612443   1.000000
     20        -38.611871   1.000000
     21        -38.607643   1.000000
     22        -38.601765   1.000000
     23        -38.601752   1.000000
     24        -38.593261   1.000000
     25        -38.593146   1.000000
     26        -38.590425   1.000000
     27        -38.580791   1.000000
     28        -38.580754   1.000000
     29        -38.528139   1.000000
     30        -38.527826   1.000000
     31        -38.526124   1.000000
     32        -38.516521   1.000000
     33        -38.516095   1.000000
     34        -38.505222   1.000000
     35        -38.483241   1.000000
     36        -38.474814   1.000000
     37        -15.167125   1.000000
     38        -14.851609   1.000000
     39        -14.259419   1.000000
     40        -14.166580   1.000000
     41        -14.029212   1.000000
     42        -14.028282   1.000000
     43        -13.971387   1.000000
     44        -13.950631   1.000000
     45        -13.948822   1.000000
     46        -13.694787   1.000000
     47        -13.694679   1.000000
     48        -13.579648   1.000000
     49        -13.551722   1.000000
     50        -13.549072   1.000000
     51        -13.491560   1.000000
     52        -13.401711   1.000000
     53        -13.361153   1.000000
     54        -13.359724   1.000000
     55        -13.168228   1.000000
     56        -13.168224   1.000000
     57        -13.153188   1.000000
     58        -13.151526   1.000000
     59        -13.082271   1.000000
     60        -12.880396   1.000000
     61        -12.877798   1.000000
     62        -12.799044   1.000000
     63        -12.796984   1.000000
     64         -6.610340   1.000000
     65         -6.429309   1.000000
     66         -6.319181   1.000000
     67         -6.319165   1.000000
     68         -6.292577   1.000000
     69         -6.115455   1.000000
     70         -6.115163   1.000000
     71         -5.962565   1.000000
     72         -5.962510   1.000000
     73         -5.904843   1.000000
     74         -5.903296   1.000000
     75         -5.743603   1.000000
     76         -5.742279   1.000000
     77         -5.621298   1.000000
     78         -5.594407   1.000000
     79         -5.593336   1.000000
     80         -5.296923   1.000000
     81         -5.181155   1.000000
     82         -5.181060   1.000000
     83         -5.069017   1.000000
     84         -5.068380   1.000000
     85         -4.885816   1.000000
     86         -4.884611   1.000000
     87         -4.761348   1.000000
     88         -4.712341   1.000000
     89         -4.711335   1.000000
     90         -4.667812   1.000000
     91         -4.663272   1.000000
     92         -4.646020   1.000000
     93         -4.645890   1.000000
     94         -4.503784   1.000000
     95         -4.503202   1.000000
     96         -4.497036   1.000000
     97         -4.495848   1.000000
     98         -4.222656   1.000000
     99         -4.022612   1.000000
    100         -4.020617   1.000000
    101         -3.788467   1.000000
    102         -3.786306   1.000000
    103         -3.464890   1.000000
    104         -3.292721   1.000000
    105         -3.291989   1.000000
    106         -3.156846   1.000000
    107         -3.140593   1.000000
    108         -3.139353   1.000000
    109         -2.820094   1.000000
    110         -2.820092   1.000000
    111         -2.798952   1.000000
    112         -2.754560   1.000000
    113         -2.753214   1.000000
    114         -2.727431   1.000000
    115         -2.636008   1.000000
    116         -2.627657   1.000000
    117         -2.540896   1.000000
    118         -2.540889   1.000000
    119         -2.538431   1.000000
    120         -2.517805   1.000000
    121         -2.516200   1.000000
    122         -2.447446   1.000000
    123         -2.447105   1.000000
    124         -2.299556   1.000000
    125         -2.299105   1.000000
    126         -2.216412   1.000000
    127         -2.034243   1.000000
    128         -2.032780   1.000000
    129         -1.980568   1.000000
    130         -1.979272   1.000000
    131         -1.913083   1.000000
    132         -1.758112   1.000000
    133         -1.757624   1.000000
    134         -1.719636   1.000000
    135         -1.688817   1.000000
    136         -1.667312   1.000000
    137         -1.570654   1.000000
    138         -1.480981   1.000000
    139         -1.480866   1.000000
    140         -1.437717   1.000000
    141         -1.422289   1.000000
    142         -1.343343   1.000000
    143         -1.272101   1.000000
    144         -1.270732   1.000000
    145         -1.270304   1.000000
    146         -1.254356   1.000000
    147         -1.138028   1.000000
    148         -1.136808   1.000000
    149         -0.836726   1.000000
    150         -0.835905   1.000000
    151         -0.835803   1.000000
    152         -0.506482   1.000000
    153         -0.506288   1.000000
    154          1.472720   0.000000
    155          1.473968   0.000000
    156          1.511082   0.000000
    157          1.603494   0.000000
    158          1.603765   0.000000
    159          1.626699   0.000000
    160          1.707387   0.000000
    161          1.708639   0.000000
    162          2.047872   0.000000
    163          2.062632   0.000000
    164          2.093668   0.000000
    165          2.095758   0.000000
    166          2.101779   0.000000
    167          2.222232   0.000000
    168          2.223234   0.000000
    169          2.404064   0.000000
    170          2.405217   0.000000
    171          2.496340   0.000000
    172          2.507958   0.000000
    173          2.537405   0.000000
    174          2.577542   0.000000
    175          2.578242   0.000000
    176          2.729412   0.000000
    177          2.810127   0.000000
    178          2.916891   0.000000
    179          2.920549   0.000000
    180          3.028207   0.000000
    181          3.031178   0.000000
    182          3.063898   0.000000
    183          3.580061   0.000000
    184          3.743580   0.000000
    185          3.786794   0.000000
    186          3.790215   0.000000
    187          3.851978   0.000000
 
  0.1276756E-14  0.2000000E+00  0.1276756E-14  0.8000000E-01
      1        -74.370568   1.000000
      2        -74.364825   1.000000
      3        -74.363466   1.000000
      4        -74.363098   1.000000
      5        -74.361402   1.000000
      6        -74.361189   1.000000
      7        -74.360313   1.000000
      8        -74.358146   1.000000
      9        -74.357728   1.000000
     10        -38.699277   1.000000
     11        -38.680778   1.000000
     12        -38.680393   1.000000
     13        -38.675320   1.000000
     14        -38.674832   1.000000
     15        -38.638295   1.000000
     16        -38.637916   1.000000
     17        -38.632291   1.000000
     18        -38.612728   1.000000
     19        -38.612469   1.000000
     20        -38.611905   1.000000
     21        -38.607640   1.000000
     22        -38.601784   1.000000
     23        -38.601739   1.000000
     24        -38.593247   1.000000
     25        -38.593162   1.000000
     26        -38.590421   1.000000
     27        -38.580791   1.000000
     28        -38.580754   1.000000
     29        -38.528112   1.000000
     30        -38.527876   1.000000
     31        -38.526090   1.000000
     32        -38.516485   1.000000
     33        -38.516171   1.000000
     34        -38.505197   1.000000
     35        -38.483266   1.000000
     36        -38.474789   1.000000
     37        -15.167121   1.000000
     38        -14.851609   1.000000
     39        -14.259371   1.000000
     40        -14.166564   1.000000
     41        -14.029307   1.000000
     42        -14.028233   1.000000
     43        -13.971405   1.000000
     44        -13.950795   1.000000
     45        -13.948708   1.000000
     46        -13.694797   1.000000
     47        -13.694675   1.000000
     48        -13.579642   1.000000
     49        -13.551889   1.000000
     50        -13.548981   1.000000
     51        -13.491637   1.000000
     52        -13.401571   1.000000
     53        -13.361168   1.000000
     54        -13.359580   1.000000
     55        -13.168228   1.000000
     56        -13.168224   1.000000
     57        -13.153155   1.000000
     58        -13.151473   1.000000
     59        -13.082426   1.000000
     60        -12.880411   1.000000
     61        -12.877793   1.000000
     62        -12.799035   1.000000
     63        -12.796985   1.000000
     64         -6.610334   1.000000
     65         -6.429441   1.000000
     66         -6.319183   1.000000
     67         -6.319162   1.000000
     68         -6.292604   1.000000
     69         -6.115578   1.000000
     70         -6.114936   1.000000
     71         -5.962589   1.000000
     72         -5.962467   1.000000
     73         -5.905092   1.000000
     74         -5.902986   1.000000
     75         -5.743651   1.000000
     76         -5.742214   1.000000
     77         -5.621191   1.000000
     78         -5.594374   1.000000
     79         -5.593431   1.000000
     80         -5.296783   1.000000
     81         -5.181157   1.000000
     82         -5.181059   1.000000
     83         -5.069062   1.000000
     84         -5.068268   1.000000
     85         -4.885786   1.000000
     86         -4.884735   1.000000
     87         -4.761334   1.000000
     88         -4.712813   1.000000
     89         -4.711084   1.000000
     90         -4.667803   1.000000
     91         -4.663062   1.000000
     92         -4.646043   1.000000
     93         -4.645879   1.000000
     94         -4.503812   1.000000
     95         -4.503218   1.000000
     96         -4.497240   1.000000
     97         -4.495776   1.000000
     98         -4.222851   1.000000
     99         -4.022452   1.000000
    100         -4.020666   1.000000
    101         -3.788624   1.000000
    102         -3.786271   1.000000
    103         -3.464912   1.000000
    104         -3.293481   1.000000
    105         -3.291823   1.000000
    106         -3.156512   1.000000
    107         -3.140600   1.000000
    108         -3.139381   1.000000
    109         -2.820097   1.000000
    110         -2.820091   1.000000
    111         -2.798753   1.000000
    112         -2.754476   1.000000
    113         -2.753184   1.000000
    114         -2.727430   1.000000
    115         -2.636297   1.000000
    116         -2.627196   1.000000
    117         -2.540897   1.000000
    118         -2.540890   1.000000
    119         -2.538562   1.000000
    120         -2.518014   1.000000
    121         -2.516148   1.000000
    122         -2.447512   1.000000
    123         -2.446709   1.000000
    124         -2.299553   1.000000
    125         -2.299259   1.000000
    126         -2.216411   1.000000
    127         -2.034384   1.000000
    128         -2.031966   1.000000
    129         -1.980757   1.000000
    130         -1.979251   1.000000
    131         -1.913209   1.000000
    132         -1.758187   1.000000
    133         -1.757484   1.000000
    134         -1.719716   1.000000
    135         -1.688827   1.000000
    136         -1.667737   1.000000
    137         -1.569878   1.000000
    138         -1.481018   1.000000
    139         -1.480845   1.000000
    140         -1.438348   1.000000
    141         -1.422526   1.000000
    142         -1.343340   1.000000
    143         -1.271914   1.000000
    144         -1.270767   1.000000
    145         -1.269937   1.000000
    146         -1.254283   1.000000
    147         -1.138096   1.000000
    148         -1.136943   1.000000
    149         -0.836739   1.000000
    150         -0.835904   1.000000
    151         -0.835803   1.000000
    152         -0.506459   1.000000
    153         -0.506266   1.000000
    154          1.472384   0.000000
    155          1.473807   0.000000
    156          1.511155   0.000000
    157          1.603399   0.000000
    158          1.603843   0.000000
    159          1.626689   0.000000
    160          1.707285   0.000000
    161          1.708928   0.000000
    162          2.048030   0.000000
    163          2.062788   0.000000
    164          2.093888   0.000000
    165          2.095830   0.000000
    166          2.101748   0.000000
    167          2.221914   0.000000
    168          2.223150   0.000000
    169          2.403873   0.000000
    170          2.405309   0.000000
    171          2.496582   0.000000
    172          2.508808   0.000000
    173          2.537218   0.000000
    174          2.577336   0.000000
    175          2.578406   0.000000
    176          2.729892   0.000000
    177          2.809117   0.000000
    178          2.916839   0.000000
    179          2.919658   0.000000
    180          3.028157   0.000000
    181          3.031110   0.000000
    182          3.064459   0.000000
    183          3.580062   0.000000
    184          3.758842   0.000000
    185          3.787437   0.000000
    186          3.797845   0.000000
    187          3.851690   0.000000
 
  0.4000000E+00  0.8380107E-14  0.1276756E-14  0.8000000E-01
      1        -74.369203   1.000000
      2        -74.367078   1.000000
      3        -74.363942   1.000000
      4        -74.363555   1.000000
      5        -74.360320   1.000000
      6        -74.360272   1.000000
      7        -74.359634   1.000000
      8        -74.358669   1.000000
      9        -74.358057   1.000000
     10        -38.720066   1.000000
     11        -38.690929   1.000000
     12        -38.690538   1.000000
     13        -38.689021   1.000000
     14        -38.688604   1.000000
     15        -38.626385   1.000000
     16        -38.621107   1.000000
     17        -38.620681   1.000000
     18        -38.617646   1.000000
     19        -38.603845   1.000000
     20        -38.603799   1.000000
     21        -38.588240   1.000000
     22        -38.588210   1.000000
     23        -38.586329   1.000000
     24        -38.583714   1.000000
     25        -38.583662   1.000000
     26        -38.579850   1.000000
     27        -38.579641   1.000000
     28        -38.560077   1.000000
     29        -38.549934   1.000000
     30        -38.549722   1.000000
     31        -38.531117   1.000000
     32        -38.520719   1.000000
     33        -38.520542   1.000000
     34        -38.514458   1.000000
     35        -38.492852   1.000000
     36        -38.482083   1.000000
     37        -14.965631   1.000000
     38        -14.706184   1.000000
     39        -14.650238   1.000000
     40        -14.473435   1.000000
     41        -14.112071   1.000000
     42        -14.110541   1.000000
     43        -14.033982   1.000000
     44        -14.032447   1.000000
     45        -13.865253   1.000000
     46        -13.699238   1.000000
     47        -13.490540   1.000000
     48        -13.490507   1.000000
     49        -13.407409   1.000000
     50        -13.406306   1.000000
     51        -13.396959   1.000000
     52        -13.302396   1.000000
     53        -13.302387   1.000000
     54        -13.290607   1.000000
     55        -13.287726   1.000000
     56        -13.162603   1.000000
     57        -13.050159   1.000000
     58        -13.047295   1.000000
     59        -13.018044   1.000000
     60        -13.016545   1.000000
     61        -12.970358   1.000000
     62        -12.891121   1.000000
     63        -12.889372   1.000000
     64         -6.789433   1.000000
     65         -6.673273   1.000000
     66         -6.353128   1.000000
     67         -6.352995   1.000000
     68         -6.352501   1.000000
     69         -6.275545   1.000000
     70         -6.275314   1.000000
     71         -6.171069   1.000000
     72         -6.170594   1.000000
     73         -6.137018   1.000000
     74         -6.136260   1.000000
     75         -5.972100   1.000000
     76         -5.572957   1.000000
     77         -5.553264   1.000000
     78         -5.551950   1.000000
     79         -5.425127   1.000000
     80         -5.422176   1.000000
     81         -5.312559   1.000000
     82         -5.311573   1.000000
     83         -4.888731   1.000000
     84         -4.885402   1.000000
     85         -4.836191   1.000000
     86         -4.835644   1.000000
     87         -4.600033   1.000000
     88         -4.558733   1.000000
     89         -4.556353   1.000000
     90         -4.431966   1.000000
     91         -4.429876   1.000000
     92         -4.183909   1.000000
     93         -4.183403   1.000000
     94         -4.076225   1.000000
     95         -4.076190   1.000000
     96         -4.067319   1.000000
     97         -3.785663   1.000000
     98         -3.781303   1.000000
     99         -3.779624   1.000000
    100         -3.633321   1.000000
    101         -3.631438   1.000000
    102         -3.584809   1.000000
    103         -3.504659   1.000000
    104         -3.504007   1.000000
    105         -3.473272   1.000000
    106         -3.438075   1.000000
    107         -3.436756   1.000000
    108         -3.402188   1.000000
    109         -3.402153   1.000000
    110         -3.348860   1.000000
    111         -3.269209   1.000000
    112         -2.841905   1.000000
    113         -2.717094   1.000000
    114         -2.717085   1.000000
    115         -2.716483   1.000000
    116         -2.679620   1.000000
    117         -2.668318   1.000000
    118         -2.666935   1.000000
    119         -2.661171   1.000000
    120         -2.581446   1.000000
    121         -2.568158   1.000000
    122         -2.567171   1.000000
    123         -2.427638   1.000000
    124         -2.426664   1.000000
    125         -2.325415   1.000000
    126         -2.285452   1.000000
    127         -2.283989   1.000000
    128         -2.255455   1.000000
    129         -2.181026   1.000000
    130         -2.179762   1.000000
    131         -2.041032   1.000000
    132         -1.883253   1.000000
    133         -1.874475   1.000000
    134         -1.759739   1.000000
    135         -1.624388   1.000000
    136         -1.623419   1.000000
    137         -1.571332   1.000000
    138         -1.523875   1.000000
    139         -1.499026   1.000000
    140         -1.253814   1.000000
    141         -1.253595   1.000000
    142         -1.170542   1.000000
    143         -1.147689   1.000000
    144         -1.146683   1.000000
    145         -1.112361   1.000000
    146         -1.039521   1.000000
    147         -1.015491   1.000000
    148         -1.015380   1.000000
    149         -0.935429   1.000000
    150         -0.934567   1.000000
    151         -0.900778   1.000000
    152         -0.751002   1.000000
    153         -0.750539   1.000000
    154          1.272406   0.000000
    155          1.273576   0.000000
    156          1.531911   0.000000
    157          1.765877   0.000000
    158          1.768209   0.000000
    159          1.823714   0.000000
    160          1.826158   0.000000
    161          1.827934   0.000000
    162          2.140153   0.000000
    163          2.142079   0.000000
    164          2.195424   0.000000
    165          2.203312   0.000000
    166          2.236751   0.000000
    167          2.246230   0.000000
    168          2.287061   0.000000
    169          2.287575   0.000000
    170          2.352969   0.000000
    171          2.480601   0.000000
    172          2.481887   0.000000
    173          2.503421   0.000000
    174          2.511769   0.000000
    175          2.637836   0.000000
    176          2.639611   0.000000
    177          2.716239   0.000000
    178          2.716844   0.000000
    179          2.877949   0.000000
    180          2.880324   0.000000
    181          3.061549   0.000000
    182          3.097226   0.000000
    183          3.132305   0.000000
    184          3.429052   0.000000
    185          3.782771   0.000000
    186          3.785561   0.000000
    187          3.807122   0.000000
 
  0.4000000E+00  0.4000000E+00  0.1276756E-14  0.8000000E-01
      1        -74.369214   1.000000
      2        -74.367055   1.000000
      3        -74.363821   1.000000
      4        -74.363703   1.000000
      5        -74.360372   1.000000
      6        -74.360221   1.000000
      7        -74.359646   1.000000
      8        -74.358545   1.000000
      9        -74.358152   1.000000
     10        -38.720002   1.000000
     11        -38.690939   1.000000
     12        -38.690562   1.000000
     13        -38.689040   1.000000
     14        -38.688588   1.000000
     15        -38.626386   1.000000
     16        -38.621093   1.000000
     17        -38.620814   1.000000
     18        -38.617650   1.000000
     19        -38.603831   1.000000
     20        -38.603801   1.000000
     21        -38.588277   1.000000
     22        -38.588172   1.000000
     23        -38.586341   1.000000
     24        -38.583691   1.000000
     25        -38.583680   1.000000
     26        -38.579898   1.000000
     27        -38.579584   1.000000
     28        -38.560029   1.000000
     29        -38.549983   1.000000
     30        -38.549653   1.000000
     31        -38.531162   1.000000
     32        -38.520811   1.000000
     33        -38.520350   1.000000
     34        -38.514403   1.000000
     35        -38.492898   1.000000
     36        -38.482133   1.000000
     37        -14.965662   1.000000
     38        -14.706185   1.000000
     39        -14.650303   1.000000
     40        -14.473438   1.000000
     41        -14.111928   1.000000
     42        -14.110560   1.000000
     43        -14.033867   1.000000
     44        -14.032462   1.000000
     45        -13.865215   1.000000
     46        -13.699151   1.000000
     47        -13.490537   1.000000
     48        -13.490508   1.000000
     49        -13.407755   1.000000
     50        -13.406265   1.000000
     51        -13.396963   1.000000
     52        -13.302395   1.000000
     53        -13.302387   1.000000
     54        -13.290457   1.000000
     55        -13.287757   1.000000
     56        -13.162931   1.000000
     57        -13.050060   1.000000
     58        -13.047315   1.000000
     59        -13.018186   1.000000
     60        -13.016502   1.000000
     61        -12.970015   1.000000
     62        -12.891209   1.000000
     63        -12.889347   1.000000
     64         -6.789136   1.000000
     65         -6.673143   1.000000
     66         -6.353132   1.000000
     67         -6.353016   1.000000
     68         -6.352539   1.000000
     69         -6.275581   1.000000
     70         -6.275382   1.000000
     71         -6.171113   1.000000
     72         -6.170731   1.000000
     73         -6.137185   1.000000
     74         -6.136331   1.000000
     75         -5.972224   1.000000
     76         -5.573468   1.000000
     77         -5.553010   1.000000
     78         -5.552260   1.000000
     79         -5.424937   1.000000
     80         -5.422182   1.000000
     81         -5.312353   1.000000
     82         -5.311916   1.000000
     83         -4.888509   1.000000
     84         -4.885386   1.000000
     85         -4.836182   1.000000
     86         -4.835613   1.000000
     87         -4.600631   1.000000
     88         -4.557791   1.000000
     89         -4.556675   1.000000
     90         -4.431259   1.000000
     91         -4.430046   1.000000
     92         -4.184128   1.000000
     93         -4.183314   1.000000
     94         -4.076204   1.000000
     95         -4.076194   1.000000
     96         -4.067503   1.000000
     97         -3.784926   1.000000
     98         -3.780953   1.000000
     99         -3.779568   1.000000
    100         -3.632290   1.000000
    101         -3.631420   1.000000
    102         -3.584627   1.000000
    103         -3.504775   1.000000
    104         -3.503533   1.000000
    105         -3.473085   1.000000
    106         -3.438507   1.000000
    107         -3.436723   1.000000
    108         -3.402172   1.000000
    109         -3.402155   1.000000
    110         -3.349040   1.000000
    111         -3.269862   1.000000
    112         -2.841907   1.000000
    113         -2.717087   1.000000
    114         -2.717082   1.000000
    115         -2.716196   1.000000
    116         -2.678847   1.000000
    117         -2.668707   1.000000
    118         -2.667016   1.000000
    119         -2.661097   1.000000
    120         -2.581372   1.000000
    121         -2.568567   1.000000
    122         -2.567409   1.000000
    123         -2.428095   1.000000
    124         -2.427334   1.000000
    125         -2.325030   1.000000
    126         -2.285474   1.000000
    127         -2.284110   1.000000
    128         -2.256542   1.000000
    129         -2.180545   1.000000
    130         -2.180216   1.000000
    131         -2.040777   1.000000
    132         -1.883251   1.000000
    133         -1.875766   1.000000
    134         -1.759699   1.000000
    135         -1.624950   1.000000
    136         -1.622526   1.000000
    137         -1.571335   1.000000
    138         -1.523506   1.000000
    139         -1.498191   1.000000
    140         -1.253820   1.000000
    141         -1.253654   1.000000
    142         -1.170683   1.000000
    143         -1.148271   1.000000
    144         -1.147234   1.000000
    145         -1.111999   1.000000
    146         -1.039487   1.000000
    147         -1.015501   1.000000
    148         -1.015426   1.000000
    149         -0.935481   1.000000
    150         -0.934449   1.000000
    151         -0.900624   1.000000
    152         -0.751077   1.000000
    153         -0.750592   1.000000
    154          1.272780   0.000000
    155          1.274266   0.000000
    156          1.532093   0.000000
    157          1.766007   0.000000
    158          1.767902   0.000000
    159          1.824268   0.000000
    160          1.826251   0.000000
    161          1.827795   0.000000
    162          2.139605   0.000000
    163          2.141909   0.000000
    164          2.194316   0.000000
    165          2.203543   0.000000
    166          2.235900   0.000000
    167          2.245640   0.000000
    168          2.286302   0.000000
    169          2.288300   0.000000
    170          2.352779   0.000000
    171          2.480896   0.000000
    172          2.482141   0.000000
    173          2.502698   0.000000
    174          2.511756   0.000000
    175          2.638650   0.000000
    176          2.639437   0.000000
    177          2.716546   0.000000
    178          2.716935   0.000000
    179          2.878686   0.000000
    180          2.881490   0.000000
    181          3.061564   0.000000
    182          3.098790   0.000000
    183          3.131498   0.000000
    184          3.430240   0.000000
    185          3.782321   0.000000
    186          3.785529   0.000000
    187          3.815095   0.000000
 
  0.1276756E-14  0.4000000E+00  0.1276756E-14  0.8000000E-01
      1        -74.369206   1.000000
      2        -74.367071   1.000000
      3        -74.363912   1.000000
      4        -74.363592   1.000000
      5        -74.360331   1.000000
      6        -74.360267   1.000000
      7        -74.359637   1.000000
      8        -74.358624   1.000000
      9        -74.358089   1.000000
     10        -38.720034   1.000000
     11        -38.690938   1.000000
     12        -38.690546   1.000000
     13        -38.689033   1.000000
     14        -38.688593   1.000000
     15        -38.626385   1.000000
     16        -38.621114   1.000000
     17        -38.620732   1.000000
     18        -38.617649   1.000000
     19        -38.603833   1.000000
     20        -38.603804   1.000000
     21        -38.588263   1.000000
     22        -38.588187   1.000000
     23        -38.586335   1.000000
     24        -38.583705   1.000000
     25        -38.583668   1.000000
     26        -38.579876   1.000000
     27        -38.579609   1.000000
     28        -38.560052   1.000000
     29        -38.549962   1.000000
     30        -38.549686   1.000000
     31        -38.531139   1.000000
     32        -38.520771   1.000000
     33        -38.520440   1.000000
     34        -38.514431   1.000000
     35        -38.492875   1.000000
     36        -38.482108   1.000000
     37        -14.965645   1.000000
     38        -14.706184   1.000000
     39        -14.650272   1.000000
     40        -14.473437   1.000000
     41        -14.112073   1.000000
     42        -14.110481   1.000000
     43        -14.034005   1.000000
     44        -14.032373   1.000000
     45        -13.865232   1.000000
     46        -13.699196   1.000000
     47        -13.490539   1.000000
     48        -13.490506   1.000000
     49        -13.407766   1.000000
     50        -13.406096   1.000000
     51        -13.396961   1.000000
     52        -13.302396   1.000000
     53        -13.302387   1.000000
     54        -13.290571   1.000000
     55        -13.287703   1.000000
     56        -13.162769   1.000000
     57        -13.050116   1.000000
     58        -13.047292   1.000000
     59        -13.018161   1.000000
     60        -13.016484   1.000000
     61        -12.970187   1.000000
     62        -12.891180   1.000000
     63        -12.889346   1.000000
     64         -6.789286   1.000000
     65         -6.673209   1.000000
     66         -6.353149   1.000000
     67         -6.352989   1.000000
     68         -6.352518   1.000000
     69         -6.275655   1.000000
     70         -6.275256   1.000000
     71         -6.171251   1.000000
     72         -6.170497   1.000000
     73         -6.137460   1.000000
     74         -6.135939   1.000000
     75         -5.972162   1.000000
     76         -5.573210   1.000000
     77         -5.553211   1.000000
     78         -5.552027   1.000000
     79         -5.425071   1.000000
     80         -5.422143   1.000000
     81         -5.312582   1.000000
     82         -5.311615   1.000000
     83         -4.888624   1.000000
     84         -4.885391   1.000000
     85         -4.836193   1.000000
     86         -4.835622   1.000000
     87         -4.600333   1.000000
     88         -4.558282   1.000000
     89         -4.556489   1.000000
     90         -4.431629   1.000000
     91         -4.429947   1.000000
     92         -4.184204   1.000000
     93         -4.183175   1.000000
     94         -4.076214   1.000000
     95         -4.076192   1.000000
     96         -4.067413   1.000000
     97         -3.785339   1.000000
     98         -3.781256   1.000000
     99         -3.779425   1.000000
    100         -3.633055   1.000000
    101         -3.631185   1.000000
    102         -3.584719   1.000000
    103         -3.504770   1.000000
    104         -3.503714   1.000000
    105         -3.473179   1.000000
    106         -3.438876   1.000000
    107         -3.436150   1.000000
    108         -3.402186   1.000000
    109         -3.402149   1.000000
    110         -3.348955   1.000000
    111         -3.269531   1.000000
    112         -2.841906   1.000000
    113         -2.717090   1.000000
    114         -2.717084   1.000000
    115         -2.716342   1.000000
    116         -2.679234   1.000000
    117         -2.669074   1.000000
    118         -2.666397   1.000000
    119         -2.661158   1.000000
    120         -2.581409   1.000000
    121         -2.568401   1.000000
    122         -2.567255   1.000000
    123         -2.427921   1.000000
    124         -2.426949   1.000000
    125         -2.325212   1.000000
    126         -2.285619   1.000000
    127         -2.283887   1.000000
    128         -2.256000   1.000000
    129         -2.180835   1.000000
    130         -2.179937   1.000000
    131         -2.040904   1.000000
    132         -1.883252   1.000000
    133         -1.875125   1.000000
    134         -1.759715   1.000000
    135         -1.624675   1.000000
    136         -1.622965   1.000000
    137         -1.571334   1.000000
    138         -1.523690   1.000000
    139         -1.498613   1.000000
    140         -1.253825   1.000000
    141         -1.253616   1.000000
    142         -1.170607   1.000000
    143         -1.148128   1.000000
    144         -1.146824   1.000000
    145         -1.112172   1.000000
    146         -1.039504   1.000000
    147         -1.015498   1.000000
    148         -1.015400   1.000000
    149         -0.935491   1.000000
    150         -0.934469   1.000000
    151         -0.900702   1.000000
    152         -0.751062   1.000000
    153         -0.750542   1.000000
    154          1.272444   0.000000
    155          1.274066   0.000000
    156          1.532005   0.000000
    157          1.765930   0.000000
    158          1.768069   0.000000
    159          1.824000   0.000000
    160          1.826211   0.000000
    161          1.827848   0.000000
    162          2.139835   0.000000
    163          2.142043   0.000000
    164          2.194879   0.000000
    165          2.203431   0.000000
    166          2.236296   0.000000
    167          2.245972   0.000000
    168          2.286653   0.000000
    169          2.287947   0.000000
    170          2.352868   0.000000
    171          2.480719   0.000000
    172          2.482041   0.000000
    173          2.503040   0.000000
    174          2.511788   0.000000
    175          2.638032   0.000000
    176          2.639729   0.000000
    177          2.716236   0.000000
    178          2.717048   0.000000
    179          2.878152   0.000000
    180          2.881072   0.000000
    181          3.061554   0.000000
    182          3.097997   0.000000
    183          3.131914   0.000000
    184          3.429648   0.000000
    185          3.782217   0.000000
    186          3.785408   0.000000
    187          3.792552   0.000000
 
  0.4000000E+00  0.2000000E+00  0.1276756E-14  0.8000000E-01
      1        -74.369641   1.000000
      2        -74.365980   1.000000
      3        -74.365254   1.000000
      4        -74.362016   1.000000
      5        -74.361439   1.000000
      6        -74.360239   1.000000
      7        -74.359673   1.000000
      8        -74.358528   1.000000
      9        -74.357968   1.000000
     10        -38.709343   1.000000
     11        -38.709106   1.000000
     12        -38.693809   1.000000
     13        -38.677955   1.000000
     14        -38.660520   1.000000
     15        -38.660070   1.000000
     16        -38.628293   1.000000
     17        -38.611862   1.000000
     18        -38.611309   1.000000
     19        -38.595328   1.000000
     20        -38.594763   1.000000
     21        -38.592212   1.000000
     22        -38.589051   1.000000
     23        -38.588789   1.000000
     24        -38.587663   1.000000
     25        -38.587104   1.000000
     26        -38.585484   1.000000
     27        -38.583491   1.000000
     28        -38.582017   1.000000
     29        -38.537070   1.000000
     30        -38.536934   1.000000
     31        -38.536031   1.000000
     32        -38.535551   1.000000
     33        -38.504050   1.000000
     34        -38.503064   1.000000
     35        -38.502790   1.000000
     36        -38.480106   1.000000
     37        -15.031798   1.000000
     38        -14.754181   1.000000
     39        -14.418970   1.000000
     40        -14.416528   1.000000
     41        -14.295437   1.000000
     42        -14.295036   1.000000
     43        -13.900072   1.000000
     44        -13.772871   1.000000
     45        -13.772720   1.000000
     46        -13.651217   1.000000
     47        -13.648703   1.000000
     48        -13.576349   1.000000
     49        -13.575641   1.000000
     50        -13.447029   1.000000
     51        -13.447012   1.000000
     52        -13.296903   1.000000
     53        -13.231217   1.000000
     54        -13.228432   1.000000
     55        -13.221655   1.000000
     56        -13.198334   1.000000
     57        -13.197118   1.000000
     58        -13.043380   1.000000
     59        -12.998262   1.000000
     60        -12.996642   1.000000
     61        -12.944347   1.000000
     62        -12.882794   1.000000
     63        -12.838995   1.000000
     64         -6.598250   1.000000
     65         -6.597159   1.000000
     66         -6.489194   1.000000
     67         -6.488541   1.000000
     68         -6.487864   1.000000
     69         -6.436031   1.000000
     70         -6.237436   1.000000
     71         -6.209992   1.000000
     72         -5.930691   1.000000
     73         -5.753490   1.000000
     74         -5.752116   1.000000
     75         -5.713231   1.000000
     76         -5.711330   1.000000
     77         -5.689331   1.000000
     78         -5.603127   1.000000
     79         -5.602781   1.000000
     80         -5.529358   1.000000
     81         -5.469114   1.000000
     82         -5.467755   1.000000
     83         -4.802889   1.000000
     84         -4.801082   1.000000
     85         -4.758029   1.000000
     86         -4.755754   1.000000
     87         -4.593403   1.000000
     88         -4.591154   1.000000
     89         -4.485608   1.000000
     90         -4.485389   1.000000
     91         -4.444141   1.000000
     92         -4.380854   1.000000
     93         -4.314448   1.000000
     94         -4.246240   1.000000
     95         -4.246025   1.000000
     96         -4.177814   1.000000
     97         -3.920733   1.000000
     98         -3.919490   1.000000
     99         -3.869801   1.000000
    100         -3.819332   1.000000
    101         -3.723854   1.000000
    102         -3.635848   1.000000
    103         -3.633290   1.000000
    104         -3.474822   1.000000
    105         -3.451111   1.000000
    106         -3.364452   1.000000
    107         -3.362611   1.000000
    108         -3.174266   1.000000
    109         -3.117856   1.000000
    110         -3.117837   1.000000
    111         -2.999126   1.000000
    112         -2.999107   1.000000
    113         -2.863007   1.000000
    114         -2.861009   1.000000
    115         -2.695309   1.000000
    116         -2.666835   1.000000
    117         -2.603143   1.000000
    118         -2.601900   1.000000
    119         -2.546534   1.000000
    120         -2.544281   1.000000
    121         -2.541692   1.000000
    122         -2.425262   1.000000
    123         -2.424644   1.000000
    124         -2.393635   1.000000
    125         -2.312510   1.000000
    126         -2.193358   1.000000
    127         -2.193349   1.000000
    128         -2.176723   1.000000
    129         -2.174387   1.000000
    130         -1.978882   1.000000
    131         -1.977839   1.000000
    132         -1.950323   1.000000
    133         -1.948423   1.000000
    134         -1.860842   1.000000
    135         -1.687896   1.000000
    136         -1.685012   1.000000
    137         -1.554313   1.000000
    138         -1.553708   1.000000
    139         -1.517364   1.000000
    140         -1.409857   1.000000
    141         -1.220156   1.000000
    142         -1.218657   1.000000
    143         -1.206988   1.000000
    144         -1.206386   1.000000
    145         -1.069050   1.000000
    146         -1.067674   1.000000
    147         -1.002257   1.000000
    148         -0.974484   1.000000
    149         -0.972736   1.000000
    150         -0.912580   1.000000
    151         -0.870074   1.000000
    152         -0.743602   1.000000
    153         -0.631632   1.000000
    154          1.423511   0.000000
    155          1.424208   0.000000
    156          1.426965   0.000000
    157          1.428260   0.000000
    158          1.739908   0.000000
    159          1.834331   0.000000
    160          1.881002   0.000000
    161          2.023200   0.000000
    162          2.024884   0.000000
    163          2.101336   0.000000
    164          2.101851   0.000000
    165          2.226216   0.000000
    166          2.265612   0.000000
    167          2.266545   0.000000
    168          2.315873   0.000000
    169          2.316898   0.000000
    170          2.385512   0.000000
    171          2.386290   0.000000
    172          2.415807   0.000000
    173          2.467774   0.000000
    174          2.553323   0.000000
    175          2.579597   0.000000
    176          2.580670   0.000000
    177          2.672989   0.000000
    178          2.731791   0.000000
    179          2.893640   0.000000
    180          3.029095   0.000000
    181          3.168066   0.000000
    182          3.169683   0.000000
    183          3.419229   0.000000
    184          3.419615   0.000000
    185          3.680490   0.000000
    186          3.698799   0.000000
    187          3.737493   0.000000
 
  0.2000000E+00  0.4000000E+00  0.1276756E-14  0.8000000E-01
      1        -74.369642   1.000000
      2        -74.365968   1.000000
      3        -74.365263   1.000000
      4        -74.361995   1.000000
      5        -74.361476   1.000000
      6        -74.360243   1.000000
      7        -74.359645   1.000000
      8        -74.358529   1.000000
      9        -74.357975   1.000000
     10        -38.709337   1.000000
     11        -38.709075   1.000000
     12        -38.693840   1.000000
     13        -38.677923   1.000000
     14        -38.660479   1.000000
     15        -38.660164   1.000000
     16        -38.628293   1.000000
     17        -38.611881   1.000000
     18        -38.611291   1.000000
     19        -38.595347   1.000000
     20        -38.594735   1.000000
     21        -38.592237   1.000000
     22        -38.589032   1.000000
     23        -38.588810   1.000000
     24        -38.587680   1.000000
     25        -38.587097   1.000000
     26        -38.585456   1.000000
     27        -38.583488   1.000000
     28        -38.582017   1.000000
     29        -38.537089   1.000000
     30        -38.536908   1.000000
     31        -38.535985   1.000000
     32        -38.535588   1.000000
     33        -38.504020   1.000000
     34        -38.503034   1.000000
     35        -38.502826   1.000000
     36        -38.480131   1.000000
     37        -15.031808   1.000000
     38        -14.754181   1.000000
     39        -14.419070   1.000000
     40        -14.416440   1.000000
     41        -14.295460   1.000000
     42        -14.295013   1.000000
     43        -13.900059   1.000000
     44        -13.772867   1.000000
     45        -13.772710   1.000000
     46        -13.651138   1.000000
     47        -13.648640   1.000000
     48        -13.576583   1.000000
     49        -13.575397   1.000000
     50        -13.447025   1.000000
     51        -13.447019   1.000000
     52        -13.296904   1.000000
     53        -13.231435   1.000000
     54        -13.228403   1.000000
     55        -13.221655   1.000000
     56        -13.198595   1.000000
     57        -13.197012   1.000000
     58        -13.043439   1.000000
     59        -12.998061   1.000000
     60        -12.996657   1.000000
     61        -12.944255   1.000000
     62        -12.882718   1.000000
     63        -12.839100   1.000000
     64         -6.598261   1.000000
     65         -6.597029   1.000000
     66         -6.489209   1.000000
     67         -6.488457   1.000000
     68         -6.487871   1.000000
     69         -6.436050   1.000000
     70         -6.237609   1.000000
     71         -6.209989   1.000000
     72         -5.930623   1.000000
     73         -5.753765   1.000000
     74         -5.751918   1.000000
     75         -5.713397   1.000000
     76         -5.711219   1.000000
     77         -5.689142   1.000000
     78         -5.603188   1.000000
     79         -5.602746   1.000000
     80         -5.529584   1.000000
     81         -5.469345   1.000000
     82         -5.467796   1.000000
     83         -4.803024   1.000000
     84         -4.800940   1.000000
     85         -4.757940   1.000000
     86         -4.755455   1.000000
     87         -4.593887   1.000000
     88         -4.590893   1.000000
     89         -4.485655   1.000000
     90         -4.485300   1.000000
     91         -4.444011   1.000000
     92         -4.380729   1.000000
     93         -4.314435   1.000000
     94         -4.246187   1.000000
     95         -4.246062   1.000000
     96         -4.177809   1.000000
     97         -3.920466   1.000000
     98         -3.919607   1.000000
     99         -3.869733   1.000000
    100         -3.819567   1.000000
    101         -3.723638   1.000000
    102         -3.635487   1.000000
    103         -3.633424   1.000000
    104         -3.474741   1.000000
    105         -3.451016   1.000000
    106         -3.364526   1.000000
    107         -3.362576   1.000000
    108         -3.174435   1.000000
    109         -3.117855   1.000000
    110         -3.117837   1.000000
    111         -2.999124   1.000000
    112         -2.999109   1.000000
    113         -2.862962   1.000000
    114         -2.861158   1.000000
    115         -2.695625   1.000000
    116         -2.666638   1.000000
    117         -2.603093   1.000000
    118         -2.601874   1.000000
    119         -2.546881   1.000000
    120         -2.544117   1.000000
    121         -2.541697   1.000000
    122         -2.425508   1.000000
    123         -2.424605   1.000000
    124         -2.393422   1.000000
    125         -2.312499   1.000000
    126         -2.193357   1.000000
    127         -2.193350   1.000000
    128         -2.176817   1.000000
    129         -2.174395   1.000000
    130         -1.978616   1.000000
    131         -1.977926   1.000000
    132         -1.950185   1.000000
    133         -1.948625   1.000000
    134         -1.861439   1.000000
    135         -1.688111   1.000000
    136         -1.684704   1.000000
    137         -1.554334   1.000000
    138         -1.553784   1.000000
    139         -1.517362   1.000000
    140         -1.409584   1.000000
    141         -1.220166   1.000000
    142         -1.218815   1.000000
    143         -1.206919   1.000000
    144         -1.206356   1.000000
    145         -1.069072   1.000000
    146         -1.067839   1.000000
    147         -1.002260   1.000000
    148         -0.974375   1.000000
    149         -0.972623   1.000000
    150         -0.912602   1.000000
    151         -0.870006   1.000000
    152         -0.743596   1.000000
    153         -0.631715   1.000000
    154          1.423646   0.000000
    155          1.424076   0.000000
    156          1.427351   0.000000
    157          1.428249   0.000000
    158          1.739984   0.000000
    159          1.834256   0.000000
    160          1.881183   0.000000
    161          2.023093   0.000000
    162          2.024752   0.000000
    163          2.101079   0.000000
    164          2.101789   0.000000
    165          2.225717   0.000000
    166          2.265846   0.000000
    167          2.266222   0.000000
    168          2.315794   0.000000
    169          2.316876   0.000000
    170          2.385809   0.000000
    171          2.386367   0.000000
    172          2.415620   0.000000
    173          2.467922   0.000000
    174          2.553026   0.000000
    175          2.579644   0.000000
    176          2.580865   0.000000
    177          2.672992   0.000000
    178          2.732024   0.000000
    179          2.893488   0.000000
    180          3.029909   0.000000
    181          3.168351   0.000000
    182          3.169701   0.000000
    183          3.419202   0.000000
    184          3.419473   0.000000
    185          3.680432   0.000000
    186          3.699314   0.000000
    187          3.742035   0.000000
 
 -0.2000000E+00  0.2000000E+00  0.1276756E-14  0.8000000E-01
      1        -74.369638   1.000000
      2        -74.366005   1.000000
      3        -74.365231   1.000000
      4        -74.362052   1.000000
      5        -74.361363   1.000000
      6        -74.360259   1.000000
      7        -74.359708   1.000000
      8        -74.358523   1.000000
      9        -74.357957   1.000000
     10        -38.709355   1.000000
     11        -38.709131   1.000000
     12        -38.693779   1.000000
     13        -38.677986   1.000000
     14        -38.660561   1.000000
     15        -38.659976   1.000000
     16        -38.628292   1.000000
     17        -38.611848   1.000000
     18        -38.611323   1.000000
     19        -38.595312   1.000000
     20        -38.594786   1.000000
     21        -38.592187   1.000000
     22        -38.589072   1.000000
     23        -38.588766   1.000000
     24        -38.587649   1.000000
     25        -38.587110   1.000000
     26        -38.585511   1.000000
     27        -38.583492   1.000000
     28        -38.582018   1.000000
     29        -38.537053   1.000000
     30        -38.536955   1.000000
     31        -38.536082   1.000000
     32        -38.535511   1.000000
     33        -38.504076   1.000000
     34        -38.503095   1.000000
     35        -38.502757   1.000000
     36        -38.480081   1.000000
     37        -15.031786   1.000000
     38        -14.754181   1.000000
     39        -14.419052   1.000000
     40        -14.416436   1.000000
     41        -14.295462   1.000000
     42        -14.295009   1.000000
     43        -13.900089   1.000000
     44        -13.772903   1.000000
     45        -13.772702   1.000000
     46        -13.651462   1.000000
     47        -13.648595   1.000000
     48        -13.576597   1.000000
     49        -13.575400   1.000000
     50        -13.447024   1.000000
     51        -13.447014   1.000000
     52        -13.296903   1.000000
     53        -13.231028   1.000000
     54        -13.228444   1.000000
     55        -13.221655   1.000000
     56        -13.198214   1.000000
     57        -13.197066   1.000000
     58        -13.043320   1.000000
     59        -12.998492   1.000000
     60        -12.996608   1.000000
     61        -12.944438   1.000000
     62        -12.882875   1.000000
     63        -12.838887   1.000000
     64         -6.598221   1.000000
     65         -6.597310   1.000000
     66         -6.489171   1.000000
     67         -6.488636   1.000000
     68         -6.487854   1.000000
     69         -6.436016   1.000000
     70         -6.237262   1.000000
     71         -6.209993   1.000000
     72         -5.930756   1.000000
     73         -5.753213   1.000000
     74         -5.752313   1.000000
     75         -5.713178   1.000000
     76         -5.711340   1.000000
     77         -5.689501   1.000000
     78         -5.603066   1.000000
     79         -5.602813   1.000000
     80         -5.529134   1.000000
     81         -5.468866   1.000000
     82         -5.467730   1.000000
     83         -4.802971   1.000000
     84         -4.801012   1.000000
     85         -4.758161   1.000000
     86         -4.755996   1.000000
     87         -4.592878   1.000000
     88         -4.591460   1.000000
     89         -4.485683   1.000000
     90         -4.485367   1.000000
     91         -4.444266   1.000000
     92         -4.380981   1.000000
     93         -4.314461   1.000000
     94         -4.246292   1.000000
     95         -4.245990   1.000000
     96         -4.177820   1.000000
     97         -3.921166   1.000000
     98         -3.919217   1.000000
     99         -3.869875   1.000000
    100         -3.819117   1.000000
    101         -3.724045   1.000000
    102         -3.636350   1.000000
    103         -3.633024   1.000000
    104         -3.474894   1.000000
    105         -3.451204   1.000000
    106         -3.364302   1.000000
    107         -3.362719   1.000000
    108         -3.174097   1.000000
    109         -3.117855   1.000000
    110         -3.117840   1.000000
    111         -2.999119   1.000000
    112         -2.999113   1.000000
    113         -2.863223   1.000000
    114         -2.860686   1.000000
    115         -2.694990   1.000000
    116         -2.667035   1.000000
    117         -2.603055   1.000000
    118         -2.602073   1.000000
    119         -2.546162   1.000000
    120         -2.544444   1.000000
    121         -2.541729   1.000000
    122         -2.425008   1.000000
    123         -2.424690   1.000000
    124         -2.393839   1.000000
    125         -2.312522   1.000000
    126         -2.193355   1.000000
    127         -2.193351   1.000000
    128         -2.176621   1.000000
    129         -2.174389   1.000000
    130         -1.979190   1.000000
    131         -1.977694   1.000000
    132         -1.950442   1.000000
    133         -1.948254   1.000000
    134         -1.860231   1.000000
    135         -1.687716   1.000000
    136         -1.685284   1.000000
    137         -1.554290   1.000000
    138         -1.553634   1.000000
    139         -1.517365   1.000000
    140         -1.410139   1.000000
    141         -1.220157   1.000000
    142         -1.218478   1.000000
    143         -1.207063   1.000000
    144         -1.206423   1.000000
    145         -1.069002   1.000000
    146         -1.067539   1.000000
    147         -1.002255   1.000000
    148         -0.974599   1.000000
    149         -0.972837   1.000000
    150         -0.912559   1.000000
    151         -0.870141   1.000000
    152         -0.743607   1.000000
    153         -0.631549   1.000000
    154          1.423297   0.000000
    155          1.424271   0.000000
    156          1.426741   0.000000
    157          1.428251   0.000000
    158          1.739834   0.000000
    159          1.834405   0.000000
    160          1.880824   0.000000
    161          2.023287   0.000000
    162          2.025046   0.000000
    163          2.101155   0.000000
    164          2.102359   0.000000
    165          2.226744   0.000000
    166          2.265373   0.000000
    167          2.266833   0.000000
    168          2.316004   0.000000
    169          2.316867   0.000000
    170          2.385107   0.000000
    171          2.386312   0.000000
    172          2.415992   0.000000
    173          2.467629   0.000000
    174          2.553617   0.000000
    175          2.579433   0.000000
    176          2.580611   0.000000
    177          2.672969   0.000000
    178          2.731559   0.000000
    179          2.893794   0.000000
    180          3.028270   0.000000
    181          3.168174   0.000000
    182          3.169280   0.000000
    183          3.419362   0.000000
    184          3.419651   0.000000
    185          3.680593   0.000000
    186          3.684815   0.000000
    187          3.754497   0.000000
 
 -0.4000000E+00  0.2000000E+00  0.1276756E-14  0.8000000E-01
      1        -74.368189   1.000000
      2        -74.367661   1.000000
      3        -74.365821   1.000000
      4        -74.361931   1.000000
      5        -74.360497   1.000000
      6        -74.360187   1.000000
      7        -74.359570   1.000000
      8        -74.358816   1.000000
      9        -74.358067   1.000000
     10        -38.719354   1.000000
     11        -38.707391   1.000000
     12        -38.707144   1.000000
     13        -38.674217   1.000000
     14        -38.673995   1.000000
     15        -38.650613   1.000000
     16        -38.621252   1.000000
     17        -38.620695   1.000000
     18        -38.612977   1.000000
     19        -38.595713   1.000000
     20        -38.588923   1.000000
     21        -38.588324   1.000000
     22        -38.585371   1.000000
     23        -38.584649   1.000000
     24        -38.583926   1.000000
     25        -38.579009   1.000000
     26        -38.564150   1.000000
     27        -38.564021   1.000000
     28        -38.557007   1.000000
     29        -38.556782   1.000000
     30        -38.542679   1.000000
     31        -38.541666   1.000000
     32        -38.541252   1.000000
     33        -38.538590   1.000000
     34        -38.503905   1.000000
     35        -38.490257   1.000000
     36        -38.489925   1.000000
     37        -14.774498   1.000000
     38        -14.771518   1.000000
     39        -14.564994   1.000000
     40        -14.564836   1.000000
     41        -14.473170   1.000000
     42        -14.338497   1.000000
     43        -13.800464   1.000000
     44        -13.764359   1.000000
     45        -13.763141   1.000000
     46        -13.684752   1.000000
     47        -13.604966   1.000000
     48        -13.515813   1.000000
     49        -13.515793   1.000000
     50        -13.352216   1.000000
     51        -13.325175   1.000000
     52        -13.322459   1.000000
     53        -13.320185   1.000000
     54        -13.320155   1.000000
     55        -13.213403   1.000000
     56        -13.105357   1.000000
     57        -13.068966   1.000000
     58        -13.066213   1.000000
     59        -13.028526   1.000000
     60        -13.026970   1.000000
     61        -12.939715   1.000000
     62        -12.911465   1.000000
     63        -12.909990   1.000000
     64         -6.784504   1.000000
     65         -6.676202   1.000000
     66         -6.607416   1.000000
     67         -6.607144   1.000000
     68         -6.477835   1.000000
     69         -6.476640   1.000000
     70         -6.112626   1.000000
     71         -6.110893   1.000000
     72         -5.993969   1.000000
     73         -5.993868   1.000000
     74         -5.861437   1.000000
     75         -5.861006   1.000000
     76         -5.750400   1.000000
     77         -5.612460   1.000000
     78         -5.597185   1.000000
     79         -5.595170   1.000000
     80         -5.566010   1.000000
     81         -5.421786   1.000000
     82         -5.171395   1.000000
     83         -5.168815   1.000000
     84         -4.797686   1.000000
     85         -4.634707   1.000000
     86         -4.568521   1.000000
     87         -4.523803   1.000000
     88         -4.521958   1.000000
     89         -4.506786   1.000000
     90         -4.504070   1.000000
     91         -4.361376   1.000000
     92         -4.049648   1.000000
     93         -3.869135   1.000000
     94         -3.868427   1.000000
     95         -3.838538   1.000000
     96         -3.791419   1.000000
     97         -3.788897   1.000000
     98         -3.765922   1.000000
     99         -3.765888   1.000000
    100         -3.735623   1.000000
    101         -3.603566   1.000000
    102         -3.602818   1.000000
    103         -3.588669   1.000000
    104         -3.588211   1.000000
    105         -3.535400   1.000000
    106         -3.535118   1.000000
    107         -3.383153   1.000000
    108         -3.290467   1.000000
    109         -3.221641   1.000000
    110         -3.220184   1.000000
    111         -3.211359   1.000000
    112         -3.211297   1.000000
    113         -3.060538   1.000000
    114         -3.047913   1.000000
    115         -2.774582   1.000000
    116         -2.688596   1.000000
    117         -2.687701   1.000000
    118         -2.670192   1.000000
    119         -2.669181   1.000000
    120         -2.660871   1.000000
    121         -2.612875   1.000000
    122         -2.610300   1.000000
    123         -2.453824   1.000000
    124         -2.332230   1.000000
    125         -2.329933   1.000000
    126         -2.293182   1.000000
    127         -2.291188   1.000000
    128         -2.254688   1.000000
    129         -2.184787   1.000000
    130         -2.180746   1.000000
    131         -2.107361   1.000000
    132         -2.074123   1.000000
    133         -1.887849   1.000000
    134         -1.827307   1.000000
    135         -1.827291   1.000000
    136         -1.556408   1.000000
    137         -1.485725   1.000000
    138         -1.481548   1.000000
    139         -1.476928   1.000000
    140         -1.275518   1.000000
    141         -1.275320   1.000000
    142         -1.132082   1.000000
    143         -1.104745   1.000000
    144         -1.050889   1.000000
    145         -1.050586   1.000000
    146         -1.049778   1.000000
    147         -1.003217   1.000000
    148         -1.000921   1.000000
    149         -0.942941   1.000000
    150         -0.941720   1.000000
    151         -0.883747   1.000000
    152         -0.784546   1.000000
    153         -0.783023   1.000000
    154          1.317076   0.000000
    155          1.385808   0.000000
    156          1.603804   0.000000
    157          1.604791   0.000000
    158          1.615737   0.000000
    159          1.617176   0.000000
    160          2.020935   0.000000
    161          2.021203   0.000000
    162          2.092259   0.000000
    163          2.116361   0.000000
    164          2.123768   0.000000
    165          2.126302   0.000000
    166          2.168527   0.000000
    167          2.280395   0.000000
    168          2.282923   0.000000
    169          2.345111   0.000000
    170          2.401613   0.000000
    171          2.508281   0.000000
    172          2.529465   0.000000
    173          2.530105   0.000000
    174          2.545395   0.000000
    175          2.548108   0.000000
    176          2.643651   0.000000
    177          2.644606   0.000000
    178          2.866803   0.000000
    179          2.866970   0.000000
    180          3.101483   0.000000
    181          3.105095   0.000000
    182          3.231400   0.000000
    183          3.362704   0.000000
    184          3.363703   0.000000
    185          3.385175   0.000000
    186          3.527191   0.000000
    187          3.527730   0.000000
 
  0.4000000E+00 -0.4000000E+00  0.1276756E-14  0.8000000E-01
      1        -74.368237   1.000000
      2        -74.367596   1.000000
      3        -74.365836   1.000000
      4        -74.361940   1.000000
      5        -74.360521   1.000000
      6        -74.360203   1.000000
      7        -74.359525   1.000000
      8        -74.358778   1.000000
      9        -74.358105   1.000000
     10        -38.719290   1.000000
     11        -38.707415   1.000000
     12        -38.707170   1.000000
     13        -38.674280   1.000000
     14        -38.673899   1.000000
     15        -38.650680   1.000000
     16        -38.621220   1.000000
     17        -38.620734   1.000000
     18        -38.612971   1.000000
     19        -38.595708   1.000000
     20        -38.588888   1.000000
     21        -38.588368   1.000000
     22        -38.585392   1.000000
     23        -38.584611   1.000000
     24        -38.583940   1.000000
     25        -38.579063   1.000000
     26        -38.564189   1.000000
     27        -38.564004   1.000000
     28        -38.557101   1.000000
     29        -38.556666   1.000000
     30        -38.542631   1.000000
     31        -38.541740   1.000000
     32        -38.541072   1.000000
     33        -38.538642   1.000000
     34        -38.503852   1.000000
     35        -38.490230   1.000000
     36        -38.490031   1.000000
     37        -14.774598   1.000000
     38        -14.771496   1.000000
     39        -14.565002   1.000000
     40        -14.564831   1.000000
     41        -14.473100   1.000000
     42        -14.338489   1.000000
     43        -13.800447   1.000000
     44        -13.764264   1.000000
     45        -13.763129   1.000000
     46        -13.684632   1.000000
     47        -13.605072   1.000000
     48        -13.515818   1.000000
     49        -13.515790   1.000000
     50        -13.352220   1.000000
     51        -13.325235   1.000000
     52        -13.322454   1.000000
     53        -13.320182   1.000000
     54        -13.320158   1.000000
     55        -13.213593   1.000000
     56        -13.105689   1.000000
     57        -13.068667   1.000000
     58        -13.066248   1.000000
     59        -13.028438   1.000000
     60        -13.026978   1.000000
     61        -12.939367   1.000000
     62        -12.911761   1.000000
     63        -12.909944   1.000000
     64         -6.784267   1.000000
     65         -6.676005   1.000000
     66         -6.607428   1.000000
     67         -6.607211   1.000000
     68         -6.477830   1.000000
     69         -6.476954   1.000000
     70         -6.112848   1.000000
     71         -6.110807   1.000000
     72         -5.994018   1.000000
     73         -5.993833   1.000000
     74         -5.861660   1.000000
     75         -5.860865   1.000000
     76         -5.750290   1.000000
     77         -5.612951   1.000000
     78         -5.597142   1.000000
     79         -5.594902   1.000000
     80         -5.566048   1.000000
     81         -5.421800   1.000000
     82         -5.171907   1.000000
     83         -5.168788   1.000000
     84         -4.797527   1.000000
     85         -4.634207   1.000000
     86         -4.569116   1.000000
     87         -4.523472   1.000000
     88         -4.521806   1.000000
     89         -4.506017   1.000000
     90         -4.504432   1.000000
     91         -4.361171   1.000000
     92         -4.049718   1.000000
     93         -3.868525   1.000000
     94         -3.868346   1.000000
     95         -3.838933   1.000000
     96         -3.792014   1.000000
     97         -3.788712   1.000000
     98         -3.765904   1.000000
     99         -3.765890   1.000000
    100         -3.736236   1.000000
    101         -3.603145   1.000000
    102         -3.602571   1.000000
    103         -3.588186   1.000000
    104         -3.587878   1.000000
    105         -3.535272   1.000000
    106         -3.535043   1.000000
    107         -3.383760   1.000000
    108         -3.290465   1.000000
    109         -3.221661   1.000000
    110         -3.220477   1.000000
    111         -3.211310   1.000000
    112         -3.211278   1.000000
    113         -3.060542   1.000000
    114         -3.047037   1.000000
    115         -2.774650   1.000000
    116         -2.688155   1.000000
    117         -2.687775   1.000000
    118         -2.669954   1.000000
    119         -2.669278   1.000000
    120         -2.660173   1.000000
    121         -2.613292   1.000000
    122         -2.611167   1.000000
    123         -2.453905   1.000000
    124         -2.334325   1.000000
    125         -2.329534   1.000000
    126         -2.292957   1.000000
    127         -2.291795   1.000000
    128         -2.254689   1.000000
    129         -2.184173   1.000000
    130         -2.180852   1.000000
    131         -2.107501   1.000000
    132         -2.073991   1.000000
    133         -1.887571   1.000000
    134         -1.827311   1.000000
    135         -1.827287   1.000000
    136         -1.556388   1.000000
    137         -1.485788   1.000000
    138         -1.481138   1.000000
    139         -1.477188   1.000000
    140         -1.275524   1.000000
    141         -1.275362   1.000000
    142         -1.132656   1.000000
    143         -1.104655   1.000000
    144         -1.050916   1.000000
    145         -1.050531   1.000000
    146         -1.050157   1.000000
    147         -1.002677   1.000000
    148         -1.000988   1.000000
    149         -0.943140   1.000000
    150         -0.941466   1.000000
    151         -0.883597   1.000000
    152         -0.784532   1.000000
    153         -0.783184   1.000000
    154          1.317295   0.000000
    155          1.386244   0.000000
    156          1.603566   0.000000
    157          1.605145   0.000000
    158          1.615925   0.000000
    159          1.617303   0.000000
    160          2.020626   0.000000
    161          2.021321   0.000000
    162          2.091812   0.000000
    163          2.117177   0.000000
    164          2.124194   0.000000
    165          2.124557   0.000000
    166          2.168614   0.000000
    167          2.280600   0.000000
    168          2.281729   0.000000
    169          2.344634   0.000000
    170          2.401270   0.000000
    171          2.508385   0.000000
    172          2.529634   0.000000
    173          2.530287   0.000000
    174          2.545489   0.000000
    175          2.549041   0.000000
    176          2.644000   0.000000
    177          2.644400   0.000000
    178          2.866821   0.000000
    179          2.867215   0.000000
    180          3.101930   0.000000
    181          3.105928   0.000000
    182          3.230888   0.000000
    183          3.362724   0.000000
    184          3.365459   0.000000
    185          3.384778   0.000000
    186          3.526891   0.000000
    187          3.527166   0.000000
 
 -0.2000000E+00  0.4000000E+00  0.1276756E-14  0.8000000E-01
      1        -74.368205   1.000000
      2        -74.367639   1.000000
      3        -74.365825   1.000000
      4        -74.361933   1.000000
      5        -74.360503   1.000000
      6        -74.360200   1.000000
      7        -74.359553   1.000000
      8        -74.358799   1.000000
      9        -74.358082   1.000000
     10        -38.719322   1.000000
     11        -38.707400   1.000000
     12        -38.707159   1.000000
     13        -38.674249   1.000000
     14        -38.673946   1.000000
     15        -38.650646   1.000000
     16        -38.621234   1.000000
     17        -38.620717   1.000000
     18        -38.612974   1.000000
     19        -38.595711   1.000000
     20        -38.588904   1.000000
     21        -38.588349   1.000000
     22        -38.585383   1.000000
     23        -38.584627   1.000000
     24        -38.583934   1.000000
     25        -38.579036   1.000000
     26        -38.564164   1.000000
     27        -38.564018   1.000000
     28        -38.557055   1.000000
     29        -38.556722   1.000000
     30        -38.542656   1.000000
     31        -38.541703   1.000000
     32        -38.541164   1.000000
     33        -38.538615   1.000000
     34        -38.503879   1.000000
     35        -38.490243   1.000000
     36        -38.489978   1.000000
     37        -14.774433   1.000000
     38        -14.771622   1.000000
     39        -14.564983   1.000000
     40        -14.564849   1.000000
     41        -14.473134   1.000000
     42        -14.338493   1.000000
     43        -13.800456   1.000000
     44        -13.763974   1.000000
     45        -13.763477   1.000000
     46        -13.684693   1.000000
     47        -13.605012   1.000000
     48        -13.515806   1.000000
     49        -13.515801   1.000000
     50        -13.352218   1.000000
     51        -13.325155   1.000000
     52        -13.322508   1.000000
     53        -13.320189   1.000000
     54        -13.320151   1.000000
     55        -13.213495   1.000000
     56        -13.105527   1.000000
     57        -13.068812   1.000000
     58        -13.066231   1.000000
     59        -13.028451   1.000000
     60        -13.027007   1.000000
     61        -12.939544   1.000000
     62        -12.911620   1.000000
     63        -12.909958   1.000000
     64         -6.784387   1.000000
     65         -6.676105   1.000000
     66         -6.607426   1.000000
     67         -6.607173   1.000000
     68         -6.477851   1.000000
     69         -6.476777   1.000000
     70         -6.112657   1.000000
     71         -6.110930   1.000000
     72         -5.993993   1.000000
     73         -5.993851   1.000000
     74         -5.861555   1.000000
     75         -5.860928   1.000000
     76         -5.750345   1.000000
     77         -5.612705   1.000000
     78         -5.597168   1.000000
     79         -5.595023   1.000000
     80         -5.566036   1.000000
     81         -5.421793   1.000000
     82         -5.171629   1.000000
     83         -5.168819   1.000000
     84         -4.797608   1.000000
     85         -4.634464   1.000000
     86         -4.568813   1.000000
     87         -4.523630   1.000000
     88         -4.521877   1.000000
     89         -4.506419   1.000000
     90         -4.504247   1.000000
     91         -4.361274   1.000000
     92         -4.049683   1.000000
     93         -3.868791   1.000000
     94         -3.868430   1.000000
     95         -3.838734   1.000000
     96         -3.791712   1.000000
     97         -3.788805   1.000000
     98         -3.765913   1.000000
     99         -3.765890   1.000000
    100         -3.735935   1.000000
    101         -3.603363   1.000000
    102         -3.602688   1.000000
    103         -3.588419   1.000000
    104         -3.588054   1.000000
    105         -3.535338   1.000000
    106         -3.535080   1.000000
    107         -3.383450   1.000000
    108         -3.290466   1.000000
    109         -3.221655   1.000000
    110         -3.220332   1.000000
    111         -3.211331   1.000000
    112         -3.211290   1.000000
    113         -3.060540   1.000000
    114         -3.047480   1.000000
    115         -2.774614   1.000000
    116         -2.688381   1.000000
    117         -2.687734   1.000000
    118         -2.670036   1.000000
    119         -2.669264   1.000000
    120         -2.660525   1.000000
    121         -2.613110   1.000000
    122         -2.610709   1.000000
    123         -2.453865   1.000000
    124         -2.333191   1.000000
    125         -2.329821   1.000000
    126         -2.293069   1.000000
    127         -2.291490   1.000000
    128         -2.254688   1.000000
    129         -2.184481   1.000000
    130         -2.180796   1.000000
    131         -2.107426   1.000000
    132         -2.074059   1.000000
    133         -1.887707   1.000000
    134         -1.827311   1.000000
    135         -1.827287   1.000000
    136         -1.556395   1.000000
    137         -1.485763   1.000000
    138         -1.481257   1.000000
    139         -1.477141   1.000000
    140         -1.275526   1.000000
    141         -1.275336   1.000000
    142         -1.132370   1.000000
    143         -1.104702   1.000000
    144         -1.050900   1.000000
    145         -1.050580   1.000000
    146         -1.049949   1.000000
    147         -1.002896   1.000000
    148         -1.001003   1.000000
    149         -0.943026   1.000000
    150         -0.941609   1.000000
    151         -0.883670   1.000000
    152         -0.784519   1.000000
    153         -0.783124   1.000000
    154          1.317181   0.000000
    155          1.386027   0.000000
    156          1.603719   0.000000
    157          1.604953   0.000000
    158          1.615966   0.000000
    159          1.617090   0.000000
    160          2.020794   0.000000
    161          2.021248   0.000000
    162          2.092043   0.000000
    163          2.116761   0.000000
    164          2.124025   0.000000
    165          2.125385   0.000000
    166          2.168568   0.000000
    167          2.280534   0.000000
    168          2.282298   0.000000
    169          2.344871   0.000000
    170          2.401437   0.000000
    171          2.508326   0.000000
    172          2.529514   0.000000
    173          2.530229   0.000000
    174          2.545461   0.000000
    175          2.548561   0.000000
    176          2.643801   0.000000
    177          2.644529   0.000000
    178          2.866784   0.000000
    179          2.867121   0.000000
    180          3.101723   0.000000
    181          3.105496   0.000000
    182          3.231139   0.000000
    183          3.362775   0.000000
    184          3.364522   0.000000
    185          3.384981   0.000000
    186          3.526975   0.000000
    187          3.527512   0.000000
