generated by phonopy                    
   1.00000000000000     
     9.9597987654030433    0.0000000000000000    0.0000000000000000
     4.9798993827015217    8.6254387474199241    0.0000000000000000
     0.0000000000000000    0.0000000000000000   20.0000000000000000
   W    Se
     9    18
Direct
     0.0000000000000000    0.0000000000000000    0.5000000000000000
     0.3333333333333357    0.0000000000000000    0.5000000000000000
     0.6666666666666643    0.0000000000000000    0.5000000000000000
     0.0000000000000000    0.3333333333333357    0.5000000000000000
     0.3333333333333357    0.3333333333333357    0.5000000000000000
     0.6666666666666643    0.3333333333333357    0.5000000000000000
     0.0000000000000000    0.6666666666666643    0.5000000000000000
     0.3333333333333357    0.6666666666666643    0.5000000000000000
     0.6666666666666643    0.6666666666666643    0.5000000000000000
     0.1115586839871199    0.1111111111111143    0.4166822037993825
     0.4444444444444429    0.1111111111111143    0.4162346309233698
     0.7777777777777786    0.1111111111111143    0.4162346309233698
     0.1111111111111143    0.4444444444444429    0.4162346309233698
     0.4444444444444429    0.4444444444444429    0.4162346309233698
     0.7777777777777786    0.4444444444444429    0.4162346309233698
     0.1111111111111143    0.7777777777777786    0.4162346309233698
     0.4444444444444429    0.7777777777777786    0.4162346309233698
     0.7777777777777786    0.7777777777777786    0.4162346309233698
     0.1111111111111143    0.1111111111111143    0.5837653690766302
     0.4444444444444429    0.1111111111111143    0.5837653690766302
     0.7777777777777786    0.1111111111111143    0.5837653690766302
     0.1111111111111143    0.4444444444444429    0.5837653690766302
     0.4444444444444429    0.4444444444444429    0.5837653690766302
     0.7777777777777786    0.4444444444444429    0.5837653690766302
     0.1111111111111143    0.7777777777777786    0.5837653690766302
     0.4444444444444429    0.7777777777777786    0.5837653690766302
     0.7777777777777786    0.7777777777777786    0.5837653690766302
 
  0.00000000E+00  0.00000000E+00  0.00000000E+00
  0.00000000E+00  0.00000000E+00  0.00000000E+00
  0.00000000E+00  0.00000000E+00  0.00000000E+00
  0.00000000E+00  0.00000000E+00  0.00000000E+00
  0.00000000E+00  0.00000000E+00  0.00000000E+00
  0.00000000E+00  0.00000000E+00  0.00000000E+00
  0.00000000E+00  0.00000000E+00  0.00000000E+00
  0.00000000E+00  0.00000000E+00  0.00000000E+00
  0.00000000E+00  0.00000000E+00  0.00000000E+00
  0.00000000E+00  0.00000000E+00  0.00000000E+00
  0.00000000E+00  0.00000000E+00  0.00000000E+00
  0.00000000E+00  0.00000000E+00  0.00000000E+00
  0.00000000E+00  0.00000000E+00  0.00000000E+00
  0.00000000E+00  0.00000000E+00  0.00000000E+00
  0.00000000E+00  0.00000000E+00  0.00000000E+00
  0.00000000E+00  0.00000000E+00  0.00000000E+00
  0.00000000E+00  0.00000000E+00  0.00000000E+00
  0.00000000E+00  0.00000000E+00  0.00000000E+00
  0.00000000E+00  0.00000000E+00  0.00000000E+00
  0.00000000E+00  0.00000000E+00  0.00000000E+00
  0.00000000E+00  0.00000000E+00  0.00000000E+00
  0.00000000E+00  0.00000000E+00  0.00000000E+00
  0.00000000E+00  0.00000000E+00  0.00000000E+00
  0.00000000E+00  0.00000000E+00  0.00000000E+00
  0.00000000E+00  0.00000000E+00  0.00000000E+00
  0.00000000E+00  0.00000000E+00  0.00000000E+00
  0.00000000E+00  0.00000000E+00  0.00000000E+00
