  27  27   0   0
  0.6363528E+02  0.9959799E-09  0.9959799E-09  0.2000000E-08  0.5000000E-15
  1.000000000000000E-004
  CAR 
 WSe2 phonon                             
      5.87243071    -79.53682998  301     -1.17383329      1.00000000
    -79.537  0.0000E+00  0.0000E+00
    -79.252  0.0000E+00  0.0000E+00
    -78.967  0.0000E+00  0.0000E+00
    -78.683  0.0000E+00  0.0000E+00
    -78.398  0.0000E+00  0.0000E+00
    -78.113  0.0000E+00  0.0000E+00
    -77.829  0.0000E+00  0.0000E+00
    -77.544  0.0000E+00  0.0000E+00
    -77.259  0.0000E+00  0.0000E+00
    -76.975  0.0000E+00  0.0000E+00
    -76.690  0.0000E+00  0.0000E+00
    -76.405  0.0000E+00  0.0000E+00
    -76.120  0.0000E+00  0.0000E+00
    -75.836  0.3703E-05  0.1054E-05
    -75.551  0.6302E+02  0.1794E+02
    -75.266  0.2022E+00  0.1800E+02
    -74.982  0.0000E+00  0.1800E+02
    -74.697  0.0000E+00  0.1800E+02
    -74.412  0.0000E+00  0.1800E+02
    -74.128  0.0000E+00  0.1800E+02
    -73.843  0.0000E+00  0.1800E+02
    -73.558  0.0000E+00  0.1800E+02
    -73.273  0.0000E+00  0.1800E+02
    -72.989  0.0000E+00  0.1800E+02
    -72.704  0.0000E+00  0.1800E+02
    -72.419  0.0000E+00  0.1800E+02
    -72.135  0.0000E+00  0.1800E+02
    -71.850  0.0000E+00  0.1800E+02
    -71.565  0.0000E+00  0.1800E+02
    -71.281  0.0000E+00  0.1800E+02
    -70.996  0.0000E+00  0.1800E+02
    -70.711  0.0000E+00  0.1800E+02
    -70.427  0.0000E+00  0.1800E+02
    -70.142  0.0000E+00  0.1800E+02
    -69.857  0.0000E+00  0.1800E+02
    -69.572  0.0000E+00  0.1800E+02
    -69.288  0.0000E+00  0.1800E+02
    -69.003  0.0000E+00  0.1800E+02
    -68.718  0.0000E+00  0.1800E+02
    -68.434  0.0000E+00  0.1800E+02
    -68.149  0.0000E+00  0.1800E+02
    -67.864  0.0000E+00  0.1800E+02
    -67.580  0.0000E+00  0.1800E+02
    -67.295  0.0000E+00  0.1800E+02
    -67.010  0.0000E+00  0.1800E+02
    -66.725  0.0000E+00  0.1800E+02
    -66.441  0.0000E+00  0.1800E+02
    -66.156  0.0000E+00  0.1800E+02
    -65.871  0.0000E+00  0.1800E+02
    -65.587  0.0000E+00  0.1800E+02
    -65.302  0.0000E+00  0.1800E+02
    -65.017  0.0000E+00  0.1800E+02
    -64.733  0.0000E+00  0.1800E+02
    -64.448  0.0000E+00  0.1800E+02
    -64.163  0.0000E+00  0.1800E+02
    -63.878  0.0000E+00  0.1800E+02
    -63.594  0.0000E+00  0.1800E+02
    -63.309  0.0000E+00  0.1800E+02
    -63.024  0.0000E+00  0.1800E+02
    -62.740  0.0000E+00  0.1800E+02
    -62.455  0.0000E+00  0.1800E+02
    -62.170  0.0000E+00  0.1800E+02
    -61.886  0.0000E+00  0.1800E+02
    -61.601  0.0000E+00  0.1800E+02
    -61.316  0.0000E+00  0.1800E+02
    -61.031  0.0000E+00  0.1800E+02
    -60.747  0.0000E+00  0.1800E+02
    -60.462  0.0000E+00  0.1800E+02
    -60.177  0.0000E+00  0.1800E+02
    -59.893  0.0000E+00  0.1800E+02
    -59.608  0.0000E+00  0.1800E+02
    -59.323  0.0000E+00  0.1800E+02
    -59.039  0.0000E+00  0.1800E+02
    -58.754  0.0000E+00  0.1800E+02
    -58.469  0.0000E+00  0.1800E+02
    -58.185  0.0000E+00  0.1800E+02
    -57.900  0.0000E+00  0.1800E+02
    -57.615  0.0000E+00  0.1800E+02
    -57.330  0.0000E+00  0.1800E+02
    -57.046  0.0000E+00  0.1800E+02
    -56.761  0.0000E+00  0.1800E+02
    -56.476  0.0000E+00  0.1800E+02
    -56.192  0.0000E+00  0.1800E+02
    -55.907  0.0000E+00  0.1800E+02
    -55.622  0.0000E+00  0.1800E+02
    -55.338  0.0000E+00  0.1800E+02
    -55.053  0.0000E+00  0.1800E+02
    -54.768  0.0000E+00  0.1800E+02
    -54.483  0.0000E+00  0.1800E+02
    -54.199  0.0000E+00  0.1800E+02
    -53.914  0.0000E+00  0.1800E+02
    -53.629  0.0000E+00  0.1800E+02
    -53.345  0.0000E+00  0.1800E+02
    -53.060  0.0000E+00  0.1800E+02
    -52.775  0.0000E+00  0.1800E+02
    -52.491  0.0000E+00  0.1800E+02
    -52.206  0.0000E+00  0.1800E+02
    -51.921  0.0000E+00  0.1800E+02
    -51.636  0.0000E+00  0.1800E+02
    -51.352  0.0000E+00  0.1800E+02
    -51.067  0.0000E+00  0.1800E+02
    -50.782  0.0000E+00  0.1800E+02
    -50.498  0.0000E+00  0.1800E+02
    -50.213  0.0000E+00  0.1800E+02
    -49.928  0.0000E+00  0.1800E+02
    -49.644  0.0000E+00  0.1800E+02
    -49.359  0.0000E+00  0.1800E+02
    -49.074  0.0000E+00  0.1800E+02
    -48.789  0.0000E+00  0.1800E+02
    -48.505  0.0000E+00  0.1800E+02
    -48.220  0.0000E+00  0.1800E+02
    -47.935  0.0000E+00  0.1800E+02
    -47.651  0.0000E+00  0.1800E+02
    -47.366  0.0000E+00  0.1800E+02
    -47.081  0.0000E+00  0.1800E+02
    -46.797  0.0000E+00  0.1800E+02
    -46.512  0.0000E+00  0.1800E+02
    -46.227  0.0000E+00  0.1800E+02
    -45.943  0.0000E+00  0.1800E+02
    -45.658  0.0000E+00  0.1800E+02
    -45.373  0.0000E+00  0.1800E+02
    -45.088  0.0000E+00  0.1800E+02
    -44.804  0.0000E+00  0.1800E+02
    -44.519  0.0000E+00  0.1800E+02
    -44.234  0.0000E+00  0.1800E+02
    -43.950  0.0000E+00  0.1800E+02
    -43.665  0.0000E+00  0.1800E+02
    -43.380  0.0000E+00  0.1800E+02
    -43.096  0.0000E+00  0.1800E+02
    -42.811  0.0000E+00  0.1800E+02
    -42.526  0.0000E+00  0.1800E+02
    -42.241  0.0000E+00  0.1800E+02
    -41.957  0.0000E+00  0.1800E+02
    -41.672  0.0000E+00  0.1800E+02
    -41.387  0.0000E+00  0.1800E+02
    -41.103  0.0000E+00  0.1800E+02
    -40.818  0.0000E+00  0.1800E+02
    -40.533  0.0000E+00  0.1800E+02
    -40.249  0.6264E-13  0.1800E+02
    -39.964  0.1557E+02  0.2243E+02
    -39.679  0.1741E+03  0.7199E+02
    -39.394  0.2055E-01  0.7200E+02
    -39.110  0.0000E+00  0.7200E+02
    -38.825  0.0000E+00  0.7200E+02
    -38.540  0.0000E+00  0.7200E+02
    -38.256  0.0000E+00  0.7200E+02
    -37.971  0.0000E+00  0.7200E+02
    -37.686  0.0000E+00  0.7200E+02
    -37.402  0.0000E+00  0.7200E+02
    -37.117  0.0000E+00  0.7200E+02
    -36.832  0.0000E+00  0.7200E+02
    -36.548  0.0000E+00  0.7200E+02
    -36.263  0.0000E+00  0.7200E+02
    -35.978  0.0000E+00  0.7200E+02
    -35.693  0.0000E+00  0.7200E+02
    -35.409  0.0000E+00  0.7200E+02
    -35.124  0.0000E+00  0.7200E+02
    -34.839  0.0000E+00  0.7200E+02
    -34.555  0.0000E+00  0.7200E+02
    -34.270  0.0000E+00  0.7200E+02
    -33.985  0.0000E+00  0.7200E+02
    -33.701  0.0000E+00  0.7200E+02
    -33.416  0.0000E+00  0.7200E+02
    -33.131  0.0000E+00  0.7200E+02
    -32.846  0.0000E+00  0.7200E+02
    -32.562  0.0000E+00  0.7200E+02
    -32.277  0.0000E+00  0.7200E+02
    -31.992  0.0000E+00  0.7200E+02
    -31.708  0.0000E+00  0.7200E+02
    -31.423  0.0000E+00  0.7200E+02
    -31.138  0.0000E+00  0.7200E+02
    -30.854  0.0000E+00  0.7200E+02
    -30.569  0.0000E+00  0.7200E+02
    -30.284  0.0000E+00  0.7200E+02
    -29.999  0.0000E+00  0.7200E+02
    -29.715  0.0000E+00  0.7200E+02
    -29.430  0.0000E+00  0.7200E+02
    -29.145  0.0000E+00  0.7200E+02
    -28.861  0.0000E+00  0.7200E+02
    -28.576  0.0000E+00  0.7200E+02
    -28.291  0.0000E+00  0.7200E+02
    -28.007  0.0000E+00  0.7200E+02
    -27.722  0.0000E+00  0.7200E+02
    -27.437  0.0000E+00  0.7200E+02
    -27.152  0.0000E+00  0.7200E+02
    -26.868  0.0000E+00  0.7200E+02
    -26.583  0.0000E+00  0.7200E+02
    -26.298  0.0000E+00  0.7200E+02
    -26.014  0.0000E+00  0.7200E+02
    -25.729  0.0000E+00  0.7200E+02
    -25.444  0.0000E+00  0.7200E+02
    -25.160  0.0000E+00  0.7200E+02
    -24.875  0.0000E+00  0.7200E+02
    -24.590  0.0000E+00  0.7200E+02
    -24.306  0.0000E+00  0.7200E+02
    -24.021  0.0000E+00  0.7200E+02
    -23.736  0.0000E+00  0.7200E+02
    -23.451  0.0000E+00  0.7200E+02
    -23.167  0.0000E+00  0.7200E+02
    -22.882  0.0000E+00  0.7200E+02
    -22.597  0.0000E+00  0.7200E+02
    -22.313  0.0000E+00  0.7200E+02
    -22.028  0.0000E+00  0.7200E+02
    -21.743  0.0000E+00  0.7200E+02
    -21.459  0.0000E+00  0.7200E+02
    -21.174  0.0000E+00  0.7200E+02
    -20.889  0.0000E+00  0.7200E+02
    -20.604  0.0000E+00  0.7200E+02
    -20.320  0.0000E+00  0.7200E+02
    -20.035  0.0000E+00  0.7200E+02
    -19.750  0.0000E+00  0.7200E+02
    -19.466  0.0000E+00  0.7200E+02
    -19.181  0.0000E+00  0.7200E+02
    -18.896  0.0000E+00  0.7200E+02
    -18.612  0.0000E+00  0.7200E+02
    -18.327  0.0000E+00  0.7200E+02
    -18.042  0.0000E+00  0.7200E+02
    -17.757  0.0000E+00  0.7200E+02
    -17.473  0.0000E+00  0.7200E+02
    -17.188  0.0000E+00  0.7200E+02
    -16.903  0.0000E+00  0.7200E+02
    -16.619  0.0000E+00  0.7200E+02
    -16.334  0.1786E-01  0.7201E+02
    -16.049  0.3832E+01  0.7310E+02
    -15.765  0.5104E+01  0.7455E+02
    -15.480  0.5848E+01  0.7621E+02
    -15.195  0.4667E+01  0.7754E+02
    -14.910  0.1025E+02  0.8046E+02
    -14.626  0.1953E+02  0.8602E+02
    -14.341  0.2736E+02  0.9381E+02
    -14.056  0.4089E+02  0.1055E+03
    -13.772  0.8947E+01  0.1080E+03
    -13.487  0.0000E+00  0.1080E+03
    -13.202  0.0000E+00  0.1080E+03
    -12.918  0.0000E+00  0.1080E+03
    -12.633  0.0000E+00  0.1080E+03
    -12.348  0.0000E+00  0.1080E+03
    -12.064  0.0000E+00  0.1080E+03
    -11.779  0.0000E+00  0.1080E+03
    -11.494  0.0000E+00  0.1080E+03
    -11.209  0.0000E+00  0.1080E+03
    -10.925  0.0000E+00  0.1080E+03
    -10.640  0.0000E+00  0.1080E+03
    -10.355  0.0000E+00  0.1080E+03
    -10.071  0.0000E+00  0.1080E+03
     -9.786  0.0000E+00  0.1080E+03
     -9.501  0.0000E+00  0.1080E+03
     -9.217  0.0000E+00  0.1080E+03
     -8.932  0.0000E+00  0.1080E+03
     -8.647  0.0000E+00  0.1080E+03
     -8.362  0.0000E+00  0.1080E+03
     -8.078  0.1859E-13  0.1080E+03
     -7.793  0.1827E+01  0.1085E+03
     -7.508  0.1083E+02  0.1116E+03
     -7.224  0.1283E+02  0.1153E+03
     -6.939  0.1827E+02  0.1205E+03
     -6.654  0.2310E+02  0.1270E+03
     -6.370  0.1902E+02  0.1324E+03
     -6.085  0.1135E+02  0.1357E+03
     -5.800  0.2362E+02  0.1424E+03
     -5.515  0.3741E+02  0.1531E+03
     -5.231  0.8344E+01  0.1554E+03
     -4.946  0.1407E+02  0.1594E+03
     -4.661  0.2961E+02  0.1679E+03
     -4.377  0.2659E+02  0.1754E+03
     -4.092  0.1248E+02  0.1790E+03
     -3.807  0.1944E+02  0.1845E+03
     -3.523  0.3857E+02  0.1955E+03
     -3.238  0.2749E+02  0.2033E+03
     -2.953  0.2364E+02  0.2101E+03
     -2.668  0.2101E+02  0.2160E+03
     -2.384  0.1702E+02  0.2209E+03
     -2.099  0.2631E+02  0.2284E+03
     -1.814  0.1576E+02  0.2329E+03
     -1.530  0.3947E+01  0.2340E+03
     -1.245  0.4488E-01  0.2340E+03
     -0.960  0.0000E+00  0.2340E+03
     -0.676  0.0000E+00  0.2340E+03
     -0.391  0.0000E+00  0.2340E+03
     -0.106  0.1417E-01  0.2340E+03
      0.178  0.6297E+01  0.2358E+03
      0.463  0.2611E+02  0.2432E+03
      0.748  0.2789E+02  0.2512E+03
      1.033  0.5151E+02  0.2658E+03
      1.317  0.3160E+02  0.2748E+03
      1.602  0.2443E+02  0.2818E+03
      1.887  0.1154E+02  0.2851E+03
      2.171  0.3267E+01  0.2860E+03
      2.456  0.0000E+00  0.2860E+03
      2.741  0.0000E+00  0.2860E+03
      3.025  0.0000E+00  0.2860E+03
      3.310  0.0000E+00  0.2860E+03
      3.595  0.0000E+00  0.2860E+03
      3.880  0.0000E+00  0.2860E+03
      4.164  0.0000E+00  0.2860E+03
      4.449  0.0000E+00  0.2860E+03
      4.734  0.0000E+00  0.2860E+03
      5.018  0.0000E+00  0.2860E+03
      5.303  0.0000E+00  0.2860E+03
      5.588  0.0000E+00  0.2860E+03
      5.872  0.0000E+00  0.2860E+03
