WSe2 phonon                             
           1
     9.959799    0.000000    0.000000
     4.979899    8.625439    0.000000
     0.000000    0.000000   20.000000
   W    Se
     9    18
Direct configuration=     1
   0.00000000  0.00000000  0.50000000
   0.33333333  0.00000000  0.50000000
   0.66666667  0.00000000  0.50000000
   0.00000000  0.33333333  0.50000000
   0.33333333  0.33333333  0.50000000
   0.66666667  0.33333333  0.50000000
   0.00000000  0.66666667  0.50000000
   0.33333333  0.66666667  0.50000000
   0.66666667  0.66666667  0.50000000
   0.11155868  0.11111111  0.41668220
   0.44444444  0.11111111  0.41623463
   0.77777778  0.11111111  0.41623463
   0.11111111  0.44444444  0.41623463
   0.44444444  0.44444444  0.41623463
   0.77777778  0.44444444  0.41623463
   0.11111111  0.77777778  0.41623463
   0.44444444  0.77777778  0.41623463
   0.77777778  0.77777778  0.41623463
   0.11111111  0.11111111  0.58376537
   0.44444444  0.11111111  0.58376537
   0.77777778  0.11111111  0.58376537
   0.11111111  0.44444444  0.58376537
   0.44444444  0.44444444  0.58376537
   0.77777778  0.44444444  0.58376537
   0.11111111  0.77777778  0.58376537
   0.44444444  0.77777778  0.58376537
   0.77777778  0.77777778  0.58376537
