<?xml version="1.0" encoding="ISO-8859-1"?>
<modeling>
 <generator>
  <i name="program" type="string">vasp </i>
  <i name="version" type="string">6.5.1  </i>
  <i name="subversion" type="string">10Mar25 (build Aug 29 2025 00:30:47) complex                          parallel </i>
  <i name="platform" type="string">LinuxIFC </i>
  <i name="date" type="string">2026 06 04 </i>
  <i name="time" type="string">18:12:35 </i>
 </generator>
 <incar>
  <i type="string" name="SYSTEM">MoS2_GaN_2H phonon</i>
  <i type="string" name="PREC">Accurate</i>
  <i type="string" name="ALGO">Normal</i>
  <i name="AMIN">      0.01000000</i>
  <i type="int" name="NELM">   200</i>
  <i type="int" name="IBRION">    -1</i>
  <i name="EDIFF">      0.00000100</i>
  <i type="int" name="NSW">     0</i>
  <i name="ENCUT">    520.00000000</i>
  <i type="string" name="LREAL">Auto</i>
  <i type="int" name="ISMEAR">     0</i>
  <i name="SIGMA">      0.05000000</i>
  <i type="logical" name="LWAVE"> F  </i>
  <i type="logical" name="LCHARG"> F  </i>
  <i type="int" name="IVDW">    12</i>
 </incar>
 <primitive_cell>
  <structure name="primitive_cell" >
   <crystal>
    <varray name="basis" >
     <v>       9.59500625       0.00000000       0.00000000 </v>
     <v>       4.79750312       8.30951916       0.00000000 </v>
     <v>       0.00000000       0.00000000      20.00000000 </v>
    </varray>
    <i name="volume">   1594.59776455 </i>
    <varray name="rec_basis" >
     <v>       0.10422088      -0.06017195       0.00000000 </v>
     <v>       0.00000000       0.12034391       0.00000000 </v>
     <v>       0.00000000       0.00000000       0.05000000 </v>
    </varray>
   </crystal>
   <varray name="positions" >
    <v>       0.00000000       0.00000000       0.47843073 </v>
    <v>       0.33333333       0.00000000       0.47843073 </v>
    <v>       0.66666667       0.00000000       0.47843073 </v>
    <v>       0.00000000       0.33333333       0.47843073 </v>
    <v>       0.33333333       0.33333333       0.47843073 </v>
    <v>       0.66666667       0.33333333       0.47843073 </v>
    <v>       0.00000000       0.66666667       0.47843073 </v>
    <v>       0.33333333       0.66666667       0.47843073 </v>
    <v>       0.66666667       0.66666667       0.47843073 </v>
    <v>       0.11156192       0.11111111       0.40123078 </v>
    <v>       0.44444444       0.11111111       0.40077998 </v>
    <v>       0.77777778       0.11111111       0.40077998 </v>
    <v>       0.11111111       0.44444444       0.40077998 </v>
    <v>       0.44444444       0.44444444       0.40077998 </v>
    <v>       0.77777778       0.44444444       0.40077998 </v>
    <v>       0.11111111       0.77777778       0.40077998 </v>
    <v>       0.44444444       0.77777778       0.40077998 </v>
    <v>       0.77777778       0.77777778       0.40077998 </v>
    <v>       0.11111111       0.11111111       0.55604403 </v>
    <v>       0.44444444       0.11111111       0.55604403 </v>
    <v>       0.77777778       0.11111111       0.55604403 </v>
    <v>       0.11111111       0.44444444       0.55604403 </v>
    <v>       0.44444444       0.44444444       0.55604403 </v>
    <v>       0.77777778       0.44444444       0.55604403 </v>
    <v>       0.11111111       0.77777778       0.55604403 </v>
    <v>       0.44444444       0.77777778       0.55604403 </v>
    <v>       0.77777778       0.77777778       0.55604403 </v>
    <v>       0.11111111       0.11111111       0.85731164 </v>
    <v>       0.44444444       0.11111111       0.85731164 </v>
    <v>       0.77777778       0.11111111       0.85731164 </v>
    <v>       0.11111111       0.44444444       0.85731164 </v>
    <v>       0.44444444       0.44444444       0.85731164 </v>
    <v>       0.77777778       0.44444444       0.85731164 </v>
    <v>       0.11111111       0.77777778       0.85731164 </v>
    <v>       0.44444444       0.77777778       0.85731164 </v>
    <v>       0.77777778       0.77777778       0.85731164 </v>
    <v>       0.00000000       0.00000000       0.85743362 </v>
    <v>       0.33333333       0.00000000       0.85743362 </v>
    <v>       0.66666667       0.00000000       0.85743362 </v>
    <v>       0.00000000       0.33333333       0.85743362 </v>
    <v>       0.33333333       0.33333333       0.85743362 </v>
    <v>       0.66666667       0.33333333       0.85743362 </v>
    <v>       0.00000000       0.66666667       0.85743362 </v>
    <v>       0.33333333       0.66666667       0.85743362 </v>
    <v>       0.66666667       0.66666667       0.85743362 </v>
   </varray>
  </structure>
  <varray name="primitive_index" >
   <v type="int" >        1 </v>
   <v type="int" >        2 </v>
   <v type="int" >        3 </v>
   <v type="int" >        4 </v>
   <v type="int" >        5 </v>
   <v type="int" >        6 </v>
   <v type="int" >        7 </v>
   <v type="int" >        8 </v>
   <v type="int" >        9 </v>
   <v type="int" >       10 </v>
   <v type="int" >       11 </v>
   <v type="int" >       12 </v>
   <v type="int" >       13 </v>
   <v type="int" >       14 </v>
   <v type="int" >       15 </v>
   <v type="int" >       16 </v>
   <v type="int" >       17 </v>
   <v type="int" >       18 </v>
   <v type="int" >       19 </v>
   <v type="int" >       20 </v>
   <v type="int" >       21 </v>
   <v type="int" >       22 </v>
   <v type="int" >       23 </v>
   <v type="int" >       24 </v>
   <v type="int" >       25 </v>
   <v type="int" >       26 </v>
   <v type="int" >       27 </v>
   <v type="int" >       28 </v>
   <v type="int" >       29 </v>
   <v type="int" >       30 </v>
   <v type="int" >       31 </v>
   <v type="int" >       32 </v>
   <v type="int" >       33 </v>
   <v type="int" >       34 </v>
   <v type="int" >       35 </v>
   <v type="int" >       36 </v>
   <v type="int" >       37 </v>
   <v type="int" >       38 </v>
   <v type="int" >       39 </v>
   <v type="int" >       40 </v>
   <v type="int" >       41 </v>
   <v type="int" >       42 </v>
   <v type="int" >       43 </v>
   <v type="int" >       44 </v>
   <v type="int" >       45 </v>
  </varray>
 </primitive_cell>
 <kpoints>
  <generation param="Gamma">
   <v type="int" name="divisions">       5        5        1 </v>
   <v name="usershift">      0.00000000       0.00000000       0.00000000 </v>
   <v name="genvec1">      0.20000000      -0.00000000       0.00000000 </v>
   <v name="genvec2">      0.00000000       0.20000000       0.00000000 </v>
   <v name="genvec3">      0.00000000       0.00000000       1.00000000 </v>
   <v name="shift">      0.00000000       0.00000000       0.00000000 </v>
  </generation>
  <varray name="kpointlist" >
   <v>       0.00000000       0.00000000       0.00000000 </v>
   <v>       0.20000000       0.00000000       0.00000000 </v>
   <v>       0.20000000       0.20000000       0.00000000 </v>
   <v>       0.00000000       0.20000000       0.00000000 </v>
   <v>       0.40000000       0.00000000       0.00000000 </v>
   <v>       0.40000000       0.40000000       0.00000000 </v>
   <v>       0.00000000       0.40000000       0.00000000 </v>
   <v>       0.40000000       0.20000000       0.00000000 </v>
   <v>       0.20000000       0.40000000       0.00000000 </v>
   <v>      -0.20000000       0.20000000       0.00000000 </v>
   <v>      -0.40000000       0.20000000       0.00000000 </v>
   <v>       0.40000000      -0.40000000       0.00000000 </v>
   <v>      -0.20000000       0.40000000       0.00000000 </v>
  </varray>
  <varray name="weights" >
   <v>       0.04000000 </v>
   <v>       0.08000000 </v>
   <v>       0.08000000 </v>
   <v>       0.08000000 </v>
   <v>       0.08000000 </v>
   <v>       0.08000000 </v>
   <v>       0.08000000 </v>
   <v>       0.08000000 </v>
   <v>       0.08000000 </v>
   <v>       0.08000000 </v>
   <v>       0.08000000 </v>
   <v>       0.08000000 </v>
   <v>       0.08000000 </v>
  </varray>
 </kpoints>
 <parameters>
  <separator name="general" >
   <i type="string" name="SYSTEM">MoS2_GaN_2H phonon</i>
   <i type="logical" name="LCOMPAT"> F  </i>
  </separator>
  <separator name="electronic" >
   <i type="string" name="PREC">accura</i>
   <i name="ENMAX">    520.00000000</i>
   <i name="ENAUG">    627.11200000</i>
   <i name="EDIFF">      0.00000100</i>
   <i type="int" name="IALGO">    38</i>
   <i type="int" name="IWAVPR">    10</i>
   <i type="int" name="NBANDS">   187</i>
   <i type="int" name="NBANDSLOW">    -1</i>
   <i type="int" name="NBANDSHIGH">    -1</i>
   <i name="NELECT">    306.00000000</i>
   <i type="int" name="TURBO">     0</i>
   <i type="int" name="IRESTART">     0</i>
   <i type="int" name="NREBOOT">     0</i>
   <i type="int" name="NMIN">     0</i>
   <i name="EREF">      0.00000000</i>
   <separator name="electronic smearing" >
    <i type="int" name="ISMEAR">     0</i>
    <i name="SIGMA">      0.05000000</i>
    <i name="KSPACING">      0.50000000</i>
    <i type="logical" name="KGAMMA"> T  </i>
    <i type="logical" name="KBLOWUP"> T  </i>
   </separator>
   <separator name="electronic projectors" >
    <i type="logical" name="LREAL"> T  </i>
    <v name="ROPT">     -0.00025000     -0.00025000     -0.00025000     -0.00025000</v>
    <i type="int" name="LMAXPAW">  -100</i>
    <i type="int" name="LMAXMIX">     2</i>
    <i type="logical" name="NLSPLINE"> F  </i>
   </separator>
   <separator name="electronic startup" >
    <i type="int" name="ISTART">     0</i>
    <i type="int" name="ICHARG">     2</i>
    <i type="int" name="INIWAV">     1</i>
   </separator>
   <separator name="electronic spin" >
    <i type="int" name="ISPIN">     1</i>
    <i type="logical" name="LNONCOLLINEAR"> F  </i>
    <v name="MAGMOM">      1.00000000      1.00000000      1.00000000      1.00000000      1.00000000      1.00000000      1.00000000      1.00000000      1.00000000      1.00000000      1.00000000      1.00000000      1.00000000      1.00000000      1.00000000      1.00000000      1.00000000      1.00000000      1.00000000      1.00000000
      1.00000000      1.00000000      1.00000000      1.00000000      1.00000000      1.00000000      1.00000000      1.00000000      1.00000000      1.00000000      1.00000000      1.00000000      1.00000000      1.00000000      1.00000000      1.00000000      1.00000000      1.00000000      1.00000000      1.00000000
      1.00000000      1.00000000      1.00000000      1.00000000      1.00000000</v>
    <i name="NUPDOWN">     -1.00000000</i>
    <i type="logical" name="LSORBIT"> F  </i>
    <v name="SAXIS">      0.00000000      0.00000000      1.00000000</v>
    <i type="logical" name="LSPIRAL"> F  </i>
    <v name="QSPIRAL">      0.00000000      0.00000000      0.00000000</v>
    <i type="logical" name="LZEROZ"> F  </i>
   </separator>
   <separator name="electronic exchange-correlation" >
    <i type="logical" name="LASPH"> F  </i>
   </separator>
   <separator name="electronic convergence" >
    <i type="int" name="NELM">   200</i>
    <i type="int" name="NELMDL">    -5</i>
    <i type="int" name="NELMIN">     2</i>
    <i name="ENINI">    520.00000000</i>
    <separator name="electronic convergence detail" >
     <i type="logical" name="LDIAG"> T  </i>
     <i type="logical" name="LSUBROT"> F  </i>
     <i type="logical" name="LROBUST"> F  </i>
     <i type="int" name="ISEARCH">     0</i>
     <i name="WEIMIN">      0.00000000</i>
     <i name="EBREAK">      0.00000000</i>
     <i name="DEPER">      0.30000000</i>
     <i type="int" name="NRMM">     4</i>
     <i name="TIME">      0.40000000</i>
    </separator>
   </separator>
   <separator name="electronic mixer" >
    <i name="AMIX">      0.40000000</i>
    <i name="BMIX">      1.00000000</i>
    <i name="AMIN">      0.01000000</i>
    <i name="AMIX_MAG">      1.60000000</i>
    <i name="BMIX_MAG">      1.00000000</i>
    <separator name="electronic mixer details" >
     <i type="int" name="IMIX">     4</i>
     <i type="logical" name="MIXFIRST"> F  </i>
     <i type="int" name="MAXMIX">   -45</i>
     <i name="WC">    100.00000000</i>
     <i type="int" name="INIMIX">     1</i>
     <i type="int" name="MIXPRE">     1</i>
     <i type="int" name="MREMOVE">     5</i>
    </separator>
   </separator>
   <separator name="electronic dipolcorrection" >
    <i type="logical" name="LDIPOL"> F  </i>
    <i type="logical" name="LMONO"> F  </i>
    <i type="int" name="IDIPOL">     0</i>
    <i name="EPSILON">      1.00000000</i>
    <v name="DIPOL">   -100.00000000   -100.00000000   -100.00000000</v>
    <i name="EFIELD">      0.00000000</i>
    <i type="logical" name="LVACPOTAV"> F  </i>
   </separator>
  </separator>
  <separator name="grids" >
   <i type="int" name="NGX">    72</i>
   <i type="int" name="NGY">    72</i>
   <i type="int" name="NGZ">   150</i>
   <i type="int" name="NGXF">   144</i>
   <i type="int" name="NGYF">   144</i>
   <i type="int" name="NGZF">   300</i>
   <i type="logical" name="ADDGRID"> F  </i>
  </separator>
  <separator name="ionic" >
   <i type="int" name="NSW">     0</i>
   <i type="int" name="IBRION">    -1</i>
   <i type="int" name="MDALGO">     0</i>
   <i type="int" name="ISIF">     2</i>
   <i name="PSTRESS">      0.00000000</i>
   <i name="EDIFFG">      0.00001000</i>
   <i type="int" name="NFREE">     0</i>
   <i name="POTIM">      0.50000000</i>
   <i name="SMASS">     -3.00000000</i>
   <i name="SCALEE">      1.00000000</i>
  </separator>
  <separator name="ionic md" >
   <i name="TEBEG">      0.00010000</i>
   <i name="TEEND">      0.00010000</i>
   <i type="int" name="NBLOCK">     1</i>
   <i type="int" name="KBLOCK">     1</i>
   <i type="int" name="NPACO">   256</i>
   <i name="APACO">     10.00000000</i>
  </separator>
  <separator name="symmetry" >
   <i type="int" name="ISYM">     2</i>
   <i name="SYMPREC">      0.00001000</i>
  </separator>
  <separator name="dos" >
   <i type="int" name="LORBIT">     0</i>
   <v name="RWIGS">     -1.00000000     -1.00000000     -1.00000000     -1.00000000</v>
   <i type="int" name="NEDOS">   301</i>
   <i name="EMIN">     10.00000000</i>
   <i name="EMAX">    -10.00000000</i>
   <i name="EFERMI">      0.00000000</i>
  </separator>
  <separator name="writing" >
   <i type="int" name="NWRITE">     2</i>
   <i type="logical" name="LWAVE"> F  </i>
   <i type="logical" name="LDOWNSAMPLE"> F  </i>
   <i type="logical" name="LCHARG"> F  </i>
   <i type="logical" name="LPARD"> F  </i>
   <i type="logical" name="LVTOT"> F  </i>
   <i type="logical" name="LVHAR"> F  </i>
   <i type="logical" name="LELF"> F  </i>
   <i type="logical" name="LOPTICS"> F  </i>
   <v name="STM">      0.00000000      0.00000000      0.00000000      0.00000000      0.00000000      0.00000000      0.00000000</v>
  </separator>
  <separator name="performance" >
   <i type="int" name="NPAR">    11</i>
   <i type="int" name="NSIM">     4</i>
   <i type="int" name="NBLK">    -1</i>
   <i type="logical" name="LPLANE"> T  </i>
   <i type="logical" name="LSCALAPACK"> T  </i>
   <i type="logical" name="LSCAAWARE"> F  </i>
   <i type="logical" name="LSCALU"> F  </i>
   <i type="logical" name="LASYNC"> F  </i>
   <i type="logical" name="LORBITALREAL"> F  </i>
  </separator>
  <separator name="miscellaneous" >
   <i type="int" name="IDIOT">     3</i>
   <i type="int" name="PHON_NSTRUCT">    -1</i>
   <i type="logical" name="LMUSIC"> F  </i>
   <v name="POMASS">     95.94000000     32.06600000     69.72300000     14.00100000</v>
   <v name="DARWINR">      0.00000000      0.00000000      0.00000000      0.00000000</v>
   <v name="DARWINV">      1.00000000      1.00000000      1.00000000      1.00000000</v>
   <i type="logical" name="LCORR"> T  </i>
  </separator>
  <i type="logical" name="GGA_COMPAT"> T  </i>
  <i type="logical" name="LBERRY"> F  </i>
  <i type="int" name="ICORELEVEL">     0</i>
  <i type="logical" name="LDAU"> F  </i>
  <i type="int" name="I_CONSTRAINED_M">     0</i>
  <separator name="electronic exchange-correlation" >
   <i type="string" name="GGA    ">PE</i>
   <i type="string" name="XC_C">1</i>
   <i type="int" name="VOSKOWN">     0</i>
   <i type="logical" name="LHFCALC"> F  </i>
   <i type="string" name="PRECFOCK"></i>
   <i type="logical" name="LSYMGRAD"> F  </i>
   <i type="logical" name="LHFONE"> F  </i>
   <i type="logical" name="LRHFCALC"> F  </i>
   <i type="logical" name="LTHOMAS"> F  </i>
   <i type="logical" name="LMODELHF"> F  </i>
   <i type="logical" name="LFOCKACE"> F  </i>
   <i name="ENCUT4O">     -1.00000000</i>
   <i type="int" name="EXXOEP">     0</i>
   <i type="int" name="FOURORBIT">     0</i>
   <i name="AEXX">      0.00000000</i>
   <i name="HFALPHA">      0.00000000</i>
   <i name="MCALPHA">      0.00000000</i>
   <i name="ALDAX">      1.00000000</i>
   <i name="AGGAX">      1.00000000</i>
   <i name="AMGGAX">      1.00000000</i>
   <i name="ALDAC">      1.00000000</i>
   <i name="AGGAC">      1.00000000</i>
   <i name="AMGGAC">      1.00000000</i>
   <i type="int" name="NKREDX">     1</i>
   <i type="int" name="NKREDY">     1</i>
   <i type="int" name="NKREDZ">     1</i>
   <i type="logical" name="SHIFTRED"> F  </i>
   <i type="logical" name="ODDONLY"> F  </i>
   <i type="logical" name="EVENONLY"> F  </i>
   <i type="int" name="LMAXFOCK">     0</i>
   <i type="int" name="NMAXFOCKAE">     0</i>
   <i type="logical" name="LFOCKAEDFT"> F  </i>
   <i name="HFSCREEN">      0.00000000</i>
   <i name="HFSCREENC">      0.00000000</i>
   <i type="int" name="NBANDSGWLOW">     0</i>
  </separator>
  <separator name="vdW DFT" >
   <i type="logical" name="LUSE_VDW"> F  </i>
   <i type="int" name="IVDW_NL">    -1</i>
   <i type="logical" name="LSPIN_VDW"> F  </i>
   <i name="ZAB_VDW">     -0.84910000</i>
   <i name="GAMMA_VDW">      1.39626340</i>
   <i name="ALPHA_VDW">      0.00000000</i>
   <i name="PARAM1">      0.12340000</i>
   <i name="PARAM2">      1.00000000</i>
   <i name="BPARAM">      6.30000000</i>
   <i name="CPARAM">      0.00930000</i>
  </separator>
  <separator name="model GW" >
   <i type="int" name="MODEL_GW">     0</i>
   <i name="MODEL_EPS0">     21.26130353</i>
   <i name="MODEL_ALPHA">      1.00000000</i>
  </separator>
  <separator name="linear response parameters" >
   <i type="logical" name="LEPSILON"> F  </i>
   <i type="logical" name="LRPA"> F  </i>
   <i type="logical" name="LNABLA"> F  </i>
   <i type="logical" name="LVEL"> F  </i>
   <i name="CSHIFT">      0.10000000</i>
   <i name="OMEGAMAX">     -1.00000000</i>
   <i name="DEG_THRESHOLD">      0.00200000</i>
   <i name="RTIME">     -0.10000000</i>
   <i name="WPLASMAI">      0.00000000</i>
   <v name="DFIELD">      0.00000000      0.00000000      0.00000000</v>
   <v name="WPLASMA">      0.00000000      0.00000000      0.00000000      0.00000000      0.00000000      0.00000000      0.00000000      0.00000000      0.00000000</v>
  </separator>
  <separator name="orbital magnetization" >
   <i type="logical" name="NUCIND"> F  </i>
   <v name="MAGPOS">      0.00000000      0.00000000      0.00000000</v>
   <i type="logical" name="LNICSALL"> T  </i>
   <i type="logical" name="ORBITALMAG"> F  </i>
   <i type="logical" name="LMAGBLOCH"> F  </i>
   <i type="logical" name="LCHIMAG"> F  </i>
   <i type="logical" name="LGAUGE"> T  </i>
   <i type="int" name="MAGATOM">     0</i>
   <v name="MAGDIPOL">      0.00000000      0.00000000      0.00000000</v>
   <v name="AVECCONST">      0.00000000      0.00000000      0.00000000</v>
  </separator>
  <separator name="response functions" >
   <i type="logical" name="LALL_IN_ONE"> F  </i>
   <i type="int" name="IALL_IN_ONE">    -1</i>
   <i type="int" name="NBANDS_WAVE">    -1</i>
   <i type="logical" name="LFINITE_TEMPERATURE"> F  </i>
   <i type="logical" name="LADDER"> F  </i>
   <i type="logical" name="LRPAFORCE"> F  </i>
   <i type="logical" name="LFXC"> F  </i>
   <i type="logical" name="LHARTREE"> T  </i>
   <i type="int" name="IBSE">     2</i>
   <v type="int" name="KPOINT">    -1     0     0     0</v>
   <i type="logical" name="LTCTC"> F  </i>
   <i type="logical" name="LTCTE"> F  </i>
   <i type="logical" name="LTETE"> F  </i>
   <i type="logical" name="LTRIPLET"> F  </i>
   <i type="logical" name="LFXCEPS"> F  </i>
   <i type="logical" name="LFXHEG"> F  </i>
   <i type="int" name="NATURALO">     2</i>
   <i type="logical" name="LHOLEGF"> F  </i>
   <i type="logical" name="L2ORDER"> F  </i>
   <i type="logical" name="LDMP1"> F  </i>
   <i type="logical" name="LMP2LT"> F  </i>
   <i type="logical" name="LSMP2LT"> F  </i>
   <i type="logical" name="LGWLF"> F  </i>
   <i name="ENCUTGW">     -1.60000002</i>
   <i name="ENCUTGWSOFT">     -1.60000002</i>
   <i name="ENCUTLF">     -1.00000000</i>
   <i type="logical" name="ESF_SPLINES"> F  </i>
   <i name="ESF_CONV">      0.01000000</i>
   <i type="int" name="ESF_NINTER">    15</i>
   <i type="int" name="LMAXMP2">    -1</i>
   <i name="SCISSOR">      0.00000000</i>
   <i type="int" name="NOMEGA">     0</i>
   <i type="int" name="NOMEGAR">     0</i>
   <i type="int" name="NBANDSGW">    -1</i>
   <i type="int" name="NBANDSO">    -1</i>
   <i type="int" name="NBANDSV">    -1</i>
   <i type="int" name="NELMGW">     1</i>
   <i type="int" name="NELMHF">     1</i>
   <i type="int" name="DIM">     3</i>
   <i type="int" name="IESPILON">     4</i>
   <i type="int" name="ANTIRES">     0</i>
   <i name="OMEGAMAX">    -30.00000000</i>
   <i name="OMEGAMIN">    -30.00000000</i>
   <i name="OMEGATL">   -200.00000000</i>
   <i type="int" name="OMEGAGRID">     0</i>
   <i name="CSHIFT">     -0.10000000</i>
   <i type="logical" name="LSELFENERGY"> F  </i>
   <i type="logical" name="LSPECTRAL"> F  </i>
   <i type="logical" name="LSPECTRALGW"> F  </i>
   <i type="logical" name="LSINGLES"> F  </i>
   <i type="logical" name="LFERMIGW"> F  </i>
   <i type="logical" name="ODDONLYGW"> F  </i>
   <i type="logical" name="EVENONLYGW"> F  </i>
   <i type="int" name="NKREDLFX">     1</i>
   <i type="int" name="NKREDLFY">     1</i>
   <i type="int" name="NKREDLFZ">     1</i>
   <i type="int" name="MAXMEM">  2800</i>
   <i type="int" name="TELESCOPE">     0</i>
   <i type="int" name="NTAUPAR">    -1</i>
   <i type="int" name="NOMEGAPAR">    -1</i>
   <i name="DAMP_NEWTON">      0.80000001</i>
   <i name="LAMBDA">      1.00000000</i>
  </separator>
  <separator name="External order field" >
   <i name="OFIELD_KAPPA">      0.00000000</i>
   <v name="OFIELD_K">      0.00000000      0.00000000      0.00000000</v>
   <i name="OFIELD_Q6_NEAR">      0.00000000</i>
   <i name="OFIELD_Q6_FAR">      0.00000000</i>
   <i name="OFIELD_A">      0.00000000</i>
  </separator>
  <separator name="optional k-points parameters" >
   <i type="int" name="KPOINTS_OPT_MODE">     1</i>
   <i type="logical" name="LKPOINTS_OPT"> F  </i>
  </separator>
 </parameters>
 <atominfo>
  <atoms>      45 </atoms>
  <types>       4 </types>
  <array name="atoms" >
   <dimension dim="1">ion</dimension>
   <field type="string">element</field>
   <field type="int">atomtype</field>
   <set>
    <rc><c>Mo</c><c>   1</c></rc>
    <rc><c>Mo</c><c>   1</c></rc>
    <rc><c>Mo</c><c>   1</c></rc>
    <rc><c>Mo</c><c>   1</c></rc>
    <rc><c>Mo</c><c>   1</c></rc>
    <rc><c>Mo</c><c>   1</c></rc>
    <rc><c>Mo</c><c>   1</c></rc>
    <rc><c>Mo</c><c>   1</c></rc>
    <rc><c>Mo</c><c>   1</c></rc>
    <rc><c>S </c><c>   2</c></rc>
    <rc><c>S </c><c>   2</c></rc>
    <rc><c>S </c><c>   2</c></rc>
    <rc><c>S </c><c>   2</c></rc>
    <rc><c>S </c><c>   2</c></rc>
    <rc><c>S </c><c>   2</c></rc>
    <rc><c>S </c><c>   2</c></rc>
    <rc><c>S </c><c>   2</c></rc>
    <rc><c>S </c><c>   2</c></rc>
    <rc><c>S </c><c>   2</c></rc>
    <rc><c>S </c><c>   2</c></rc>
    <rc><c>S </c><c>   2</c></rc>
    <rc><c>S </c><c>   2</c></rc>
    <rc><c>S </c><c>   2</c></rc>
    <rc><c>S </c><c>   2</c></rc>
    <rc><c>S </c><c>   2</c></rc>
    <rc><c>S </c><c>   2</c></rc>
    <rc><c>S </c><c>   2</c></rc>
    <rc><c>Ga</c><c>   3</c></rc>
    <rc><c>Ga</c><c>   3</c></rc>
    <rc><c>Ga</c><c>   3</c></rc>
    <rc><c>Ga</c><c>   3</c></rc>
    <rc><c>Ga</c><c>   3</c></rc>
    <rc><c>Ga</c><c>   3</c></rc>
    <rc><c>Ga</c><c>   3</c></rc>
    <rc><c>Ga</c><c>   3</c></rc>
    <rc><c>Ga</c><c>   3</c></rc>
    <rc><c>N </c><c>   4</c></rc>
    <rc><c>N </c><c>   4</c></rc>
    <rc><c>N </c><c>   4</c></rc>
    <rc><c>N </c><c>   4</c></rc>
    <rc><c>N </c><c>   4</c></rc>
    <rc><c>N </c><c>   4</c></rc>
    <rc><c>N </c><c>   4</c></rc>
    <rc><c>N </c><c>   4</c></rc>
    <rc><c>N </c><c>   4</c></rc>
   </set>
  </array>
  <array name="atomtypes" >
   <dimension dim="1">type</dimension>
   <field type="int">atomspertype</field>
   <field type="string">element</field>
   <field>mass</field>
   <field>valence</field>
   <field type="string">pseudopotential</field>
   <set>
    <rc><c>   9</c><c>Mo</c><c>     95.94000000</c><c>     14.00000000</c><c>  PAW_PBE Mo_sv 02Feb2006               </c></rc>
    <rc><c>  18</c><c>S </c><c>     32.06600000</c><c>      6.00000000</c><c>  PAW_PBE S 06Sep2000                   </c></rc>
    <rc><c>   9</c><c>Ga</c><c>     69.72300000</c><c>      3.00000000</c><c>  PAW_PBE Ga 08Apr2002                  </c></rc>
    <rc><c>   9</c><c>N </c><c>     14.00100000</c><c>      5.00000000</c><c>  PAW_PBE N 08Apr2002                   </c></rc>
   </set>
  </array>
 </atominfo>
 <structure name="initialpos" >
  <crystal>
   <varray name="basis" >
    <v>       9.59500625       0.00000000       0.00000000 </v>
    <v>       4.79750312       8.30951916       0.00000000 </v>
    <v>       0.00000000       0.00000000      20.00000000 </v>
   </varray>
   <i name="volume">   1594.59776455 </i>
   <varray name="rec_basis" >
    <v>       0.10422088      -0.06017195       0.00000000 </v>
    <v>       0.00000000       0.12034391       0.00000000 </v>
    <v>       0.00000000       0.00000000       0.05000000 </v>
   </varray>
  </crystal>
  <varray name="positions" >
   <v>       0.00000000       0.00000000       0.47843073 </v>
   <v>       0.33333333       0.00000000       0.47843073 </v>
   <v>       0.66666667       0.00000000       0.47843073 </v>
   <v>       0.00000000       0.33333333       0.47843073 </v>
   <v>       0.33333333       0.33333333       0.47843073 </v>
   <v>       0.66666667       0.33333333       0.47843073 </v>
   <v>       0.00000000       0.66666667       0.47843073 </v>
   <v>       0.33333333       0.66666667       0.47843073 </v>
   <v>       0.66666667       0.66666667       0.47843073 </v>
   <v>       0.11156192       0.11111111       0.40123078 </v>
   <v>       0.44444444       0.11111111       0.40077998 </v>
   <v>       0.77777778       0.11111111       0.40077998 </v>
   <v>       0.11111111       0.44444444       0.40077998 </v>
   <v>       0.44444444       0.44444444       0.40077998 </v>
   <v>       0.77777778       0.44444444       0.40077998 </v>
   <v>       0.11111111       0.77777778       0.40077998 </v>
   <v>       0.44444444       0.77777778       0.40077998 </v>
   <v>       0.77777778       0.77777778       0.40077998 </v>
   <v>       0.11111111       0.11111111       0.55604403 </v>
   <v>       0.44444444       0.11111111       0.55604403 </v>
   <v>       0.77777778       0.11111111       0.55604403 </v>
   <v>       0.11111111       0.44444444       0.55604403 </v>
   <v>       0.44444444       0.44444444       0.55604403 </v>
   <v>       0.77777778       0.44444444       0.55604403 </v>
   <v>       0.11111111       0.77777778       0.55604403 </v>
   <v>       0.44444444       0.77777778       0.55604403 </v>
   <v>       0.77777778       0.77777778       0.55604403 </v>
   <v>       0.11111111       0.11111111       0.85731164 </v>
   <v>       0.44444444       0.11111111       0.85731164 </v>
   <v>       0.77777778       0.11111111       0.85731164 </v>
   <v>       0.11111111       0.44444444       0.85731164 </v>
   <v>       0.44444444       0.44444444       0.85731164 </v>
   <v>       0.77777778       0.44444444       0.85731164 </v>
   <v>       0.11111111       0.77777778       0.85731164 </v>
   <v>       0.44444444       0.77777778       0.85731164 </v>
   <v>       0.77777778       0.77777778       0.85731164 </v>
   <v>       0.00000000       0.00000000       0.85743362 </v>
   <v>       0.33333333       0.00000000       0.85743362 </v>
   <v>       0.66666667       0.00000000       0.85743362 </v>
   <v>       0.00000000       0.33333333       0.85743362 </v>
   <v>       0.33333333       0.33333333       0.85743362 </v>
   <v>       0.66666667       0.33333333       0.85743362 </v>
   <v>       0.00000000       0.66666667       0.85743362 </v>
   <v>       0.33333333       0.66666667       0.85743362 </v>
   <v>       0.66666667       0.66666667       0.85743362 </v>
  </varray>
 </structure>
 <calculation>
  <scstep>
   <time name="dav">    3.36    3.36</time>
   <time name="total">    3.50    3.50</time>
   <energy>
    <i name="alphaZ">    454.14963878 </i>
    <i name="ewald">  30109.09717550 </i>
    <i name="hartreedc"> -52123.04251732 </i>
    <i name="XCdc">    818.87250856 </i>
    <i name="pawpsdc">  19798.08761350 </i>
    <i name="pawaedc"> -19371.76568978 </i>
    <i name="eentropy">     -0.02062503 </i>
    <i name="bandstr">  -1805.30945296 </i>
    <i name="atom">  24653.94519717 </i>
    <i name="e_fr_energy">   2534.01384842 </i>
    <i name="e_wo_entrp">   2534.03447345 </i>
    <i name="e_0_energy">   2534.02416093 </i>
   </energy>
  </scstep>
  <scstep>
   <time name="dav">    3.43    3.43</time>
   <time name="total">    3.43    3.43</time>
   <energy>
    <i name="e_fr_energy">    -53.07933086 </i>
    <i name="e_wo_entrp">    -53.07933086 </i>
    <i name="e_0_energy">    -53.07933086 </i>
   </energy>
  </scstep>
  <scstep>
   <time name="dav">    3.34    3.34</time>
   <time name="total">    3.34    3.34</time>
   <energy>
    <i name="e_fr_energy">   -327.91506770 </i>
    <i name="e_wo_entrp">   -327.91275302 </i>
    <i name="e_0_energy">   -327.91391036 </i>
   </energy>
  </scstep>
  <scstep>
   <time name="dav">    3.70    3.71</time>
   <time name="total">    3.71    3.71</time>
   <energy>
    <i name="e_fr_energy">   -339.04427253 </i>
    <i name="e_wo_entrp">   -339.04046073 </i>
    <i name="e_0_energy">   -339.04236663 </i>
   </energy>
  </scstep>
  <scstep>
   <time name="dav">    3.54    3.54</time>
   <time name="total">    3.80    3.80</time>
   <energy>
    <i name="e_fr_energy">   -339.34283289 </i>
    <i name="e_wo_entrp">   -339.33893657 </i>
    <i name="e_0_energy">   -339.34088473 </i>
   </energy>
  </scstep>
  <scstep>
   <time name="dav">    3.28    3.28</time>
   <time name="total">    3.66    3.66</time>
   <energy>
    <i name="e_fr_energy">   -301.66822151 </i>
    <i name="e_wo_entrp">   -301.66822151 </i>
    <i name="e_0_energy">   -301.66822151 </i>
   </energy>
  </scstep>
  <scstep>
   <time name="dav">    3.19    3.19</time>
   <time name="total">    3.54    3.54</time>
   <energy>
    <i name="e_fr_energy">   -300.49373923 </i>
    <i name="e_wo_entrp">   -300.49373923 </i>
    <i name="e_0_energy">   -300.49373923 </i>
   </energy>
  </scstep>
  <scstep>
   <time name="dav">    3.32    3.32</time>
   <time name="total">    3.67    3.67</time>
   <energy>
    <i name="e_fr_energy">   -298.46648002 </i>
    <i name="e_wo_entrp">   -298.46648002 </i>
    <i name="e_0_energy">   -298.46648002 </i>
   </energy>
  </scstep>
  <scstep>
   <time name="dav">    3.39    3.39</time>
   <time name="total">    3.74    3.74</time>
   <energy>
    <i name="e_fr_energy">   -298.35495696 </i>
    <i name="e_wo_entrp">   -298.35495696 </i>
    <i name="e_0_energy">   -298.35495696 </i>
   </energy>
  </scstep>
  <scstep>
   <time name="dav">    3.38    3.38</time>
   <time name="total">    3.73    3.73</time>
   <energy>
    <i name="e_fr_energy">   -298.27385942 </i>
    <i name="e_wo_entrp">   -298.27385942 </i>
    <i name="e_0_energy">   -298.27385942 </i>
   </energy>
  </scstep>
  <scstep>
   <time name="dav">    3.50    3.50</time>
   <time name="total">    3.86    3.87</time>
   <energy>
    <i name="e_fr_energy">   -298.24622355 </i>
    <i name="e_wo_entrp">   -298.24622355 </i>
    <i name="e_0_energy">   -298.24622355 </i>
   </energy>
  </scstep>
  <scstep>
   <time name="dav">    3.28    3.28</time>
   <time name="total">    3.64    3.65</time>
   <energy>
    <i name="e_fr_energy">   -298.23062233 </i>
    <i name="e_wo_entrp">   -298.23062233 </i>
    <i name="e_0_energy">   -298.23062233 </i>
   </energy>
  </scstep>
  <scstep>
   <time name="dav">    3.37    3.37</time>
   <time name="total">    3.73    3.74</time>
   <energy>
    <i name="e_fr_energy">   -298.22118751 </i>
    <i name="e_wo_entrp">   -298.22118751 </i>
    <i name="e_0_energy">   -298.22118751 </i>
   </energy>
  </scstep>
  <scstep>
   <time name="dav">    3.18    3.18</time>
   <time name="total">    3.53    3.54</time>
   <energy>
    <i name="e_fr_energy">   -298.20894140 </i>
    <i name="e_wo_entrp">   -298.20894140 </i>
    <i name="e_0_energy">   -298.20894140 </i>
   </energy>
  </scstep>
  <scstep>
   <time name="dav">    3.33    3.33</time>
   <time name="total">    3.70    3.70</time>
   <energy>
    <i name="e_fr_energy">   -298.20414572 </i>
    <i name="e_wo_entrp">   -298.20414572 </i>
    <i name="e_0_energy">   -298.20414572 </i>
   </energy>
  </scstep>
  <scstep>
   <time name="dav">    3.19    3.19</time>
   <time name="total">    3.55    3.55</time>
   <energy>
    <i name="e_fr_energy">   -298.20202246 </i>
    <i name="e_wo_entrp">   -298.20202246 </i>
    <i name="e_0_energy">   -298.20202246 </i>
   </energy>
  </scstep>
  <scstep>
   <time name="dav">    3.17    3.17</time>
   <time name="total">    3.53    3.54</time>
   <energy>
    <i name="e_fr_energy">   -298.19987188 </i>
    <i name="e_wo_entrp">   -298.19987188 </i>
    <i name="e_0_energy">   -298.19987188 </i>
   </energy>
  </scstep>
  <scstep>
   <time name="dav">    3.33    3.33</time>
   <time name="total">    3.69    3.70</time>
   <energy>
    <i name="e_fr_energy">   -298.20162158 </i>
    <i name="e_wo_entrp">   -298.20162158 </i>
    <i name="e_0_energy">   -298.20162158 </i>
   </energy>
  </scstep>
  <scstep>
   <time name="dav">    3.36    3.36</time>
   <time name="total">    3.72    3.73</time>
   <energy>
    <i name="e_fr_energy">   -298.20338669 </i>
    <i name="e_wo_entrp">   -298.20338669 </i>
    <i name="e_0_energy">   -298.20338669 </i>
   </energy>
  </scstep>
  <scstep>
   <time name="dav">    3.34    3.34</time>
   <time name="total">    3.70    3.71</time>
   <energy>
    <i name="e_fr_energy">   -298.20379943 </i>
    <i name="e_wo_entrp">   -298.20379943 </i>
    <i name="e_0_energy">   -298.20379943 </i>
   </energy>
  </scstep>
  <scstep>
   <time name="dav">    3.42    3.42</time>
   <time name="total">    3.78    3.79</time>
   <energy>
    <i name="e_fr_energy">   -298.20404876 </i>
    <i name="e_wo_entrp">   -298.20404876 </i>
    <i name="e_0_energy">   -298.20404876 </i>
   </energy>
  </scstep>
  <scstep>
   <time name="dav">    3.12    3.12</time>
   <time name="total">    3.48    3.49</time>
   <energy>
    <i name="e_fr_energy">   -298.20418213 </i>
    <i name="e_wo_entrp">   -298.20418213 </i>
    <i name="e_0_energy">   -298.20418213 </i>
   </energy>
  </scstep>
  <scstep>
   <time name="dav">    3.15    3.15</time>
   <time name="total">    3.50    3.51</time>
   <energy>
    <i name="e_fr_energy">   -298.20433548 </i>
    <i name="e_wo_entrp">   -298.20433548 </i>
    <i name="e_0_energy">   -298.20433548 </i>
   </energy>
  </scstep>
  <scstep>
   <time name="dav">    3.11    3.11</time>
   <time name="total">    3.47    3.48</time>
   <energy>
    <i name="e_fr_energy">   -298.20440895 </i>
    <i name="e_wo_entrp">   -298.20440895 </i>
    <i name="e_0_energy">   -298.20440895 </i>
   </energy>
  </scstep>
  <scstep>
   <time name="dav">    2.67    2.67</time>
   <time name="total">    3.03    3.04</time>
   <energy>
    <i name="e_fr_energy">   -298.20446943 </i>
    <i name="e_wo_entrp">   -298.20446943 </i>
    <i name="e_0_energy">   -298.20446943 </i>
   </energy>
  </scstep>
  <scstep>
   <time name="dav">    2.96    2.96</time>
   <time name="total">    3.32    3.33</time>
   <energy>
    <i name="e_fr_energy">   -298.20467210 </i>
    <i name="e_wo_entrp">   -298.20467210 </i>
    <i name="e_0_energy">   -298.20467210 </i>
   </energy>
  </scstep>
  <scstep>
   <time name="dav">    2.91    2.91</time>
   <time name="total">    3.27    3.28</time>
   <energy>
    <i name="e_fr_energy">   -298.20458844 </i>
    <i name="e_wo_entrp">   -298.20458844 </i>
    <i name="e_0_energy">   -298.20458844 </i>
   </energy>
  </scstep>
  <scstep>
   <time name="dav">    3.09    3.09</time>
   <time name="total">    3.45    3.46</time>
   <energy>
    <i name="e_fr_energy">   -298.20457442 </i>
    <i name="e_wo_entrp">   -298.20457442 </i>
    <i name="e_0_energy">   -298.20457442 </i>
   </energy>
  </scstep>
  <scstep>
   <time name="dav">    2.67    2.67</time>
   <time name="total">    3.03    3.04</time>
   <energy>
    <i name="e_fr_energy">   -298.20458738 </i>
    <i name="e_wo_entrp">   -298.20458738 </i>
    <i name="e_0_energy">   -298.20458738 </i>
   </energy>
  </scstep>
  <scstep>
   <time name="dav">    2.77    2.77</time>
   <time name="total">    3.13    3.14</time>
   <energy>
    <i name="e_fr_energy">   -298.20461002 </i>
    <i name="e_wo_entrp">   -298.20461002 </i>
    <i name="e_0_energy">   -298.20461002 </i>
   </energy>
  </scstep>
  <scstep>
   <time name="dav">    2.42    2.42</time>
   <time name="total">    2.78    2.79</time>
   <energy>
    <i name="e_fr_energy">   -298.20462792 </i>
    <i name="e_wo_entrp">   -298.20462792 </i>
    <i name="e_0_energy">   -298.20462792 </i>
   </energy>
  </scstep>
  <scstep>
   <time name="dav">    2.44    2.44</time>
   <time name="total">    2.80    2.81</time>
   <energy>
    <i name="e_fr_energy">   -298.20463792 </i>
    <i name="e_wo_entrp">   -298.20463792 </i>
    <i name="e_0_energy">   -298.20463792 </i>
   </energy>
  </scstep>
  <scstep>
   <time name="dav">    2.31    2.32</time>
   <time name="total">    2.68    2.68</time>
   <energy>
    <i name="e_fr_energy">   -298.20463999 </i>
    <i name="e_wo_entrp">   -298.20463999 </i>
    <i name="e_0_energy">   -298.20463999 </i>
   </energy>
  </scstep>
  <scstep>
   <time name="dav">    2.38    2.38</time>
   <time name="total">    2.50    2.51</time>
   <energy>
    <i name="alphaZ">    454.14963878 </i>
    <i name="ewald">  30109.09717550 </i>
    <i name="hartreedc"> -52283.19901032 </i>
    <i name="XCdc">    829.44192860 </i>
    <i name="pawpsdc">  34399.74034472 </i>
    <i name="pawaedc"> -34014.46426675 </i>
    <i name="eentropy">     -0.00000000 </i>
    <i name="bandstr">  -4446.91564850 </i>
    <i name="atom">  24653.94519717 </i>
    <i name="e_fr_energy">   -298.20464079 </i>
    <i name="e_wo_entrp">   -298.20464079 </i>
    <i name="e_0_energy">   -298.20464079 </i>
   </energy>
  </scstep>
  <structure>
   <crystal>
    <varray name="basis" >
     <v>       9.59500625       0.00000000       0.00000000 </v>
     <v>       4.79750312       8.30951916       0.00000000 </v>
     <v>       0.00000000       0.00000000      20.00000000 </v>
    </varray>
    <i name="volume">   1594.59776455 </i>
    <varray name="rec_basis" >
     <v>       0.10422088      -0.06017195       0.00000000 </v>
     <v>       0.00000000       0.12034391       0.00000000 </v>
     <v>       0.00000000       0.00000000       0.05000000 </v>
    </varray>
   </crystal>
   <varray name="positions" >
    <v>       0.00000000       0.00000000       0.47843073 </v>
    <v>       0.33333333       0.00000000       0.47843073 </v>
    <v>       0.66666667       0.00000000       0.47843073 </v>
    <v>       0.00000000       0.33333333       0.47843073 </v>
    <v>       0.33333333       0.33333333       0.47843073 </v>
    <v>       0.66666667       0.33333333       0.47843073 </v>
    <v>       0.00000000       0.66666667       0.47843073 </v>
    <v>       0.33333333       0.66666667       0.47843073 </v>
    <v>       0.66666667       0.66666667       0.47843073 </v>
    <v>       0.11156192       0.11111111       0.40123078 </v>
    <v>       0.44444444       0.11111111       0.40077998 </v>
    <v>       0.77777778       0.11111111       0.40077998 </v>
    <v>       0.11111111       0.44444444       0.40077998 </v>
    <v>       0.44444444       0.44444444       0.40077998 </v>
    <v>       0.77777778       0.44444444       0.40077998 </v>
    <v>       0.11111111       0.77777778       0.40077998 </v>
    <v>       0.44444444       0.77777778       0.40077998 </v>
    <v>       0.77777778       0.77777778       0.40077998 </v>
    <v>       0.11111111       0.11111111       0.55604403 </v>
    <v>       0.44444444       0.11111111       0.55604403 </v>
    <v>       0.77777778       0.11111111       0.55604403 </v>
    <v>       0.11111111       0.44444444       0.55604403 </v>
    <v>       0.44444444       0.44444444       0.55604403 </v>
    <v>       0.77777778       0.44444444       0.55604403 </v>
    <v>       0.11111111       0.77777778       0.55604403 </v>
    <v>       0.44444444       0.77777778       0.55604403 </v>
    <v>       0.77777778       0.77777778       0.55604403 </v>
    <v>       0.11111111       0.11111111       0.85731164 </v>
    <v>       0.44444444       0.11111111       0.85731164 </v>
    <v>       0.77777778       0.11111111       0.85731164 </v>
    <v>       0.11111111       0.44444444       0.85731164 </v>
    <v>       0.44444444       0.44444444       0.85731164 </v>
    <v>       0.77777778       0.44444444       0.85731164 </v>
    <v>       0.11111111       0.77777778       0.85731164 </v>
    <v>       0.44444444       0.77777778       0.85731164 </v>
    <v>       0.77777778       0.77777778       0.85731164 </v>
    <v>       0.00000000       0.00000000       0.85743362 </v>
    <v>       0.33333333       0.00000000       0.85743362 </v>
    <v>       0.66666667       0.00000000       0.85743362 </v>
    <v>       0.00000000       0.33333333       0.85743362 </v>
    <v>       0.33333333       0.33333333       0.85743362 </v>
    <v>       0.66666667       0.33333333       0.85743362 </v>
    <v>       0.00000000       0.66666667       0.85743362 </v>
    <v>       0.33333333       0.66666667       0.85743362 </v>
    <v>       0.66666667       0.66666667       0.85743362 </v>
   </varray>
  </structure>
  <varray name="forces" >
   <v>      -0.00732143      -0.00833639       0.02652643 </v>
   <v>       0.04412359      -0.02136309       0.05300211 </v>
   <v>       0.00047957       0.00000029      -0.00005955 </v>
   <v>       0.00711973       0.02958200       0.03965914 </v>
   <v>       0.00052450       0.00141247       0.00085489 </v>
   <v>      -0.00015199      -0.00102187      -0.00055878 </v>
   <v>       0.00019112       0.00017082      -0.00005710 </v>
   <v>      -0.00192152      -0.00038809       0.00014661 </v>
   <v>       0.00018336      -0.00016618      -0.00006572 </v>
   <v>      -0.04760200       0.00014414      -0.11522898 </v>
   <v>       0.00199474       0.00009051       0.00965614 </v>
   <v>       0.00362591       0.00039207       0.00889069 </v>
   <v>       0.00015111       0.00072280       0.00956230 </v>
   <v>      -0.00026568       0.00000132       0.01323511 </v>
   <v>       0.00056553      -0.00240555       0.00897196 </v>
   <v>       0.00098907       0.00186205       0.00918446 </v>
   <v>      -0.00026853      -0.00067030       0.00935947 </v>
   <v>      -0.00026461       0.00000213       0.01323271 </v>
   <v>      -0.00123360      -0.00000136       0.02644811 </v>
   <v>       0.00221026       0.00177430       0.01053756 </v>
   <v>      -0.00080053       0.00064131       0.00907258 </v>
   <v>       0.00124513       0.00085133       0.00966086 </v>
   <v>       0.00006204       0.00000246       0.00868113 </v>
   <v>      -0.00235466       0.00054346       0.00994960 </v>
   <v>      -0.00024768      -0.00061845       0.00892835 </v>
   <v>      -0.00085025      -0.00321301       0.01068289 </v>
   <v>       0.00006011       0.00000183       0.00868294 </v>
   <v>      -0.00000206      -0.00000851      -0.01095419 </v>
   <v>      -0.00004686      -0.00000577      -0.01093651 </v>
   <v>       0.00000907       0.00001070      -0.01093457 </v>
   <v>      -0.00002284       0.00000297      -0.01093583 </v>
   <v>      -0.00000514      -0.00000902      -0.01092701 </v>
   <v>      -0.00001392      -0.00000955      -0.01093726 </v>
   <v>      -0.00002400       0.00000887      -0.01093449 </v>
   <v>      -0.00000966       0.00002555      -0.01093801 </v>
   <v>      -0.00000807      -0.00001951      -0.01093339 </v>
   <v>      -0.00002058      -0.00000390      -0.01005037 </v>
   <v>      -0.00000779      -0.00000164      -0.01004805 </v>
   <v>      -0.00001243       0.00000191      -0.01006121 </v>
   <v>      -0.00001048       0.00000344      -0.01005120 </v>
   <v>      -0.00000804       0.00000080      -0.01006215 </v>
   <v>      -0.00002021      -0.00000223      -0.01006407 </v>
   <v>      -0.00001163       0.00000055      -0.01006234 </v>
   <v>      -0.00001751      -0.00000618      -0.01006242 </v>
   <v>      -0.00001112       0.00000052      -0.01006286 </v>
  </varray>
  <varray name="stress" >
   <v>       6.06528237      -0.01385504       0.06238275 </v>
   <v>      -0.01385500       6.06410872      -0.00021110 </v>
   <v>       0.06238273      -0.00021103      -1.94632498 </v>
  </varray>
  <energy>
   <i name="e_fr_energy">   -308.55568719 </i>
   <i name="e_wo_entrp">   -308.55568719 </i>
   <i name="e_0_energy">   -308.55568719 </i>
  </energy>
  <time name="totalsc">  121.63  122.14</time>
  <eigenvalues>
   <array>
    <dimension dim="1">band</dimension>
    <dimension dim="2">kpoint</dimension>
    <dimension dim="3">spin</dimension>
    <field>eigene</field>
    <field>occ</field>
    <set>
     <set comment="spin 1">
      <set comment="kpoint 1">
       <r>  -61.9433    1.0000 </r>
       <r>  -61.9174    1.0000 </r>
       <r>  -61.9174    1.0000 </r>
       <r>  -61.9173    1.0000 </r>
       <r>  -61.9167    1.0000 </r>
       <r>  -61.9165    1.0000 </r>
       <r>  -61.9164    1.0000 </r>
       <r>  -61.9037    1.0000 </r>
       <r>  -61.9036    1.0000 </r>
       <r>  -36.1570    1.0000 </r>
       <r>  -36.1560    1.0000 </r>
       <r>  -36.1558    1.0000 </r>
       <r>  -36.1558    1.0000 </r>
       <r>  -36.1557    1.0000 </r>
       <r>  -36.1553    1.0000 </r>
       <r>  -36.1551    1.0000 </r>
       <r>  -36.1551    1.0000 </r>
       <r>  -36.1140    1.0000 </r>
       <r>  -36.1139    1.0000 </r>
       <r>  -36.0746    1.0000 </r>
       <r>  -36.0217    1.0000 </r>
       <r>  -36.0217    1.0000 </r>
       <r>  -36.0216    1.0000 </r>
       <r>  -36.0213    1.0000 </r>
       <r>  -36.0210    1.0000 </r>
       <r>  -36.0208    1.0000 </r>
       <r>  -35.9946    1.0000 </r>
       <r>  -35.9945    1.0000 </r>
       <r>  -35.9506    1.0000 </r>
       <r>  -35.9506    1.0000 </r>
       <r>  -35.9503    1.0000 </r>
       <r>  -35.9502    1.0000 </r>
       <r>  -35.9502    1.0000 </r>
       <r>  -35.9494    1.0000 </r>
       <r>  -35.8886    1.0000 </r>
       <r>  -35.8885    1.0000 </r>
       <r>  -15.1140    1.0000 </r>
       <r>  -14.7234    1.0000 </r>
       <r>  -13.8458    1.0000 </r>
       <r>  -13.8363    1.0000 </r>
       <r>  -13.8363    1.0000 </r>
       <r>  -13.8362    1.0000 </r>
       <r>  -13.8359    1.0000 </r>
       <r>  -13.8358    1.0000 </r>
       <r>  -13.7872    1.0000 </r>
       <r>  -13.5948    1.0000 </r>
       <r>  -13.5948    1.0000 </r>
       <r>  -13.5947    1.0000 </r>
       <r>  -13.5947    1.0000 </r>
       <r>  -13.5947    1.0000 </r>
       <r>  -13.5947    1.0000 </r>
       <r>  -13.2875    1.0000 </r>
       <r>  -13.2840    1.0000 </r>
       <r>  -13.2839    1.0000 </r>
       <r>  -13.2838    1.0000 </r>
       <r>  -13.2836    1.0000 </r>
       <r>  -13.2834    1.0000 </r>
       <r>  -13.0389    1.0000 </r>
       <r>  -13.0355    1.0000 </r>
       <r>  -12.9320    1.0000 </r>
       <r>  -12.9300    1.0000 </r>
       <r>  -12.7594    1.0000 </r>
       <r>  -12.7594    1.0000 </r>
       <r>   -6.6436    1.0000 </r>
       <r>   -6.4300    1.0000 </r>
       <r>   -6.4288    1.0000 </r>
       <r>   -6.2834    1.0000 </r>
       <r>   -6.2803    1.0000 </r>
       <r>   -6.2793    1.0000 </r>
       <r>   -6.2769    1.0000 </r>
       <r>   -6.2767    1.0000 </r>
       <r>   -6.2764    1.0000 </r>
       <r>   -5.9033    1.0000 </r>
       <r>   -5.9033    1.0000 </r>
       <r>   -5.6123    1.0000 </r>
       <r>   -5.6099    1.0000 </r>
       <r>   -5.2230    1.0000 </r>
       <r>   -5.2230    1.0000 </r>
       <r>   -5.2230    1.0000 </r>
       <r>   -5.2229    1.0000 </r>
       <r>   -5.2229    1.0000 </r>
       <r>   -5.2229    1.0000 </r>
       <r>   -5.1963    1.0000 </r>
       <r>   -5.1961    1.0000 </r>
       <r>   -5.1946    1.0000 </r>
       <r>   -5.1937    1.0000 </r>
       <r>   -5.1933    1.0000 </r>
       <r>   -5.1928    1.0000 </r>
       <r>   -5.0995    1.0000 </r>
       <r>   -5.0971    1.0000 </r>
       <r>   -4.9603    1.0000 </r>
       <r>   -4.9589    1.0000 </r>
       <r>   -4.9583    1.0000 </r>
       <r>   -4.9569    1.0000 </r>
       <r>   -4.9562    1.0000 </r>
       <r>   -4.9558    1.0000 </r>
       <r>   -4.6402    1.0000 </r>
       <r>   -4.6402    1.0000 </r>
       <r>   -4.6253    1.0000 </r>
       <r>   -4.6231    1.0000 </r>
       <r>   -3.9427    1.0000 </r>
       <r>   -3.9394    1.0000 </r>
       <r>   -3.9350    1.0000 </r>
       <r>   -3.9346    1.0000 </r>
       <r>   -3.9345    1.0000 </r>
       <r>   -3.9343    1.0000 </r>
       <r>   -3.8938    1.0000 </r>
       <r>   -3.8919    1.0000 </r>
       <r>   -3.7247    1.0000 </r>
       <r>   -3.7242    1.0000 </r>
       <r>   -3.1705    1.0000 </r>
       <r>   -3.1688    1.0000 </r>
       <r>   -2.9846    1.0000 </r>
       <r>   -2.7628    1.0000 </r>
       <r>   -2.6374    1.0000 </r>
       <r>   -2.6372    1.0000 </r>
       <r>   -2.6369    1.0000 </r>
       <r>   -2.6363    1.0000 </r>
       <r>   -2.6359    1.0000 </r>
       <r>   -2.6304    1.0000 </r>
       <r>   -2.6206    1.0000 </r>
       <r>   -2.6185    1.0000 </r>
       <r>   -2.4970    1.0000 </r>
       <r>   -2.4968    1.0000 </r>
       <r>   -2.4910    1.0000 </r>
       <r>   -2.4909    1.0000 </r>
       <r>   -2.4908    1.0000 </r>
       <r>   -2.4906    1.0000 </r>
       <r>   -2.0946    1.0000 </r>
       <r>   -2.0946    1.0000 </r>
       <r>   -2.0946    1.0000 </r>
       <r>   -2.0946    1.0000 </r>
       <r>   -2.0945    1.0000 </r>
       <r>   -2.0945    1.0000 </r>
       <r>   -2.0059    1.0000 </r>
       <r>   -2.0043    1.0000 </r>
       <r>   -2.0042    1.0000 </r>
       <r>   -2.0041    1.0000 </r>
       <r>   -2.0036    1.0000 </r>
       <r>   -2.0009    1.0000 </r>
       <r>   -1.4947    1.0000 </r>
       <r>   -1.4947    1.0000 </r>
       <r>   -1.4947    1.0000 </r>
       <r>   -1.4947    1.0000 </r>
       <r>   -1.4947    1.0000 </r>
       <r>   -1.4946    1.0000 </r>
       <r>   -1.0938    1.0000 </r>
       <r>   -1.0932    1.0000 </r>
       <r>   -0.9959    1.0000 </r>
       <r>   -0.7300    1.0000 </r>
       <r>   -0.7300    1.0000 </r>
       <r>   -0.4051    1.0000 </r>
       <r>   -0.4051    1.0000 </r>
       <r>    0.5298    0.0000 </r>
       <r>    0.5301    0.0000 </r>
       <r>    1.1216    0.0000 </r>
       <r>    1.1218    0.0000 </r>
       <r>    1.1224    0.0000 </r>
       <r>    1.1227    0.0000 </r>
       <r>    1.1248    0.0000 </r>
       <r>    1.1253    0.0000 </r>
       <r>    1.2876    0.0000 </r>
       <r>    1.2878    0.0000 </r>
       <r>    1.2882    0.0000 </r>
       <r>    1.2904    0.0000 </r>
       <r>    1.2912    0.0000 </r>
       <r>    1.2924    0.0000 </r>
       <r>    1.6627    0.0000 </r>
       <r>    1.6652    0.0000 </r>
       <r>    1.8642    0.0000 </r>
       <r>    1.9359    0.0000 </r>
       <r>    1.9369    0.0000 </r>
       <r>    2.0523    0.0000 </r>
       <r>    2.0537    0.0000 </r>
       <r>    2.3175    0.0000 </r>
       <r>    2.3178    0.0000 </r>
       <r>    2.3185    0.0000 </r>
       <r>    2.3200    0.0000 </r>
       <r>    2.3207    0.0000 </r>
       <r>    2.3242    0.0000 </r>
       <r>    2.4604    0.0000 </r>
       <r>    2.4644    0.0000 </r>
       <r>    3.0086    0.0000 </r>
       <r>    3.0087    0.0000 </r>
       <r>    3.0092    0.0000 </r>
       <r>    3.0114    0.0000 </r>
       <r>    3.0150    0.0000 </r>
      </set>
      <set comment="kpoint 2">
       <r>  -61.9418    1.0000 </r>
       <r>  -61.9239    1.0000 </r>
       <r>  -61.9197    1.0000 </r>
       <r>  -61.9196    1.0000 </r>
       <r>  -61.9135    1.0000 </r>
       <r>  -61.9134    1.0000 </r>
       <r>  -61.9114    1.0000 </r>
       <r>  -61.9045    1.0000 </r>
       <r>  -61.9044    1.0000 </r>
       <r>  -36.2094    1.0000 </r>
       <r>  -36.1833    1.0000 </r>
       <r>  -36.1828    1.0000 </r>
       <r>  -36.1763    1.0000 </r>
       <r>  -36.1756    1.0000 </r>
       <r>  -36.1234    1.0000 </r>
       <r>  -36.1230    1.0000 </r>
       <r>  -36.0864    1.0000 </r>
       <r>  -36.0843    1.0000 </r>
       <r>  -36.0841    1.0000 </r>
       <r>  -36.0715    1.0000 </r>
       <r>  -36.0354    1.0000 </r>
       <r>  -36.0269    1.0000 </r>
       <r>  -36.0268    1.0000 </r>
       <r>  -36.0144    1.0000 </r>
       <r>  -36.0142    1.0000 </r>
       <r>  -36.0103    1.0000 </r>
       <r>  -35.9962    1.0000 </r>
       <r>  -35.9961    1.0000 </r>
       <r>  -35.9658    1.0000 </r>
       <r>  -35.9655    1.0000 </r>
       <r>  -35.9628    1.0000 </r>
       <r>  -35.9497    1.0000 </r>
       <r>  -35.9494    1.0000 </r>
       <r>  -35.9340    1.0000 </r>
       <r>  -35.9043    1.0000 </r>
       <r>  -35.8921    1.0000 </r>
       <r>  -15.0494    1.0000 </r>
       <r>  -14.6708    1.0000 </r>
       <r>  -14.2139    1.0000 </r>
       <r>  -13.9921    1.0000 </r>
       <r>  -13.9887    1.0000 </r>
       <r>  -13.9489    1.0000 </r>
       <r>  -13.7615    1.0000 </r>
       <r>  -13.7412    1.0000 </r>
       <r>  -13.7412    1.0000 </r>
       <r>  -13.6377    1.0000 </r>
       <r>  -13.6343    1.0000 </r>
       <r>  -13.5129    1.0000 </r>
       <r>  -13.4302    1.0000 </r>
       <r>  -13.3961    1.0000 </r>
       <r>  -13.3961    1.0000 </r>
       <r>  -13.3418    1.0000 </r>
       <r>  -13.3408    1.0000 </r>
       <r>  -13.2708    1.0000 </r>
       <r>  -13.2053    1.0000 </r>
       <r>  -13.2040    1.0000 </r>
       <r>  -13.1621    1.0000 </r>
       <r>  -13.0872    1.0000 </r>
       <r>  -13.0839    1.0000 </r>
       <r>  -12.9568    1.0000 </r>
       <r>  -12.9549    1.0000 </r>
       <r>  -12.8144    1.0000 </r>
       <r>  -12.8143    1.0000 </r>
       <r>   -6.5746    1.0000 </r>
       <r>   -6.5694    1.0000 </r>
       <r>   -6.3930    1.0000 </r>
       <r>   -6.3925    1.0000 </r>
       <r>   -6.3358    1.0000 </r>
       <r>   -6.3347    1.0000 </r>
       <r>   -6.1167    1.0000 </r>
       <r>   -6.1151    1.0000 </r>
       <r>   -6.0524    1.0000 </r>
       <r>   -5.9867    1.0000 </r>
       <r>   -5.9669    1.0000 </r>
       <r>   -5.9669    1.0000 </r>
       <r>   -5.9126    1.0000 </r>
       <r>   -5.9114    1.0000 </r>
       <r>   -5.6240    1.0000 </r>
       <r>   -5.6240    1.0000 </r>
       <r>   -5.5572    1.0000 </r>
       <r>   -5.4270    1.0000 </r>
       <r>   -5.4261    1.0000 </r>
       <r>   -5.0174    1.0000 </r>
       <r>   -4.9783    1.0000 </r>
       <r>   -4.9778    1.0000 </r>
       <r>   -4.9499    1.0000 </r>
       <r>   -4.9481    1.0000 </r>
       <r>   -4.9322    1.0000 </r>
       <r>   -4.9311    1.0000 </r>
       <r>   -4.9211    1.0000 </r>
       <r>   -4.8917    1.0000 </r>
       <r>   -4.8906    1.0000 </r>
       <r>   -4.7667    1.0000 </r>
       <r>   -4.7667    1.0000 </r>
       <r>   -4.7279    1.0000 </r>
       <r>   -4.4050    1.0000 </r>
       <r>   -4.4040    1.0000 </r>
       <r>   -4.3736    1.0000 </r>
       <r>   -4.3736    1.0000 </r>
       <r>   -4.2442    1.0000 </r>
       <r>   -4.1347    1.0000 </r>
       <r>   -4.1338    1.0000 </r>
       <r>   -4.1311    1.0000 </r>
       <r>   -4.0094    1.0000 </r>
       <r>   -4.0075    1.0000 </r>
       <r>   -3.9702    1.0000 </r>
       <r>   -3.9679    1.0000 </r>
       <r>   -3.8704    1.0000 </r>
       <r>   -3.6599    1.0000 </r>
       <r>   -3.6556    1.0000 </r>
       <r>   -3.1821    1.0000 </r>
       <r>   -3.0394    1.0000 </r>
       <r>   -3.0380    1.0000 </r>
       <r>   -2.9124    1.0000 </r>
       <r>   -2.8242    1.0000 </r>
       <r>   -2.7937    1.0000 </r>
       <r>   -2.7787    1.0000 </r>
       <r>   -2.7764    1.0000 </r>
       <r>   -2.7234    1.0000 </r>
       <r>   -2.6512    1.0000 </r>
       <r>   -2.6492    1.0000 </r>
       <r>   -2.6166    1.0000 </r>
       <r>   -2.6147    1.0000 </r>
       <r>   -2.4249    1.0000 </r>
       <r>   -2.4249    1.0000 </r>
       <r>   -2.4120    1.0000 </r>
       <r>   -2.4113    1.0000 </r>
       <r>   -2.4080    1.0000 </r>
       <r>   -2.3307    1.0000 </r>
       <r>   -2.2984    1.0000 </r>
       <r>   -2.2416    1.0000 </r>
       <r>   -2.1222    1.0000 </r>
       <r>   -2.1222    1.0000 </r>
       <r>   -1.9630    1.0000 </r>
       <r>   -1.9191    1.0000 </r>
       <r>   -1.9186    1.0000 </r>
       <r>   -1.8940    1.0000 </r>
       <r>   -1.8698    1.0000 </r>
       <r>   -1.8682    1.0000 </r>
       <r>   -1.8299    1.0000 </r>
       <r>   -1.7741    1.0000 </r>
       <r>   -1.6897    1.0000 </r>
       <r>   -1.6896    1.0000 </r>
       <r>   -1.2316    1.0000 </r>
       <r>   -1.2316    1.0000 </r>
       <r>   -1.2285    1.0000 </r>
       <r>   -1.2280    1.0000 </r>
       <r>   -1.1533    1.0000 </r>
       <r>   -1.0608    1.0000 </r>
       <r>   -1.0314    1.0000 </r>
       <r>   -0.8221    1.0000 </r>
       <r>   -0.4749    1.0000 </r>
       <r>   -0.4749    1.0000 </r>
       <r>    0.7045    0.0000 </r>
       <r>    0.7050    0.0000 </r>
       <r>    1.0343    0.0000 </r>
       <r>    1.0349    0.0000 </r>
       <r>    1.0884    0.0000 </r>
       <r>    1.0902    0.0000 </r>
       <r>    1.0994    0.0000 </r>
       <r>    1.1570    0.0000 </r>
       <r>    1.2377    0.0000 </r>
       <r>    1.3234    0.0000 </r>
       <r>    1.3252    0.0000 </r>
       <r>    1.4097    0.0000 </r>
       <r>    1.4105    0.0000 </r>
       <r>    1.4757    0.0000 </r>
       <r>    1.5734    0.0000 </r>
       <r>    1.7534    0.0000 </r>
       <r>    1.7806    0.0000 </r>
       <r>    1.8617    0.0000 </r>
       <r>    1.9201    0.0000 </r>
       <r>    1.9913    0.0000 </r>
       <r>    1.9918    0.0000 </r>
       <r>    2.1066    0.0000 </r>
       <r>    2.1081    0.0000 </r>
       <r>    2.1716    0.0000 </r>
       <r>    2.2845    0.0000 </r>
       <r>    2.2875    0.0000 </r>
       <r>    2.3837    0.0000 </r>
       <r>    2.3857    0.0000 </r>
       <r>    2.6354    0.0000 </r>
       <r>    2.7652    0.0000 </r>
       <r>    3.0090    0.0000 </r>
       <r>    3.0126    0.0000 </r>
       <r>    3.1554    0.0000 </r>
       <r>    3.1566    0.0000 </r>
      </set>
      <set comment="kpoint 3">
       <r>  -61.9418    1.0000 </r>
       <r>  -61.9239    1.0000 </r>
       <r>  -61.9197    1.0000 </r>
       <r>  -61.9196    1.0000 </r>
       <r>  -61.9135    1.0000 </r>
       <r>  -61.9134    1.0000 </r>
       <r>  -61.9114    1.0000 </r>
       <r>  -61.9045    1.0000 </r>
       <r>  -61.9044    1.0000 </r>
       <r>  -36.2093    1.0000 </r>
       <r>  -36.1834    1.0000 </r>
       <r>  -36.1828    1.0000 </r>
       <r>  -36.1763    1.0000 </r>
       <r>  -36.1755    1.0000 </r>
       <r>  -36.1235    1.0000 </r>
       <r>  -36.1230    1.0000 </r>
       <r>  -36.0863    1.0000 </r>
       <r>  -36.0844    1.0000 </r>
       <r>  -36.0841    1.0000 </r>
       <r>  -36.0715    1.0000 </r>
       <r>  -36.0354    1.0000 </r>
       <r>  -36.0269    1.0000 </r>
       <r>  -36.0268    1.0000 </r>
       <r>  -36.0143    1.0000 </r>
       <r>  -36.0143    1.0000 </r>
       <r>  -36.0103    1.0000 </r>
       <r>  -35.9962    1.0000 </r>
       <r>  -35.9961    1.0000 </r>
       <r>  -35.9658    1.0000 </r>
       <r>  -35.9654    1.0000 </r>
       <r>  -35.9628    1.0000 </r>
       <r>  -35.9497    1.0000 </r>
       <r>  -35.9493    1.0000 </r>
       <r>  -35.9340    1.0000 </r>
       <r>  -35.9042    1.0000 </r>
       <r>  -35.8921    1.0000 </r>
       <r>  -15.0494    1.0000 </r>
       <r>  -14.6708    1.0000 </r>
       <r>  -14.2141    1.0000 </r>
       <r>  -13.9918    1.0000 </r>
       <r>  -13.9887    1.0000 </r>
       <r>  -13.9489    1.0000 </r>
       <r>  -13.7615    1.0000 </r>
       <r>  -13.7412    1.0000 </r>
       <r>  -13.7412    1.0000 </r>
       <r>  -13.6375    1.0000 </r>
       <r>  -13.6343    1.0000 </r>
       <r>  -13.5132    1.0000 </r>
       <r>  -13.4300    1.0000 </r>
       <r>  -13.3961    1.0000 </r>
       <r>  -13.3961    1.0000 </r>
       <r>  -13.3422    1.0000 </r>
       <r>  -13.3408    1.0000 </r>
       <r>  -13.2708    1.0000 </r>
       <r>  -13.2056    1.0000 </r>
       <r>  -13.2039    1.0000 </r>
       <r>  -13.1617    1.0000 </r>
       <r>  -13.0872    1.0000 </r>
       <r>  -13.0839    1.0000 </r>
       <r>  -12.9568    1.0000 </r>
       <r>  -12.9549    1.0000 </r>
       <r>  -12.8144    1.0000 </r>
       <r>  -12.8143    1.0000 </r>
       <r>   -6.5744    1.0000 </r>
       <r>   -6.5694    1.0000 </r>
       <r>   -6.3934    1.0000 </r>
       <r>   -6.3923    1.0000 </r>
       <r>   -6.3358    1.0000 </r>
       <r>   -6.3347    1.0000 </r>
       <r>   -6.1168    1.0000 </r>
       <r>   -6.1149    1.0000 </r>
       <r>   -6.0525    1.0000 </r>
       <r>   -5.9867    1.0000 </r>
       <r>   -5.9669    1.0000 </r>
       <r>   -5.9669    1.0000 </r>
       <r>   -5.9126    1.0000 </r>
       <r>   -5.9115    1.0000 </r>
       <r>   -5.6240    1.0000 </r>
       <r>   -5.6240    1.0000 </r>
       <r>   -5.5575    1.0000 </r>
       <r>   -5.4271    1.0000 </r>
       <r>   -5.4264    1.0000 </r>
       <r>   -5.0180    1.0000 </r>
       <r>   -4.9784    1.0000 </r>
       <r>   -4.9774    1.0000 </r>
       <r>   -4.9490    1.0000 </r>
       <r>   -4.9483    1.0000 </r>
       <r>   -4.9321    1.0000 </r>
       <r>   -4.9307    1.0000 </r>
       <r>   -4.9215    1.0000 </r>
       <r>   -4.8914    1.0000 </r>
       <r>   -4.8904    1.0000 </r>
       <r>   -4.7667    1.0000 </r>
       <r>   -4.7667    1.0000 </r>
       <r>   -4.7275    1.0000 </r>
       <r>   -4.4057    1.0000 </r>
       <r>   -4.4036    1.0000 </r>
       <r>   -4.3736    1.0000 </r>
       <r>   -4.3736    1.0000 </r>
       <r>   -4.2442    1.0000 </r>
       <r>   -4.1352    1.0000 </r>
       <r>   -4.1326    1.0000 </r>
       <r>   -4.1311    1.0000 </r>
       <r>   -4.0092    1.0000 </r>
       <r>   -4.0073    1.0000 </r>
       <r>   -3.9699    1.0000 </r>
       <r>   -3.9683    1.0000 </r>
       <r>   -3.8708    1.0000 </r>
       <r>   -3.6607    1.0000 </r>
       <r>   -3.6555    1.0000 </r>
       <r>   -3.1811    1.0000 </r>
       <r>   -3.0397    1.0000 </r>
       <r>   -3.0381    1.0000 </r>
       <r>   -2.9124    1.0000 </r>
       <r>   -2.8240    1.0000 </r>
       <r>   -2.7931    1.0000 </r>
       <r>   -2.7786    1.0000 </r>
       <r>   -2.7764    1.0000 </r>
       <r>   -2.7251    1.0000 </r>
       <r>   -2.6510    1.0000 </r>
       <r>   -2.6502    1.0000 </r>
       <r>   -2.6173    1.0000 </r>
       <r>   -2.6151    1.0000 </r>
       <r>   -2.4249    1.0000 </r>
       <r>   -2.4249    1.0000 </r>
       <r>   -2.4118    1.0000 </r>
       <r>   -2.4113    1.0000 </r>
       <r>   -2.4078    1.0000 </r>
       <r>   -2.3307    1.0000 </r>
       <r>   -2.2977    1.0000 </r>
       <r>   -2.2417    1.0000 </r>
       <r>   -2.1222    1.0000 </r>
       <r>   -2.1222    1.0000 </r>
       <r>   -1.9630    1.0000 </r>
       <r>   -1.9201    1.0000 </r>
       <r>   -1.9194    1.0000 </r>
       <r>   -1.8930    1.0000 </r>
       <r>   -1.8700    1.0000 </r>
       <r>   -1.8677    1.0000 </r>
       <r>   -1.8290    1.0000 </r>
       <r>   -1.7741    1.0000 </r>
       <r>   -1.6897    1.0000 </r>
       <r>   -1.6896    1.0000 </r>
       <r>   -1.2316    1.0000 </r>
       <r>   -1.2316    1.0000 </r>
       <r>   -1.2286    1.0000 </r>
       <r>   -1.2280    1.0000 </r>
       <r>   -1.1533    1.0000 </r>
       <r>   -1.0608    1.0000 </r>
       <r>   -1.0313    1.0000 </r>
       <r>   -0.8221    1.0000 </r>
       <r>   -0.4749    1.0000 </r>
       <r>   -0.4749    1.0000 </r>
       <r>    0.7047    0.0000 </r>
       <r>    0.7049    0.0000 </r>
       <r>    1.0349    0.0000 </r>
       <r>    1.0354    0.0000 </r>
       <r>    1.0882    0.0000 </r>
       <r>    1.0899    0.0000 </r>
       <r>    1.0996    0.0000 </r>
       <r>    1.1569    0.0000 </r>
       <r>    1.2374    0.0000 </r>
       <r>    1.3229    0.0000 </r>
       <r>    1.3248    0.0000 </r>
       <r>    1.4101    0.0000 </r>
       <r>    1.4109    0.0000 </r>
       <r>    1.4756    0.0000 </r>
       <r>    1.5714    0.0000 </r>
       <r>    1.7542    0.0000 </r>
       <r>    1.7826    0.0000 </r>
       <r>    1.8609    0.0000 </r>
       <r>    1.9192    0.0000 </r>
       <r>    1.9909    0.0000 </r>
       <r>    1.9920    0.0000 </r>
       <r>    2.1069    0.0000 </r>
       <r>    2.1080    0.0000 </r>
       <r>    2.1716    0.0000 </r>
       <r>    2.2845    0.0000 </r>
       <r>    2.2875    0.0000 </r>
       <r>    2.3837    0.0000 </r>
       <r>    2.3880    0.0000 </r>
       <r>    2.6342    0.0000 </r>
       <r>    2.7661    0.0000 </r>
       <r>    3.0091    0.0000 </r>
       <r>    3.0131    0.0000 </r>
       <r>    3.1540    0.0000 </r>
       <r>    3.1604    0.0000 </r>
      </set>
      <set comment="kpoint 4">
       <r>  -61.9418    1.0000 </r>
       <r>  -61.9239    1.0000 </r>
       <r>  -61.9197    1.0000 </r>
       <r>  -61.9196    1.0000 </r>
       <r>  -61.9135    1.0000 </r>
       <r>  -61.9134    1.0000 </r>
       <r>  -61.9114    1.0000 </r>
       <r>  -61.9045    1.0000 </r>
       <r>  -61.9044    1.0000 </r>
       <r>  -36.2094    1.0000 </r>
       <r>  -36.1833    1.0000 </r>
       <r>  -36.1828    1.0000 </r>
       <r>  -36.1763    1.0000 </r>
       <r>  -36.1756    1.0000 </r>
       <r>  -36.1235    1.0000 </r>
       <r>  -36.1230    1.0000 </r>
       <r>  -36.0864    1.0000 </r>
       <r>  -36.0843    1.0000 </r>
       <r>  -36.0841    1.0000 </r>
       <r>  -36.0715    1.0000 </r>
       <r>  -36.0354    1.0000 </r>
       <r>  -36.0269    1.0000 </r>
       <r>  -36.0268    1.0000 </r>
       <r>  -36.0143    1.0000 </r>
       <r>  -36.0142    1.0000 </r>
       <r>  -36.0103    1.0000 </r>
       <r>  -35.9962    1.0000 </r>
       <r>  -35.9961    1.0000 </r>
       <r>  -35.9658    1.0000 </r>
       <r>  -35.9654    1.0000 </r>
       <r>  -35.9628    1.0000 </r>
       <r>  -35.9497    1.0000 </r>
       <r>  -35.9493    1.0000 </r>
       <r>  -35.9340    1.0000 </r>
       <r>  -35.9043    1.0000 </r>
       <r>  -35.8921    1.0000 </r>
       <r>  -15.0494    1.0000 </r>
       <r>  -14.6708    1.0000 </r>
       <r>  -14.2140    1.0000 </r>
       <r>  -13.9921    1.0000 </r>
       <r>  -13.9886    1.0000 </r>
       <r>  -13.9489    1.0000 </r>
       <r>  -13.7615    1.0000 </r>
       <r>  -13.7412    1.0000 </r>
       <r>  -13.7412    1.0000 </r>
       <r>  -13.6377    1.0000 </r>
       <r>  -13.6342    1.0000 </r>
       <r>  -13.5130    1.0000 </r>
       <r>  -13.4301    1.0000 </r>
       <r>  -13.3961    1.0000 </r>
       <r>  -13.3961    1.0000 </r>
       <r>  -13.3421    1.0000 </r>
       <r>  -13.3407    1.0000 </r>
       <r>  -13.2708    1.0000 </r>
       <r>  -13.2055    1.0000 </r>
       <r>  -13.2039    1.0000 </r>
       <r>  -13.1619    1.0000 </r>
       <r>  -13.0872    1.0000 </r>
       <r>  -13.0839    1.0000 </r>
       <r>  -12.9568    1.0000 </r>
       <r>  -12.9549    1.0000 </r>
       <r>  -12.8144    1.0000 </r>
       <r>  -12.8143    1.0000 </r>
       <r>   -6.5745    1.0000 </r>
       <r>   -6.5694    1.0000 </r>
       <r>   -6.3933    1.0000 </r>
       <r>   -6.3923    1.0000 </r>
       <r>   -6.3358    1.0000 </r>
       <r>   -6.3347    1.0000 </r>
       <r>   -6.1168    1.0000 </r>
       <r>   -6.1149    1.0000 </r>
       <r>   -6.0525    1.0000 </r>
       <r>   -5.9867    1.0000 </r>
       <r>   -5.9669    1.0000 </r>
       <r>   -5.9669    1.0000 </r>
       <r>   -5.9131    1.0000 </r>
       <r>   -5.9109    1.0000 </r>
       <r>   -5.6240    1.0000 </r>
       <r>   -5.6240    1.0000 </r>
       <r>   -5.5574    1.0000 </r>
       <r>   -5.4271    1.0000 </r>
       <r>   -5.4262    1.0000 </r>
       <r>   -5.0177    1.0000 </r>
       <r>   -4.9784    1.0000 </r>
       <r>   -4.9775    1.0000 </r>
       <r>   -4.9495    1.0000 </r>
       <r>   -4.9482    1.0000 </r>
       <r>   -4.9323    1.0000 </r>
       <r>   -4.9309    1.0000 </r>
       <r>   -4.9213    1.0000 </r>
       <r>   -4.8917    1.0000 </r>
       <r>   -4.8904    1.0000 </r>
       <r>   -4.7667    1.0000 </r>
       <r>   -4.7667    1.0000 </r>
       <r>   -4.7277    1.0000 </r>
       <r>   -4.4056    1.0000 </r>
       <r>   -4.4036    1.0000 </r>
       <r>   -4.3736    1.0000 </r>
       <r>   -4.3736    1.0000 </r>
       <r>   -4.2442    1.0000 </r>
       <r>   -4.1351    1.0000 </r>
       <r>   -4.1330    1.0000 </r>
       <r>   -4.1311    1.0000 </r>
       <r>   -4.0093    1.0000 </r>
       <r>   -4.0074    1.0000 </r>
       <r>   -3.9701    1.0000 </r>
       <r>   -3.9680    1.0000 </r>
       <r>   -3.8706    1.0000 </r>
       <r>   -3.6603    1.0000 </r>
       <r>   -3.6556    1.0000 </r>
       <r>   -3.1816    1.0000 </r>
       <r>   -3.0396    1.0000 </r>
       <r>   -3.0381    1.0000 </r>
       <r>   -2.9124    1.0000 </r>
       <r>   -2.8241    1.0000 </r>
       <r>   -2.7934    1.0000 </r>
       <r>   -2.7787    1.0000 </r>
       <r>   -2.7763    1.0000 </r>
       <r>   -2.7242    1.0000 </r>
       <r>   -2.6511    1.0000 </r>
       <r>   -2.6497    1.0000 </r>
       <r>   -2.6172    1.0000 </r>
       <r>   -2.6147    1.0000 </r>
       <r>   -2.4249    1.0000 </r>
       <r>   -2.4249    1.0000 </r>
       <r>   -2.4119    1.0000 </r>
       <r>   -2.4113    1.0000 </r>
       <r>   -2.4079    1.0000 </r>
       <r>   -2.3307    1.0000 </r>
       <r>   -2.2980    1.0000 </r>
       <r>   -2.2417    1.0000 </r>
       <r>   -2.1222    1.0000 </r>
       <r>   -2.1222    1.0000 </r>
       <r>   -1.9630    1.0000 </r>
       <r>   -1.9198    1.0000 </r>
       <r>   -1.9188    1.0000 </r>
       <r>   -1.8935    1.0000 </r>
       <r>   -1.8700    1.0000 </r>
       <r>   -1.8679    1.0000 </r>
       <r>   -1.8295    1.0000 </r>
       <r>   -1.7741    1.0000 </r>
       <r>   -1.6897    1.0000 </r>
       <r>   -1.6896    1.0000 </r>
       <r>   -1.2316    1.0000 </r>
       <r>   -1.2316    1.0000 </r>
       <r>   -1.2285    1.0000 </r>
       <r>   -1.2280    1.0000 </r>
       <r>   -1.1533    1.0000 </r>
       <r>   -1.0608    1.0000 </r>
       <r>   -1.0313    1.0000 </r>
       <r>   -0.8221    1.0000 </r>
       <r>   -0.4749    1.0000 </r>
       <r>   -0.4749    1.0000 </r>
       <r>    0.7045    0.0000 </r>
       <r>    0.7050    0.0000 </r>
       <r>    1.0344    0.0000 </r>
       <r>    1.0353    0.0000 </r>
       <r>    1.0883    0.0000 </r>
       <r>    1.0901    0.0000 </r>
       <r>    1.0995    0.0000 </r>
       <r>    1.1569    0.0000 </r>
       <r>    1.2376    0.0000 </r>
       <r>    1.3232    0.0000 </r>
       <r>    1.3250    0.0000 </r>
       <r>    1.4098    0.0000 </r>
       <r>    1.4108    0.0000 </r>
       <r>    1.4757    0.0000 </r>
       <r>    1.5724    0.0000 </r>
       <r>    1.7538    0.0000 </r>
       <r>    1.7816    0.0000 </r>
       <r>    1.8613    0.0000 </r>
       <r>    1.9196    0.0000 </r>
       <r>    1.9910    0.0000 </r>
       <r>    1.9921    0.0000 </r>
       <r>    2.1066    0.0000 </r>
       <r>    2.1081    0.0000 </r>
       <r>    2.1716    0.0000 </r>
       <r>    2.2845    0.0000 </r>
       <r>    2.2875    0.0000 </r>
       <r>    2.3836    0.0000 </r>
       <r>    2.3869    0.0000 </r>
       <r>    2.6348    0.0000 </r>
       <r>    2.7656    0.0000 </r>
       <r>    3.0090    0.0000 </r>
       <r>    3.0129    0.0000 </r>
       <r>    3.1548    0.0000 </r>
       <r>    3.1589    0.0000 </r>
      </set>
      <set comment="kpoint 5">
       <r>  -61.9375    1.0000 </r>
       <r>  -61.9312    1.0000 </r>
       <r>  -61.9212    1.0000 </r>
       <r>  -61.9211    1.0000 </r>
       <r>  -61.9099    1.0000 </r>
       <r>  -61.9098    1.0000 </r>
       <r>  -61.9085    1.0000 </r>
       <r>  -61.9066    1.0000 </r>
       <r>  -61.9065    1.0000 </r>
       <r>  -36.2386    1.0000 </r>
       <r>  -36.1976    1.0000 </r>
       <r>  -36.1970    1.0000 </r>
       <r>  -36.1950    1.0000 </r>
       <r>  -36.1944    1.0000 </r>
       <r>  -36.0992    1.0000 </r>
       <r>  -36.0987    1.0000 </r>
       <r>  -36.0629    1.0000 </r>
       <r>  -36.0501    1.0000 </r>
       <r>  -36.0386    1.0000 </r>
       <r>  -36.0383    1.0000 </r>
       <r>  -36.0299    1.0000 </r>
       <r>  -36.0298    1.0000 </r>
       <r>  -36.0131    1.0000 </r>
       <r>  -36.0070    1.0000 </r>
       <r>  -36.0069    1.0000 </r>
       <r>  -36.0042    1.0000 </r>
       <r>  -36.0005    1.0000 </r>
       <r>  -36.0004    1.0000 </r>
       <r>  -35.9965    1.0000 </r>
       <r>  -35.9962    1.0000 </r>
       <r>  -35.9697    1.0000 </r>
       <r>  -35.9559    1.0000 </r>
       <r>  -35.9556    1.0000 </r>
       <r>  -35.9485    1.0000 </r>
       <r>  -35.9170    1.0000 </r>
       <r>  -35.9022    1.0000 </r>
       <r>  -14.8623    1.0000 </r>
       <r>  -14.5724    1.0000 </r>
       <r>  -14.5160    1.0000 </r>
       <r>  -14.2686    1.0000 </r>
       <r>  -14.0737    1.0000 </r>
       <r>  -14.0703    1.0000 </r>
       <r>  -13.8184    1.0000 </r>
       <r>  -13.8184    1.0000 </r>
       <r>  -13.6868    1.0000 </r>
       <r>  -13.5715    1.0000 </r>
       <r>  -13.4193    1.0000 </r>
       <r>  -13.4157    1.0000 </r>
       <r>  -13.3713    1.0000 </r>
       <r>  -13.3704    1.0000 </r>
       <r>  -13.3203    1.0000 </r>
       <r>  -13.2230    1.0000 </r>
       <r>  -13.2196    1.0000 </r>
       <r>  -13.1732    1.0000 </r>
       <r>  -13.1732    1.0000 </r>
       <r>  -13.1130    1.0000 </r>
       <r>  -13.1114    1.0000 </r>
       <r>  -13.0913    1.0000 </r>
       <r>  -13.0689    1.0000 </r>
       <r>  -13.0233    1.0000 </r>
       <r>  -13.0216    1.0000 </r>
       <r>  -12.9646    1.0000 </r>
       <r>  -12.9646    1.0000 </r>
       <r>   -6.7609    1.0000 </r>
       <r>   -6.4154    1.0000 </r>
       <r>   -6.3916    1.0000 </r>
       <r>   -6.3910    1.0000 </r>
       <r>   -6.3684    1.0000 </r>
       <r>   -6.2332    1.0000 </r>
       <r>   -6.2323    1.0000 </r>
       <r>   -6.1252    1.0000 </r>
       <r>   -6.0788    1.0000 </r>
       <r>   -6.0777    1.0000 </r>
       <r>   -6.0071    1.0000 </r>
       <r>   -6.0071    1.0000 </r>
       <r>   -5.9948    1.0000 </r>
       <r>   -5.9923    1.0000 </r>
       <r>   -5.8969    1.0000 </r>
       <r>   -5.8969    1.0000 </r>
       <r>   -5.7570    1.0000 </r>
       <r>   -5.7371    1.0000 </r>
       <r>   -5.7361    1.0000 </r>
       <r>   -5.0980    1.0000 </r>
       <r>   -4.9096    1.0000 </r>
       <r>   -4.9075    1.0000 </r>
       <r>   -4.8994    1.0000 </r>
       <r>   -4.8964    1.0000 </r>
       <r>   -4.8664    1.0000 </r>
       <r>   -4.8644    1.0000 </r>
       <r>   -4.7649    1.0000 </r>
       <r>   -4.7643    1.0000 </r>
       <r>   -4.6642    1.0000 </r>
       <r>   -4.4122    1.0000 </r>
       <r>   -4.4121    1.0000 </r>
       <r>   -4.2554    1.0000 </r>
       <r>   -4.2528    1.0000 </r>
       <r>   -4.2389    1.0000 </r>
       <r>   -4.2351    1.0000 </r>
       <r>   -4.2154    1.0000 </r>
       <r>   -4.1867    1.0000 </r>
       <r>   -4.1847    1.0000 </r>
       <r>   -4.1762    1.0000 </r>
       <r>   -4.1747    1.0000 </r>
       <r>   -3.7669    1.0000 </r>
       <r>   -3.7657    1.0000 </r>
       <r>   -3.7619    1.0000 </r>
       <r>   -3.7618    1.0000 </r>
       <r>   -3.6935    1.0000 </r>
       <r>   -3.4627    1.0000 </r>
       <r>   -3.3274    1.0000 </r>
       <r>   -3.1691    1.0000 </r>
       <r>   -3.1601    1.0000 </r>
       <r>   -3.1039    1.0000 </r>
       <r>   -3.1023    1.0000 </r>
       <r>   -3.0456    1.0000 </r>
       <r>   -3.0456    1.0000 </r>
       <r>   -3.0291    1.0000 </r>
       <r>   -3.0260    1.0000 </r>
       <r>   -2.9904    1.0000 </r>
       <r>   -2.8704    1.0000 </r>
       <r>   -2.8187    1.0000 </r>
       <r>   -2.8174    1.0000 </r>
       <r>   -2.7092    1.0000 </r>
       <r>   -2.6738    1.0000 </r>
       <r>   -2.6723    1.0000 </r>
       <r>   -2.4553    1.0000 </r>
       <r>   -2.3846    1.0000 </r>
       <r>   -2.3090    1.0000 </r>
       <r>   -2.3089    1.0000 </r>
       <r>   -2.1843    1.0000 </r>
       <r>   -2.1326    1.0000 </r>
       <r>   -2.1316    1.0000 </r>
       <r>   -2.1141    1.0000 </r>
       <r>   -2.1107    1.0000 </r>
       <r>   -2.0773    1.0000 </r>
       <r>   -1.8485    1.0000 </r>
       <r>   -1.8480    1.0000 </r>
       <r>   -1.7925    1.0000 </r>
       <r>   -1.7925    1.0000 </r>
       <r>   -1.7089    1.0000 </r>
       <r>   -1.6721    1.0000 </r>
       <r>   -1.6712    1.0000 </r>
       <r>   -1.4738    1.0000 </r>
       <r>   -1.4688    1.0000 </r>
       <r>   -1.4685    1.0000 </r>
       <r>   -1.4127    1.0000 </r>
       <r>   -1.1748    1.0000 </r>
       <r>   -1.0713    1.0000 </r>
       <r>   -0.9387    1.0000 </r>
       <r>   -0.9387    1.0000 </r>
       <r>   -0.7851    1.0000 </r>
       <r>   -0.6677    1.0000 </r>
       <r>   -0.6676    1.0000 </r>
       <r>    0.9204    0.0000 </r>
       <r>    0.9209    0.0000 </r>
       <r>    1.0133    0.0000 </r>
       <r>    1.0144    0.0000 </r>
       <r>    1.1182    0.0000 </r>
       <r>    1.1514    0.0000 </r>
       <r>    1.1539    0.0000 </r>
       <r>    1.1724    0.0000 </r>
       <r>    1.3872    0.0000 </r>
       <r>    1.3889    0.0000 </r>
       <r>    1.4044    0.0000 </r>
       <r>    1.4368    0.0000 </r>
       <r>    1.4670    0.0000 </r>
       <r>    1.5380    0.0000 </r>
       <r>    1.5391    0.0000 </r>
       <r>    1.5833    0.0000 </r>
       <r>    1.6220    0.0000 </r>
       <r>    1.6504    0.0000 </r>
       <r>    1.6513    0.0000 </r>
       <r>    1.6701    0.0000 </r>
       <r>    1.8831    0.0000 </r>
       <r>    1.8845    0.0000 </r>
       <r>    2.0771    0.0000 </r>
       <r>    2.2343    0.0000 </r>
       <r>    2.2363    0.0000 </r>
       <r>    2.3437    0.0000 </r>
       <r>    2.3463    0.0000 </r>
       <r>    2.4374    0.0000 </r>
       <r>    2.7679    0.0000 </r>
       <r>    2.7924    0.0000 </r>
       <r>    3.0794    0.0000 </r>
       <r>    3.0830    0.0000 </r>
       <r>    3.2498    0.0000 </r>
       <r>    3.3895    0.0000 </r>
      </set>
      <set comment="kpoint 6">
       <r>  -61.9375    1.0000 </r>
       <r>  -61.9312    1.0000 </r>
       <r>  -61.9212    1.0000 </r>
       <r>  -61.9211    1.0000 </r>
       <r>  -61.9099    1.0000 </r>
       <r>  -61.9098    1.0000 </r>
       <r>  -61.9085    1.0000 </r>
       <r>  -61.9066    1.0000 </r>
       <r>  -61.9065    1.0000 </r>
       <r>  -36.2385    1.0000 </r>
       <r>  -36.1977    1.0000 </r>
       <r>  -36.1970    1.0000 </r>
       <r>  -36.1950    1.0000 </r>
       <r>  -36.1944    1.0000 </r>
       <r>  -36.0993    1.0000 </r>
       <r>  -36.0988    1.0000 </r>
       <r>  -36.0629    1.0000 </r>
       <r>  -36.0501    1.0000 </r>
       <r>  -36.0387    1.0000 </r>
       <r>  -36.0383    1.0000 </r>
       <r>  -36.0299    1.0000 </r>
       <r>  -36.0298    1.0000 </r>
       <r>  -36.0130    1.0000 </r>
       <r>  -36.0070    1.0000 </r>
       <r>  -36.0069    1.0000 </r>
       <r>  -36.0043    1.0000 </r>
       <r>  -36.0005    1.0000 </r>
       <r>  -36.0004    1.0000 </r>
       <r>  -35.9966    1.0000 </r>
       <r>  -35.9962    1.0000 </r>
       <r>  -35.9697    1.0000 </r>
       <r>  -35.9559    1.0000 </r>
       <r>  -35.9555    1.0000 </r>
       <r>  -35.9484    1.0000 </r>
       <r>  -35.9171    1.0000 </r>
       <r>  -35.9022    1.0000 </r>
       <r>  -14.8623    1.0000 </r>
       <r>  -14.5725    1.0000 </r>
       <r>  -14.5160    1.0000 </r>
       <r>  -14.2686    1.0000 </r>
       <r>  -14.0735    1.0000 </r>
       <r>  -14.0704    1.0000 </r>
       <r>  -13.8184    1.0000 </r>
       <r>  -13.8184    1.0000 </r>
       <r>  -13.6868    1.0000 </r>
       <r>  -13.5714    1.0000 </r>
       <r>  -13.4191    1.0000 </r>
       <r>  -13.4157    1.0000 </r>
       <r>  -13.3717    1.0000 </r>
       <r>  -13.3703    1.0000 </r>
       <r>  -13.3206    1.0000 </r>
       <r>  -13.2229    1.0000 </r>
       <r>  -13.2196    1.0000 </r>
       <r>  -13.1732    1.0000 </r>
       <r>  -13.1732    1.0000 </r>
       <r>  -13.1131    1.0000 </r>
       <r>  -13.1113    1.0000 </r>
       <r>  -13.0909    1.0000 </r>
       <r>  -13.0689    1.0000 </r>
       <r>  -13.0234    1.0000 </r>
       <r>  -13.0216    1.0000 </r>
       <r>  -12.9646    1.0000 </r>
       <r>  -12.9646    1.0000 </r>
       <r>   -6.7606    1.0000 </r>
       <r>   -6.4154    1.0000 </r>
       <r>   -6.3919    1.0000 </r>
       <r>   -6.3909    1.0000 </r>
       <r>   -6.3684    1.0000 </r>
       <r>   -6.2334    1.0000 </r>
       <r>   -6.2325    1.0000 </r>
       <r>   -6.1253    1.0000 </r>
       <r>   -6.0787    1.0000 </r>
       <r>   -6.0780    1.0000 </r>
       <r>   -6.0071    1.0000 </r>
       <r>   -6.0071    1.0000 </r>
       <r>   -5.9947    1.0000 </r>
       <r>   -5.9923    1.0000 </r>
       <r>   -5.8969    1.0000 </r>
       <r>   -5.8969    1.0000 </r>
       <r>   -5.7575    1.0000 </r>
       <r>   -5.7369    1.0000 </r>
       <r>   -5.7365    1.0000 </r>
       <r>   -5.0986    1.0000 </r>
       <r>   -4.9085    1.0000 </r>
       <r>   -4.9077    1.0000 </r>
       <r>   -4.8988    1.0000 </r>
       <r>   -4.8961    1.0000 </r>
       <r>   -4.8656    1.0000 </r>
       <r>   -4.8647    1.0000 </r>
       <r>   -4.7648    1.0000 </r>
       <r>   -4.7636    1.0000 </r>
       <r>   -4.6646    1.0000 </r>
       <r>   -4.4122    1.0000 </r>
       <r>   -4.4121    1.0000 </r>
       <r>   -4.2538    1.0000 </r>
       <r>   -4.2529    1.0000 </r>
       <r>   -4.2394    1.0000 </r>
       <r>   -4.2359    1.0000 </r>
       <r>   -4.2145    1.0000 </r>
       <r>   -4.1859    1.0000 </r>
       <r>   -4.1845    1.0000 </r>
       <r>   -4.1765    1.0000 </r>
       <r>   -4.1752    1.0000 </r>
       <r>   -3.7674    1.0000 </r>
       <r>   -3.7657    1.0000 </r>
       <r>   -3.7619    1.0000 </r>
       <r>   -3.7618    1.0000 </r>
       <r>   -3.6925    1.0000 </r>
       <r>   -3.4623    1.0000 </r>
       <r>   -3.3286    1.0000 </r>
       <r>   -3.1688    1.0000 </r>
       <r>   -3.1601    1.0000 </r>
       <r>   -3.1045    1.0000 </r>
       <r>   -3.1026    1.0000 </r>
       <r>   -3.0456    1.0000 </r>
       <r>   -3.0456    1.0000 </r>
       <r>   -3.0291    1.0000 </r>
       <r>   -3.0261    1.0000 </r>
       <r>   -2.9919    1.0000 </r>
       <r>   -2.8697    1.0000 </r>
       <r>   -2.8190    1.0000 </r>
       <r>   -2.8177    1.0000 </r>
       <r>   -2.7092    1.0000 </r>
       <r>   -2.6740    1.0000 </r>
       <r>   -2.6730    1.0000 </r>
       <r>   -2.4553    1.0000 </r>
       <r>   -2.3846    1.0000 </r>
       <r>   -2.3090    1.0000 </r>
       <r>   -2.3089    1.0000 </r>
       <r>   -2.1844    1.0000 </r>
       <r>   -2.1329    1.0000 </r>
       <r>   -2.1306    1.0000 </r>
       <r>   -2.1139    1.0000 </r>
       <r>   -2.1109    1.0000 </r>
       <r>   -2.0773    1.0000 </r>
       <r>   -1.8495    1.0000 </r>
       <r>   -1.8489    1.0000 </r>
       <r>   -1.7925    1.0000 </r>
       <r>   -1.7925    1.0000 </r>
       <r>   -1.7080    1.0000 </r>
       <r>   -1.6723    1.0000 </r>
       <r>   -1.6709    1.0000 </r>
       <r>   -1.4731    1.0000 </r>
       <r>   -1.4691    1.0000 </r>
       <r>   -1.4683    1.0000 </r>
       <r>   -1.4127    1.0000 </r>
       <r>   -1.1745    1.0000 </r>
       <r>   -1.0713    1.0000 </r>
       <r>   -0.9387    1.0000 </r>
       <r>   -0.9387    1.0000 </r>
       <r>   -0.7851    1.0000 </r>
       <r>   -0.6677    1.0000 </r>
       <r>   -0.6676    1.0000 </r>
       <r>    0.9209    0.0000 </r>
       <r>    0.9215    0.0000 </r>
       <r>    1.0134    0.0000 </r>
       <r>    1.0143    0.0000 </r>
       <r>    1.1186    0.0000 </r>
       <r>    1.1513    0.0000 </r>
       <r>    1.1536    0.0000 </r>
       <r>    1.1726    0.0000 </r>
       <r>    1.3865    0.0000 </r>
       <r>    1.3885    0.0000 </r>
       <r>    1.4050    0.0000 </r>
       <r>    1.4363    0.0000 </r>
       <r>    1.4655    0.0000 </r>
       <r>    1.5383    0.0000 </r>
       <r>    1.5394    0.0000 </r>
       <r>    1.5823    0.0000 </r>
       <r>    1.6221    0.0000 </r>
       <r>    1.6496    0.0000 </r>
       <r>    1.6515    0.0000 </r>
       <r>    1.6696    0.0000 </r>
       <r>    1.8833    0.0000 </r>
       <r>    1.8846    0.0000 </r>
       <r>    2.0788    0.0000 </r>
       <r>    2.2352    0.0000 </r>
       <r>    2.2362    0.0000 </r>
       <r>    2.3444    0.0000 </r>
       <r>    2.3476    0.0000 </r>
       <r>    2.4388    0.0000 </r>
       <r>    2.7679    0.0000 </r>
       <r>    2.7911    0.0000 </r>
       <r>    3.0792    0.0000 </r>
       <r>    3.0838    0.0000 </r>
       <r>    3.2597    0.0000 </r>
       <r>    3.3895    0.0000 </r>
      </set>
      <set comment="kpoint 7">
       <r>  -61.9375    1.0000 </r>
       <r>  -61.9312    1.0000 </r>
       <r>  -61.9212    1.0000 </r>
       <r>  -61.9211    1.0000 </r>
       <r>  -61.9099    1.0000 </r>
       <r>  -61.9098    1.0000 </r>
       <r>  -61.9085    1.0000 </r>
       <r>  -61.9066    1.0000 </r>
       <r>  -61.9065    1.0000 </r>
       <r>  -36.2385    1.0000 </r>
       <r>  -36.1976    1.0000 </r>
       <r>  -36.1970    1.0000 </r>
       <r>  -36.1950    1.0000 </r>
       <r>  -36.1944    1.0000 </r>
       <r>  -36.0992    1.0000 </r>
       <r>  -36.0987    1.0000 </r>
       <r>  -36.0629    1.0000 </r>
       <r>  -36.0501    1.0000 </r>
       <r>  -36.0386    1.0000 </r>
       <r>  -36.0383    1.0000 </r>
       <r>  -36.0299    1.0000 </r>
       <r>  -36.0298    1.0000 </r>
       <r>  -36.0130    1.0000 </r>
       <r>  -36.0070    1.0000 </r>
       <r>  -36.0069    1.0000 </r>
       <r>  -36.0042    1.0000 </r>
       <r>  -36.0005    1.0000 </r>
       <r>  -36.0004    1.0000 </r>
       <r>  -35.9965    1.0000 </r>
       <r>  -35.9962    1.0000 </r>
       <r>  -35.9697    1.0000 </r>
       <r>  -35.9559    1.0000 </r>
       <r>  -35.9555    1.0000 </r>
       <r>  -35.9485    1.0000 </r>
       <r>  -35.9170    1.0000 </r>
       <r>  -35.9022    1.0000 </r>
       <r>  -14.8623    1.0000 </r>
       <r>  -14.5724    1.0000 </r>
       <r>  -14.5160    1.0000 </r>
       <r>  -14.2686    1.0000 </r>
       <r>  -14.0737    1.0000 </r>
       <r>  -14.0702    1.0000 </r>
       <r>  -13.8184    1.0000 </r>
       <r>  -13.8184    1.0000 </r>
       <r>  -13.6868    1.0000 </r>
       <r>  -13.5714    1.0000 </r>
       <r>  -13.4192    1.0000 </r>
       <r>  -13.4157    1.0000 </r>
       <r>  -13.3716    1.0000 </r>
       <r>  -13.3703    1.0000 </r>
       <r>  -13.3204    1.0000 </r>
       <r>  -13.2229    1.0000 </r>
       <r>  -13.2196    1.0000 </r>
       <r>  -13.1732    1.0000 </r>
       <r>  -13.1732    1.0000 </r>
       <r>  -13.1131    1.0000 </r>
       <r>  -13.1113    1.0000 </r>
       <r>  -13.0911    1.0000 </r>
       <r>  -13.0689    1.0000 </r>
       <r>  -13.0233    1.0000 </r>
       <r>  -13.0215    1.0000 </r>
       <r>  -12.9646    1.0000 </r>
       <r>  -12.9646    1.0000 </r>
       <r>   -6.7608    1.0000 </r>
       <r>   -6.4154    1.0000 </r>
       <r>   -6.3921    1.0000 </r>
       <r>   -6.3906    1.0000 </r>
       <r>   -6.3684    1.0000 </r>
       <r>   -6.2337    1.0000 </r>
       <r>   -6.2320    1.0000 </r>
       <r>   -6.1252    1.0000 </r>
       <r>   -6.0788    1.0000 </r>
       <r>   -6.0778    1.0000 </r>
       <r>   -6.0071    1.0000 </r>
       <r>   -6.0071    1.0000 </r>
       <r>   -5.9947    1.0000 </r>
       <r>   -5.9923    1.0000 </r>
       <r>   -5.8969    1.0000 </r>
       <r>   -5.8969    1.0000 </r>
       <r>   -5.7573    1.0000 </r>
       <r>   -5.7371    1.0000 </r>
       <r>   -5.7362    1.0000 </r>
       <r>   -5.0983    1.0000 </r>
       <r>   -4.9091    1.0000 </r>
       <r>   -4.9075    1.0000 </r>
       <r>   -4.8991    1.0000 </r>
       <r>   -4.8962    1.0000 </r>
       <r>   -4.8660    1.0000 </r>
       <r>   -4.8645    1.0000 </r>
       <r>   -4.7650    1.0000 </r>
       <r>   -4.7638    1.0000 </r>
       <r>   -4.6644    1.0000 </r>
       <r>   -4.4122    1.0000 </r>
       <r>   -4.4121    1.0000 </r>
       <r>   -4.2547    1.0000 </r>
       <r>   -4.2527    1.0000 </r>
       <r>   -4.2391    1.0000 </r>
       <r>   -4.2355    1.0000 </r>
       <r>   -4.2150    1.0000 </r>
       <r>   -4.1863    1.0000 </r>
       <r>   -4.1846    1.0000 </r>
       <r>   -4.1765    1.0000 </r>
       <r>   -4.1749    1.0000 </r>
       <r>   -3.7677    1.0000 </r>
       <r>   -3.7652    1.0000 </r>
       <r>   -3.7619    1.0000 </r>
       <r>   -3.7618    1.0000 </r>
       <r>   -3.6930    1.0000 </r>
       <r>   -3.4625    1.0000 </r>
       <r>   -3.3280    1.0000 </r>
       <r>   -3.1690    1.0000 </r>
       <r>   -3.1601    1.0000 </r>
       <r>   -3.1047    1.0000 </r>
       <r>   -3.1020    1.0000 </r>
       <r>   -3.0456    1.0000 </r>
       <r>   -3.0456    1.0000 </r>
       <r>   -3.0292    1.0000 </r>
       <r>   -3.0259    1.0000 </r>
       <r>   -2.9911    1.0000 </r>
       <r>   -2.8700    1.0000 </r>
       <r>   -2.8189    1.0000 </r>
       <r>   -2.8175    1.0000 </r>
       <r>   -2.7092    1.0000 </r>
       <r>   -2.6739    1.0000 </r>
       <r>   -2.6726    1.0000 </r>
       <r>   -2.4553    1.0000 </r>
       <r>   -2.3846    1.0000 </r>
       <r>   -2.3090    1.0000 </r>
       <r>   -2.3089    1.0000 </r>
       <r>   -2.1843    1.0000 </r>
       <r>   -2.1327    1.0000 </r>
       <r>   -2.1310    1.0000 </r>
       <r>   -2.1141    1.0000 </r>
       <r>   -2.1108    1.0000 </r>
       <r>   -2.0773    1.0000 </r>
       <r>   -1.8492    1.0000 </r>
       <r>   -1.8483    1.0000 </r>
       <r>   -1.7925    1.0000 </r>
       <r>   -1.7925    1.0000 </r>
       <r>   -1.7085    1.0000 </r>
       <r>   -1.6723    1.0000 </r>
       <r>   -1.6710    1.0000 </r>
       <r>   -1.4735    1.0000 </r>
       <r>   -1.4690    1.0000 </r>
       <r>   -1.4683    1.0000 </r>
       <r>   -1.4127    1.0000 </r>
       <r>   -1.1746    1.0000 </r>
       <r>   -1.0713    1.0000 </r>
       <r>   -0.9387    1.0000 </r>
       <r>   -0.9387    1.0000 </r>
       <r>   -0.7851    1.0000 </r>
       <r>   -0.6677    1.0000 </r>
       <r>   -0.6676    1.0000 </r>
       <r>    0.9204    0.0000 </r>
       <r>    0.9214    0.0000 </r>
       <r>    1.0133    0.0000 </r>
       <r>    1.0144    0.0000 </r>
       <r>    1.1184    0.0000 </r>
       <r>    1.1513    0.0000 </r>
       <r>    1.1538    0.0000 </r>
       <r>    1.1725    0.0000 </r>
       <r>    1.3868    0.0000 </r>
       <r>    1.3887    0.0000 </r>
       <r>    1.4047    0.0000 </r>
       <r>    1.4365    0.0000 </r>
       <r>    1.4663    0.0000 </r>
       <r>    1.5381    0.0000 </r>
       <r>    1.5393    0.0000 </r>
       <r>    1.5828    0.0000 </r>
       <r>    1.6221    0.0000 </r>
       <r>    1.6502    0.0000 </r>
       <r>    1.6512    0.0000 </r>
       <r>    1.6699    0.0000 </r>
       <r>    1.8832    0.0000 </r>
       <r>    1.8846    0.0000 </r>
       <r>    2.0780    0.0000 </r>
       <r>    2.2345    0.0000 </r>
       <r>    2.2365    0.0000 </r>
       <r>    2.3439    0.0000 </r>
       <r>    2.3471    0.0000 </r>
       <r>    2.4381    0.0000 </r>
       <r>    2.7679    0.0000 </r>
       <r>    2.7917    0.0000 </r>
       <r>    3.0793    0.0000 </r>
       <r>    3.0834    0.0000 </r>
       <r>    3.2372    0.0000 </r>
       <r>    3.3895    0.0000 </r>
      </set>
      <set comment="kpoint 8">
       <r>  -61.9389    1.0000 </r>
       <r>  -61.9270    1.0000 </r>
       <r>  -61.9265    1.0000 </r>
       <r>  -61.9150    1.0000 </r>
       <r>  -61.9146    1.0000 </r>
       <r>  -61.9095    1.0000 </r>
       <r>  -61.9090    1.0000 </r>
       <r>  -61.9064    1.0000 </r>
       <r>  -61.9053    1.0000 </r>
       <r>  -36.2235    1.0000 </r>
       <r>  -36.2231    1.0000 </r>
       <r>  -36.2018    1.0000 </r>
       <r>  -36.1796    1.0000 </r>
       <r>  -36.1547    1.0000 </r>
       <r>  -36.1542    1.0000 </r>
       <r>  -36.0657    1.0000 </r>
       <r>  -36.0560    1.0000 </r>
       <r>  -36.0540    1.0000 </r>
       <r>  -36.0536    1.0000 </r>
       <r>  -36.0465    1.0000 </r>
       <r>  -36.0414    1.0000 </r>
       <r>  -36.0411    1.0000 </r>
       <r>  -36.0172    1.0000 </r>
       <r>  -36.0168    1.0000 </r>
       <r>  -36.0059    1.0000 </r>
       <r>  -36.0056    1.0000 </r>
       <r>  -36.0002    1.0000 </r>
       <r>  -35.9980    1.0000 </r>
       <r>  -35.9786    1.0000 </r>
       <r>  -35.9784    1.0000 </r>
       <r>  -35.9767    1.0000 </r>
       <r>  -35.9762    1.0000 </r>
       <r>  -35.9337    1.0000 </r>
       <r>  -35.9312    1.0000 </r>
       <r>  -35.9309    1.0000 </r>
       <r>  -35.8995    1.0000 </r>
       <r>  -14.9236    1.0000 </r>
       <r>  -14.5671    1.0000 </r>
       <r>  -14.3614    1.0000 </r>
       <r>  -14.3583    1.0000 </r>
       <r>  -14.0810    1.0000 </r>
       <r>  -14.0810    1.0000 </r>
       <r>  -13.7207    1.0000 </r>
       <r>  -13.7176    1.0000 </r>
       <r>  -13.7111    1.0000 </r>
       <r>  -13.4870    1.0000 </r>
       <r>  -13.4864    1.0000 </r>
       <r>  -13.4799    1.0000 </r>
       <r>  -13.4798    1.0000 </r>
       <r>  -13.3741    1.0000 </r>
       <r>  -13.3709    1.0000 </r>
       <r>  -13.2315    1.0000 </r>
       <r>  -13.2301    1.0000 </r>
       <r>  -13.2154    1.0000 </r>
       <r>  -13.1393    1.0000 </r>
       <r>  -13.1247    1.0000 </r>
       <r>  -13.1247    1.0000 </r>
       <r>  -13.1062    1.0000 </r>
       <r>  -13.1047    1.0000 </r>
       <r>  -13.0144    1.0000 </r>
       <r>  -12.9885    1.0000 </r>
       <r>  -12.9587    1.0000 </r>
       <r>  -12.8740    1.0000 </r>
       <r>   -6.6311    1.0000 </r>
       <r>   -6.6293    1.0000 </r>
       <r>   -6.4311    1.0000 </r>
       <r>   -6.2369    1.0000 </r>
       <r>   -6.2182    1.0000 </r>
       <r>   -6.2182    1.0000 </r>
       <r>   -6.1970    1.0000 </r>
       <r>   -6.1825    1.0000 </r>
       <r>   -6.1812    1.0000 </r>
       <r>   -6.1578    1.0000 </r>
       <r>   -6.1215    1.0000 </r>
       <r>   -6.0853    1.0000 </r>
       <r>   -6.0225    1.0000 </r>
       <r>   -6.0190    1.0000 </r>
       <r>   -5.8475    1.0000 </r>
       <r>   -5.7334    1.0000 </r>
       <r>   -5.7315    1.0000 </r>
       <r>   -5.3116    1.0000 </r>
       <r>   -5.3095    1.0000 </r>
       <r>   -5.2344    1.0000 </r>
       <r>   -5.2344    1.0000 </r>
       <r>   -5.0395    1.0000 </r>
       <r>   -5.0371    1.0000 </r>
       <r>   -4.9675    1.0000 </r>
       <r>   -4.8499    1.0000 </r>
       <r>   -4.8488    1.0000 </r>
       <r>   -4.8459    1.0000 </r>
       <r>   -4.8447    1.0000 </r>
       <r>   -4.6878    1.0000 </r>
       <r>   -4.4673    1.0000 </r>
       <r>   -4.4659    1.0000 </r>
       <r>   -4.2629    1.0000 </r>
       <r>   -4.2603    1.0000 </r>
       <r>   -4.2208    1.0000 </r>
       <r>   -4.2186    1.0000 </r>
       <r>   -4.1865    1.0000 </r>
       <r>   -4.1722    1.0000 </r>
       <r>   -4.1255    1.0000 </r>
       <r>   -4.1167    1.0000 </r>
       <r>   -4.0307    1.0000 </r>
       <r>   -3.8716    1.0000 </r>
       <r>   -3.7837    1.0000 </r>
       <r>   -3.7656    1.0000 </r>
       <r>   -3.7656    1.0000 </r>
       <r>   -3.7073    1.0000 </r>
       <r>   -3.7058    1.0000 </r>
       <r>   -3.5351    1.0000 </r>
       <r>   -3.5284    1.0000 </r>
       <r>   -3.0919    1.0000 </r>
       <r>   -3.0890    1.0000 </r>
       <r>   -3.0174    1.0000 </r>
       <r>   -3.0164    1.0000 </r>
       <r>   -2.9571    1.0000 </r>
       <r>   -2.9443    1.0000 </r>
       <r>   -2.8137    1.0000 </r>
       <r>   -2.8121    1.0000 </r>
       <r>   -2.8007    1.0000 </r>
       <r>   -2.7764    1.0000 </r>
       <r>   -2.7394    1.0000 </r>
       <r>   -2.7394    1.0000 </r>
       <r>   -2.6190    1.0000 </r>
       <r>   -2.6190    1.0000 </r>
       <r>   -2.4790    1.0000 </r>
       <r>   -2.4776    1.0000 </r>
       <r>   -2.4006    1.0000 </r>
       <r>   -2.3981    1.0000 </r>
       <r>   -2.1685    1.0000 </r>
       <r>   -2.1661    1.0000 </r>
       <r>   -2.1324    1.0000 </r>
       <r>   -2.1319    1.0000 </r>
       <r>   -2.1025    1.0000 </r>
       <r>   -1.8483    1.0000 </r>
       <r>   -1.8469    1.0000 </r>
       <r>   -1.7918    1.0000 </r>
       <r>   -1.7455    1.0000 </r>
       <r>   -1.7455    1.0000 </r>
       <r>   -1.6833    1.0000 </r>
       <r>   -1.6817    1.0000 </r>
       <r>   -1.6726    1.0000 </r>
       <r>   -1.6704    1.0000 </r>
       <r>   -1.4699    1.0000 </r>
       <r>   -1.3470    1.0000 </r>
       <r>   -1.3470    1.0000 </r>
       <r>   -1.3361    1.0000 </r>
       <r>   -1.1211    1.0000 </r>
       <r>   -1.0115    1.0000 </r>
       <r>   -0.8654    1.0000 </r>
       <r>   -0.8654    1.0000 </r>
       <r>   -0.6643    1.0000 </r>
       <r>   -0.5463    1.0000 </r>
       <r>    0.8998    0.0000 </r>
       <r>    0.9691    0.0000 </r>
       <r>    1.0237    0.0000 </r>
       <r>    1.0253    0.0000 </r>
       <r>    1.0591    0.0000 </r>
       <r>    1.0615    0.0000 </r>
       <r>    1.1349    0.0000 </r>
       <r>    1.1357    0.0000 </r>
       <r>    1.3541    0.0000 </r>
       <r>    1.3556    0.0000 </r>
       <r>    1.4197    0.0000 </r>
       <r>    1.4207    0.0000 </r>
       <r>    1.4511    0.0000 </r>
       <r>    1.5002    0.0000 </r>
       <r>    1.5720    0.0000 </r>
       <r>    1.5736    0.0000 </r>
       <r>    1.6210    0.0000 </r>
       <r>    1.6219    0.0000 </r>
       <r>    1.7203    0.0000 </r>
       <r>    1.9280    0.0000 </r>
       <r>    1.9931    0.0000 </r>
       <r>    1.9941    0.0000 </r>
       <r>    2.0088    0.0000 </r>
       <r>    2.0783    0.0000 </r>
       <r>    2.0904    0.0000 </r>
       <r>    2.3096    0.0000 </r>
       <r>    2.6057    0.0000 </r>
       <r>    2.7079    0.0000 </r>
       <r>    2.7096    0.0000 </r>
       <r>    2.7323    0.0000 </r>
       <r>    2.7333    0.0000 </r>
       <r>    3.1498    0.0000 </r>
       <r>    3.1547    0.0000 </r>
       <r>    3.2615    0.0000 </r>
      </set>
      <set comment="kpoint 9">
       <r>  -61.9389    1.0000 </r>
       <r>  -61.9270    1.0000 </r>
       <r>  -61.9266    1.0000 </r>
       <r>  -61.9150    1.0000 </r>
       <r>  -61.9146    1.0000 </r>
       <r>  -61.9095    1.0000 </r>
       <r>  -61.9090    1.0000 </r>
       <r>  -61.9064    1.0000 </r>
       <r>  -61.9053    1.0000 </r>
       <r>  -36.2235    1.0000 </r>
       <r>  -36.2232    1.0000 </r>
       <r>  -36.2018    1.0000 </r>
       <r>  -36.1795    1.0000 </r>
       <r>  -36.1548    1.0000 </r>
       <r>  -36.1543    1.0000 </r>
       <r>  -36.0657    1.0000 </r>
       <r>  -36.0560    1.0000 </r>
       <r>  -36.0540    1.0000 </r>
       <r>  -36.0537    1.0000 </r>
       <r>  -36.0465    1.0000 </r>
       <r>  -36.0415    1.0000 </r>
       <r>  -36.0410    1.0000 </r>
       <r>  -36.0172    1.0000 </r>
       <r>  -36.0168    1.0000 </r>
       <r>  -36.0060    1.0000 </r>
       <r>  -36.0055    1.0000 </r>
       <r>  -36.0002    1.0000 </r>
       <r>  -35.9980    1.0000 </r>
       <r>  -35.9786    1.0000 </r>
       <r>  -35.9784    1.0000 </r>
       <r>  -35.9767    1.0000 </r>
       <r>  -35.9762    1.0000 </r>
       <r>  -35.9337    1.0000 </r>
       <r>  -35.9312    1.0000 </r>
       <r>  -35.9309    1.0000 </r>
       <r>  -35.8995    1.0000 </r>
       <r>  -14.9236    1.0000 </r>
       <r>  -14.5671    1.0000 </r>
       <r>  -14.3615    1.0000 </r>
       <r>  -14.3582    1.0000 </r>
       <r>  -14.0810    1.0000 </r>
       <r>  -14.0810    1.0000 </r>
       <r>  -13.7206    1.0000 </r>
       <r>  -13.7175    1.0000 </r>
       <r>  -13.7111    1.0000 </r>
       <r>  -13.4872    1.0000 </r>
       <r>  -13.4862    1.0000 </r>
       <r>  -13.4799    1.0000 </r>
       <r>  -13.4799    1.0000 </r>
       <r>  -13.3743    1.0000 </r>
       <r>  -13.3708    1.0000 </r>
       <r>  -13.2318    1.0000 </r>
       <r>  -13.2300    1.0000 </r>
       <r>  -13.2154    1.0000 </r>
       <r>  -13.1392    1.0000 </r>
       <r>  -13.1247    1.0000 </r>
       <r>  -13.1247    1.0000 </r>
       <r>  -13.1060    1.0000 </r>
       <r>  -13.1047    1.0000 </r>
       <r>  -13.0143    1.0000 </r>
       <r>  -12.9886    1.0000 </r>
       <r>  -12.9587    1.0000 </r>
       <r>  -12.8740    1.0000 </r>
       <r>   -6.6313    1.0000 </r>
       <r>   -6.6290    1.0000 </r>
       <r>   -6.4311    1.0000 </r>
       <r>   -6.2370    1.0000 </r>
       <r>   -6.2182    1.0000 </r>
       <r>   -6.2182    1.0000 </r>
       <r>   -6.1967    1.0000 </r>
       <r>   -6.1828    1.0000 </r>
       <r>   -6.1810    1.0000 </r>
       <r>   -6.1578    1.0000 </r>
       <r>   -6.1217    1.0000 </r>
       <r>   -6.0853    1.0000 </r>
       <r>   -6.0226    1.0000 </r>
       <r>   -6.0189    1.0000 </r>
       <r>   -5.8475    1.0000 </r>
       <r>   -5.7337    1.0000 </r>
       <r>   -5.7316    1.0000 </r>
       <r>   -5.3115    1.0000 </r>
       <r>   -5.3093    1.0000 </r>
       <r>   -5.2344    1.0000 </r>
       <r>   -5.2344    1.0000 </r>
       <r>   -5.0401    1.0000 </r>
       <r>   -5.0368    1.0000 </r>
       <r>   -4.9673    1.0000 </r>
       <r>   -4.8497    1.0000 </r>
       <r>   -4.8485    1.0000 </r>
       <r>   -4.8457    1.0000 </r>
       <r>   -4.8449    1.0000 </r>
       <r>   -4.6876    1.0000 </r>
       <r>   -4.4668    1.0000 </r>
       <r>   -4.4660    1.0000 </r>
       <r>   -4.2625    1.0000 </r>
       <r>   -4.2604    1.0000 </r>
       <r>   -4.2209    1.0000 </r>
       <r>   -4.2186    1.0000 </r>
       <r>   -4.1868    1.0000 </r>
       <r>   -4.1720    1.0000 </r>
       <r>   -4.1257    1.0000 </r>
       <r>   -4.1165    1.0000 </r>
       <r>   -4.0307    1.0000 </r>
       <r>   -3.8716    1.0000 </r>
       <r>   -3.7836    1.0000 </r>
       <r>   -3.7656    1.0000 </r>
       <r>   -3.7656    1.0000 </r>
       <r>   -3.7079    1.0000 </r>
       <r>   -3.7057    1.0000 </r>
       <r>   -3.5346    1.0000 </r>
       <r>   -3.5282    1.0000 </r>
       <r>   -3.0923    1.0000 </r>
       <r>   -3.0889    1.0000 </r>
       <r>   -3.0173    1.0000 </r>
       <r>   -3.0164    1.0000 </r>
       <r>   -2.9579    1.0000 </r>
       <r>   -2.9446    1.0000 </r>
       <r>   -2.8136    1.0000 </r>
       <r>   -2.8120    1.0000 </r>
       <r>   -2.8007    1.0000 </r>
       <r>   -2.7764    1.0000 </r>
       <r>   -2.7394    1.0000 </r>
       <r>   -2.7394    1.0000 </r>
       <r>   -2.6190    1.0000 </r>
       <r>   -2.6190    1.0000 </r>
       <r>   -2.4790    1.0000 </r>
       <r>   -2.4778    1.0000 </r>
       <r>   -2.4006    1.0000 </r>
       <r>   -2.3982    1.0000 </r>
       <r>   -2.1686    1.0000 </r>
       <r>   -2.1660    1.0000 </r>
       <r>   -2.1324    1.0000 </r>
       <r>   -2.1319    1.0000 </r>
       <r>   -2.1023    1.0000 </r>
       <r>   -1.8486    1.0000 </r>
       <r>   -1.8471    1.0000 </r>
       <r>   -1.7918    1.0000 </r>
       <r>   -1.7455    1.0000 </r>
       <r>   -1.7455    1.0000 </r>
       <r>   -1.6835    1.0000 </r>
       <r>   -1.6815    1.0000 </r>
       <r>   -1.6723    1.0000 </r>
       <r>   -1.6701    1.0000 </r>
       <r>   -1.4699    1.0000 </r>
       <r>   -1.3470    1.0000 </r>
       <r>   -1.3470    1.0000 </r>
       <r>   -1.3362    1.0000 </r>
       <r>   -1.1210    1.0000 </r>
       <r>   -1.0115    1.0000 </r>
       <r>   -0.8654    1.0000 </r>
       <r>   -0.8654    1.0000 </r>
       <r>   -0.6643    1.0000 </r>
       <r>   -0.5463    1.0000 </r>
       <r>    0.8997    0.0000 </r>
       <r>    0.9692    0.0000 </r>
       <r>    1.0239    0.0000 </r>
       <r>    1.0251    0.0000 </r>
       <r>    1.0593    0.0000 </r>
       <r>    1.0617    0.0000 </r>
       <r>    1.1350    0.0000 </r>
       <r>    1.1356    0.0000 </r>
       <r>    1.3542    0.0000 </r>
       <r>    1.3551    0.0000 </r>
       <r>    1.4195    0.0000 </r>
       <r>    1.4208    0.0000 </r>
       <r>    1.4504    0.0000 </r>
       <r>    1.5004    0.0000 </r>
       <r>    1.5722    0.0000 </r>
       <r>    1.5736    0.0000 </r>
       <r>    1.6211    0.0000 </r>
       <r>    1.6215    0.0000 </r>
       <r>    1.7200    0.0000 </r>
       <r>    1.9282    0.0000 </r>
       <r>    1.9932    0.0000 </r>
       <r>    1.9940    0.0000 </r>
       <r>    2.0096    0.0000 </r>
       <r>    2.0781    0.0000 </r>
       <r>    2.0907    0.0000 </r>
       <r>    2.3095    0.0000 </r>
       <r>    2.6057    0.0000 </r>
       <r>    2.7085    0.0000 </r>
       <r>    2.7096    0.0000 </r>
       <r>    2.7323    0.0000 </r>
       <r>    2.7337    0.0000 </r>
       <r>    3.1495    0.0000 </r>
       <r>    3.1536    0.0000 </r>
       <r>    3.2613    0.0000 </r>
      </set>
      <set comment="kpoint 10">
       <r>  -61.9389    1.0000 </r>
       <r>  -61.9270    1.0000 </r>
       <r>  -61.9265    1.0000 </r>
       <r>  -61.9151    1.0000 </r>
       <r>  -61.9145    1.0000 </r>
       <r>  -61.9095    1.0000 </r>
       <r>  -61.9090    1.0000 </r>
       <r>  -61.9064    1.0000 </r>
       <r>  -61.9053    1.0000 </r>
       <r>  -36.2236    1.0000 </r>
       <r>  -36.2231    1.0000 </r>
       <r>  -36.2017    1.0000 </r>
       <r>  -36.1796    1.0000 </r>
       <r>  -36.1547    1.0000 </r>
       <r>  -36.1542    1.0000 </r>
       <r>  -36.0657    1.0000 </r>
       <r>  -36.0559    1.0000 </r>
       <r>  -36.0540    1.0000 </r>
       <r>  -36.0536    1.0000 </r>
       <r>  -36.0465    1.0000 </r>
       <r>  -36.0414    1.0000 </r>
       <r>  -36.0411    1.0000 </r>
       <r>  -36.0172    1.0000 </r>
       <r>  -36.0169    1.0000 </r>
       <r>  -36.0059    1.0000 </r>
       <r>  -36.0056    1.0000 </r>
       <r>  -36.0002    1.0000 </r>
       <r>  -35.9980    1.0000 </r>
       <r>  -35.9786    1.0000 </r>
       <r>  -35.9784    1.0000 </r>
       <r>  -35.9767    1.0000 </r>
       <r>  -35.9761    1.0000 </r>
       <r>  -35.9337    1.0000 </r>
       <r>  -35.9312    1.0000 </r>
       <r>  -35.9308    1.0000 </r>
       <r>  -35.8994    1.0000 </r>
       <r>  -14.9236    1.0000 </r>
       <r>  -14.5671    1.0000 </r>
       <r>  -14.3614    1.0000 </r>
       <r>  -14.3582    1.0000 </r>
       <r>  -14.0810    1.0000 </r>
       <r>  -14.0810    1.0000 </r>
       <r>  -13.7210    1.0000 </r>
       <r>  -13.7175    1.0000 </r>
       <r>  -13.7111    1.0000 </r>
       <r>  -13.4872    1.0000 </r>
       <r>  -13.4863    1.0000 </r>
       <r>  -13.4799    1.0000 </r>
       <r>  -13.4798    1.0000 </r>
       <r>  -13.3739    1.0000 </r>
       <r>  -13.3709    1.0000 </r>
       <r>  -13.2312    1.0000 </r>
       <r>  -13.2301    1.0000 </r>
       <r>  -13.2153    1.0000 </r>
       <r>  -13.1395    1.0000 </r>
       <r>  -13.1247    1.0000 </r>
       <r>  -13.1247    1.0000 </r>
       <r>  -13.1064    1.0000 </r>
       <r>  -13.1047    1.0000 </r>
       <r>  -13.0145    1.0000 </r>
       <r>  -12.9883    1.0000 </r>
       <r>  -12.9587    1.0000 </r>
       <r>  -12.8740    1.0000 </r>
       <r>   -6.6309    1.0000 </r>
       <r>   -6.6295    1.0000 </r>
       <r>   -6.4311    1.0000 </r>
       <r>   -6.2367    1.0000 </r>
       <r>   -6.2182    1.0000 </r>
       <r>   -6.2182    1.0000 </r>
       <r>   -6.1972    1.0000 </r>
       <r>   -6.1824    1.0000 </r>
       <r>   -6.1813    1.0000 </r>
       <r>   -6.1578    1.0000 </r>
       <r>   -6.1212    1.0000 </r>
       <r>   -6.0853    1.0000 </r>
       <r>   -6.0225    1.0000 </r>
       <r>   -6.0190    1.0000 </r>
       <r>   -5.8475    1.0000 </r>
       <r>   -5.7330    1.0000 </r>
       <r>   -5.7315    1.0000 </r>
       <r>   -5.3119    1.0000 </r>
       <r>   -5.3094    1.0000 </r>
       <r>   -5.2344    1.0000 </r>
       <r>   -5.2344    1.0000 </r>
       <r>   -5.0389    1.0000 </r>
       <r>   -5.0375    1.0000 </r>
       <r>   -4.9677    1.0000 </r>
       <r>   -4.8501    1.0000 </r>
       <r>   -4.8490    1.0000 </r>
       <r>   -4.8460    1.0000 </r>
       <r>   -4.8445    1.0000 </r>
       <r>   -4.6879    1.0000 </r>
       <r>   -4.4679    1.0000 </r>
       <r>   -4.4656    1.0000 </r>
       <r>   -4.2633    1.0000 </r>
       <r>   -4.2601    1.0000 </r>
       <r>   -4.2205    1.0000 </r>
       <r>   -4.2187    1.0000 </r>
       <r>   -4.1863    1.0000 </r>
       <r>   -4.1723    1.0000 </r>
       <r>   -4.1253    1.0000 </r>
       <r>   -4.1169    1.0000 </r>
       <r>   -4.0307    1.0000 </r>
       <r>   -3.8716    1.0000 </r>
       <r>   -3.7837    1.0000 </r>
       <r>   -3.7656    1.0000 </r>
       <r>   -3.7656    1.0000 </r>
       <r>   -3.7071    1.0000 </r>
       <r>   -3.7055    1.0000 </r>
       <r>   -3.5357    1.0000 </r>
       <r>   -3.5286    1.0000 </r>
       <r>   -3.0915    1.0000 </r>
       <r>   -3.0892    1.0000 </r>
       <r>   -3.0175    1.0000 </r>
       <r>   -3.0163    1.0000 </r>
       <r>   -2.9563    1.0000 </r>
       <r>   -2.9440    1.0000 </r>
       <r>   -2.8136    1.0000 </r>
       <r>   -2.8123    1.0000 </r>
       <r>   -2.8007    1.0000 </r>
       <r>   -2.7764    1.0000 </r>
       <r>   -2.7394    1.0000 </r>
       <r>   -2.7394    1.0000 </r>
       <r>   -2.6190    1.0000 </r>
       <r>   -2.6190    1.0000 </r>
       <r>   -2.4789    1.0000 </r>
       <r>   -2.4774    1.0000 </r>
       <r>   -2.4006    1.0000 </r>
       <r>   -2.3980    1.0000 </r>
       <r>   -2.1684    1.0000 </r>
       <r>   -2.1663    1.0000 </r>
       <r>   -2.1324    1.0000 </r>
       <r>   -2.1320    1.0000 </r>
       <r>   -2.1027    1.0000 </r>
       <r>   -1.8480    1.0000 </r>
       <r>   -1.8468    1.0000 </r>
       <r>   -1.7918    1.0000 </r>
       <r>   -1.7455    1.0000 </r>
       <r>   -1.7455    1.0000 </r>
       <r>   -1.6832    1.0000 </r>
       <r>   -1.6818    1.0000 </r>
       <r>   -1.6728    1.0000 </r>
       <r>   -1.6707    1.0000 </r>
       <r>   -1.4699    1.0000 </r>
       <r>   -1.3470    1.0000 </r>
       <r>   -1.3470    1.0000 </r>
       <r>   -1.3361    1.0000 </r>
       <r>   -1.1212    1.0000 </r>
       <r>   -1.0115    1.0000 </r>
       <r>   -0.8654    1.0000 </r>
       <r>   -0.8654    1.0000 </r>
       <r>   -0.6643    1.0000 </r>
       <r>   -0.5463    1.0000 </r>
       <r>    0.8999    0.0000 </r>
       <r>    0.9690    0.0000 </r>
       <r>    1.0235    0.0000 </r>
       <r>    1.0255    0.0000 </r>
       <r>    1.0589    0.0000 </r>
       <r>    1.0614    0.0000 </r>
       <r>    1.1348    0.0000 </r>
       <r>    1.1357    0.0000 </r>
       <r>    1.3541    0.0000 </r>
       <r>    1.3562    0.0000 </r>
       <r>    1.4198    0.0000 </r>
       <r>    1.4206    0.0000 </r>
       <r>    1.4519    0.0000 </r>
       <r>    1.5000    0.0000 </r>
       <r>    1.5718    0.0000 </r>
       <r>    1.5737    0.0000 </r>
       <r>    1.6207    0.0000 </r>
       <r>    1.6224    0.0000 </r>
       <r>    1.7205    0.0000 </r>
       <r>    1.9278    0.0000 </r>
       <r>    1.9930    0.0000 </r>
       <r>    1.9941    0.0000 </r>
       <r>    2.0078    0.0000 </r>
       <r>    2.0785    0.0000 </r>
       <r>    2.0900    0.0000 </r>
       <r>    2.3097    0.0000 </r>
       <r>    2.6057    0.0000 </r>
       <r>    2.7078    0.0000 </r>
       <r>    2.7090    0.0000 </r>
       <r>    2.7318    0.0000 </r>
       <r>    2.7335    0.0000 </r>
       <r>    3.1501    0.0000 </r>
       <r>    3.1556    0.0000 </r>
       <r>    3.2619    0.0000 </r>
      </set>
      <set comment="kpoint 11">
       <r>  -61.9338    1.0000 </r>
       <r>  -61.9334    1.0000 </r>
       <r>  -61.9278    1.0000 </r>
       <r>  -61.9153    1.0000 </r>
       <r>  -61.9104    1.0000 </r>
       <r>  -61.9099    1.0000 </r>
       <r>  -61.9079    1.0000 </r>
       <r>  -61.9072    1.0000 </r>
       <r>  -61.9067    1.0000 </r>
       <r>  -36.2376    1.0000 </r>
       <r>  -36.2208    1.0000 </r>
       <r>  -36.2204    1.0000 </r>
       <r>  -36.1742    1.0000 </r>
       <r>  -36.1737    1.0000 </r>
       <r>  -36.1408    1.0000 </r>
       <r>  -36.0552    1.0000 </r>
       <r>  -36.0548    1.0000 </r>
       <r>  -36.0433    1.0000 </r>
       <r>  -36.0398    1.0000 </r>
       <r>  -36.0180    1.0000 </r>
       <r>  -36.0167    1.0000 </r>
       <r>  -36.0165    1.0000 </r>
       <r>  -36.0078    1.0000 </r>
       <r>  -36.0073    1.0000 </r>
       <r>  -36.0064    1.0000 </r>
       <r>  -36.0060    1.0000 </r>
       <r>  -36.0027    1.0000 </r>
       <r>  -36.0016    1.0000 </r>
       <r>  -36.0011    1.0000 </r>
       <r>  -35.9870    1.0000 </r>
       <r>  -35.9866    1.0000 </r>
       <r>  -35.9864    1.0000 </r>
       <r>  -35.9803    1.0000 </r>
       <r>  -35.9325    1.0000 </r>
       <r>  -35.9134    1.0000 </r>
       <r>  -35.9132    1.0000 </r>
       <r>  -14.6865    1.0000 </r>
       <r>  -14.6831    1.0000 </r>
       <r>  -14.4103    1.0000 </r>
       <r>  -14.3657    1.0000 </r>
       <r>  -14.3657    1.0000 </r>
       <r>  -14.1263    1.0000 </r>
       <r>  -13.7485    1.0000 </r>
       <r>  -13.6164    1.0000 </r>
       <r>  -13.6155    1.0000 </r>
       <r>  -13.5092    1.0000 </r>
       <r>  -13.5061    1.0000 </r>
       <r>  -13.4450    1.0000 </r>
       <r>  -13.4418    1.0000 </r>
       <r>  -13.2737    1.0000 </r>
       <r>  -13.2422    1.0000 </r>
       <r>  -13.2389    1.0000 </r>
       <r>  -13.2384    1.0000 </r>
       <r>  -13.2013    1.0000 </r>
       <r>  -13.2013    1.0000 </r>
       <r>  -13.1151    1.0000 </r>
       <r>  -13.1135    1.0000 </r>
       <r>  -13.0692    1.0000 </r>
       <r>  -13.0439    1.0000 </r>
       <r>  -13.0426    1.0000 </r>
       <r>  -13.0191    1.0000 </r>
       <r>  -12.9839    1.0000 </r>
       <r>  -12.9839    1.0000 </r>
       <r>   -6.7212    1.0000 </r>
       <r>   -6.5163    1.0000 </r>
       <r>   -6.5148    1.0000 </r>
       <r>   -6.4340    1.0000 </r>
       <r>   -6.2744    1.0000 </r>
       <r>   -6.2744    1.0000 </r>
       <r>   -6.2027    1.0000 </r>
       <r>   -6.1989    1.0000 </r>
       <r>   -6.1876    1.0000 </r>
       <r>   -6.1869    1.0000 </r>
       <r>   -6.0842    1.0000 </r>
       <r>   -6.0125    1.0000 </r>
       <r>   -5.9690    1.0000 </r>
       <r>   -5.9662    1.0000 </r>
       <r>   -5.8406    1.0000 </r>
       <r>   -5.7439    1.0000 </r>
       <r>   -5.7408    1.0000 </r>
       <r>   -5.6019    1.0000 </r>
       <r>   -5.6019    1.0000 </r>
       <r>   -5.2528    1.0000 </r>
       <r>   -5.0898    1.0000 </r>
       <r>   -5.0418    1.0000 </r>
       <r>   -5.0180    1.0000 </r>
       <r>   -5.0147    1.0000 </r>
       <r>   -4.8018    1.0000 </r>
       <r>   -4.7894    1.0000 </r>
       <r>   -4.7323    1.0000 </r>
       <r>   -4.7304    1.0000 </r>
       <r>   -4.5168    1.0000 </r>
       <r>   -4.5131    1.0000 </r>
       <r>   -4.3438    1.0000 </r>
       <r>   -4.3030    1.0000 </r>
       <r>   -4.3018    1.0000 </r>
       <r>   -4.2820    1.0000 </r>
       <r>   -4.2462    1.0000 </r>
       <r>   -4.2203    1.0000 </r>
       <r>   -4.2189    1.0000 </r>
       <r>   -3.9766    1.0000 </r>
       <r>   -3.9742    1.0000 </r>
       <r>   -3.8679    1.0000 </r>
       <r>   -3.6341    1.0000 </r>
       <r>   -3.6327    1.0000 </r>
       <r>   -3.5455    1.0000 </r>
       <r>   -3.4371    1.0000 </r>
       <r>   -3.4371    1.0000 </r>
       <r>   -3.3424    1.0000 </r>
       <r>   -3.3402    1.0000 </r>
       <r>   -3.3083    1.0000 </r>
       <r>   -3.2993    1.0000 </r>
       <r>   -3.2950    1.0000 </r>
       <r>   -3.2032    1.0000 </r>
       <r>   -3.2032    1.0000 </r>
       <r>   -3.1087    1.0000 </r>
       <r>   -3.0667    1.0000 </r>
       <r>   -3.0651    1.0000 </r>
       <r>   -2.9248    1.0000 </r>
       <r>   -2.8700    1.0000 </r>
       <r>   -2.8500    1.0000 </r>
       <r>   -2.8481    1.0000 </r>
       <r>   -2.7319    1.0000 </r>
       <r>   -2.7319    1.0000 </r>
       <r>   -2.6857    1.0000 </r>
       <r>   -2.5423    1.0000 </r>
       <r>   -2.5403    1.0000 </r>
       <r>   -2.5116    1.0000 </r>
       <r>   -2.5116    1.0000 </r>
       <r>   -2.4214    1.0000 </r>
       <r>   -2.2711    1.0000 </r>
       <r>   -2.1978    1.0000 </r>
       <r>   -2.0274    1.0000 </r>
       <r>   -2.0234    1.0000 </r>
       <r>   -1.9858    1.0000 </r>
       <r>   -1.8484    1.0000 </r>
       <r>   -1.8098    1.0000 </r>
       <r>   -1.7029    1.0000 </r>
       <r>   -1.7020    1.0000 </r>
       <r>   -1.6198    1.0000 </r>
       <r>   -1.5639    1.0000 </r>
       <r>   -1.4835    1.0000 </r>
       <r>   -1.4820    1.0000 </r>
       <r>   -1.3876    1.0000 </r>
       <r>   -1.3496    1.0000 </r>
       <r>   -1.3496    1.0000 </r>
       <r>   -1.3481    1.0000 </r>
       <r>   -1.3450    1.0000 </r>
       <r>   -0.9822    1.0000 </r>
       <r>   -0.9822    1.0000 </r>
       <r>   -0.7207    1.0000 </r>
       <r>   -0.6829    1.0000 </r>
       <r>   -0.6829    1.0000 </r>
       <r>    0.9876    0.0000 </r>
       <r>    1.0146    0.0000 </r>
       <r>    1.1050    0.0000 </r>
       <r>    1.1053    0.0000 </r>
       <r>    1.1405    0.0000 </r>
       <r>    1.1424    0.0000 </r>
       <r>    1.1435    0.0000 </r>
       <r>    1.2153    0.0000 </r>
       <r>    1.2167    0.0000 </r>
       <r>    1.3954    0.0000 </r>
       <r>    1.4159    0.0000 </r>
       <r>    1.4184    0.0000 </r>
       <r>    1.4343    0.0000 </r>
       <r>    1.4362    0.0000 </r>
       <r>    1.5111    0.0000 </r>
       <r>    1.5136    0.0000 </r>
       <r>    1.5351    0.0000 </r>
       <r>    1.5354    0.0000 </r>
       <r>    1.6711    0.0000 </r>
       <r>    1.7720    0.0000 </r>
       <r>    1.7729    0.0000 </r>
       <r>    1.8103    0.0000 </r>
       <r>    2.0411    0.0000 </r>
       <r>    2.0434    0.0000 </r>
       <r>    2.3687    0.0000 </r>
       <r>    2.3699    0.0000 </r>
       <r>    2.6030    0.0000 </r>
       <r>    2.6061    0.0000 </r>
       <r>    2.7590    0.0000 </r>
       <r>    2.8790    0.0000 </r>
       <r>    3.0825    0.0000 </r>
       <r>    3.1918    0.0000 </r>
       <r>    3.1958    0.0000 </r>
       <r>    3.1958    0.0000 </r>
      </set>
      <set comment="kpoint 12">
       <r>  -61.9338    1.0000 </r>
       <r>  -61.9333    1.0000 </r>
       <r>  -61.9278    1.0000 </r>
       <r>  -61.9153    1.0000 </r>
       <r>  -61.9104    1.0000 </r>
       <r>  -61.9099    1.0000 </r>
       <r>  -61.9078    1.0000 </r>
       <r>  -61.9073    1.0000 </r>
       <r>  -61.9067    1.0000 </r>
       <r>  -36.2375    1.0000 </r>
       <r>  -36.2209    1.0000 </r>
       <r>  -36.2204    1.0000 </r>
       <r>  -36.1742    1.0000 </r>
       <r>  -36.1737    1.0000 </r>
       <r>  -36.1409    1.0000 </r>
       <r>  -36.0551    1.0000 </r>
       <r>  -36.0549    1.0000 </r>
       <r>  -36.0433    1.0000 </r>
       <r>  -36.0399    1.0000 </r>
       <r>  -36.0180    1.0000 </r>
       <r>  -36.0168    1.0000 </r>
       <r>  -36.0164    1.0000 </r>
       <r>  -36.0077    1.0000 </r>
       <r>  -36.0074    1.0000 </r>
       <r>  -36.0064    1.0000 </r>
       <r>  -36.0060    1.0000 </r>
       <r>  -36.0028    1.0000 </r>
       <r>  -36.0015    1.0000 </r>
       <r>  -36.0012    1.0000 </r>
       <r>  -35.9870    1.0000 </r>
       <r>  -35.9866    1.0000 </r>
       <r>  -35.9864    1.0000 </r>
       <r>  -35.9803    1.0000 </r>
       <r>  -35.9324    1.0000 </r>
       <r>  -35.9134    1.0000 </r>
       <r>  -35.9132    1.0000 </r>
       <r>  -14.6865    1.0000 </r>
       <r>  -14.6832    1.0000 </r>
       <r>  -14.4102    1.0000 </r>
       <r>  -14.3657    1.0000 </r>
       <r>  -14.3657    1.0000 </r>
       <r>  -14.1263    1.0000 </r>
       <r>  -13.7483    1.0000 </r>
       <r>  -13.6163    1.0000 </r>
       <r>  -13.6155    1.0000 </r>
       <r>  -13.5092    1.0000 </r>
       <r>  -13.5062    1.0000 </r>
       <r>  -13.4450    1.0000 </r>
       <r>  -13.4418    1.0000 </r>
       <r>  -13.2741    1.0000 </r>
       <r>  -13.2420    1.0000 </r>
       <r>  -13.2389    1.0000 </r>
       <r>  -13.2384    1.0000 </r>
       <r>  -13.2013    1.0000 </r>
       <r>  -13.2013    1.0000 </r>
       <r>  -13.1149    1.0000 </r>
       <r>  -13.1135    1.0000 </r>
       <r>  -13.0688    1.0000 </r>
       <r>  -13.0443    1.0000 </r>
       <r>  -13.0426    1.0000 </r>
       <r>  -13.0191    1.0000 </r>
       <r>  -12.9839    1.0000 </r>
       <r>  -12.9839    1.0000 </r>
       <r>   -6.7209    1.0000 </r>
       <r>   -6.5160    1.0000 </r>
       <r>   -6.5153    1.0000 </r>
       <r>   -6.4340    1.0000 </r>
       <r>   -6.2744    1.0000 </r>
       <r>   -6.2744    1.0000 </r>
       <r>   -6.2029    1.0000 </r>
       <r>   -6.1989    1.0000 </r>
       <r>   -6.1877    1.0000 </r>
       <r>   -6.1869    1.0000 </r>
       <r>   -6.0841    1.0000 </r>
       <r>   -6.0125    1.0000 </r>
       <r>   -5.9689    1.0000 </r>
       <r>   -5.9660    1.0000 </r>
       <r>   -5.8412    1.0000 </r>
       <r>   -5.7445    1.0000 </r>
       <r>   -5.7408    1.0000 </r>
       <r>   -5.6019    1.0000 </r>
       <r>   -5.6019    1.0000 </r>
       <r>   -5.2520    1.0000 </r>
       <r>   -5.0904    1.0000 </r>
       <r>   -5.0418    1.0000 </r>
       <r>   -5.0169    1.0000 </r>
       <r>   -5.0152    1.0000 </r>
       <r>   -4.8013    1.0000 </r>
       <r>   -4.7891    1.0000 </r>
       <r>   -4.7318    1.0000 </r>
       <r>   -4.7305    1.0000 </r>
       <r>   -4.5176    1.0000 </r>
       <r>   -4.5130    1.0000 </r>
       <r>   -4.3444    1.0000 </r>
       <r>   -4.3024    1.0000 </r>
       <r>   -4.3016    1.0000 </r>
       <r>   -4.2826    1.0000 </r>
       <r>   -4.2469    1.0000 </r>
       <r>   -4.2197    1.0000 </r>
       <r>   -4.2186    1.0000 </r>
       <r>   -3.9748    1.0000 </r>
       <r>   -3.9743    1.0000 </r>
       <r>   -3.8672    1.0000 </r>
       <r>   -3.6344    1.0000 </r>
       <r>   -3.6331    1.0000 </r>
       <r>   -3.5455    1.0000 </r>
       <r>   -3.4371    1.0000 </r>
       <r>   -3.4371    1.0000 </r>
       <r>   -3.3452    1.0000 </r>
       <r>   -3.3397    1.0000 </r>
       <r>   -3.3082    1.0000 </r>
       <r>   -3.2987    1.0000 </r>
       <r>   -3.2950    1.0000 </r>
       <r>   -3.2032    1.0000 </r>
       <r>   -3.2032    1.0000 </r>
       <r>   -3.1089    1.0000 </r>
       <r>   -3.0669    1.0000 </r>
       <r>   -3.0652    1.0000 </r>
       <r>   -2.9248    1.0000 </r>
       <r>   -2.8692    1.0000 </r>
       <r>   -2.8501    1.0000 </r>
       <r>   -2.8489    1.0000 </r>
       <r>   -2.7319    1.0000 </r>
       <r>   -2.7319    1.0000 </r>
       <r>   -2.6857    1.0000 </r>
       <r>   -2.5423    1.0000 </r>
       <r>   -2.5408    1.0000 </r>
       <r>   -2.5116    1.0000 </r>
       <r>   -2.5116    1.0000 </r>
       <r>   -2.4214    1.0000 </r>
       <r>   -2.2708    1.0000 </r>
       <r>   -2.1977    1.0000 </r>
       <r>   -2.0272    1.0000 </r>
       <r>   -2.0238    1.0000 </r>
       <r>   -1.9856    1.0000 </r>
       <r>   -1.8490    1.0000 </r>
       <r>   -1.8098    1.0000 </r>
       <r>   -1.7031    1.0000 </r>
       <r>   -1.7016    1.0000 </r>
       <r>   -1.6206    1.0000 </r>
       <r>   -1.5634    1.0000 </r>
       <r>   -1.4835    1.0000 </r>
       <r>   -1.4821    1.0000 </r>
       <r>   -1.3876    1.0000 </r>
       <r>   -1.3496    1.0000 </r>
       <r>   -1.3496    1.0000 </r>
       <r>   -1.3471    1.0000 </r>
       <r>   -1.3451    1.0000 </r>
       <r>   -0.9822    1.0000 </r>
       <r>   -0.9822    1.0000 </r>
       <r>   -0.7207    1.0000 </r>
       <r>   -0.6829    1.0000 </r>
       <r>   -0.6829    1.0000 </r>
       <r>    0.9878    0.0000 </r>
       <r>    1.0153    0.0000 </r>
       <r>    1.1046    0.0000 </r>
       <r>    1.1054    0.0000 </r>
       <r>    1.1409    0.0000 </r>
       <r>    1.1421    0.0000 </r>
       <r>    1.1435    0.0000 </r>
       <r>    1.2153    0.0000 </r>
       <r>    1.2169    0.0000 </r>
       <r>    1.3950    0.0000 </r>
       <r>    1.4160    0.0000 </r>
       <r>    1.4167    0.0000 </r>
       <r>    1.4340    0.0000 </r>
       <r>    1.4364    0.0000 </r>
       <r>    1.5113    0.0000 </r>
       <r>    1.5128    0.0000 </r>
       <r>    1.5353    0.0000 </r>
       <r>    1.5358    0.0000 </r>
       <r>    1.6713    0.0000 </r>
       <r>    1.7723    0.0000 </r>
       <r>    1.7726    0.0000 </r>
       <r>    1.8097    0.0000 </r>
       <r>    2.0412    0.0000 </r>
       <r>    2.0444    0.0000 </r>
       <r>    2.3688    0.0000 </r>
       <r>    2.3717    0.0000 </r>
       <r>    2.6035    0.0000 </r>
       <r>    2.6068    0.0000 </r>
       <r>    2.7585    0.0000 </r>
       <r>    2.8780    0.0000 </r>
       <r>    3.0823    0.0000 </r>
       <r>    3.1910    0.0000 </r>
       <r>    3.1958    0.0000 </r>
       <r>    3.1958    0.0000 </r>
      </set>
      <set comment="kpoint 13">
       <r>  -61.9338    1.0000 </r>
       <r>  -61.9333    1.0000 </r>
       <r>  -61.9278    1.0000 </r>
       <r>  -61.9153    1.0000 </r>
       <r>  -61.9104    1.0000 </r>
       <r>  -61.9099    1.0000 </r>
       <r>  -61.9079    1.0000 </r>
       <r>  -61.9072    1.0000 </r>
       <r>  -61.9067    1.0000 </r>
       <r>  -36.2375    1.0000 </r>
       <r>  -36.2208    1.0000 </r>
       <r>  -36.2204    1.0000 </r>
       <r>  -36.1742    1.0000 </r>
       <r>  -36.1737    1.0000 </r>
       <r>  -36.1409    1.0000 </r>
       <r>  -36.0551    1.0000 </r>
       <r>  -36.0548    1.0000 </r>
       <r>  -36.0433    1.0000 </r>
       <r>  -36.0398    1.0000 </r>
       <r>  -36.0180    1.0000 </r>
       <r>  -36.0167    1.0000 </r>
       <r>  -36.0164    1.0000 </r>
       <r>  -36.0078    1.0000 </r>
       <r>  -36.0074    1.0000 </r>
       <r>  -36.0064    1.0000 </r>
       <r>  -36.0060    1.0000 </r>
       <r>  -36.0028    1.0000 </r>
       <r>  -36.0015    1.0000 </r>
       <r>  -36.0012    1.0000 </r>
       <r>  -35.9870    1.0000 </r>
       <r>  -35.9866    1.0000 </r>
       <r>  -35.9864    1.0000 </r>
       <r>  -35.9803    1.0000 </r>
       <r>  -35.9325    1.0000 </r>
       <r>  -35.9134    1.0000 </r>
       <r>  -35.9132    1.0000 </r>
       <r>  -14.6864    1.0000 </r>
       <r>  -14.6832    1.0000 </r>
       <r>  -14.4103    1.0000 </r>
       <r>  -14.3657    1.0000 </r>
       <r>  -14.3657    1.0000 </r>
       <r>  -14.1263    1.0000 </r>
       <r>  -13.7484    1.0000 </r>
       <r>  -13.6160    1.0000 </r>
       <r>  -13.6158    1.0000 </r>
       <r>  -13.5092    1.0000 </r>
       <r>  -13.5061    1.0000 </r>
       <r>  -13.4450    1.0000 </r>
       <r>  -13.4418    1.0000 </r>
       <r>  -13.2739    1.0000 </r>
       <r>  -13.2421    1.0000 </r>
       <r>  -13.2388    1.0000 </r>
       <r>  -13.2385    1.0000 </r>
       <r>  -13.2013    1.0000 </r>
       <r>  -13.2013    1.0000 </r>
       <r>  -13.1150    1.0000 </r>
       <r>  -13.1135    1.0000 </r>
       <r>  -13.0690    1.0000 </r>
       <r>  -13.0441    1.0000 </r>
       <r>  -13.0425    1.0000 </r>
       <r>  -13.0191    1.0000 </r>
       <r>  -12.9839    1.0000 </r>
       <r>  -12.9839    1.0000 </r>
       <r>   -6.7211    1.0000 </r>
       <r>   -6.5162    1.0000 </r>
       <r>   -6.5151    1.0000 </r>
       <r>   -6.4340    1.0000 </r>
       <r>   -6.2744    1.0000 </r>
       <r>   -6.2744    1.0000 </r>
       <r>   -6.2028    1.0000 </r>
       <r>   -6.1989    1.0000 </r>
       <r>   -6.1876    1.0000 </r>
       <r>   -6.1870    1.0000 </r>
       <r>   -6.0841    1.0000 </r>
       <r>   -6.0125    1.0000 </r>
       <r>   -5.9689    1.0000 </r>
       <r>   -5.9661    1.0000 </r>
       <r>   -5.8409    1.0000 </r>
       <r>   -5.7442    1.0000 </r>
       <r>   -5.7408    1.0000 </r>
       <r>   -5.6019    1.0000 </r>
       <r>   -5.6019    1.0000 </r>
       <r>   -5.2524    1.0000 </r>
       <r>   -5.0901    1.0000 </r>
       <r>   -5.0418    1.0000 </r>
       <r>   -5.0175    1.0000 </r>
       <r>   -5.0150    1.0000 </r>
       <r>   -4.8016    1.0000 </r>
       <r>   -4.7893    1.0000 </r>
       <r>   -4.7320    1.0000 </r>
       <r>   -4.7304    1.0000 </r>
       <r>   -4.5172    1.0000 </r>
       <r>   -4.5130    1.0000 </r>
       <r>   -4.3441    1.0000 </r>
       <r>   -4.3027    1.0000 </r>
       <r>   -4.3017    1.0000 </r>
       <r>   -4.2823    1.0000 </r>
       <r>   -4.2466    1.0000 </r>
       <r>   -4.2200    1.0000 </r>
       <r>   -4.2187    1.0000 </r>
       <r>   -3.9757    1.0000 </r>
       <r>   -3.9742    1.0000 </r>
       <r>   -3.8675    1.0000 </r>
       <r>   -3.6342    1.0000 </r>
       <r>   -3.6329    1.0000 </r>
       <r>   -3.5455    1.0000 </r>
       <r>   -3.4371    1.0000 </r>
       <r>   -3.4371    1.0000 </r>
       <r>   -3.3437    1.0000 </r>
       <r>   -3.3400    1.0000 </r>
       <r>   -3.3082    1.0000 </r>
       <r>   -3.2990    1.0000 </r>
       <r>   -3.2950    1.0000 </r>
       <r>   -3.2032    1.0000 </r>
       <r>   -3.2032    1.0000 </r>
       <r>   -3.1088    1.0000 </r>
       <r>   -3.0668    1.0000 </r>
       <r>   -3.0652    1.0000 </r>
       <r>   -2.9248    1.0000 </r>
       <r>   -2.8696    1.0000 </r>
       <r>   -2.8501    1.0000 </r>
       <r>   -2.8484    1.0000 </r>
       <r>   -2.7319    1.0000 </r>
       <r>   -2.7319    1.0000 </r>
       <r>   -2.6857    1.0000 </r>
       <r>   -2.5423    1.0000 </r>
       <r>   -2.5405    1.0000 </r>
       <r>   -2.5116    1.0000 </r>
       <r>   -2.5116    1.0000 </r>
       <r>   -2.4214    1.0000 </r>
       <r>   -2.2710    1.0000 </r>
       <r>   -2.1978    1.0000 </r>
       <r>   -2.0272    1.0000 </r>
       <r>   -2.0237    1.0000 </r>
       <r>   -1.9857    1.0000 </r>
       <r>   -1.8487    1.0000 </r>
       <r>   -1.8098    1.0000 </r>
       <r>   -1.7030    1.0000 </r>
       <r>   -1.7018    1.0000 </r>
       <r>   -1.6202    1.0000 </r>
       <r>   -1.5636    1.0000 </r>
       <r>   -1.4835    1.0000 </r>
       <r>   -1.4821    1.0000 </r>
       <r>   -1.3876    1.0000 </r>
       <r>   -1.3496    1.0000 </r>
       <r>   -1.3496    1.0000 </r>
       <r>   -1.3476    1.0000 </r>
       <r>   -1.3451    1.0000 </r>
       <r>   -0.9822    1.0000 </r>
       <r>   -0.9822    1.0000 </r>
       <r>   -0.7207    1.0000 </r>
       <r>   -0.6829    1.0000 </r>
       <r>   -0.6829    1.0000 </r>
       <r>    0.9877    0.0000 </r>
       <r>    1.0149    0.0000 </r>
       <r>    1.1048    0.0000 </r>
       <r>    1.1054    0.0000 </r>
       <r>    1.1407    0.0000 </r>
       <r>    1.1423    0.0000 </r>
       <r>    1.1435    0.0000 </r>
       <r>    1.2154    0.0000 </r>
       <r>    1.2167    0.0000 </r>
       <r>    1.3952    0.0000 </r>
       <r>    1.4160    0.0000 </r>
       <r>    1.4175    0.0000 </r>
       <r>    1.4342    0.0000 </r>
       <r>    1.4363    0.0000 </r>
       <r>    1.5112    0.0000 </r>
       <r>    1.5132    0.0000 </r>
       <r>    1.5351    0.0000 </r>
       <r>    1.5357    0.0000 </r>
       <r>    1.6712    0.0000 </r>
       <r>    1.7721    0.0000 </r>
       <r>    1.7728    0.0000 </r>
       <r>    1.8100    0.0000 </r>
       <r>    2.0412    0.0000 </r>
       <r>    2.0439    0.0000 </r>
       <r>    2.3689    0.0000 </r>
       <r>    2.3706    0.0000 </r>
       <r>    2.6033    0.0000 </r>
       <r>    2.6064    0.0000 </r>
       <r>    2.7587    0.0000 </r>
       <r>    2.8785    0.0000 </r>
       <r>    3.0822    0.0000 </r>
       <r>    3.1907    0.0000 </r>
       <r>    3.1958    0.0000 </r>
       <r>    3.1958    0.0000 </r>
      </set>
     </set>
    </set>
   </array>
  </eigenvalues>
  <separator name="orbital magnetization" >
   <v name="MAGDIPOLOUT">      0.00000000      0.00000000      0.00000000</v>
  </separator>
  <dos>
   <i name="efermi">     -0.02136811 </i>
   <total>
    <array>
     <dimension dim="1">gridpoints</dimension>
     <dimension dim="2">spin</dimension>
     <field>energy</field>
     <field>total</field>
     <field>integrated</field>
     <set>
      <set comment="spin 1">
       <r>   -65.2099     0.0000     0.0000 </r>
       <r>   -64.9704     0.0000     0.0000 </r>
       <r>   -64.7308     0.0000     0.0000 </r>
       <r>   -64.4913     0.0000     0.0000 </r>
       <r>   -64.2517     0.0000     0.0000 </r>
       <r>   -64.0121     0.0000     0.0000 </r>
       <r>   -63.7726     0.0000     0.0000 </r>
       <r>   -63.5330     0.0000     0.0000 </r>
       <r>   -63.2935     0.0000     0.0000 </r>
       <r>   -63.0539     0.0000     0.0000 </r>
       <r>   -62.8144     0.0000     0.0000 </r>
       <r>   -62.5748     0.0000     0.0000 </r>
       <r>   -62.3353     0.0000     0.0000 </r>
       <r>   -62.0957     0.0001     0.0000 </r>
       <r>   -61.8562    71.4200    17.1089 </r>
       <r>   -61.6166     3.7197    18.0000 </r>
       <r>   -61.3771     0.0000    18.0000 </r>
       <r>   -61.1375     0.0000    18.0000 </r>
       <r>   -60.8980     0.0000    18.0000 </r>
       <r>   -60.6584     0.0000    18.0000 </r>
       <r>   -60.4188     0.0000    18.0000 </r>
       <r>   -60.1793     0.0000    18.0000 </r>
       <r>   -59.9397     0.0000    18.0000 </r>
       <r>   -59.7002     0.0000    18.0000 </r>
       <r>   -59.4606     0.0000    18.0000 </r>
       <r>   -59.2211     0.0000    18.0000 </r>
       <r>   -58.9815     0.0000    18.0000 </r>
       <r>   -58.7420     0.0000    18.0000 </r>
       <r>   -58.5024     0.0000    18.0000 </r>
       <r>   -58.2629     0.0000    18.0000 </r>
       <r>   -58.0233     0.0000    18.0000 </r>
       <r>   -57.7838     0.0000    18.0000 </r>
       <r>   -57.5442     0.0000    18.0000 </r>
       <r>   -57.3046     0.0000    18.0000 </r>
       <r>   -57.0651     0.0000    18.0000 </r>
       <r>   -56.8255     0.0000    18.0000 </r>
       <r>   -56.5860     0.0000    18.0000 </r>
       <r>   -56.3464     0.0000    18.0000 </r>
       <r>   -56.1069     0.0000    18.0000 </r>
       <r>   -55.8673     0.0000    18.0000 </r>
       <r>   -55.6278     0.0000    18.0000 </r>
       <r>   -55.3882     0.0000    18.0000 </r>
       <r>   -55.1487     0.0000    18.0000 </r>
       <r>   -54.9091     0.0000    18.0000 </r>
       <r>   -54.6696     0.0000    18.0000 </r>
       <r>   -54.4300     0.0000    18.0000 </r>
       <r>   -54.1904     0.0000    18.0000 </r>
       <r>   -53.9509     0.0000    18.0000 </r>
       <r>   -53.7113     0.0000    18.0000 </r>
       <r>   -53.4718     0.0000    18.0000 </r>
       <r>   -53.2322     0.0000    18.0000 </r>
       <r>   -52.9927     0.0000    18.0000 </r>
       <r>   -52.7531     0.0000    18.0000 </r>
       <r>   -52.5136     0.0000    18.0000 </r>
       <r>   -52.2740     0.0000    18.0000 </r>
       <r>   -52.0345     0.0000    18.0000 </r>
       <r>   -51.7949     0.0000    18.0000 </r>
       <r>   -51.5554     0.0000    18.0000 </r>
       <r>   -51.3158     0.0000    18.0000 </r>
       <r>   -51.0762     0.0000    18.0000 </r>
       <r>   -50.8367     0.0000    18.0000 </r>
       <r>   -50.5971     0.0000    18.0000 </r>
       <r>   -50.3576     0.0000    18.0000 </r>
       <r>   -50.1180     0.0000    18.0000 </r>
       <r>   -49.8785     0.0000    18.0000 </r>
       <r>   -49.6389     0.0000    18.0000 </r>
       <r>   -49.3994     0.0000    18.0000 </r>
       <r>   -49.1598     0.0000    18.0000 </r>
       <r>   -48.9203     0.0000    18.0000 </r>
       <r>   -48.6807     0.0000    18.0000 </r>
       <r>   -48.4412     0.0000    18.0000 </r>
       <r>   -48.2016     0.0000    18.0000 </r>
       <r>   -47.9621     0.0000    18.0000 </r>
       <r>   -47.7225     0.0000    18.0000 </r>
       <r>   -47.4829     0.0000    18.0000 </r>
       <r>   -47.2434     0.0000    18.0000 </r>
       <r>   -47.0038     0.0000    18.0000 </r>
       <r>   -46.7643     0.0000    18.0000 </r>
       <r>   -46.5247     0.0000    18.0000 </r>
       <r>   -46.2852     0.0000    18.0000 </r>
       <r>   -46.0456     0.0000    18.0000 </r>
       <r>   -45.8061     0.0000    18.0000 </r>
       <r>   -45.5665     0.0000    18.0000 </r>
       <r>   -45.3270     0.0000    18.0000 </r>
       <r>   -45.0874     0.0000    18.0000 </r>
       <r>   -44.8479     0.0000    18.0000 </r>
       <r>   -44.6083     0.0000    18.0000 </r>
       <r>   -44.3687     0.0000    18.0000 </r>
       <r>   -44.1292     0.0000    18.0000 </r>
       <r>   -43.8896     0.0000    18.0000 </r>
       <r>   -43.6501     0.0000    18.0000 </r>
       <r>   -43.4105     0.0000    18.0000 </r>
       <r>   -43.1710     0.0000    18.0000 </r>
       <r>   -42.9314     0.0000    18.0000 </r>
       <r>   -42.6919     0.0000    18.0000 </r>
       <r>   -42.4523     0.0000    18.0000 </r>
       <r>   -42.2128     0.0000    18.0000 </r>
       <r>   -41.9732     0.0000    18.0000 </r>
       <r>   -41.7337     0.0000    18.0000 </r>
       <r>   -41.4941     0.0000    18.0000 </r>
       <r>   -41.2545     0.0000    18.0000 </r>
       <r>   -41.0150     0.0000    18.0000 </r>
       <r>   -40.7754     0.0000    18.0000 </r>
       <r>   -40.5359     0.0000    18.0000 </r>
       <r>   -40.2963     0.0000    18.0000 </r>
       <r>   -40.0568     0.0000    18.0000 </r>
       <r>   -39.8172     0.0000    18.0000 </r>
       <r>   -39.5777     0.0000    18.0000 </r>
       <r>   -39.3381     0.0000    18.0000 </r>
       <r>   -39.0986     0.0000    18.0000 </r>
       <r>   -38.8590     0.0000    18.0000 </r>
       <r>   -38.6195     0.0000    18.0000 </r>
       <r>   -38.3799     0.0000    18.0000 </r>
       <r>   -38.1403     0.0000    18.0000 </r>
       <r>   -37.9008     0.0000    18.0000 </r>
       <r>   -37.6612     0.0000    18.0000 </r>
       <r>   -37.4217     0.0000    18.0000 </r>
       <r>   -37.1821     0.0000    18.0000 </r>
       <r>   -36.9426     0.0000    18.0000 </r>
       <r>   -36.7030     0.0000    18.0000 </r>
       <r>   -36.4635     0.0000    18.0000 </r>
       <r>   -36.2239    10.9679    20.6274 </r>
       <r>   -35.9844   148.1570    56.1190 </r>
       <r>   -35.7448    66.2942    72.0000 </r>
       <r>   -35.5053     0.0001    72.0000 </r>
       <r>   -35.2657     0.0000    72.0000 </r>
       <r>   -35.0262     0.0000    72.0000 </r>
       <r>   -34.7866     0.0000    72.0000 </r>
       <r>   -34.5470     0.0000    72.0000 </r>
       <r>   -34.3075     0.0000    72.0000 </r>
       <r>   -34.0679     0.0000    72.0000 </r>
       <r>   -33.8284     0.0000    72.0000 </r>
       <r>   -33.5888     0.0000    72.0000 </r>
       <r>   -33.3493     0.0000    72.0000 </r>
       <r>   -33.1097     0.0000    72.0000 </r>
       <r>   -32.8702     0.0000    72.0000 </r>
       <r>   -32.6306     0.0000    72.0000 </r>
       <r>   -32.3911     0.0000    72.0000 </r>
       <r>   -32.1515     0.0000    72.0000 </r>
       <r>   -31.9120     0.0000    72.0000 </r>
       <r>   -31.6724     0.0000    72.0000 </r>
       <r>   -31.4328     0.0000    72.0000 </r>
       <r>   -31.1933     0.0000    72.0000 </r>
       <r>   -30.9537     0.0000    72.0000 </r>
       <r>   -30.7142     0.0000    72.0000 </r>
       <r>   -30.4746     0.0000    72.0000 </r>
       <r>   -30.2351     0.0000    72.0000 </r>
       <r>   -29.9955     0.0000    72.0000 </r>
       <r>   -29.7560     0.0000    72.0000 </r>
       <r>   -29.5164     0.0000    72.0000 </r>
       <r>   -29.2769     0.0000    72.0000 </r>
       <r>   -29.0373     0.0000    72.0000 </r>
       <r>   -28.7978     0.0000    72.0000 </r>
       <r>   -28.5582     0.0000    72.0000 </r>
       <r>   -28.3186     0.0000    72.0000 </r>
       <r>   -28.0791     0.0000    72.0000 </r>
       <r>   -27.8395     0.0000    72.0000 </r>
       <r>   -27.6000     0.0000    72.0000 </r>
       <r>   -27.3604     0.0000    72.0000 </r>
       <r>   -27.1209     0.0000    72.0000 </r>
       <r>   -26.8813     0.0000    72.0000 </r>
       <r>   -26.6418     0.0000    72.0000 </r>
       <r>   -26.4022     0.0000    72.0000 </r>
       <r>   -26.1627     0.0000    72.0000 </r>
       <r>   -25.9231     0.0000    72.0000 </r>
       <r>   -25.6836     0.0000    72.0000 </r>
       <r>   -25.4440     0.0000    72.0000 </r>
       <r>   -25.2045     0.0000    72.0000 </r>
       <r>   -24.9649     0.0000    72.0000 </r>
       <r>   -24.7253     0.0000    72.0000 </r>
       <r>   -24.4858     0.0000    72.0000 </r>
       <r>   -24.2462     0.0000    72.0000 </r>
       <r>   -24.0067     0.0000    72.0000 </r>
       <r>   -23.7671     0.0000    72.0000 </r>
       <r>   -23.5276     0.0000    72.0000 </r>
       <r>   -23.2880     0.0000    72.0000 </r>
       <r>   -23.0485     0.0000    72.0000 </r>
       <r>   -22.8089     0.0000    72.0000 </r>
       <r>   -22.5694     0.0000    72.0000 </r>
       <r>   -22.3298     0.0000    72.0000 </r>
       <r>   -22.0903     0.0000    72.0000 </r>
       <r>   -21.8507     0.0000    72.0000 </r>
       <r>   -21.6111     0.0000    72.0000 </r>
       <r>   -21.3716     0.0000    72.0000 </r>
       <r>   -21.1320     0.0000    72.0000 </r>
       <r>   -20.8925     0.0000    72.0000 </r>
       <r>   -20.6529     0.0000    72.0000 </r>
       <r>   -20.4134     0.0000    72.0000 </r>
       <r>   -20.1738     0.0000    72.0000 </r>
       <r>   -19.9343     0.0000    72.0000 </r>
       <r>   -19.6947     0.0000    72.0000 </r>
       <r>   -19.4552     0.0000    72.0000 </r>
       <r>   -19.2156     0.0000    72.0000 </r>
       <r>   -18.9761     0.0000    72.0000 </r>
       <r>   -18.7365     0.0000    72.0000 </r>
       <r>   -18.4969     0.0000    72.0000 </r>
       <r>   -18.2574     0.0000    72.0000 </r>
       <r>   -18.0178     0.0000    72.0000 </r>
       <r>   -17.7783     0.0000    72.0000 </r>
       <r>   -17.5387     0.0000    72.0000 </r>
       <r>   -17.2992     0.0000    72.0000 </r>
       <r>   -17.0596     0.0000    72.0000 </r>
       <r>   -16.8201     0.0000    72.0000 </r>
       <r>   -16.5805     0.0000    72.0000 </r>
       <r>   -16.3410     0.0000    72.0000 </r>
       <r>   -16.1014     0.0000    72.0000 </r>
       <r>   -15.8619     0.0000    72.0000 </r>
       <r>   -15.6223     0.0000    72.0000 </r>
       <r>   -15.3827     0.0000    72.0000 </r>
       <r>   -15.1432     0.0763    72.0183 </r>
       <r>   -14.9036     3.9337    72.9606 </r>
       <r>   -14.6641     6.7125    74.5686 </r>
       <r>   -14.4245     8.9846    76.7209 </r>
       <r>   -14.1850    12.6963    79.7624 </r>
       <r>   -13.9454    15.0229    83.3612 </r>
       <r>   -13.7059    19.1225    87.9420 </r>
       <r>   -13.4663    29.2235    94.9426 </r>
       <r>   -13.2268    45.8893   105.9356 </r>
       <r>   -12.9872    63.7342   121.2033 </r>
       <r>   -12.7477    19.6573   125.9123 </r>
       <r>   -12.5081     0.3660   126.0000 </r>
       <r>   -12.2686     0.0000   126.0000 </r>
       <r>   -12.0290     0.0000   126.0000 </r>
       <r>   -11.7894     0.0000   126.0000 </r>
       <r>   -11.5499     0.0000   126.0000 </r>
       <r>   -11.3103     0.0000   126.0000 </r>
       <r>   -11.0708     0.0000   126.0000 </r>
       <r>   -10.8312     0.0000   126.0000 </r>
       <r>   -10.5917     0.0000   126.0000 </r>
       <r>   -10.3521     0.0000   126.0000 </r>
       <r>   -10.1126     0.0000   126.0000 </r>
       <r>    -9.8730     0.0000   126.0000 </r>
       <r>    -9.6335     0.0000   126.0000 </r>
       <r>    -9.3939     0.0000   126.0000 </r>
       <r>    -9.1544     0.0000   126.0000 </r>
       <r>    -8.9148     0.0000   126.0000 </r>
       <r>    -8.6752     0.0000   126.0000 </r>
       <r>    -8.4357     0.0000   126.0000 </r>
       <r>    -8.1961     0.0000   126.0000 </r>
       <r>    -7.9566     0.0000   126.0000 </r>
       <r>    -7.7170     0.0000   126.0000 </r>
       <r>    -7.4775     0.0000   126.0000 </r>
       <r>    -7.2379     0.0000   126.0000 </r>
       <r>    -6.9984     0.0000   126.0000 </r>
       <r>    -6.7588     1.3325   126.3192 </r>
       <r>    -6.5193    12.6215   129.3427 </r>
       <r>    -6.2797    26.4735   135.6846 </r>
       <r>    -6.0402    47.8922   147.1573 </r>
       <r>    -5.8006    35.7912   155.7312 </r>
       <r>    -5.5610    22.7140   161.1725 </r>
       <r>    -5.3215     7.3875   162.9422 </r>
       <r>    -5.0819    16.3225   166.8523 </r>
       <r>    -4.8424    50.0326   178.8378 </r>
       <r>    -4.6028    27.8768   185.5158 </r>
       <r>    -4.3633    18.8095   190.0216 </r>
       <r>    -4.1237    52.4593   202.5885 </r>
       <r>    -3.8842    23.5352   208.2264 </r>
       <r>    -3.6446    28.8699   215.1423 </r>
       <r>    -3.4051    15.6226   218.8848 </r>
       <r>    -3.1655    20.1290   223.7067 </r>
       <r>    -2.9260    40.5061   233.4101 </r>
       <r>    -2.6864    45.4321   244.2936 </r>
       <r>    -2.4468    35.8285   252.8764 </r>
       <r>    -2.2073    30.6548   260.2199 </r>
       <r>    -1.9677    36.6412   268.9974 </r>
       <r>    -1.7282    39.1286   278.3708 </r>
       <r>    -1.4886    30.1296   285.5885 </r>
       <r>    -1.2491    29.1192   292.5641 </r>
       <r>    -1.0095    19.7097   297.2856 </r>
       <r>    -0.7700    16.4717   301.2315 </r>
       <r>    -0.5304    14.8094   304.7791 </r>
       <r>    -0.2909     5.0961   305.9999 </r>
       <r>    -0.0513     0.0004   306.0000 </r>
       <r>     0.1882     0.0000   306.0000 </r>
       <r>     0.4278     0.0013   306.0003 </r>
       <r>     0.6673     1.2474   306.2991 </r>
       <r>     0.9069     6.0849   307.7568 </r>
       <r>     1.1465    46.4323   318.8798 </r>
       <r>     1.3860    32.4514   326.6537 </r>
       <r>     1.6256    52.7499   339.2901 </r>
       <r>     1.8651    25.1774   345.3215 </r>
       <r>     2.1047    29.3407   352.3501 </r>
       <r>     2.3442    20.2746   357.2070 </r>
       <r>     2.5838    14.1179   360.5890 </r>
       <r>     2.8233    21.6890   365.7846 </r>
       <r>     3.0629     9.6738   368.1020 </r>
       <r>     3.3024    22.2328   373.4280 </r>
       <r>     3.5420     2.3878   374.0000 </r>
       <r>     3.7815     0.0000   374.0000 </r>
       <r>     4.0211     0.0000   374.0000 </r>
       <r>     4.2607     0.0000   374.0000 </r>
       <r>     4.5002     0.0000   374.0000 </r>
       <r>     4.7398     0.0000   374.0000 </r>
       <r>     4.9793     0.0000   374.0000 </r>
       <r>     5.2189     0.0000   374.0000 </r>
       <r>     5.4584     0.0000   374.0000 </r>
       <r>     5.6980     0.0000   374.0000 </r>
       <r>     5.9375     0.0000   374.0000 </r>
       <r>     6.1771     0.0000   374.0000 </r>
       <r>     6.4166     0.0000   374.0000 </r>
       <r>     6.6562     0.0000   374.0000 </r>
      </set>
     </set>
    </array>
   </total>
  </dos>
 </calculation>
 <structure name="finalpos" >
  <crystal>
   <varray name="basis" >
    <v>       9.59500625       0.00000000       0.00000000 </v>
    <v>       4.79750312       8.30951916       0.00000000 </v>
    <v>       0.00000000       0.00000000      20.00000000 </v>
   </varray>
   <i name="volume">   1594.59776455 </i>
   <varray name="rec_basis" >
    <v>       0.10422088      -0.06017195       0.00000000 </v>
    <v>       0.00000000       0.12034391       0.00000000 </v>
    <v>       0.00000000       0.00000000       0.05000000 </v>
   </varray>
  </crystal>
  <varray name="positions" >
   <v>       0.00000000       0.00000000       0.47843073 </v>
   <v>       0.33333333       0.00000000       0.47843073 </v>
   <v>       0.66666667       0.00000000       0.47843073 </v>
   <v>       0.00000000       0.33333333       0.47843073 </v>
   <v>       0.33333333       0.33333333       0.47843073 </v>
   <v>       0.66666667       0.33333333       0.47843073 </v>
   <v>       0.00000000       0.66666667       0.47843073 </v>
   <v>       0.33333333       0.66666667       0.47843073 </v>
   <v>       0.66666667       0.66666667       0.47843073 </v>
   <v>       0.11156192       0.11111111       0.40123078 </v>
   <v>       0.44444444       0.11111111       0.40077998 </v>
   <v>       0.77777778       0.11111111       0.40077998 </v>
   <v>       0.11111111       0.44444444       0.40077998 </v>
   <v>       0.44444444       0.44444444       0.40077998 </v>
   <v>       0.77777778       0.44444444       0.40077998 </v>
   <v>       0.11111111       0.77777778       0.40077998 </v>
   <v>       0.44444444       0.77777778       0.40077998 </v>
   <v>       0.77777778       0.77777778       0.40077998 </v>
   <v>       0.11111111       0.11111111       0.55604403 </v>
   <v>       0.44444444       0.11111111       0.55604403 </v>
   <v>       0.77777778       0.11111111       0.55604403 </v>
   <v>       0.11111111       0.44444444       0.55604403 </v>
   <v>       0.44444444       0.44444444       0.55604403 </v>
   <v>       0.77777778       0.44444444       0.55604403 </v>
   <v>       0.11111111       0.77777778       0.55604403 </v>
   <v>       0.44444444       0.77777778       0.55604403 </v>
   <v>       0.77777778       0.77777778       0.55604403 </v>
   <v>       0.11111111       0.11111111       0.85731164 </v>
   <v>       0.44444444       0.11111111       0.85731164 </v>
   <v>       0.77777778       0.11111111       0.85731164 </v>
   <v>       0.11111111       0.44444444       0.85731164 </v>
   <v>       0.44444444       0.44444444       0.85731164 </v>
   <v>       0.77777778       0.44444444       0.85731164 </v>
   <v>       0.11111111       0.77777778       0.85731164 </v>
   <v>       0.44444444       0.77777778       0.85731164 </v>
   <v>       0.77777778       0.77777778       0.85731164 </v>
   <v>       0.00000000       0.00000000       0.85743362 </v>
   <v>       0.33333333       0.00000000       0.85743362 </v>
   <v>       0.66666667       0.00000000       0.85743362 </v>
   <v>       0.00000000       0.33333333       0.85743362 </v>
   <v>       0.33333333       0.33333333       0.85743362 </v>
   <v>       0.66666667       0.33333333       0.85743362 </v>
   <v>       0.00000000       0.66666667       0.85743362 </v>
   <v>       0.33333333       0.66666667       0.85743362 </v>
   <v>       0.66666667       0.66666667       0.85743362 </v>
  </varray>
 </structure>
</modeling>
