Bilayer MoTe2/TiS2 2H (relaxed monolayer
   1.00000000000000     
     3.4255557209598346    0.0000000000000000    0.0000000000000000
     1.7127778604799173    2.9666182764303346    0.0000000000000000
     0.0000000000000000    0.0000000000000000   20.0000000000000000
   Mo   Te   Ti   S 
     1     2     1     2
Direct
    -0.0000000000000000   -0.0000000000000000    0.5005637183422080
     0.3333333333333357    0.3333333333333357    0.4079023013728381
     0.3333333333333357    0.3333333333333357    0.5932429890109910
     0.3333333333333357    0.3333333333333357    0.9872642851775459
    -0.0000000000000000   -0.0000000000000000    0.9130029853306008
    -0.0000000000000000   -0.0000000000000000    0.0614143293498317
 
  0.00000000E+00  0.00000000E+00  0.00000000E+00
  0.00000000E+00  0.00000000E+00  0.00000000E+00
  0.00000000E+00  0.00000000E+00  0.00000000E+00
  0.00000000E+00  0.00000000E+00  0.00000000E+00
  0.00000000E+00  0.00000000E+00  0.00000000E+00
  0.00000000E+00  0.00000000E+00  0.00000000E+00
