Bilayer WS2/WS2 3R (relaxed monolayers) 
   1.00000000000000     
     3.1842228947230637    0.0000000000000000    0.0000000000000000
     1.5921114473615319    2.7576179181421954    0.0000000000000000
     0.0000000000000000    0.0000000000000000   20.0000000000000000
   W    S 
     2     4
Direct
    -0.0000000000000000   -0.0000000000000000    0.5112628181536713
     0.3333333333333357    0.3333333333333357    0.8137576829337784
     0.3333333333333357    0.3333333333333357    0.4328969461006277
     0.3333333333333357    0.3333333333333357    0.5894416464486507
     0.6666666666666714    0.6666666666666714    0.7355286844070303
     0.6666666666666714    0.6666666666666714    0.8921122219564024
 
  0.00000000E+00  0.00000000E+00  0.00000000E+00
  0.00000000E+00  0.00000000E+00  0.00000000E+00
  0.00000000E+00  0.00000000E+00  0.00000000E+00
  0.00000000E+00  0.00000000E+00  0.00000000E+00
  0.00000000E+00  0.00000000E+00  0.00000000E+00
  0.00000000E+00  0.00000000E+00  0.00000000E+00
