TaSe2 phonon                            
           1
    10.422303    0.000000    0.000000
     5.211151    9.025979    0.000000
     0.000000    0.000000   20.000000
   Ta   Se
     9    18
Direct configuration=     1
   0.00000000  0.00000000  0.50000000
   0.33333333  0.00000000  0.50000000
   0.66666667  0.00000000  0.50000000
   0.00000000  0.33333333  0.50000000
   0.33333333  0.33333333  0.50000000
   0.66666667  0.33333333  0.50000000
   0.00000000  0.66666667  0.50000000
   0.33333333  0.66666667  0.50000000
   0.66666667  0.66666667  0.50000000
   0.11155452  0.11111111  0.41692744
   0.44444444  0.11111111  0.41648404
   0.77777778  0.11111111  0.41648404
   0.11111111  0.44444444  0.41648404
   0.44444444  0.44444444  0.41648404
   0.77777778  0.44444444  0.41648404
   0.11111111  0.77777778  0.41648404
   0.44444444  0.77777778  0.41648404
   0.77777778  0.77777778  0.41648404
   0.11111111  0.11111111  0.58351596
   0.44444444  0.11111111  0.58351596
   0.77777778  0.11111111  0.58351596
   0.11111111  0.44444444  0.58351596
   0.44444444  0.44444444  0.58351596
   0.77777778  0.44444444  0.58351596
   0.11111111  0.77777778  0.58351596
   0.44444444  0.77777778  0.58351596
   0.77777778  0.77777778  0.58351596
