  54  54   0   0
  0.3055217E+02  0.9759725E-09  0.9759725E-09  0.2000000E-08  0.5000000E-15
  1.000000000000000E-004
  CAR 
 MoSe2_WS2_2H phonon                     
      9.44198577    -76.35519177  301      2.64970922      1.00000000
    -76.355  0.0000E+00  0.0000E+00
    -76.069  0.0000E+00  0.0000E+00
    -75.783  0.0000E+00  0.0000E+00
    -75.497  0.0000E+00  0.0000E+00
    -75.211  0.0000E+00  0.0000E+00
    -74.925  0.0000E+00  0.0000E+00
    -74.639  0.0000E+00  0.0000E+00
    -74.353  0.0000E+00  0.0000E+00
    -74.067  0.0000E+00  0.0000E+00
    -73.781  0.0000E+00  0.0000E+00
    -73.495  0.0000E+00  0.0000E+00
    -73.209  0.0000E+00  0.0000E+00
    -72.923  0.0000E+00  0.0000E+00
    -72.637  0.2475E-05  0.7080E-06
    -72.351  0.6270E+02  0.1793E+02
    -72.065  0.2369E+00  0.1800E+02
    -71.779  0.0000E+00  0.1800E+02
    -71.493  0.0000E+00  0.1800E+02
    -71.207  0.0000E+00  0.1800E+02
    -70.921  0.0000E+00  0.1800E+02
    -70.635  0.0000E+00  0.1800E+02
    -70.349  0.0000E+00  0.1800E+02
    -70.063  0.0000E+00  0.1800E+02
    -69.777  0.0000E+00  0.1800E+02
    -69.491  0.0000E+00  0.1800E+02
    -69.205  0.0000E+00  0.1800E+02
    -68.919  0.0000E+00  0.1800E+02
    -68.633  0.0000E+00  0.1800E+02
    -68.347  0.0000E+00  0.1800E+02
    -68.061  0.0000E+00  0.1800E+02
    -67.775  0.0000E+00  0.1800E+02
    -67.489  0.0000E+00  0.1800E+02
    -67.203  0.0000E+00  0.1800E+02
    -66.918  0.0000E+00  0.1800E+02
    -66.632  0.0000E+00  0.1800E+02
    -66.346  0.0000E+00  0.1800E+02
    -66.060  0.0000E+00  0.1800E+02
    -65.774  0.0000E+00  0.1800E+02
    -65.488  0.0000E+00  0.1800E+02
    -65.202  0.0000E+00  0.1800E+02
    -64.916  0.0000E+00  0.1800E+02
    -64.630  0.0000E+00  0.1800E+02
    -64.344  0.0000E+00  0.1800E+02
    -64.058  0.0000E+00  0.1800E+02
    -63.772  0.0000E+00  0.1800E+02
    -63.486  0.0000E+00  0.1800E+02
    -63.200  0.0000E+00  0.1800E+02
    -62.914  0.0000E+00  0.1800E+02
    -62.628  0.0000E+00  0.1800E+02
    -62.342  0.0000E+00  0.1800E+02
    -62.056  0.0000E+00  0.1800E+02
    -61.770  0.0000E+00  0.1800E+02
    -61.484  0.0000E+00  0.1800E+02
    -61.198  0.0000E+00  0.1800E+02
    -60.912  0.0000E+00  0.1800E+02
    -60.626  0.0000E+00  0.1800E+02
    -60.340  0.0000E+00  0.1800E+02
    -60.054  0.0000E+00  0.1800E+02
    -59.768  0.0000E+00  0.1800E+02
    -59.482  0.0000E+00  0.1800E+02
    -59.196  0.0000E+00  0.1800E+02
    -58.910  0.4959E-12  0.1800E+02
    -58.624  0.3527E+02  0.2809E+02
    -58.338  0.2766E+02  0.3600E+02
    -58.052  0.0000E+00  0.3600E+02
    -57.766  0.0000E+00  0.3600E+02
    -57.480  0.0000E+00  0.3600E+02
    -57.194  0.0000E+00  0.3600E+02
    -56.908  0.0000E+00  0.3600E+02
    -56.622  0.0000E+00  0.3600E+02
    -56.336  0.0000E+00  0.3600E+02
    -56.050  0.0000E+00  0.3600E+02
    -55.764  0.0000E+00  0.3600E+02
    -55.478  0.0000E+00  0.3600E+02
    -55.192  0.0000E+00  0.3600E+02
    -54.906  0.0000E+00  0.3600E+02
    -54.620  0.0000E+00  0.3600E+02
    -54.334  0.0000E+00  0.3600E+02
    -54.048  0.0000E+00  0.3600E+02
    -53.762  0.0000E+00  0.3600E+02
    -53.476  0.0000E+00  0.3600E+02
    -53.190  0.0000E+00  0.3600E+02
    -52.904  0.0000E+00  0.3600E+02
    -52.618  0.0000E+00  0.3600E+02
    -52.332  0.0000E+00  0.3600E+02
    -52.046  0.0000E+00  0.3600E+02
    -51.760  0.0000E+00  0.3600E+02
    -51.474  0.0000E+00  0.3600E+02
    -51.188  0.0000E+00  0.3600E+02
    -50.902  0.0000E+00  0.3600E+02
    -50.616  0.0000E+00  0.3600E+02
    -50.330  0.0000E+00  0.3600E+02
    -50.044  0.0000E+00  0.3600E+02
    -49.758  0.0000E+00  0.3600E+02
    -49.472  0.0000E+00  0.3600E+02
    -49.186  0.0000E+00  0.3600E+02
    -48.900  0.0000E+00  0.3600E+02
    -48.614  0.0000E+00  0.3600E+02
    -48.328  0.0000E+00  0.3600E+02
    -48.042  0.0000E+00  0.3600E+02
    -47.756  0.0000E+00  0.3600E+02
    -47.470  0.0000E+00  0.3600E+02
    -47.184  0.0000E+00  0.3600E+02
    -46.898  0.0000E+00  0.3600E+02
    -46.612  0.0000E+00  0.3600E+02
    -46.326  0.0000E+00  0.3600E+02
    -46.040  0.0000E+00  0.3600E+02
    -45.754  0.0000E+00  0.3600E+02
    -45.468  0.0000E+00  0.3600E+02
    -45.182  0.0000E+00  0.3600E+02
    -44.896  0.0000E+00  0.3600E+02
    -44.610  0.0000E+00  0.3600E+02
    -44.324  0.0000E+00  0.3600E+02
    -44.038  0.0000E+00  0.3600E+02
    -43.752  0.0000E+00  0.3600E+02
    -43.466  0.0000E+00  0.3600E+02
    -43.180  0.0000E+00  0.3600E+02
    -42.894  0.0000E+00  0.3600E+02
    -42.608  0.0000E+00  0.3600E+02
    -42.322  0.0000E+00  0.3600E+02
    -42.036  0.0000E+00  0.3600E+02
    -41.750  0.0000E+00  0.3600E+02
    -41.464  0.0000E+00  0.3600E+02
    -41.178  0.0000E+00  0.3600E+02
    -40.892  0.0000E+00  0.3600E+02
    -40.606  0.0000E+00  0.3600E+02
    -40.320  0.0000E+00  0.3600E+02
    -40.034  0.0000E+00  0.3600E+02
    -39.748  0.0000E+00  0.3600E+02
    -39.462  0.0000E+00  0.3600E+02
    -39.176  0.0000E+00  0.3600E+02
    -38.890  0.0000E+00  0.3600E+02
    -38.604  0.0000E+00  0.3600E+02
    -38.318  0.0000E+00  0.3600E+02
    -38.032  0.0000E+00  0.3600E+02
    -37.746  0.0000E+00  0.3600E+02
    -37.460  0.0000E+00  0.3600E+02
    -37.174  0.0000E+00  0.3600E+02
    -36.888  0.2566E+00  0.3607E+02
    -36.602  0.1343E+03  0.7448E+02
    -36.317  0.5425E+02  0.9000E+02
    -36.031  0.0000E+00  0.9000E+02
    -35.745  0.0000E+00  0.9000E+02
    -35.459  0.0000E+00  0.9000E+02
    -35.173  0.0000E+00  0.9000E+02
    -34.887  0.0000E+00  0.9000E+02
    -34.601  0.0000E+00  0.9000E+02
    -34.315  0.0000E+00  0.9000E+02
    -34.029  0.0000E+00  0.9000E+02
    -33.743  0.0000E+00  0.9000E+02
    -33.457  0.0000E+00  0.9000E+02
    -33.171  0.2907E-13  0.9000E+02
    -32.885  0.1169E+02  0.9334E+02
    -32.599  0.1725E+03  0.1427E+03
    -32.313  0.4594E+01  0.1440E+03
    -32.027  0.0000E+00  0.1440E+03
    -31.741  0.0000E+00  0.1440E+03
    -31.455  0.0000E+00  0.1440E+03
    -31.169  0.0000E+00  0.1440E+03
    -30.883  0.0000E+00  0.1440E+03
    -30.597  0.0000E+00  0.1440E+03
    -30.311  0.0000E+00  0.1440E+03
    -30.025  0.0000E+00  0.1440E+03
    -29.739  0.0000E+00  0.1440E+03
    -29.453  0.0000E+00  0.1440E+03
    -29.167  0.0000E+00  0.1440E+03
    -28.881  0.0000E+00  0.1440E+03
    -28.595  0.0000E+00  0.1440E+03
    -28.309  0.0000E+00  0.1440E+03
    -28.023  0.0000E+00  0.1440E+03
    -27.737  0.0000E+00  0.1440E+03
    -27.451  0.0000E+00  0.1440E+03
    -27.165  0.0000E+00  0.1440E+03
    -26.879  0.0000E+00  0.1440E+03
    -26.593  0.0000E+00  0.1440E+03
    -26.307  0.0000E+00  0.1440E+03
    -26.021  0.0000E+00  0.1440E+03
    -25.735  0.0000E+00  0.1440E+03
    -25.449  0.0000E+00  0.1440E+03
    -25.163  0.0000E+00  0.1440E+03
    -24.877  0.0000E+00  0.1440E+03
    -24.591  0.0000E+00  0.1440E+03
    -24.305  0.0000E+00  0.1440E+03
    -24.019  0.0000E+00  0.1440E+03
    -23.733  0.0000E+00  0.1440E+03
    -23.447  0.0000E+00  0.1440E+03
    -23.161  0.0000E+00  0.1440E+03
    -22.875  0.0000E+00  0.1440E+03
    -22.589  0.0000E+00  0.1440E+03
    -22.303  0.0000E+00  0.1440E+03
    -22.017  0.0000E+00  0.1440E+03
    -21.731  0.0000E+00  0.1440E+03
    -21.445  0.0000E+00  0.1440E+03
    -21.159  0.0000E+00  0.1440E+03
    -20.873  0.0000E+00  0.1440E+03
    -20.587  0.0000E+00  0.1440E+03
    -20.301  0.0000E+00  0.1440E+03
    -20.015  0.0000E+00  0.1440E+03
    -19.729  0.0000E+00  0.1440E+03
    -19.443  0.0000E+00  0.1440E+03
    -19.157  0.0000E+00  0.1440E+03
    -18.871  0.0000E+00  0.1440E+03
    -18.585  0.0000E+00  0.1440E+03
    -18.299  0.0000E+00  0.1440E+03
    -18.013  0.0000E+00  0.1440E+03
    -17.727  0.0000E+00  0.1440E+03
    -17.441  0.0000E+00  0.1440E+03
    -17.155  0.0000E+00  0.1440E+03
    -16.869  0.0000E+00  0.1440E+03
    -16.583  0.0000E+00  0.1440E+03
    -16.297  0.0000E+00  0.1440E+03
    -16.011  0.0000E+00  0.1440E+03
    -15.725  0.0000E+00  0.1440E+03
    -15.439  0.0000E+00  0.1440E+03
    -15.153  0.0000E+00  0.1440E+03
    -14.867  0.0000E+00  0.1440E+03
    -14.581  0.0000E+00  0.1440E+03
    -14.295  0.0000E+00  0.1440E+03
    -14.009  0.0000E+00  0.1440E+03
    -13.723  0.0000E+00  0.1440E+03
    -13.437  0.0000E+00  0.1440E+03
    -13.151  0.6635E-09  0.1440E+03
    -12.865  0.1333E+01  0.1444E+03
    -12.579  0.4011E+01  0.1455E+03
    -12.293  0.5038E+01  0.1470E+03
    -12.007  0.9909E+01  0.1498E+03
    -11.721  0.1233E+02  0.1533E+03
    -11.435  0.1312E+02  0.1571E+03
    -11.149  0.2460E+02  0.1641E+03
    -10.863  0.4822E+02  0.1779E+03
    -10.577  0.5708E+02  0.1942E+03
    -10.291  0.3529E+02  0.2043E+03
    -10.005  0.3966E+02  0.2157E+03
     -9.719  0.1151E+01  0.2160E+03
     -9.433  0.0000E+00  0.2160E+03
     -9.147  0.0000E+00  0.2160E+03
     -8.861  0.0000E+00  0.2160E+03
     -8.575  0.0000E+00  0.2160E+03
     -8.289  0.0000E+00  0.2160E+03
     -8.003  0.0000E+00  0.2160E+03
     -7.717  0.0000E+00  0.2160E+03
     -7.431  0.0000E+00  0.2160E+03
     -7.145  0.0000E+00  0.2160E+03
     -6.859  0.0000E+00  0.2160E+03
     -6.573  0.0000E+00  0.2160E+03
     -6.287  0.0000E+00  0.2160E+03
     -6.002  0.0000E+00  0.2160E+03
     -5.716  0.0000E+00  0.2160E+03
     -5.430  0.0000E+00  0.2160E+03
     -5.144  0.0000E+00  0.2160E+03
     -4.858  0.3552E-09  0.2160E+03
     -4.572  0.3296E+01  0.2169E+03
     -4.286  0.1305E+02  0.2207E+03
     -4.000  0.1834E+02  0.2259E+03
     -3.714  0.2916E+02  0.2343E+03
     -3.428  0.2112E+02  0.2403E+03
     -3.142  0.2756E+02  0.2482E+03
     -2.856  0.5458E+02  0.2638E+03
     -2.570  0.5229E+02  0.2787E+03
     -2.284  0.3699E+02  0.2893E+03
     -1.998  0.1689E+02  0.2942E+03
     -1.712  0.5730E+02  0.3105E+03
     -1.426  0.5954E+02  0.3276E+03
     -1.140  0.3005E+02  0.3362E+03
     -0.854  0.5355E+02  0.3515E+03
     -0.568  0.4127E+02  0.3633E+03
     -0.282  0.4502E+02  0.3762E+03
      0.004  0.4164E+02  0.3881E+03
      0.290  0.5197E+02  0.4029E+03
      0.576  0.4351E+02  0.4154E+03
      0.862  0.4782E+02  0.4290E+03
      1.148  0.4172E+02  0.4410E+03
      1.434  0.3776E+02  0.4518E+03
      1.720  0.3482E+02  0.4617E+03
      2.006  0.1607E+02  0.4663E+03
      2.292  0.5634E+01  0.4679E+03
      2.578  0.1851E+00  0.4680E+03
      2.864  0.0000E+00  0.4680E+03
      3.150  0.1954E+00  0.4681E+03
      3.436  0.2735E+01  0.4688E+03
      3.722  0.1474E+02  0.4731E+03
      4.008  0.3962E+02  0.4844E+03
      4.294  0.8232E+02  0.5079E+03
      4.580  0.8497E+02  0.5322E+03
      4.866  0.6164E+02  0.5499E+03
      5.152  0.3653E+02  0.5603E+03
      5.438  0.3733E+02  0.5710E+03
      5.724  0.3567E+01  0.5720E+03
      6.010  0.0000E+00  0.5720E+03
      6.296  0.0000E+00  0.5720E+03
      6.582  0.0000E+00  0.5720E+03
      6.868  0.0000E+00  0.5720E+03
      7.154  0.0000E+00  0.5720E+03
      7.440  0.0000E+00  0.5720E+03
      7.726  0.0000E+00  0.5720E+03
      8.012  0.0000E+00  0.5720E+03
      8.298  0.0000E+00  0.5720E+03
      8.584  0.0000E+00  0.5720E+03
      8.870  0.0000E+00  0.5720E+03
      9.156  0.0000E+00  0.5720E+03
      9.442  0.0000E+00  0.5720E+03
