Bilayer MoTe2/TiS2 2H (relaxed monolayer
    1.000000000000000     
     3.4042210000000002    0.0000000000000000    0.0000000000000000
     1.7021105000000001    2.9481418660964653    0.0000000000000000
     0.0000000000000000    0.0000000000000000   20.0000000000000000
  Mo              Te              Ti              S             
     1     2     1     2
Direct
     0.0000000000000000    0.0000000000000000    0.5010980969322479
     0.3333333333333357    0.3333333333333357    0.4080357606557286
     0.3333333333333357    0.3333333333333357    0.5946931592300315
     0.3333333333333357    0.3333333333333357    0.8185516316014186
     0.0000000000000000    0.0000000000000000    0.7436541335311047
     0.0000000000000000    0.0000000000000000    0.8920828266335018
 
  0.00000000E+00  0.00000000E+00  0.00000000E+00
  0.00000000E+00  0.00000000E+00  0.00000000E+00
  0.00000000E+00  0.00000000E+00  0.00000000E+00
  0.00000000E+00  0.00000000E+00  0.00000000E+00
  0.00000000E+00  0.00000000E+00  0.00000000E+00
  0.00000000E+00  0.00000000E+00  0.00000000E+00
