Bilayer MoTe2/GaSe TM_H2 (relaxed monola
   1.00000000000000     
     3.6377669417488274    0.0000000000000000    0.0000000000000000
     1.8188834708744137    3.1503985846017106    0.0000000000000000
     0.0000000000000000    0.0000000000000000   20.0000000000000000
   Mo   Te   Ga   Se
     1     2     2     2
Direct
     0.0000000000000000   -0.0000000000000000    0.4976073712614415
     0.3333333333333357    0.3333333333333357    0.4089571098415475
     0.3333333333333357    0.3333333333333357    0.5862106220238225
     0.6666666666666643    0.6666666666666643    0.9740016674421439
     0.6666666666666643    0.6666666666666643    0.0965825411224162
     0.0000000000000000   -0.0000000000000000    0.9110924803743752
    -0.0000000000000000    0.0000000000000000    0.1595189028400391
 
  0.00000000E+00  0.00000000E+00  0.00000000E+00
  0.00000000E+00  0.00000000E+00  0.00000000E+00
  0.00000000E+00  0.00000000E+00  0.00000000E+00
  0.00000000E+00  0.00000000E+00  0.00000000E+00
  0.00000000E+00  0.00000000E+00  0.00000000E+00
  0.00000000E+00  0.00000000E+00  0.00000000E+00
  0.00000000E+00  0.00000000E+00  0.00000000E+00
