Bilayer MoSe2/MoSe2 2H (relaxed monolaye
   1.00000000000000     
     3.2835826082764727    0.0000000000000000    0.0000000000000000
     1.6417913041382364    2.8436659541921925    0.0000000000000000
     0.0000000000000000    0.0000000000000000   20.0000000000000000
   Mo   Se
     2     4
Direct
     0.0000000000000000   -0.0000000000000000    0.5026066583968996
     0.3333333333333357    0.3333333333333357    0.8223933416031033
     0.3333333333333357    0.3333333333333357    0.4187743723787001
     0.3333333333333357    0.3333333333333357    0.5864197871084073
    -0.0000000000000000   -0.0000000000000000    0.7385802128915885
     0.0000000000000000    0.0000000000000000    0.9062256276212940
 
  0.00000000E+00  0.00000000E+00  0.00000000E+00
  0.00000000E+00  0.00000000E+00  0.00000000E+00
  0.00000000E+00  0.00000000E+00  0.00000000E+00
  0.00000000E+00  0.00000000E+00  0.00000000E+00
  0.00000000E+00  0.00000000E+00  0.00000000E+00
  0.00000000E+00  0.00000000E+00  0.00000000E+00
