Te2 Mo1                                 
   1.00000000000000     
     3.5029590000000002    0.0000000000000000    0.0000000000000000
     1.7514795000000001    3.0336514824153333    0.0000000000000000
     0.0000000000000000    0.0000000000000000   20.0000000000000000
   Mo   Te
     1     2
Direct
     0.0000000000000000   -0.0000000000000000    0.5000000000000000
     0.3333333333333357    0.3333333333333357    0.4085370654901882
     0.3333333333333357    0.3333333333333357    0.5914629345098127
 
  0.00000000E+00  0.00000000E+00  0.00000000E+00
  0.00000000E+00  0.00000000E+00  0.00000000E+00
  0.00000000E+00  0.00000000E+00  0.00000000E+00
