  45  45   0   0
  0.3686441E+02  0.9786549E-09  0.9786549E-09  0.2000000E-08  0.5000000E-15
  1.000000000000000E-004
  CAR 
 WSe2_GaN_TM_TX phonon                   
      7.85883225    -78.28533010  301     -0.10950277      1.00000000
    -78.285  0.0000E+00  0.0000E+00
    -77.998  0.0000E+00  0.0000E+00
    -77.711  0.0000E+00  0.0000E+00
    -77.424  0.0000E+00  0.0000E+00
    -77.137  0.0000E+00  0.0000E+00
    -76.850  0.0000E+00  0.0000E+00
    -76.562  0.0000E+00  0.0000E+00
    -76.275  0.0000E+00  0.0000E+00
    -75.988  0.0000E+00  0.0000E+00
    -75.701  0.0000E+00  0.0000E+00
    -75.414  0.0000E+00  0.0000E+00
    -75.127  0.0000E+00  0.0000E+00
    -74.840  0.0000E+00  0.0000E+00
    -74.552  0.2292E-05  0.6581E-06
    -74.265  0.6247E+02  0.1794E+02
    -73.978  0.2201E+00  0.1800E+02
    -73.691  0.0000E+00  0.1800E+02
    -73.404  0.0000E+00  0.1800E+02
    -73.117  0.0000E+00  0.1800E+02
    -72.830  0.0000E+00  0.1800E+02
    -72.542  0.0000E+00  0.1800E+02
    -72.255  0.0000E+00  0.1800E+02
    -71.968  0.0000E+00  0.1800E+02
    -71.681  0.0000E+00  0.1800E+02
    -71.394  0.0000E+00  0.1800E+02
    -71.107  0.0000E+00  0.1800E+02
    -70.820  0.0000E+00  0.1800E+02
    -70.532  0.0000E+00  0.1800E+02
    -70.245  0.0000E+00  0.1800E+02
    -69.958  0.0000E+00  0.1800E+02
    -69.671  0.0000E+00  0.1800E+02
    -69.384  0.0000E+00  0.1800E+02
    -69.097  0.0000E+00  0.1800E+02
    -68.809  0.0000E+00  0.1800E+02
    -68.522  0.0000E+00  0.1800E+02
    -68.235  0.0000E+00  0.1800E+02
    -67.948  0.0000E+00  0.1800E+02
    -67.661  0.0000E+00  0.1800E+02
    -67.374  0.0000E+00  0.1800E+02
    -67.087  0.0000E+00  0.1800E+02
    -66.799  0.0000E+00  0.1800E+02
    -66.512  0.0000E+00  0.1800E+02
    -66.225  0.0000E+00  0.1800E+02
    -65.938  0.0000E+00  0.1800E+02
    -65.651  0.0000E+00  0.1800E+02
    -65.364  0.0000E+00  0.1800E+02
    -65.077  0.0000E+00  0.1800E+02
    -64.789  0.0000E+00  0.1800E+02
    -64.502  0.0000E+00  0.1800E+02
    -64.215  0.0000E+00  0.1800E+02
    -63.928  0.0000E+00  0.1800E+02
    -63.641  0.0000E+00  0.1800E+02
    -63.354  0.0000E+00  0.1800E+02
    -63.067  0.0000E+00  0.1800E+02
    -62.779  0.0000E+00  0.1800E+02
    -62.492  0.0000E+00  0.1800E+02
    -62.205  0.0000E+00  0.1800E+02
    -61.918  0.0000E+00  0.1800E+02
    -61.631  0.0000E+00  0.1800E+02
    -61.344  0.0000E+00  0.1800E+02
    -61.056  0.0000E+00  0.1800E+02
    -60.769  0.0000E+00  0.1800E+02
    -60.482  0.0000E+00  0.1800E+02
    -60.195  0.0000E+00  0.1800E+02
    -59.908  0.0000E+00  0.1800E+02
    -59.621  0.0000E+00  0.1800E+02
    -59.334  0.0000E+00  0.1800E+02
    -59.046  0.0000E+00  0.1800E+02
    -58.759  0.0000E+00  0.1800E+02
    -58.472  0.0000E+00  0.1800E+02
    -58.185  0.0000E+00  0.1800E+02
    -57.898  0.0000E+00  0.1800E+02
    -57.611  0.0000E+00  0.1800E+02
    -57.324  0.0000E+00  0.1800E+02
    -57.036  0.0000E+00  0.1800E+02
    -56.749  0.0000E+00  0.1800E+02
    -56.462  0.0000E+00  0.1800E+02
    -56.175  0.0000E+00  0.1800E+02
    -55.888  0.0000E+00  0.1800E+02
    -55.601  0.0000E+00  0.1800E+02
    -55.314  0.0000E+00  0.1800E+02
    -55.026  0.0000E+00  0.1800E+02
    -54.739  0.0000E+00  0.1800E+02
    -54.452  0.0000E+00  0.1800E+02
    -54.165  0.0000E+00  0.1800E+02
    -53.878  0.0000E+00  0.1800E+02
    -53.591  0.0000E+00  0.1800E+02
    -53.304  0.0000E+00  0.1800E+02
    -53.016  0.0000E+00  0.1800E+02
    -52.729  0.0000E+00  0.1800E+02
    -52.442  0.0000E+00  0.1800E+02
    -52.155  0.0000E+00  0.1800E+02
    -51.868  0.0000E+00  0.1800E+02
    -51.581  0.0000E+00  0.1800E+02
    -51.293  0.0000E+00  0.1800E+02
    -51.006  0.0000E+00  0.1800E+02
    -50.719  0.0000E+00  0.1800E+02
    -50.432  0.0000E+00  0.1800E+02
    -50.145  0.0000E+00  0.1800E+02
    -49.858  0.0000E+00  0.1800E+02
    -49.571  0.0000E+00  0.1800E+02
    -49.283  0.0000E+00  0.1800E+02
    -48.996  0.0000E+00  0.1800E+02
    -48.709  0.0000E+00  0.1800E+02
    -48.422  0.0000E+00  0.1800E+02
    -48.135  0.0000E+00  0.1800E+02
    -47.848  0.0000E+00  0.1800E+02
    -47.561  0.0000E+00  0.1800E+02
    -47.273  0.0000E+00  0.1800E+02
    -46.986  0.0000E+00  0.1800E+02
    -46.699  0.0000E+00  0.1800E+02
    -46.412  0.0000E+00  0.1800E+02
    -46.125  0.0000E+00  0.1800E+02
    -45.838  0.0000E+00  0.1800E+02
    -45.551  0.0000E+00  0.1800E+02
    -45.263  0.0000E+00  0.1800E+02
    -44.976  0.0000E+00  0.1800E+02
    -44.689  0.0000E+00  0.1800E+02
    -44.402  0.0000E+00  0.1800E+02
    -44.115  0.0000E+00  0.1800E+02
    -43.828  0.0000E+00  0.1800E+02
    -43.541  0.0000E+00  0.1800E+02
    -43.253  0.0000E+00  0.1800E+02
    -42.966  0.0000E+00  0.1800E+02
    -42.679  0.0000E+00  0.1800E+02
    -42.392  0.0000E+00  0.1800E+02
    -42.105  0.0000E+00  0.1800E+02
    -41.818  0.0000E+00  0.1800E+02
    -41.530  0.0000E+00  0.1800E+02
    -41.243  0.0000E+00  0.1800E+02
    -40.956  0.0000E+00  0.1800E+02
    -40.669  0.0000E+00  0.1800E+02
    -40.382  0.0000E+00  0.1800E+02
    -40.095  0.0000E+00  0.1800E+02
    -39.808  0.0000E+00  0.1800E+02
    -39.520  0.0000E+00  0.1800E+02
    -39.233  0.0000E+00  0.1800E+02
    -38.946  0.2274E-09  0.1800E+02
    -38.659  0.3415E+02  0.2781E+02
    -38.372  0.1539E+03  0.7200E+02
    -38.085  0.1045E-01  0.7200E+02
    -37.798  0.0000E+00  0.7200E+02
    -37.510  0.0000E+00  0.7200E+02
    -37.223  0.0000E+00  0.7200E+02
    -36.936  0.0000E+00  0.7200E+02
    -36.649  0.0000E+00  0.7200E+02
    -36.362  0.0000E+00  0.7200E+02
    -36.075  0.0000E+00  0.7200E+02
    -35.788  0.0000E+00  0.7200E+02
    -35.500  0.0000E+00  0.7200E+02
    -35.213  0.0000E+00  0.7200E+02
    -34.926  0.0000E+00  0.7200E+02
    -34.639  0.0000E+00  0.7200E+02
    -34.352  0.0000E+00  0.7200E+02
    -34.065  0.0000E+00  0.7200E+02
    -33.778  0.0000E+00  0.7200E+02
    -33.490  0.0000E+00  0.7200E+02
    -33.203  0.0000E+00  0.7200E+02
    -32.916  0.0000E+00  0.7200E+02
    -32.629  0.0000E+00  0.7200E+02
    -32.342  0.0000E+00  0.7200E+02
    -32.055  0.0000E+00  0.7200E+02
    -31.767  0.0000E+00  0.7200E+02
    -31.480  0.0000E+00  0.7200E+02
    -31.193  0.0000E+00  0.7200E+02
    -30.906  0.0000E+00  0.7200E+02
    -30.619  0.0000E+00  0.7200E+02
    -30.332  0.0000E+00  0.7200E+02
    -30.045  0.0000E+00  0.7200E+02
    -29.757  0.0000E+00  0.7200E+02
    -29.470  0.0000E+00  0.7200E+02
    -29.183  0.0000E+00  0.7200E+02
    -28.896  0.0000E+00  0.7200E+02
    -28.609  0.0000E+00  0.7200E+02
    -28.322  0.0000E+00  0.7200E+02
    -28.035  0.0000E+00  0.7200E+02
    -27.747  0.0000E+00  0.7200E+02
    -27.460  0.0000E+00  0.7200E+02
    -27.173  0.0000E+00  0.7200E+02
    -26.886  0.0000E+00  0.7200E+02
    -26.599  0.0000E+00  0.7200E+02
    -26.312  0.0000E+00  0.7200E+02
    -26.025  0.0000E+00  0.7200E+02
    -25.737  0.0000E+00  0.7200E+02
    -25.450  0.0000E+00  0.7200E+02
    -25.163  0.0000E+00  0.7200E+02
    -24.876  0.0000E+00  0.7200E+02
    -24.589  0.0000E+00  0.7200E+02
    -24.302  0.0000E+00  0.7200E+02
    -24.015  0.0000E+00  0.7200E+02
    -23.727  0.0000E+00  0.7200E+02
    -23.440  0.0000E+00  0.7200E+02
    -23.153  0.0000E+00  0.7200E+02
    -22.866  0.0000E+00  0.7200E+02
    -22.579  0.0000E+00  0.7200E+02
    -22.292  0.0000E+00  0.7200E+02
    -22.004  0.0000E+00  0.7200E+02
    -21.717  0.0000E+00  0.7200E+02
    -21.430  0.0000E+00  0.7200E+02
    -21.143  0.0000E+00  0.7200E+02
    -20.856  0.0000E+00  0.7200E+02
    -20.569  0.0000E+00  0.7200E+02
    -20.282  0.0000E+00  0.7200E+02
    -19.994  0.0000E+00  0.7200E+02
    -19.707  0.0000E+00  0.7200E+02
    -19.420  0.0000E+00  0.7200E+02
    -19.133  0.0000E+00  0.7200E+02
    -18.846  0.0000E+00  0.7200E+02
    -18.559  0.0000E+00  0.7200E+02
    -18.272  0.0000E+00  0.7200E+02
    -17.984  0.0000E+00  0.7200E+02
    -17.697  0.0000E+00  0.7200E+02
    -17.410  0.0000E+00  0.7200E+02
    -17.123  0.0000E+00  0.7200E+02
    -16.836  0.0000E+00  0.7200E+02
    -16.549  0.0000E+00  0.7200E+02
    -16.262  0.0000E+00  0.7200E+02
    -15.974  0.0000E+00  0.7200E+02
    -15.687  0.0000E+00  0.7200E+02
    -15.400  0.3105E-06  0.7200E+02
    -15.113  0.1838E+01  0.7253E+02
    -14.826  0.5241E+01  0.7403E+02
    -14.539  0.1120E+02  0.7725E+02
    -14.252  0.1294E+02  0.8096E+02
    -13.964  0.1490E+02  0.8524E+02
    -13.677  0.2331E+02  0.9194E+02
    -13.390  0.3171E+02  0.1010E+03
    -13.103  0.4365E+02  0.1136E+03
    -12.816  0.3928E+02  0.1249E+03
    -12.529  0.3973E+01  0.1260E+03
    -12.241  0.0000E+00  0.1260E+03
    -11.954  0.0000E+00  0.1260E+03
    -11.667  0.0000E+00  0.1260E+03
    -11.380  0.0000E+00  0.1260E+03
    -11.093  0.0000E+00  0.1260E+03
    -10.806  0.0000E+00  0.1260E+03
    -10.519  0.0000E+00  0.1260E+03
    -10.231  0.0000E+00  0.1260E+03
     -9.944  0.0000E+00  0.1260E+03
     -9.657  0.0000E+00  0.1260E+03
     -9.370  0.0000E+00  0.1260E+03
     -9.083  0.0000E+00  0.1260E+03
     -8.796  0.0000E+00  0.1260E+03
     -8.509  0.0000E+00  0.1260E+03
     -8.221  0.0000E+00  0.1260E+03
     -7.934  0.0000E+00  0.1260E+03
     -7.647  0.0000E+00  0.1260E+03
     -7.360  0.0000E+00  0.1260E+03
     -7.073  0.7114E-15  0.1260E+03
     -6.786  0.1649E+01  0.1265E+03
     -6.499  0.1651E+02  0.1312E+03
     -6.211  0.2512E+02  0.1384E+03
     -5.924  0.2396E+02  0.1453E+03
     -5.637  0.2548E+02  0.1526E+03
     -5.350  0.2998E+02  0.1612E+03
     -5.063  0.1309E+02  0.1650E+03
     -4.776  0.2028E+02  0.1708E+03
     -4.488  0.3801E+02  0.1817E+03
     -4.201  0.2180E+02  0.1880E+03
     -3.914  0.1736E+02  0.1930E+03
     -3.627  0.3334E+02  0.2025E+03
     -3.340  0.3546E+02  0.2127E+03
     -3.053  0.2678E+02  0.2204E+03
     -2.766  0.1954E+02  0.2260E+03
     -2.478  0.6028E+02  0.2433E+03
     -2.191  0.3986E+02  0.2548E+03
     -1.904  0.2903E+02  0.2631E+03
     -1.617  0.2696E+02  0.2709E+03
     -1.330  0.3338E+02  0.2804E+03
     -1.043  0.4152E+02  0.2924E+03
     -0.756  0.3784E+02  0.3032E+03
     -0.468  0.8535E+01  0.3057E+03
     -0.181  0.1079E+01  0.3060E+03
      0.106  0.0000E+00  0.3060E+03
      0.393  0.0000E+00  0.3060E+03
      0.680  0.0000E+00  0.3060E+03
      0.967  0.0000E+00  0.3060E+03
      1.254  0.1048E+01  0.3063E+03
      1.542  0.1906E+02  0.3118E+03
      1.829  0.2574E+02  0.3192E+03
      2.116  0.2646E+02  0.3268E+03
      2.403  0.4453E+02  0.3396E+03
      2.690  0.4361E+02  0.3521E+03
      2.977  0.2276E+02  0.3586E+03
      3.264  0.2011E+02  0.3644E+03
      3.552  0.1321E+02  0.3682E+03
      3.839  0.1710E+02  0.3731E+03
      4.126  0.3191E+01  0.3740E+03
      4.413  0.0000E+00  0.3740E+03
      4.700  0.0000E+00  0.3740E+03
      4.987  0.0000E+00  0.3740E+03
      5.275  0.0000E+00  0.3740E+03
      5.562  0.0000E+00  0.3740E+03
      5.849  0.0000E+00  0.3740E+03
      6.136  0.0000E+00  0.3740E+03
      6.423  0.0000E+00  0.3740E+03
      6.710  0.0000E+00  0.3740E+03
      6.997  0.0000E+00  0.3740E+03
      7.285  0.0000E+00  0.3740E+03
      7.572  0.0000E+00  0.3740E+03
      7.859  0.0000E+00  0.3740E+03
