Ge2                                     
   1.00000000000000     
     4.0031040427903521    0.0000000000000000    0.0000000000000000
     2.0015520213951761    3.4667897950486335    0.0000000000000000
     0.0000000000000000    0.0000000000000000   20.0000000000000000
   Ge
     2
Direct
    -0.0000000000000000   -0.0000000000000000    0.5177187648547844
     0.3333333333333357    0.3333333333333357    0.4822812351452151
 
  0.00000000E+00  0.00000000E+00  0.00000000E+00
  0.00000000E+00  0.00000000E+00  0.00000000E+00
