Mo S  W  Te
 1.0000000000000000
     3.3617330000000001   -0.0000000000000007    0.0000000000000000
     1.6808665000000056    2.9113461787404584    0.0000000000000000
     0.0000000000000000    0.0000000000000000   20.0000000000000000
 Mo  S   W   Te 
   1   2   1   2
Direct
  0.0000000000000000  0.0000000000000000  0.4723223920678569
  0.3333333333333358  0.3333333333333356  0.3969510591996961
  0.3333333333333358  0.3333333333333356  0.5476876012202538
  0.3333333333333358  0.3333333333333356  0.8511520673670593
  0.6666666666666715  0.6666666666666713  0.7561376012202530
  0.6666666666666715  0.6666666666666713  0.9461107659407697
Cartesian
  0.0000000000000000  0.0000000000000000  0.0000000000000000
  0.0000000000000000  0.0000000000000000  0.0000000000000000
  0.0000000000000000  0.0000000000000000  0.0000000000000000
  0.0000000000000000  0.0000000000000000  0.0000000000000000
  0.0000000000000000  0.0000000000000000  0.0000000000000000
  0.0000000000000000  0.0000000000000000  0.0000000000000000
