  27  27   0   0
  0.6363528E+02  0.9959799E-09  0.9959799E-09  0.2000000E-08  0.5000000E-15
  1.000000000000000E-004
  CAR 
 WSe2 phonon                             
      5.84495070    -79.53554407  301     -1.19894012      1.00000000
    -79.536  0.0000E+00  0.0000E+00
    -79.251  0.0000E+00  0.0000E+00
    -78.966  0.0000E+00  0.0000E+00
    -78.682  0.0000E+00  0.0000E+00
    -78.397  0.0000E+00  0.0000E+00
    -78.113  0.0000E+00  0.0000E+00
    -77.828  0.0000E+00  0.0000E+00
    -77.543  0.0000E+00  0.0000E+00
    -77.259  0.0000E+00  0.0000E+00
    -76.974  0.0000E+00  0.0000E+00
    -76.690  0.0000E+00  0.0000E+00
    -76.405  0.0000E+00  0.0000E+00
    -76.120  0.0000E+00  0.0000E+00
    -75.836  0.3769E-05  0.1073E-05
    -75.551  0.6305E+02  0.1794E+02
    -75.267  0.2004E+00  0.1800E+02
    -74.982  0.0000E+00  0.1800E+02
    -74.697  0.0000E+00  0.1800E+02
    -74.413  0.0000E+00  0.1800E+02
    -74.128  0.0000E+00  0.1800E+02
    -73.844  0.0000E+00  0.1800E+02
    -73.559  0.0000E+00  0.1800E+02
    -73.274  0.0000E+00  0.1800E+02
    -72.990  0.0000E+00  0.1800E+02
    -72.705  0.0000E+00  0.1800E+02
    -72.421  0.0000E+00  0.1800E+02
    -72.136  0.0000E+00  0.1800E+02
    -71.851  0.0000E+00  0.1800E+02
    -71.567  0.0000E+00  0.1800E+02
    -71.282  0.0000E+00  0.1800E+02
    -70.997  0.0000E+00  0.1800E+02
    -70.713  0.0000E+00  0.1800E+02
    -70.428  0.0000E+00  0.1800E+02
    -70.144  0.0000E+00  0.1800E+02
    -69.859  0.0000E+00  0.1800E+02
    -69.574  0.0000E+00  0.1800E+02
    -69.290  0.0000E+00  0.1800E+02
    -69.005  0.0000E+00  0.1800E+02
    -68.721  0.0000E+00  0.1800E+02
    -68.436  0.0000E+00  0.1800E+02
    -68.151  0.0000E+00  0.1800E+02
    -67.867  0.0000E+00  0.1800E+02
    -67.582  0.0000E+00  0.1800E+02
    -67.298  0.0000E+00  0.1800E+02
    -67.013  0.0000E+00  0.1800E+02
    -66.728  0.0000E+00  0.1800E+02
    -66.444  0.0000E+00  0.1800E+02
    -66.159  0.0000E+00  0.1800E+02
    -65.875  0.0000E+00  0.1800E+02
    -65.590  0.0000E+00  0.1800E+02
    -65.305  0.0000E+00  0.1800E+02
    -65.021  0.0000E+00  0.1800E+02
    -64.736  0.0000E+00  0.1800E+02
    -64.452  0.0000E+00  0.1800E+02
    -64.167  0.0000E+00  0.1800E+02
    -63.882  0.0000E+00  0.1800E+02
    -63.598  0.0000E+00  0.1800E+02
    -63.313  0.0000E+00  0.1800E+02
    -63.029  0.0000E+00  0.1800E+02
    -62.744  0.0000E+00  0.1800E+02
    -62.459  0.0000E+00  0.1800E+02
    -62.175  0.0000E+00  0.1800E+02
    -61.890  0.0000E+00  0.1800E+02
    -61.606  0.0000E+00  0.1800E+02
    -61.321  0.0000E+00  0.1800E+02
    -61.036  0.0000E+00  0.1800E+02
    -60.752  0.0000E+00  0.1800E+02
    -60.467  0.0000E+00  0.1800E+02
    -60.183  0.0000E+00  0.1800E+02
    -59.898  0.0000E+00  0.1800E+02
    -59.613  0.0000E+00  0.1800E+02
    -59.329  0.0000E+00  0.1800E+02
    -59.044  0.0000E+00  0.1800E+02
    -58.760  0.0000E+00  0.1800E+02
    -58.475  0.0000E+00  0.1800E+02
    -58.190  0.0000E+00  0.1800E+02
    -57.906  0.0000E+00  0.1800E+02
    -57.621  0.0000E+00  0.1800E+02
    -57.337  0.0000E+00  0.1800E+02
    -57.052  0.0000E+00  0.1800E+02
    -56.767  0.0000E+00  0.1800E+02
    -56.483  0.0000E+00  0.1800E+02
    -56.198  0.0000E+00  0.1800E+02
    -55.914  0.0000E+00  0.1800E+02
    -55.629  0.0000E+00  0.1800E+02
    -55.344  0.0000E+00  0.1800E+02
    -55.060  0.0000E+00  0.1800E+02
    -54.775  0.0000E+00  0.1800E+02
    -54.491  0.0000E+00  0.1800E+02
    -54.206  0.0000E+00  0.1800E+02
    -53.921  0.0000E+00  0.1800E+02
    -53.637  0.0000E+00  0.1800E+02
    -53.352  0.0000E+00  0.1800E+02
    -53.068  0.0000E+00  0.1800E+02
    -52.783  0.0000E+00  0.1800E+02
    -52.498  0.0000E+00  0.1800E+02
    -52.214  0.0000E+00  0.1800E+02
    -51.929  0.0000E+00  0.1800E+02
    -51.645  0.0000E+00  0.1800E+02
    -51.360  0.0000E+00  0.1800E+02
    -51.075  0.0000E+00  0.1800E+02
    -50.791  0.0000E+00  0.1800E+02
    -50.506  0.0000E+00  0.1800E+02
    -50.222  0.0000E+00  0.1800E+02
    -49.937  0.0000E+00  0.1800E+02
    -49.652  0.0000E+00  0.1800E+02
    -49.368  0.0000E+00  0.1800E+02
    -49.083  0.0000E+00  0.1800E+02
    -48.799  0.0000E+00  0.1800E+02
    -48.514  0.0000E+00  0.1800E+02
    -48.229  0.0000E+00  0.1800E+02
    -47.945  0.0000E+00  0.1800E+02
    -47.660  0.0000E+00  0.1800E+02
    -47.376  0.0000E+00  0.1800E+02
    -47.091  0.0000E+00  0.1800E+02
    -46.806  0.0000E+00  0.1800E+02
    -46.522  0.0000E+00  0.1800E+02
    -46.237  0.0000E+00  0.1800E+02
    -45.953  0.0000E+00  0.1800E+02
    -45.668  0.0000E+00  0.1800E+02
    -45.383  0.0000E+00  0.1800E+02
    -45.099  0.0000E+00  0.1800E+02
    -44.814  0.0000E+00  0.1800E+02
    -44.530  0.0000E+00  0.1800E+02
    -44.245  0.0000E+00  0.1800E+02
    -43.960  0.0000E+00  0.1800E+02
    -43.676  0.0000E+00  0.1800E+02
    -43.391  0.0000E+00  0.1800E+02
    -43.107  0.0000E+00  0.1800E+02
    -42.822  0.0000E+00  0.1800E+02
    -42.537  0.0000E+00  0.1800E+02
    -42.253  0.0000E+00  0.1800E+02
    -41.968  0.0000E+00  0.1800E+02
    -41.684  0.0000E+00  0.1800E+02
    -41.399  0.0000E+00  0.1800E+02
    -41.114  0.0000E+00  0.1800E+02
    -40.830  0.0000E+00  0.1800E+02
    -40.545  0.0000E+00  0.1800E+02
    -40.261  0.3963E-14  0.1800E+02
    -39.976  0.1081E+02  0.2108E+02
    -39.691  0.1789E+03  0.7198E+02
    -39.407  0.6783E-01  0.7200E+02
    -39.122  0.0000E+00  0.7200E+02
    -38.838  0.0000E+00  0.7200E+02
    -38.553  0.0000E+00  0.7200E+02
    -38.268  0.0000E+00  0.7200E+02
    -37.984  0.0000E+00  0.7200E+02
    -37.699  0.0000E+00  0.7200E+02
    -37.414  0.0000E+00  0.7200E+02
    -37.130  0.0000E+00  0.7200E+02
    -36.845  0.0000E+00  0.7200E+02
    -36.561  0.0000E+00  0.7200E+02
    -36.276  0.0000E+00  0.7200E+02
    -35.991  0.0000E+00  0.7200E+02
    -35.707  0.0000E+00  0.7200E+02
    -35.422  0.0000E+00  0.7200E+02
    -35.138  0.0000E+00  0.7200E+02
    -34.853  0.0000E+00  0.7200E+02
    -34.568  0.0000E+00  0.7200E+02
    -34.284  0.0000E+00  0.7200E+02
    -33.999  0.0000E+00  0.7200E+02
    -33.715  0.0000E+00  0.7200E+02
    -33.430  0.0000E+00  0.7200E+02
    -33.145  0.0000E+00  0.7200E+02
    -32.861  0.0000E+00  0.7200E+02
    -32.576  0.0000E+00  0.7200E+02
    -32.292  0.0000E+00  0.7200E+02
    -32.007  0.0000E+00  0.7200E+02
    -31.722  0.0000E+00  0.7200E+02
    -31.438  0.0000E+00  0.7200E+02
    -31.153  0.0000E+00  0.7200E+02
    -30.869  0.0000E+00  0.7200E+02
    -30.584  0.0000E+00  0.7200E+02
    -30.299  0.0000E+00  0.7200E+02
    -30.015  0.0000E+00  0.7200E+02
    -29.730  0.0000E+00  0.7200E+02
    -29.446  0.0000E+00  0.7200E+02
    -29.161  0.0000E+00  0.7200E+02
    -28.876  0.0000E+00  0.7200E+02
    -28.592  0.0000E+00  0.7200E+02
    -28.307  0.0000E+00  0.7200E+02
    -28.023  0.0000E+00  0.7200E+02
    -27.738  0.0000E+00  0.7200E+02
    -27.453  0.0000E+00  0.7200E+02
    -27.169  0.0000E+00  0.7200E+02
    -26.884  0.0000E+00  0.7200E+02
    -26.600  0.0000E+00  0.7200E+02
    -26.315  0.0000E+00  0.7200E+02
    -26.030  0.0000E+00  0.7200E+02
    -25.746  0.0000E+00  0.7200E+02
    -25.461  0.0000E+00  0.7200E+02
    -25.177  0.0000E+00  0.7200E+02
    -24.892  0.0000E+00  0.7200E+02
    -24.607  0.0000E+00  0.7200E+02
    -24.323  0.0000E+00  0.7200E+02
    -24.038  0.0000E+00  0.7200E+02
    -23.754  0.0000E+00  0.7200E+02
    -23.469  0.0000E+00  0.7200E+02
    -23.184  0.0000E+00  0.7200E+02
    -22.900  0.0000E+00  0.7200E+02
    -22.615  0.0000E+00  0.7200E+02
    -22.331  0.0000E+00  0.7200E+02
    -22.046  0.0000E+00  0.7200E+02
    -21.761  0.0000E+00  0.7200E+02
    -21.477  0.0000E+00  0.7200E+02
    -21.192  0.0000E+00  0.7200E+02
    -20.908  0.0000E+00  0.7200E+02
    -20.623  0.0000E+00  0.7200E+02
    -20.338  0.0000E+00  0.7200E+02
    -20.054  0.0000E+00  0.7200E+02
    -19.769  0.0000E+00  0.7200E+02
    -19.485  0.0000E+00  0.7200E+02
    -19.200  0.0000E+00  0.7200E+02
    -18.915  0.0000E+00  0.7200E+02
    -18.631  0.0000E+00  0.7200E+02
    -18.346  0.0000E+00  0.7200E+02
    -18.062  0.0000E+00  0.7200E+02
    -17.777  0.0000E+00  0.7200E+02
    -17.492  0.0000E+00  0.7200E+02
    -17.208  0.0000E+00  0.7200E+02
    -16.923  0.0000E+00  0.7200E+02
    -16.639  0.0000E+00  0.7200E+02
    -16.354  0.4300E-02  0.7200E+02
    -16.069  0.3276E+01  0.7293E+02
    -15.785  0.5364E+01  0.7446E+02
    -15.500  0.5397E+01  0.7600E+02
    -15.216  0.4547E+01  0.7729E+02
    -14.931  0.9968E+01  0.8013E+02
    -14.646  0.1933E+02  0.8563E+02
    -14.362  0.2610E+02  0.9306E+02
    -14.077  0.4073E+02  0.1046E+03
    -13.793  0.1178E+02  0.1080E+03
    -13.508  0.0000E+00  0.1080E+03
    -13.223  0.0000E+00  0.1080E+03
    -12.939  0.0000E+00  0.1080E+03
    -12.654  0.0000E+00  0.1080E+03
    -12.370  0.0000E+00  0.1080E+03
    -12.085  0.0000E+00  0.1080E+03
    -11.800  0.0000E+00  0.1080E+03
    -11.516  0.0000E+00  0.1080E+03
    -11.231  0.0000E+00  0.1080E+03
    -10.947  0.0000E+00  0.1080E+03
    -10.662  0.0000E+00  0.1080E+03
    -10.377  0.0000E+00  0.1080E+03
    -10.093  0.0000E+00  0.1080E+03
     -9.808  0.0000E+00  0.1080E+03
     -9.524  0.0000E+00  0.1080E+03
     -9.239  0.0000E+00  0.1080E+03
     -8.954  0.0000E+00  0.1080E+03
     -8.670  0.0000E+00  0.1080E+03
     -8.385  0.0000E+00  0.1080E+03
     -8.101  0.9362E-16  0.1080E+03
     -7.816  0.9700E+00  0.1083E+03
     -7.531  0.1081E+02  0.1114E+03
     -7.247  0.1183E+02  0.1147E+03
     -6.962  0.1890E+02  0.1201E+03
     -6.678  0.2204E+02  0.1264E+03
     -6.393  0.2036E+02  0.1322E+03
     -6.108  0.1042E+02  0.1351E+03
     -5.824  0.2404E+02  0.1420E+03
     -5.539  0.3791E+02  0.1528E+03
     -5.255  0.8477E+01  0.1552E+03
     -4.970  0.1244E+02  0.1587E+03
     -4.685  0.2996E+02  0.1672E+03
     -4.401  0.2729E+02  0.1750E+03
     -4.116  0.1286E+02  0.1787E+03
     -3.832  0.1849E+02  0.1839E+03
     -3.547  0.3762E+02  0.1946E+03
     -3.262  0.2642E+02  0.2022E+03
     -2.978  0.2578E+02  0.2095E+03
     -2.693  0.2213E+02  0.2158E+03
     -2.408  0.1537E+02  0.2202E+03
     -2.124  0.2749E+02  0.2280E+03
     -1.839  0.1682E+02  0.2328E+03
     -1.555  0.4160E+01  0.2340E+03
     -1.270  0.1402E+00  0.2340E+03
     -0.985  0.0000E+00  0.2340E+03
     -0.701  0.0000E+00  0.2340E+03
     -0.416  0.0000E+00  0.2340E+03
     -0.132  0.1811E-02  0.2340E+03
      0.153  0.4108E+01  0.2352E+03
      0.438  0.2499E+02  0.2423E+03
      0.722  0.2795E+02  0.2502E+03
      1.007  0.4923E+02  0.2642E+03
      1.291  0.3277E+02  0.2736E+03
      1.576  0.2773E+02  0.2815E+03
      1.861  0.1258E+02  0.2850E+03
      2.145  0.3353E+01  0.2860E+03
      2.430  0.0000E+00  0.2860E+03
      2.714  0.0000E+00  0.2860E+03
      2.999  0.0000E+00  0.2860E+03
      3.284  0.0000E+00  0.2860E+03
      3.568  0.0000E+00  0.2860E+03
      3.853  0.0000E+00  0.2860E+03
      4.137  0.0000E+00  0.2860E+03
      4.422  0.0000E+00  0.2860E+03
      4.707  0.0000E+00  0.2860E+03
      4.991  0.0000E+00  0.2860E+03
      5.276  0.0000E+00  0.2860E+03
      5.560  0.0000E+00  0.2860E+03
      5.845  0.0000E+00  0.2860E+03
