Bilayer BN/BN BA (relaxed monolayers)   
   1.00000000000000     
     2.5099000000000000    0.0000000000000000    0.0000000000000000
     1.2549500000000000    2.1736371609585623    0.0000000000000000
     0.0000000000000000    0.0000000000000000   20.0000000000000000
   B    N 
     2     2
Direct
     0.0000000000000000    0.0000000000000000    0.5011632591663684
     0.6666666666666643    0.6666666666666643    0.8238343918625015
     0.3333333333333357    0.3333333333333357    0.5011623824751579
    -0.0000000000000000   -0.0000000000000000    0.8238399664844488
 
  0.00000000E+00  0.00000000E+00  0.00000000E+00
  0.00000000E+00  0.00000000E+00  0.00000000E+00
  0.00000000E+00  0.00000000E+00  0.00000000E+00
  0.00000000E+00  0.00000000E+00  0.00000000E+00
