cpu-bind=MASK - c130, task  0  0 [502621]: mask 0x7ffefffefffe set
 running  264 mpi-ranks, with    1 threads/rank, on    6 nodes
 distrk:  each k-point on   44 cores,    6 groups
 distr:  one band on    4 cores,   11 groups
 vasp.6.5.1 10Mar25 (build Aug 29 2025 00:30:47) complex                        
  
 POSCAR found type information on POSCAR MoSeW S 
 POSCAR found :  4 types and      54 ions
 scaLAPACK will be used
 LDA part: xc-table for (Slater+PW92), standard interpolation
 POSCAR, INCAR and KPOINTS ok, starting setup
 FFT: planning ... GRIDC
 FFT: planning ... GRID_SOFT
 FFT: planning ... GRID
 WAVECAR not read
 entering main loop
       N       E                     dE             d eps       ncg     rms          rms(c)
DAV:   1     0.457796891845E+04    0.45780E+04   -0.24733E+05  8833   0.147E+03
DAV:   2    -0.363145803668E+02   -0.46143E+04   -0.44851E+04  8822   0.375E+02
DAV:   3    -0.397140121318E+03   -0.36083E+03   -0.35407E+03  8844   0.987E+01
DAV:   4    -0.413375198385E+03   -0.16235E+02   -0.16111E+02  9911   0.192E+01
DAV:   5    -0.413851006788E+03   -0.47581E+00   -0.47398E+00 10153   0.337E+00    0.919E+01
DAV:   6    -0.396436239444E+03    0.17415E+02   -0.11779E+02  8822   0.211E+01    0.374E+01
DAV:   7    -0.394991438536E+03    0.14448E+01   -0.50428E+01  8712   0.126E+01    0.206E+01
DAV:   8    -0.391815433748E+03    0.31760E+01   -0.12122E+01  8492   0.664E+00    0.538E+00
DAV:   9    -0.391725576879E+03    0.89857E-01   -0.12815E+00  9306   0.194E+00    0.228E+00
DAV:  10    -0.391699036469E+03    0.26540E-01   -0.11479E-01  9460   0.656E-01    0.111E+00
DAV:  11    -0.391680977921E+03    0.18059E-01   -0.34932E-02  9790   0.457E-01    0.443E-01
DAV:  12    -0.391673503952E+03    0.74740E-02   -0.17784E-02  8976   0.354E-01    0.331E-01
DAV:  13    -0.391663277494E+03    0.10226E-01   -0.68736E-03  9669   0.230E-01    0.153E-01
DAV:  14    -0.391655949528E+03    0.73280E-02   -0.57896E-03  9416   0.211E-01    0.161E-01
DAV:  15    -0.391651957044E+03    0.39925E-02   -0.54375E-03  9229   0.199E-01    0.127E-01
DAV:  16    -0.391650456758E+03    0.15003E-02   -0.32017E-03  9229   0.160E-01    0.105E-01
DAV:  17    -0.391652772458E+03   -0.23157E-02   -0.29100E-03  8965   0.118E-01    0.914E-02
DAV:  18    -0.391654914504E+03   -0.21420E-02   -0.80389E-04  9350   0.688E-02    0.734E-02
DAV:  19    -0.391656487814E+03   -0.15733E-02   -0.17388E-04  8800   0.349E-02    0.458E-02
DAV:  20    -0.391659293738E+03   -0.28059E-02   -0.32024E-04  8525   0.395E-02    0.290E-02
DAV:  21    -0.391659958804E+03   -0.66507E-03   -0.74748E-05  8855   0.285E-02    0.269E-02
DAV:  22    -0.391660112521E+03   -0.15372E-03   -0.18627E-05  8987   0.132E-02    0.168E-02
DAV:  23    -0.391660461165E+03   -0.34864E-03   -0.29271E-05  8261   0.204E-02    0.141E-02
DAV:  24    -0.391660640973E+03   -0.17981E-03   -0.60233E-05  8085   0.192E-02    0.156E-02
DAV:  25    -0.391660609631E+03    0.31342E-04   -0.23738E-05  7975   0.786E-03    0.108E-02
DAV:  26    -0.391660602628E+03    0.70031E-05   -0.15218E-06  6380   0.440E-03    0.643E-03
DAV:  27    -0.391660599795E+03    0.28327E-05   -0.22010E-06  6842   0.670E-03    0.374E-03
DAV:  28    -0.391660604901E+03   -0.51058E-05   -0.30108E-06  7062   0.367E-03    0.464E-03
DAV:  29    -0.391660617314E+03   -0.12413E-04   -0.99128E-07  6006   0.150E-03    0.362E-03
DAV:  30    -0.391660643137E+03   -0.25823E-04   -0.41960E-06  6347   0.178E-03    0.158E-03
DAV:  31    -0.391660647882E+03   -0.47446E-05   -0.10647E-06  6292   0.105E-03    0.856E-04
DAV:  32    -0.391660648503E+03   -0.62172E-06   -0.11282E-07  4972   0.574E-04
   1 F= -.41239843E+03 E0= -.41239843E+03  d E =-.280737E-23
