    3    3  400    1
  0.6552115E+02  0.3368768E-09  0.3368768E-09  0.2000000E-08  0.5000000E-15
  1.000000000000000E-004
  CAR 
 NbS2 relaxation                         
     25     27     22
 
  0.1276756E-14  0.1276756E-14  0.1276756E-14  0.4444444E-02
      1        -57.446466   1.000000
      2        -33.522465   1.000000
      3        -33.372701   1.000000
      4        -33.372701   1.000000
      5        -15.856681   1.000000
      6        -14.547734   1.000000
      7         -7.386516   1.000000
      8         -4.816746   1.000000
      9         -4.816746   1.000000
     10         -3.766389   1.000000
     11         -3.766389   1.000000
     12         -3.644254   1.000000
     13         -1.416191   0.000000
     14          0.499384   0.000000
     15          0.499384   0.000000
     16          0.743024   0.000000
     17          0.743024   0.000000
     18          2.671541   0.000000
     19          3.395507   0.000000
     20          3.405906   0.000000
     21          4.216278   0.000000
     22          5.202550   0.000000
 
  0.6666667E-01  0.8388513E-14  0.1276756E-14  0.2666667E-01
      1        -57.445137   1.000000
      2        -33.519385   1.000000
      3        -33.387759   1.000000
      4        -33.376049   1.000000
      5        -15.803018   1.000000
      6        -14.532367   1.000000
      7         -7.321875   1.000000
      8         -4.962200   1.000000
      9         -4.761505   1.000000
     10         -4.131021   1.000000
     11         -3.859412   1.000000
     12         -3.379259   1.000000
     13         -1.481571   0.000000
     14          0.450716   0.000000
     15          0.619040   0.000000
     16          0.640190   0.000000
     17          0.691908   0.000000
     18          2.920698   0.000000
     19          3.485349   0.000000
     20          3.521984   0.000000
     21          4.305349   0.000000
     22          5.287939   0.000000
 
  0.1333333E+00  0.8390029E-14  0.1276756E-14  0.2666667E-01
      1        -57.441376   1.000000
      2        -33.510657   1.000000
      3        -33.430106   1.000000
      4        -33.385510   1.000000
      5        -15.648520   1.000000
      6        -14.488079   1.000000
      7         -7.145048   1.000000
      8         -5.325525   1.000000
      9         -4.604233   1.000000
     10         -4.592738   1.000000
     11         -4.097570   1.000000
     12         -3.235801   1.000000
     13         -1.701628   0.000000
     14          0.429198   0.000000
     15          0.470273   0.000000
     16          0.564536   0.000000
     17          0.927433   0.000000
     18          3.414845   0.000000
     19          3.714236   0.000000
     20          3.988740   0.000000
     21          4.580908   0.000000
     22          5.515713   0.000000
 
  0.2000000E+00  0.1293421E-14  0.1276756E-14  0.2666667E-01
      1        -57.435831   1.000000
      2        -33.497775   1.000000
      3        -33.491890   1.000000
      4        -33.399409   1.000000
      5        -15.412545   1.000000
      6        -14.420410   1.000000
      7         -6.925653   1.000000
      8         -5.742747   1.000000
      9         -5.069413   1.000000
     10         -4.399660   1.000000
     11         -4.370509   1.000000
     12         -3.282978   1.000000
     13         -2.068526   0.000000
     14          0.409473   0.000000
     15          0.420775   0.000000
     16          0.594028   0.000000
     17          1.318015   0.000000
     18          3.850398   0.000000
     19          4.076712   0.000000
     20          4.672554   0.000000
     21          5.162575   0.000000
     22          5.857224   0.000000
 
  0.2666667E+00  0.1299685E-14  0.1276756E-14  0.2666667E-01
      1        -57.429456   1.000000
      2        -33.561964   1.000000
      3        -33.482940   1.000000
      4        -33.415320   1.000000
      5        -15.126992   1.000000
      6        -14.338760   1.000000
      7         -6.856234   1.000000
      8         -5.986892   1.000000
      9         -5.533371   1.000000
     10         -4.697560   1.000000
     11         -4.102257   1.000000
     12         -3.432388   1.000000
     13         -2.448229   0.524825
     14          0.321250   0.000000
     15          0.477283   0.000000
     16          0.924319   0.000000
     17          1.692955   0.000000
     18          4.289385   0.000000
     19          4.550384   0.000000
     20          5.223956   0.000000
     21          5.818995   0.000000
     22          6.218500   0.000000
 
  0.3333333E+00  0.8439498E-14  0.1276756E-14  0.2666667E-01
      1        -57.423352   1.000000
      2        -33.628138   1.000000
      3        -33.468713   1.000000
      4        -33.430482   1.000000
      5        -14.835884   1.000000
      6        -14.256222   1.000000
      7         -7.063565   1.000000
      8         -5.969026   1.000000
      9         -5.945071   1.000000
     10         -4.947991   1.000000
     11         -3.851337   1.000000
     12         -3.582122   1.000000
     13         -2.659161   1.000000
     14          0.301263   0.000000
     15          0.610259   0.000000
     16          1.291671   0.000000
     17          1.990291   0.000000
     18          4.678720   0.000000
     19          5.081604   0.000000
     20          5.434334   0.000000
     21          5.878228   0.000000
     22          6.171950   0.000000
 
  0.4000000E+00  0.8445762E-14  0.1276756E-14  0.2666667E-01
      1        -57.418574   1.000000
      2        -33.679285   1.000000
      3        -33.457558   1.000000
      4        -33.442291   1.000000
      5        -14.593053   1.000000
      6        -14.188282   1.000000
      7         -7.311582   1.000000
      8         -6.256039   1.000000
      9         -5.944892   1.000000
     10         -5.125936   1.000000
     11         -3.685271   1.000000
     12         -3.664301   1.000000
     13         -2.633069   1.000000
     14          0.349895   0.000000
     15          0.744461   0.000000
     16          1.573839   0.000000
     17          2.186000   0.000000
     18          4.439651   0.000000
     19          5.373743   0.000000
     20          5.507697   0.000000
     21          6.192414   0.000000
     22          6.572140   0.000000
 
  0.4666667E+00  0.1374720E-14  0.1276756E-14  0.2666667E-01
      1        -57.415958   1.000000
      2        -33.707075   1.000000
      3        -33.451450   1.000000
      4        -33.448741   1.000000
      5        -14.453229   1.000000
      6        -14.149680   1.000000
      7         -7.457616   1.000000
      8         -6.423713   1.000000
      9         -5.965706   1.000000
     10         -5.217879   1.000000
     11         -3.734805   1.000000
     12         -3.567232   1.000000
     13         -2.516859   0.977434
     14          0.406560   0.000000
     15          0.830226   0.000000
     16          1.713333   0.000000
     17          2.280645   0.000000
     18          3.974172   0.000000
     19          5.667350   0.000000
     20          5.668073   0.000000
     21          6.513467   0.000000
     22          7.186809   0.000000
 
  0.1333333E+00  0.6666667E-01  0.1276756E-14  0.2666667E-01
      1        -57.442592   1.000000
      2        -33.513481   1.000000
      3        -33.415974   1.000000
      4        -33.382948   1.000000
      5        -15.698914   1.000000
      6        -14.502515   1.000000
      7         -7.200392   1.000000
      8         -5.213314   1.000000
      9         -4.658234   1.000000
     10         -4.446742   1.000000
     11         -4.064019   1.000000
     12         -3.230100   1.000000
     13         -1.625102   0.000000
     14          0.395789   0.000000
     15          0.503677   0.000000
     16          0.606340   0.000000
     17          0.852793   0.000000
     18          3.289517   0.000000
     19          3.639258   0.000000
     20          3.822344   0.000000
     21          4.485723   0.000000
     22          5.442624   0.000000
 
  0.2000000E+00  0.6666667E-01  0.1276756E-14  0.5333333E-01
      1        -57.437938   1.000000
      2        -33.502674   1.000000
      3        -33.466722   1.000000
      4        -33.395934   1.000000
      5        -15.503501   1.000000
      6        -14.446355   1.000000
      7         -6.994870   1.000000
      8         -5.595872   1.000000
      9         -4.852047   1.000000
     10         -4.474870   1.000000
     11         -4.394968   1.000000
     12         -3.174625   1.000000
     13         -1.923566   0.000000
     14          0.356593   0.000000
     15          0.434811   0.000000
     16          0.514905   0.000000
     17          1.235639   0.000000
     18          3.712179   0.000000
     19          3.934931   0.000000
     20          4.461020   0.000000
     21          4.906455   0.000000
     22          5.727006   0.000000
 
  0.2666667E+00  0.6666667E-01  0.1276756E-14  0.5333333E-01
      1        -57.431978   1.000000
      2        -33.530902   1.000000
      3        -33.488813   1.000000
      4        -33.412577   1.000000
      5        -15.242144   1.000000
      6        -14.371152   1.000000
      7         -6.826068   1.000000
      8         -5.923852   1.000000
      9         -5.311941   1.000000
     10         -4.701544   1.000000
     11         -4.253545   1.000000
     12         -3.268741   1.000000
     13         -2.300905   0.000020
     14          0.263890   0.000000
     15          0.509380   0.000000
     16          0.665108   0.000000
     17          1.638676   0.000000
     18          4.140377   0.000000
     19          4.355582   0.000000
     20          5.040239   0.000000
     21          5.667140   0.000000
     22          6.105411   0.000000
 
  0.3333333E+00  0.6666667E-01  0.1276756E-14  0.5333333E-01
      1        -57.425738   1.000000
      2        -33.597183   1.000000
      3        -33.474278   1.000000
      4        -33.429933   1.000000
      5        -14.952490   1.000000
      6        -14.288007   1.000000
      7         -6.913395   1.000000
      8         -5.985320   1.000000
      9         -5.774548   1.000000
     10         -4.929269   1.000000
     11         -4.050594   1.000000
     12         -3.437459   1.000000
     13         -2.584454   0.999955
     14          0.260248   0.000000
     15          0.579447   0.000000
     16          1.021452   0.000000
     17          1.966903   0.000000
     18          4.585472   0.000000
     19          4.870437   0.000000
     20          5.584342   0.000000
     21          5.854618   0.000000
     22          6.335975   0.000000
 
  0.4000000E+00  0.6666667E-01  0.1276756E-14  0.5333333E-01
      1        -57.420296   1.000000
      2        -33.654241   1.000000
      3        -33.461583   1.000000
      4        -33.445000   1.000000
      5        -14.683362   1.000000
      6        -14.211327   1.000000
      7         -7.155850   1.000000
      8         -6.164925   1.000000
      9         -5.930966   1.000000
     10         -5.082412   1.000000
     11         -3.900505   1.000000
     12         -3.597321   1.000000
     13         -2.638725   1.000000
     14          0.337018   0.000000
     15          0.677395   0.000000
     16          1.387741   0.000000
     17          2.159770   0.000000
     18          4.773552   0.000000
     19          5.384753   0.000000
     20          5.405307   0.000000
     21          6.240740   0.000000
     22          6.275848   0.000000
 
  0.4666667E+00  0.6666667E-01  0.1276756E-14  0.5333333E-01
      1        -57.416598   1.000000
      2        -33.692623   1.000000
      3        -33.455199   1.000000
      4        -33.452952   1.000000
      5        -14.489682   1.000000
      6        -14.156719   1.000000
      7         -7.346871   1.000000
      8         -6.423711   1.000000
      9         -5.938832   1.000000
     10         -5.170769   1.000000
     11         -3.801377   1.000000
     12         -3.703419   1.000000
     13         -2.521863   0.984022
     14          0.396017   0.000000
     15          0.800857   0.000000
     16          1.674098   0.000000
     17          2.206571   0.000000
     18          4.256750   0.000000
     19          5.663316   0.000000
     20          5.787965   0.000000
     21          6.403828   0.000000
     22          7.009978   0.000000
 
 -0.4666667E+00  0.6666667E-01  0.1276756E-14  0.2666667E-01
      1        -57.415289   1.000000
      2        -33.706135   1.000000
      3        -33.458802   1.000000
      4        -33.449892   1.000000
      5        -14.418687   1.000000
      6        -14.136862   1.000000
      7         -7.416286   1.000000
      8         -6.514174   1.000000
      9         -5.957428   1.000000
     10         -5.199707   1.000000
     11         -3.764967   1.000000
     12         -3.739842   1.000000
     13         -2.441971   0.454336
     14          0.401208   0.000000
     15          0.875338   0.000000
     16          1.796481   0.000000
     17          2.188765   0.000000
     18          3.994647   0.000000
     19          5.875130   0.000000
     20          5.912414   0.000000
     21          6.609013   0.000000
     22          7.287924   0.000000
 
  0.2666667E+00  0.1333333E+00  0.1276756E-14  0.2666667E-01
      1        -57.432872   1.000000
      2        -33.517562   1.000000
      3        -33.490890   1.000000
      4        -33.413970   1.000000
      5        -15.282268   1.000000
      6        -14.382240   1.000000
      7         -6.818647   1.000000
      8         -5.883568   1.000000
      9         -5.168027   1.000000
     10         -4.807395   1.000000
     11         -4.329599   1.000000
     12         -3.148646   1.000000
     13         -2.239115   0.000000
     14          0.214674   0.000000
     15          0.512026   0.000000
     16          0.543157   0.000000
     17          1.658548   0.000000
     18          4.099683   0.000000
     19          4.290163   0.000000
     20          4.992492   0.000000
     21          5.592580   0.000000
     22          6.057346   0.000000
 
  0.3333333E+00  0.1333333E+00  0.1276756E-14  0.5333333E-01
      1        -57.427045   1.000000
      2        -33.574087   1.000000
      3        -33.477325   1.000000
      4        -33.435887   1.000000
      5        -15.015315   1.000000
      6        -14.304274   1.000000
      7         -6.793683   1.000000
      8         -5.986821   1.000000
      9         -5.636046   1.000000
     10         -5.031989   1.000000
     11         -4.243472   1.000000
     12         -3.250124   1.000000
     13         -2.518549   0.979877
     14          0.188787   0.000000
     15          0.601868   0.000000
     16          0.751576   0.000000
     17          2.029741   0.000000
     18          4.548570   0.000000
     19          4.760738   0.000000
     20          5.521456   0.000000
     21          6.174045   0.000000
     22          6.437163   0.000000
 
  0.4000000E+00  0.1333333E+00  0.1276756E-14  0.5333333E-01
      1        -57.421465   1.000000
      2        -33.627073   1.000000
      3        -33.464322   1.000000
      4        -33.457292   1.000000
      5        -14.744554   1.000000
      6        -14.224755   1.000000
      7         -6.961841   1.000000
      8         -6.109829   1.000000
      9         -5.906001   1.000000
     10         -5.113583   1.000000
     11         -4.249593   1.000000
     12         -3.436494   1.000000
     13         -2.613150   0.999999
     14          0.318291   0.000000
     15          0.638197   0.000000
     16          1.099553   0.000000
     17          2.252040   0.000000
     18          4.960368   0.000000
     19          5.311508   0.000000
     20          5.760546   0.000000
     21          6.139806   0.000000
     22          6.527879   0.000000
 
  0.4666667E+00  0.1333333E+00  0.1276756E-14  0.5333333E-01
      1        -57.417100   1.000000
      2        -33.667933   1.000000
      3        -33.474141   1.000000
      4        -33.454139   1.000000
      5        -14.520240   1.000000
      6        -14.158745   1.000000
      7         -7.133893   1.000000
      8         -6.469024   1.000000
      9         -5.878329   1.000000
     10         -5.127657   1.000000
     11         -4.270835   1.000000
     12         -3.624832   1.000000
     13         -2.509562   0.963835
     14          0.389807   0.000000
     15          0.767174   0.000000
     16          1.463985   0.000000
     17          2.281740   0.000000
     18          4.737174   0.000000
     19          5.773410   0.000000
     20          5.881283   0.000000
     21          6.560332   0.000000
     22          6.833503   0.000000
 
 -0.4666667E+00  0.1333333E+00  0.1276756E-14  0.5333333E-01
      1        -57.414709   1.000000
      2        -33.690123   1.000000
      3        -33.483387   1.000000
      4        -33.448559   1.000000
      5        -14.391901   1.000000
      6        -14.121005   1.000000
      7         -7.228187   1.000000
      8         -6.660813   1.000000
      9         -5.914414   1.000000
     10         -5.118023   1.000000
     11         -4.266180   1.000000
     12         -3.742476   1.000000
     13         -2.358657   0.006733
     14          0.294662   0.000000
     15          0.995427   0.000000
     16          1.766508   0.000000
     17          2.161301   0.000000
     18          4.281696   0.000000
     19          6.198154   0.000000
     20          6.362474   0.000000
     21          6.679704   0.000000
     22          7.088081   0.000000
 
  0.4000000E+00  0.2000000E+00  0.1276756E-14  0.2666667E-01
      1        -57.421879   1.000000
      2        -33.614176   1.000000
      3        -33.465293   1.000000
      4        -33.464982   1.000000
      5        -14.766150   1.000000
      6        -14.229092   1.000000
      7         -6.867569   1.000000
      8         -6.087239   1.000000
      9         -5.891581   1.000000
     10         -5.143920   1.000000
     11         -4.413933   1.000000
     12         -3.351671   1.000000
     13         -2.603156   0.999996
     14          0.301452   0.000000
     15          0.632417   0.000000
     16          0.963382   0.000000
     17          2.309079   0.000000
     18          4.993661   0.000000
     19          5.271741   0.000000
     20          6.015571   0.000000
     21          6.128065   0.000000
     22          6.689549   0.000000
 
  0.4666667E+00  0.2000000E+00  0.1276756E-14  0.5333333E-01
      1        -57.417374   1.000000
      2        -33.645826   1.000000
      3        -33.493287   1.000000
      4        -33.454793   1.000000
      5        -14.537658   1.000000
      6        -14.158577   1.000000
      7         -6.944498   1.000000
      8         -6.504883   1.000000
      9         -5.800624   1.000000
     10         -5.115805   1.000000
     11         -4.669053   1.000000
     12         -3.546846   1.000000
     13         -2.508861   0.962232
     14          0.374670   0.000000
     15          0.753501   0.000000
     16          1.255228   0.000000
     17          2.418509   0.000000
     18          5.172241   0.000000
     19          5.829662   0.000000
     20          5.845074   0.000000
     21          6.667526   0.000000
     22          6.823928   0.000000
 
 -0.4666667E+00  0.2000000E+00  0.1276756E-14  0.5333333E-01
      1        -57.414314   1.000000
      2        -33.665747   1.000000
      3        -33.513905   1.000000
      4        -33.447656   1.000000
      5        -14.375591   1.000000
      6        -14.107658   1.000000
      7         -6.968372   1.000000
      8         -6.785389   1.000000
      9         -5.829860   1.000000
     10         -5.036580   1.000000
     11         -4.830822   1.000000
     12         -3.742887   1.000000
     13         -2.304309   0.000031
     14          0.154820   0.000000
     15          1.113305   0.000000
     16          1.527565   0.000000
     17          2.386088   0.000000
     18          4.731169   0.000000
     19          6.090872   0.000000
     20          6.409321   0.000000
     21          6.890121   0.000000
     22          7.076017   0.000000
 
 -0.4000000E+00  0.2000000E+00  0.1276756E-14  0.2666667E-01
      1        -57.413233   1.000000
      2        -33.672503   1.000000
      3        -33.521464   1.000000
      4        -33.445134   1.000000
      5        -14.316777   1.000000
      6        -14.088996   1.000000
      7         -6.965124   1.000000
      8         -6.883525   1.000000
      9         -5.877871   1.000000
     10         -4.992531   1.000000
     11         -4.871460   1.000000
     12         -3.829014   1.000000
     13         -2.184954   0.000000
     14          0.017185   0.000000
     15          1.298233   0.000000
     16          1.652926   0.000000
     17          2.336266   0.000000
     18          4.479339   0.000000
     19          6.276819   0.000000
     20          6.735301   0.000000
     21          6.929638   0.000000
     22          7.239309   0.000000
 
 -0.4666667E+00  0.2666667E+00  0.1276756E-14  0.2666667E-01
      1        -57.414175   1.000000
      2        -33.651590   1.000000
      3        -33.530298   1.000000
      4        -33.447340   1.000000
      5        -14.370199   1.000000
      6        -14.102421   1.000000
      7         -6.832921   1.000000
      8         -6.829511   1.000000
      9         -5.741018   1.000000
     10         -5.140362   1.000000
     11         -5.004446   1.000000
     12         -3.741683   1.000000
     13         -2.284847   0.000003
     14          0.093322   0.000000
     15          1.158086   0.000000
     16          1.424678   0.000000
     17          2.495628   0.000000
     18          5.081142   0.000000
     19          5.735312   0.000000
     20          6.383501   0.000000
     21          6.927266   0.000000
     22          7.262233   0.000000
 
 -0.4000000E+00  0.2666667E+00  0.1276756E-14  0.5333333E-01
      1        -57.412423   1.000000
      2        -33.648741   1.000000
      3        -33.556558   1.000000
      4        -33.443261   1.000000
      5        -14.276312   1.000000
      6        -14.069834   1.000000
      7         -7.014066   1.000000
      8         -6.662293   1.000000
      9         -5.816243   1.000000
     10         -5.414146   1.000000
     11         -4.882610   1.000000
     12         -3.912612   1.000000
     13         -2.046852   0.000000
     14         -0.219854   0.000000
     15          1.503082   0.000000
     16          1.525480   0.000000
     17          2.527404   0.000000
     18          4.786096   0.000000
     19          5.686848   0.000000
     20          6.812985   0.000000
     21          7.362152   0.000000
     22          7.780771   0.000000
 
 -0.3333333E+00  0.3333333E+00  0.1276756E-14  0.8888889E-02
      1        -57.411753   1.000000
      2        -33.631927   1.000000
      3        -33.582470   1.000000
      4        -33.441696   1.000000
      5        -14.241026   1.000000
      6        -14.055791   1.000000
      7         -7.096404   1.000000
      8         -6.382074   1.000000
      9         -5.935867   1.000000
     10         -5.672147   1.000000
     11         -4.795403   1.000000
     12         -4.006113   1.000000
     13         -1.899346   0.000000
     14         -0.422535   0.000000
     15          1.511848   0.000000
     16          1.675461   0.000000
     17          2.597919   0.000000
     18          4.833539   0.000000
     19          5.441908   0.000000
     20          6.995886   0.000000
     21          7.722764   0.000000
     22          8.221574   0.000000
