cpu-bind=MASK - c022, task  0  0 [105624]: mask 0xfffffffffff0 set
 running  264 mpi-ranks, with    1 threads/rank, on    6 nodes
 distrk:  each k-point on   44 cores,    6 groups
 distr:  one band on    4 cores,   11 groups
 vasp.6.5.1 10Mar25 (build Aug 29 2025 00:30:47) complex                        
  
 POSCAR found type information on POSCAR NbS 
 POSCAR found :  2 types and       3 ions
 scaLAPACK will be used
 -----------------------------------------------------------------------------
|                                                                             |
|               ----> ADVICE to this user running VASP <----                  |
|                                                                             |
|     You have a (more or less) 'small supercell' and for smaller cells       |
|     it is recommended to use the reciprocal-space projection scheme!        |
|     The real-space optimization is not efficient for small cells and it     |
|     is also less accurate ...                                               |
|     Therefore, set LREAL=.FALSE. in the INCAR file.                         |
|                                                                             |
 -----------------------------------------------------------------------------

 LDA part: xc-table for (Slater+PW92), standard interpolation
 POSCAR, INCAR and KPOINTS ok, starting setup
 FFT: planning ... GRIDC
 FFT: planning ... GRID_SOFT
 FFT: planning ... GRID
 WAVECAR not read
 entering main loop
       N       E                     dE             d eps       ncg     rms          rms(c)
DAV:   1     0.160508613250E+03    0.16051E+03   -0.11585E+04  1419   0.878E+02
DAV:   2    -0.641164858026E+01   -0.16692E+03   -0.15653E+03  1617   0.256E+02
DAV:   3    -0.232160429683E+02   -0.16804E+02   -0.16611E+02  2255   0.664E+01
DAV:   4    -0.234601422281E+02   -0.24410E+00   -0.24327E+00  1661   0.837E+00
DAV:   5    -0.234757159057E+02   -0.15574E-01   -0.15571E-01  1936   0.167E+00    0.112E+01
DAV:   6    -0.218379742640E+02    0.16377E+01   -0.60000E+00  1870   0.178E+01    0.733E+00
DAV:   7    -0.216560050313E+02    0.18197E+00   -0.79915E-01  1925   0.707E+00    0.362E+00
DAV:   8    -0.216313555629E+02    0.24649E-01   -0.19859E-01  1947   0.350E+00    0.870E-01
DAV:   9    -0.216258526261E+02    0.55029E-02   -0.17473E-02  1727   0.110E+00    0.373E-01
DAV:  10    -0.216240830501E+02    0.17696E-02   -0.31899E-03  1760   0.362E-01    0.119E-01
DAV:  11    -0.216236003562E+02    0.48269E-03   -0.34880E-04  1760   0.111E-01    0.440E-02
DAV:  12    -0.216227402578E+02    0.86010E-03   -0.30615E-04  1617   0.855E-02    0.591E-02
DAV:  13    -0.216223789079E+02    0.36135E-03   -0.26790E-04  1573   0.827E-02    0.203E-02
DAV:  14    -0.216216813572E+02    0.69755E-03   -0.45602E-04  1386   0.627E-02    0.634E-02
DAV:  15    -0.216216356189E+02    0.45738E-04   -0.54937E-05  1463   0.289E-02    0.434E-02
DAV:  16    -0.216221155914E+02   -0.47997E-03   -0.12768E-04  1562   0.689E-02    0.391E-02
DAV:  17    -0.216226913391E+02   -0.57575E-03   -0.12616E-04  1540   0.591E-02    0.198E-02
DAV:  18    -0.216228532757E+02   -0.16194E-03   -0.17474E-05  1562   0.207E-02    0.104E-02
DAV:  19    -0.216230236574E+02   -0.17038E-03   -0.25523E-05  1551   0.160E-02    0.131E-02
DAV:  20    -0.216230601888E+02   -0.36531E-04   -0.12781E-06  1397   0.568E-03    0.547E-03
DAV:  21    -0.216230729188E+02   -0.12730E-04   -0.28909E-07  1287   0.272E-03    0.224E-03
DAV:  22    -0.216230800921E+02   -0.71733E-05   -0.26309E-07  1188   0.228E-03    0.670E-04
DAV:  23    -0.216230812090E+02   -0.11169E-05   -0.37856E-08  1298   0.137E-03    0.966E-04
DAV:  24    -0.216230816629E+02   -0.45391E-06   -0.16243E-08  1166   0.787E-04
   1 F= -.22513956E+02 E0= -.22512492E+02  d E =-.225140E+02
 BRION: g(F)=  0.613E-02 g(S)=  0.000E+00
 bond charge predicted
       N       E                     dE             d eps       ncg     rms          rms(c)
DAV:   1    -0.216237329166E+02   -0.65171E-03   -0.29523E-01  1188   0.211E+00    0.338E-01
DAV:   2    -0.216247195425E+02   -0.98663E-03   -0.12538E-02  1683   0.751E-01    0.133E-01
DAV:   3    -0.216247227086E+02   -0.31662E-05   -0.35432E-04  1705   0.114E-01    0.857E-02
DAV:   4    -0.216247259960E+02   -0.32874E-05   -0.16774E-04  1485   0.687E-02    0.254E-02
DAV:   5    -0.216247190751E+02    0.69209E-05   -0.27662E-05  1562   0.351E-02    0.121E-02
DAV:   6    -0.216247171777E+02    0.18975E-05   -0.37171E-06  1617   0.108E-02    0.926E-03
DAV:   7    -0.216247161861E+02    0.99155E-06   -0.22282E-06  1595   0.719E-03
   2 F= -.22517784E+02 E0= -.22516438E+02  d E =-.382823E-02
 BRION: g(F)=  0.314E-03 g(S)=  0.000E+00 retain N=  1 mean eig= 1.29
 eig:   1.292
 bond charge predicted
       N       E                     dE             d eps       ncg     rms          rms(c)
DAV:   1    -0.216241907220E+02    0.52646E-03   -0.25332E-02  1188   0.619E-01    0.976E-02
DAV:   2    -0.216242802860E+02   -0.89564E-04   -0.11115E-03  1584   0.225E-01    0.405E-02
DAV:   3    -0.216242811970E+02   -0.91097E-06   -0.32418E-05  1694   0.342E-02    0.266E-02
DAV:   4    -0.216242824993E+02   -0.13023E-05   -0.16498E-05  1584   0.215E-02    0.735E-03
DAV:   5    -0.216242816638E+02    0.83546E-06   -0.26282E-06  1639   0.105E-02
   3 F= -.22517991E+02 E0= -.22516683E+02  d E =-.206613E-03
 BRION: g(F)=  0.183E-06 g(S)=  0.000E+00 retain N=  1 mean eig= 1.26
 eig:   1.262
 bond charge predicted
       N       E                     dE             d eps       ncg     rms          rms(c)
DAV:   1    -0.216242966837E+02   -0.14184E-04   -0.11747E-05  1595   0.133E-02    0.237E-03
DAV:   2    -0.216242965306E+02    0.15308E-06   -0.35232E-07  1386   0.379E-03
   4 F= -.22517991E+02 E0= -.22516683E+02  d E =0.249666E-06
 BRION: g(F)=  0.768E-09 g(S)=  0.000E+00 retain N=  1 mean eig= 1.19
 eig:   1.185
 reached required accuracy - stopping structural energy minimisation
