NbS2 relaxation                         
           1
     3.368768    0.000000    0.000000
     1.684384    2.917438    0.000000
     0.000000    0.000000   20.000000
   Nb   S 
     1     2
Direct configuration=     1
   0.00000000  0.00000000  0.50000000
   0.33333333  0.33333333  0.42184611
   0.33333333  0.33333333  0.57815389
Direct configuration=     2
  -0.00000000 -0.00000000  0.50000000
   0.33333333  0.33333333  0.42245439
   0.33333333  0.33333333  0.57754561
Direct configuration=     3
  -0.00000000 -0.00000000  0.50000000
   0.33333333  0.33333333  0.42263251
   0.33333333  0.33333333  0.57736749
Direct configuration=     4
  -0.00000000 -0.00000000  0.50000000
   0.33333333  0.33333333  0.42262794
   0.33333333  0.33333333  0.57737206
Direct configuration=     5
  -0.00000000 -0.00000000  0.50000000
   0.33333333  0.33333333  0.42262862
   0.33333333  0.33333333  0.57737138
Direct configuration=     6
  -0.00000000 -0.00000000  0.50000000
   0.33333333  0.33333333  0.42262834
   0.33333333  0.33333333  0.57737166
Direct configuration=     7
  -0.00000000 -0.00000000  0.50000000
   0.33333333  0.33333333  0.42262849
   0.33333333  0.33333333  0.57737151
Direct configuration=     8
  -0.00000000 -0.00000000  0.50000000
   0.33333333  0.33333333  0.42262848
   0.33333333  0.33333333  0.57737152
Direct configuration=     9
  -0.00000000 -0.00000000  0.50000000
   0.33333333  0.33333333  0.42262849
   0.33333333  0.33333333  0.57737151
Direct configuration=    10
   0.00000000 -0.00000000  0.50000000
   0.33333333  0.33333333  0.42262840
   0.33333333  0.33333333  0.57737160
Direct configuration=    11
  -0.00000000  0.00000000  0.50000000
   0.33333333  0.33333333  0.42262854
   0.33333333  0.33333333  0.57737146
Direct configuration=    12
  -0.00000000  0.00000000  0.50000000
   0.33333333  0.33333333  0.42262853
   0.33333333  0.33333333  0.57737147
Direct configuration=    13
  -0.00000000  0.00000000  0.50000000
   0.33333333  0.33333333  0.42262854
   0.33333333  0.33333333  0.57737146
Direct configuration=    14
  -0.00000000 -0.00000000  0.50000000
   0.33333333  0.33333333  0.42262853
   0.33333333  0.33333333  0.57737147
Direct configuration=    15
  -0.00000000  0.00000000  0.50000000
   0.33333333  0.33333333  0.42262855
   0.33333333  0.33333333  0.57737145
Direct configuration=    16
  -0.00000000  0.00000000  0.50000000
   0.33333333  0.33333333  0.42262859
   0.33333333  0.33333333  0.57737141
Direct configuration=    17
  -0.00000000  0.00000000  0.50000000
   0.33333333  0.33333333  0.42262862
   0.33333333  0.33333333  0.57737138
Direct configuration=    18
  -0.00000000  0.00000000  0.50000000
   0.33333333  0.33333333  0.42262863
   0.33333333  0.33333333  0.57737137
Direct configuration=    19
  -0.00000000  0.00000000  0.50000000
   0.33333333  0.33333333  0.42262861
   0.33333333  0.33333333  0.57737139
Direct configuration=    20
  -0.00000000  0.00000000  0.50000000
   0.33333333  0.33333333  0.42262864
   0.33333333  0.33333333  0.57737136
Direct configuration=    21
  -0.00000000  0.00000000  0.50000000
   0.33333333  0.33333333  0.42262864
   0.33333333  0.33333333  0.57737136
Direct configuration=    22
  -0.00000000  0.00000000  0.50000000
   0.33333333  0.33333333  0.42262864
   0.33333333  0.33333333  0.57737136
Direct configuration=    23
  -0.00000000  0.00000000  0.50000000
   0.33333333  0.33333333  0.42262864
   0.33333333  0.33333333  0.57737136
Direct configuration=    24
  -0.00000000  0.00000000  0.50000000
   0.33333333  0.33333333  0.42262865
   0.33333333  0.33333333  0.57737135
Direct configuration=    25
  -0.00000000  0.00000000  0.50000000
   0.33333333  0.33333333  0.42262866
   0.33333333  0.33333333  0.57737134
Direct configuration=    26
  -0.00000000  0.00000000  0.50000000
   0.33333333  0.33333333  0.42262866
   0.33333333  0.33333333  0.57737134
Direct configuration=    27
  -0.00000000  0.00000000  0.50000000
   0.33333333  0.33333333  0.42262866
   0.33333333  0.33333333  0.57737134
Direct configuration=    28
  -0.00000000  0.00000000  0.50000000
   0.33333333  0.33333333  0.42262866
   0.33333333  0.33333333  0.57737134
Direct configuration=    29
  -0.00000000 -0.00000000  0.50000000
   0.33333333  0.33333333  0.42262838
   0.33333333  0.33333333  0.57737162
Direct configuration=    30
  -0.00000000  0.00000000  0.50000000
   0.33333333  0.33333333  0.42262867
   0.33333333  0.33333333  0.57737133
Direct configuration=    31
  -0.00000000 -0.00000000  0.50000000
   0.33333333  0.33333333  0.42262858
   0.33333333  0.33333333  0.57737142
Direct configuration=    32
  -0.00000000 -0.00000000  0.50000000
   0.33333333  0.33333333  0.42262862
   0.33333333  0.33333333  0.57737138
Direct configuration=    33
  -0.00000000 -0.00000000  0.50000000
   0.33333333  0.33333333  0.42262862
   0.33333333  0.33333333  0.57737138
Direct configuration=    34
  -0.00000000 -0.00000000  0.50000000
   0.33333333  0.33333333  0.42262862
   0.33333333  0.33333333  0.57737138
Direct configuration=    35
  -0.00000000 -0.00000000  0.50000000
   0.33333333  0.33333333  0.42262862
   0.33333333  0.33333333  0.57737138
Direct configuration=    36
  -0.00000000 -0.00000000  0.50000000
   0.33333333  0.33333333  0.42262863
   0.33333333  0.33333333  0.57737137
Direct configuration=    37
  -0.00000000  0.00000000  0.50000000
   0.33333333  0.33333333  0.42262864
   0.33333333  0.33333333  0.57737136
Direct configuration=    38
  -0.00000000  0.00000000  0.50000000
   0.33333333  0.33333333  0.42262865
   0.33333333  0.33333333  0.57737135
Direct configuration=    39
  -0.00000000  0.00000000  0.50000000
   0.33333333  0.33333333  0.42262867
   0.33333333  0.33333333  0.57737133
Direct configuration=    40
  -0.00000000  0.00000000  0.50000000
   0.33333333  0.33333333  0.42262866
   0.33333333  0.33333333  0.57737134
Direct configuration=    41
  -0.00000000  0.00000000  0.50000000
   0.33333333  0.33333333  0.42262866
   0.33333333  0.33333333  0.57737134
