Bilayer structure
 1.0000000000000000
  3.1539860000000002   0.0000000000000000   0.0000000000000000
  1.5769930000000001   2.7314319991804665   0.0000000000000000
  0.0000000000000000   0.0000000000000000  20.0000000000000000
   Mo   S
     2     4
Direct
  0.0000000000000000   0.0000000000000000   0.5000000000000000
  0.3333333333333333   0.3333333333333333   0.8025323000000001
  0.3333333333333333   0.3333333333333333   0.4216838500000000
  0.3333333333333333   0.3333333333333333   0.5783161500000000
  0.6666666666666666   0.6666666666666666   0.7242161500000001
  0.6666666666666666   0.6666666666666666   0.8808484500000001
