generated by phonopy                    
   1.00000000000000     
     9.6132987556509981    0.0000000000000000    0.0000000000000000
     4.8066493778254991    8.3253609365630954    0.0000000000000000
     0.0000000000000000    0.0000000000000000   20.0000000000000000
   Ga   N 
     9     9
Direct
     0.0000000000000000    0.0000000000000000    0.5000000000000000
     0.3333333333333357    0.0000000000000000    0.5000000000000000
     0.6666666666666643    0.0000000000000000    0.5000000000000000
     0.0000000000000000    0.3333333333333357    0.5000000000000000
     0.3333333333333357    0.3333333333333357    0.5000000000000000
     0.6666666666666643    0.3333333333333357    0.5000000000000000
     0.0000000000000000    0.6666666666666643    0.5000000000000000
     0.3333333333333357    0.6666666666666643    0.5000000000000000
     0.6666666666666643    0.6666666666666643    0.5000000000000000
     0.1115617556752539    0.1111111111111143    0.5004506445641397
     0.4444444444444429    0.1111111111111143    0.5000000000000000
     0.7777777777777786    0.1111111111111143    0.5000000000000000
     0.1111111111111143    0.4444444444444429    0.5000000000000000
     0.4444444444444429    0.4444444444444429    0.5000000000000000
     0.7777777777777786    0.4444444444444429    0.5000000000000000
     0.1111111111111143    0.7777777777777786    0.5000000000000000
     0.4444444444444429    0.7777777777777786    0.5000000000000000
     0.7777777777777786    0.7777777777777786    0.5000000000000000
 
  0.00000000E+00  0.00000000E+00  0.00000000E+00
  0.00000000E+00  0.00000000E+00  0.00000000E+00
  0.00000000E+00  0.00000000E+00  0.00000000E+00
  0.00000000E+00  0.00000000E+00  0.00000000E+00
  0.00000000E+00  0.00000000E+00  0.00000000E+00
  0.00000000E+00  0.00000000E+00  0.00000000E+00
  0.00000000E+00  0.00000000E+00  0.00000000E+00
  0.00000000E+00  0.00000000E+00  0.00000000E+00
  0.00000000E+00  0.00000000E+00  0.00000000E+00
  0.00000000E+00  0.00000000E+00  0.00000000E+00
  0.00000000E+00  0.00000000E+00  0.00000000E+00
  0.00000000E+00  0.00000000E+00  0.00000000E+00
  0.00000000E+00  0.00000000E+00  0.00000000E+00
  0.00000000E+00  0.00000000E+00  0.00000000E+00
  0.00000000E+00  0.00000000E+00  0.00000000E+00
  0.00000000E+00  0.00000000E+00  0.00000000E+00
  0.00000000E+00  0.00000000E+00  0.00000000E+00
  0.00000000E+00  0.00000000E+00  0.00000000E+00
