   18   18    1    1
  0.8892687E+02  0.9613299E-09  0.9613299E-09  0.2000000E-08  0.5000000E-15
  1.000000000000000E-004
  CAR 
 GaN phonon                              
     72     13     55
 
  0.1276756E-14  0.1276756E-14  0.1276756E-14  0.4000000E-01
      1        -18.570451   1.000000
      2        -17.453452   1.000000
      3        -17.452026   1.000000
      4        -17.450460   1.000000
      5        -17.450456   1.000000
      6        -17.448896   1.000000
      7        -17.447431   1.000000
      8        -16.623932   1.000000
      9        -16.623913   1.000000
     10         -9.769470   1.000000
     11         -9.766333   1.000000
     12         -9.093857   1.000000
     13         -9.090472   1.000000
     14         -9.089162   1.000000
     15         -9.089148   1.000000
     16         -9.087833   1.000000
     17         -9.084389   1.000000
     18         -8.492560   1.000000
     19         -8.491858   1.000000
     20         -6.833112   1.000000
     21         -5.968672   1.000000
     22         -5.966809   1.000000
     23         -5.965404   1.000000
     24         -5.965400   1.000000
     25         -5.963989   1.000000
     26         -5.962079   1.000000
     27         -5.357666   1.000000
     28         -5.356489   1.000000
     29         -5.355081   1.000000
     30         -5.355078   1.000000
     31         -5.353658   1.000000
     32         -5.352476   1.000000
     33         -4.614061   1.000000
     34         -4.610551   1.000000
     35         -4.273081   1.000000
     36         -4.273060   1.000000
     37         -2.033408   0.000000
     38          0.505491   0.000000
     39          0.600811   0.000000
     40          0.604604   0.000000
     41          0.606558   0.000000
     42          0.606666   0.000000
     43          0.608584   0.000000
     44          0.612130   0.000000
     45          0.843036   0.000000
     46          0.869269   0.000000
     47          0.869737   0.000000
     48          1.053380   0.000000
     49          1.058101   0.000000
     50          1.058834   0.000000
     51          1.058865   0.000000
     52          1.059590   0.000000
     53          1.064590   0.000000
     54          1.445756   0.000000
     55          1.854524   0.000000
 
  0.2000000E+00  0.1267670E-14  0.1276756E-14  0.8000000E-01
      1        -18.518229   1.000000
      2        -17.801584   1.000000
      3        -17.596226   1.000000
      4        -17.595022   1.000000
      5        -17.254159   1.000000
      6        -17.253289   1.000000
      7        -17.129656   1.000000
      8        -16.678263   1.000000
      9        -16.678165   1.000000
     10         -9.848818   1.000000
     11         -9.830818   1.000000
     12         -9.828201   1.000000
     13         -9.488271   1.000000
     14         -9.486128   1.000000
     15         -8.636280   1.000000
     16         -8.634098   1.000000
     17         -8.229338   1.000000
     18         -8.228251   1.000000
     19         -8.117541   1.000000
     20         -6.764171   1.000000
     21         -6.294642   1.000000
     22         -6.292989   1.000000
     23         -6.198921   1.000000
     24         -5.994856   1.000000
     25         -5.993037   1.000000
     26         -5.820063   1.000000
     27         -5.646628   1.000000
     28         -5.549520   1.000000
     29         -5.548492   1.000000
     30         -5.094294   1.000000
     31         -5.093448   1.000000
     32         -5.037436   1.000000
     33         -4.923660   1.000000
     34         -4.702122   1.000000
     35         -4.342526   1.000000
     36         -4.342279   1.000000
     37         -1.725234   0.000000
     38          0.098728   0.000000
     39          0.511126   0.000000
     40          0.512957   0.000000
     41          0.567634   0.000000
     42          0.806179   0.000000
     43          0.849070   0.000000
     44          0.849852   0.000000
     45          0.940344   0.000000
     46          0.950393   0.000000
     47          0.954171   0.000000
     48          0.956196   0.000000
     49          0.985457   0.000000
     50          0.989223   0.000000
     51          1.124673   0.000000
     52          1.130547   0.000000
     53          1.132645   0.000000
     54          1.548991   0.000000
     55          1.919550   0.000000
 
  0.2000000E+00  0.2000000E+00  0.1276756E-14  0.8000000E-01
      1        -18.518227   1.000000
      2        -17.801589   1.000000
      3        -17.596216   1.000000
      4        -17.595009   1.000000
      5        -17.254143   1.000000
      6        -17.253269   1.000000
      7        -17.129730   1.000000
      8        -16.678260   1.000000
      9        -16.678160   1.000000
     10         -9.846488   1.000000
     11         -9.831023   1.000000
     12         -9.828160   1.000000
     13         -9.489017   1.000000
     14         -9.486893   1.000000
     15         -8.638003   1.000000
     16         -8.635881   1.000000
     17         -8.229273   1.000000
     18         -8.228211   1.000000
     19         -8.115222   1.000000
     20         -6.764191   1.000000
     21         -6.294230   1.000000
     22         -6.292580   1.000000
     23         -6.200312   1.000000
     24         -5.993390   1.000000
     25         -5.991571   1.000000
     26         -5.820430   1.000000
     27         -5.648513   1.000000
     28         -5.549173   1.000000
     29         -5.548166   1.000000
     30         -5.094052   1.000000
     31         -5.093195   1.000000
     32         -5.034662   1.000000
     33         -4.924546   1.000000
     34         -4.705045   1.000000
     35         -4.342499   1.000000
     36         -4.342252   1.000000
     37         -1.725021   0.000000
     38          0.098725   0.000000
     39          0.510929   0.000000
     40          0.512874   0.000000
     41          0.567637   0.000000
     42          0.807913   0.000000
     43          0.848960   0.000000
     44          0.849846   0.000000
     45          0.939294   0.000000
     46          0.950402   0.000000
     47          0.953751   0.000000
     48          0.955744   0.000000
     49          0.986330   0.000000
     50          0.989277   0.000000
     51          1.125067   0.000000
     52          1.130012   0.000000
     53          1.132118   0.000000
     54          1.549007   0.000000
     55          1.919557   0.000000
 
  0.1276756E-14  0.2000000E+00  0.1276756E-14  0.8000000E-01
      1        -18.518228   1.000000
      2        -17.801583   1.000000
      3        -17.596825   1.000000
      4        -17.594417   1.000000
      5        -17.254579   1.000000
      6        -17.252838   1.000000
      7        -17.129703   1.000000
      8        -16.678308   1.000000
      9        -16.678117   1.000000
     10         -9.847528   1.000000
     11         -9.831058   1.000000
     12         -9.828178   1.000000
     13         -9.489045   1.000000
     14         -9.486089   1.000000
     15         -8.637512   1.000000
     16         -8.634631   1.000000
     17         -8.229829   1.000000
     18         -8.227712   1.000000
     19         -8.116374   1.000000
     20         -6.764181   1.000000
     21         -6.294740   1.000000
     22         -6.292512   1.000000
     23         -6.199577   1.000000
     24         -5.994426   1.000000
     25         -5.992024   1.000000
     26         -5.820244   1.000000
     27         -5.647554   1.000000
     28         -5.549820   1.000000
     29         -5.547859   1.000000
     30         -5.094573   1.000000
     31         -5.092916   1.000000
     32         -5.036056   1.000000
     33         -4.924107   1.000000
     34         -4.703575   1.000000
     35         -4.342635   1.000000
     36         -4.342144   1.000000
     37         -1.725129   0.000000
     38          0.098702   0.000000
     39          0.511160   0.000000
     40          0.512822   0.000000
     41          0.567638   0.000000
     42          0.807086   0.000000
     43          0.848697   0.000000
     44          0.850134   0.000000
     45          0.939702   0.000000
     46          0.950357   0.000000
     47          0.953082   0.000000
     48          0.956880   0.000000
     49          0.985871   0.000000
     50          0.989403   0.000000
     51          1.124440   0.000000
     52          1.129597   0.000000
     53          1.133462   0.000000
     54          1.548999   0.000000
     55          1.919554   0.000000
 
  0.4000000E+00  0.8380403E-14  0.1276756E-14  0.8000000E-01
      1        -18.364412   1.000000
      2        -18.118789   1.000000
      3        -17.672801   1.000000
      4        -17.671532   1.000000
      5        -17.033384   1.000000
      6        -17.032775   1.000000
      7        -16.929917   1.000000
      8        -16.826868   1.000000
      9        -16.826538   1.000000
     10        -10.274048   1.000000
     11         -9.869472   1.000000
     12         -9.867190   1.000000
     13         -9.759490   1.000000
     14         -9.757343   1.000000
     15         -8.284054   1.000000
     16         -8.281963   1.000000
     17         -7.623033   1.000000
     18         -7.621514   1.000000
     19         -7.038947   1.000000
     20         -6.911593   1.000000
     21         -6.909914   1.000000
     22         -6.561390   1.000000
     23         -6.322561   1.000000
     24         -6.238069   1.000000
     25         -6.180910   1.000000
     26         -6.178943   1.000000
     27         -5.960970   1.000000
     28         -5.652022   1.000000
     29         -5.650987   1.000000
     30         -5.288110   1.000000
     31         -4.949337   1.000000
     32         -4.803300   1.000000
     33         -4.802607   1.000000
     34         -4.649950   1.000000
     35         -4.533997   1.000000
     36         -4.533505   1.000000
     37         -1.122235   0.000000
     38         -0.494375   0.000000
     39          0.527398   0.000000
     40          0.528811   0.000000
     41          0.585377   0.000000
     42          0.739999   0.000000
     43          0.829045   0.000000
     44          0.830421   0.000000
     45          0.863970   0.000000
     46          0.865740   0.000000
     47          0.968719   0.000000
     48          1.079083   0.000000
     49          1.160201   0.000000
     50          1.162203   0.000000
     51          1.254382   0.000000
     52          1.648265   0.000000
     53          1.652305   0.000000
     54          1.715005   0.000000
     55          1.850242   0.000000
 
  0.4000000E+00  0.4000000E+00  0.1276756E-14  0.8000000E-01
      1        -18.364408   1.000000
      2        -18.118785   1.000000
      3        -17.672794   1.000000
      4        -17.671521   1.000000
      5        -17.033369   1.000000
      6        -17.032755   1.000000
      7        -16.930028   1.000000
      8        -16.826857   1.000000
      9        -16.826527   1.000000
     10        -10.271685   1.000000
     11         -9.869740   1.000000
     12         -9.867432   1.000000
     13         -9.759947   1.000000
     14         -9.757832   1.000000
     15         -8.286491   1.000000
     16         -8.284471   1.000000
     17         -7.622891   1.000000
     18         -7.621386   1.000000
     19         -7.036574   1.000000
     20         -6.911366   1.000000
     21         -6.909679   1.000000
     22         -6.561473   1.000000
     23         -6.323848   1.000000
     24         -6.238260   1.000000
     25         -6.178693   1.000000
     26         -6.176658   1.000000
     27         -5.958465   1.000000
     28         -5.651679   1.000000
     29         -5.650621   1.000000
     30         -5.290357   1.000000
     31         -4.951960   1.000000
     32         -4.803128   1.000000
     33         -4.802429   1.000000
     34         -4.651063   1.000000
     35         -4.533898   1.000000
     36         -4.533415   1.000000
     37         -1.121899   0.000000
     38         -0.494131   0.000000
     39          0.527027   0.000000
     40          0.528416   0.000000
     41          0.587551   0.000000
     42          0.740027   0.000000
     43          0.828839   0.000000
     44          0.830261   0.000000
     45          0.863591   0.000000
     46          0.865476   0.000000
     47          0.968841   0.000000
     48          1.077628   0.000000
     49          1.159659   0.000000
     50          1.161647   0.000000
     51          1.254428   0.000000
     52          1.648770   0.000000
     53          1.652831   0.000000
     54          1.715047   0.000000
     55          1.850297   0.000000
 
  0.1276756E-14  0.4000000E+00  0.1276756E-14  0.8000000E-01
      1        -18.364410   1.000000
      2        -18.118786   1.000000
      3        -17.673433   1.000000
      4        -17.670894   1.000000
      5        -17.033671   1.000000
      6        -17.032451   1.000000
      7        -16.929977   1.000000
      8        -16.827031   1.000000
      9        -16.826377   1.000000
     10        -10.272863   1.000000
     11         -9.869779   1.000000
     12         -9.867161   1.000000
     13         -9.759994   1.000000
     14         -9.757284   1.000000
     15         -8.285374   1.000000
     16         -8.283125   1.000000
     17         -7.623667   1.000000
     18         -7.620745   1.000000
     19         -7.037752   1.000000
     20         -6.912106   1.000000
     21         -6.909195   1.000000
     22         -6.561431   1.000000
     23         -6.323189   1.000000
     24         -6.238164   1.000000
     25         -6.180419   1.000000
     26         -6.177194   1.000000
     27         -5.959721   1.000000
     28         -5.652335   1.000000
     29         -5.650322   1.000000
     30         -5.289206   1.000000
     31         -4.950653   1.000000
     32         -4.803542   1.000000
     33         -4.802180   1.000000
     34         -4.650506   1.000000
     35         -4.534189   1.000000
     36         -4.533227   1.000000
     37         -1.122071   0.000000
     38         -0.494266   0.000000
     39          0.527206   0.000000
     40          0.528627   0.000000
     41          0.586501   0.000000
     42          0.739988   0.000000
     43          0.828337   0.000000
     44          0.830925   0.000000
     45          0.862967   0.000000
     46          0.866441   0.000000
     47          0.968767   0.000000
     48          1.078329   0.000000
     49          1.159043   0.000000
     50          1.162814   0.000000
     51          1.254402   0.000000
     52          1.648395   0.000000
     53          1.652734   0.000000
     54          1.715019   0.000000
     55          1.850272   0.000000
 
  0.4000000E+00  0.2000000E+00  0.1276756E-14  0.8000000E-01
      1        -18.415171   1.000000
      2        -17.932669   1.000000
      3        -17.932654   1.000000
      4        -17.336640   1.000000
      5        -17.336622   1.000000
      6        -16.985184   1.000000
      7        -16.985095   1.000000
      8        -16.820854   1.000000
      9        -16.737219   1.000000
     10        -10.078386   1.000000
     11        -10.076180   1.000000
     12        -10.017684   1.000000
     13         -9.710889   1.000000
     14         -9.101952   1.000000
     15         -9.100500   1.000000
     16         -7.888576   1.000000
     17         -7.731364   1.000000
     18         -7.642055   1.000000
     19         -7.639242   1.000000
     20         -6.628323   1.000000
     21         -6.607029   1.000000
     22         -6.605717   1.000000
     23         -6.486872   1.000000
     24         -6.485580   1.000000
     25         -5.993561   1.000000
     26         -5.993244   1.000000
     27         -5.674396   1.000000
     28         -5.620683   1.000000
     29         -5.618108   1.000000
     30         -5.208449   1.000000
     31         -5.208142   1.000000
     32         -4.891402   1.000000
     33         -4.730599   1.000000
     34         -4.729672   1.000000
     35         -4.530360   1.000000
     36         -4.413285   1.000000
     37         -1.286136   0.000000
     38         -0.073730   0.000000
     39         -0.073414   0.000000
     40          0.684808   0.000000
     41          0.700175   0.000000
     42          0.701999   0.000000
     43          0.762154   0.000000
     44          0.897269   0.000000
     45          1.075083   0.000000
     46          1.075898   0.000000
     47          1.087148   0.000000
     48          1.087635   0.000000
     49          1.153424   0.000000
     50          1.153886   0.000000
     51          1.156837   0.000000
     52          1.256485   0.000000
     53          1.257709   0.000000
     54          1.752809   0.000000
     55          2.068619   0.000000
 
  0.2000000E+00  0.4000000E+00  0.1276756E-14  0.8000000E-01
      1        -18.415169   1.000000
      2        -17.932877   1.000000
      3        -17.932446   1.000000
      4        -17.338505   1.000000
      5        -17.334716   1.000000
      6        -16.985955   1.000000
      7        -16.984384   1.000000
      8        -16.820883   1.000000
      9        -16.737181   1.000000
     10        -10.077930   1.000000
     11        -10.075268   1.000000
     12        -10.018742   1.000000
     13         -9.709820   1.000000
     14         -9.103786   1.000000
     15         -9.100758   1.000000
     16         -7.889496   1.000000
     17         -7.730563   1.000000
     18         -7.642342   1.000000
     19         -7.638793   1.000000
     20         -6.628353   1.000000
     21         -6.606480   1.000000
     22         -6.604675   1.000000
     23         -6.487684   1.000000
     24         -6.485607   1.000000
     25         -5.993735   1.000000
     26         -5.993098   1.000000
     27         -5.673001   1.000000
     28         -5.621074   1.000000
     29         -5.617799   1.000000
     30         -5.209670   1.000000
     31         -5.206433   1.000000
     32         -4.892842   1.000000
     33         -4.731226   1.000000
     34         -4.729607   1.000000
     35         -4.530620   1.000000
     36         -4.412935   1.000000
     37         -1.285952   0.000000
     38         -0.075625   0.000000
     39         -0.071669   0.000000
     40          0.684931   0.000000
     41          0.700257   0.000000
     42          0.702975   0.000000
     43          0.761322   0.000000
     44          0.897930   0.000000
     45          1.072692   0.000000
     46          1.077179   0.000000
     47          1.086279   0.000000
     48          1.088675   0.000000
     49          1.153161   0.000000
     50          1.153984   0.000000
     51          1.157143   0.000000
     52          1.254440   0.000000
     53          1.259232   0.000000
     54          1.752836   0.000000
     55          2.047100   0.000000
 
 -0.2000000E+00  0.2000000E+00  0.1276756E-14  0.8000000E-01
      1        -18.415173   1.000000
      2        -17.932877   1.000000
      3        -17.932445   1.000000
      4        -17.338534   1.000000
      5        -17.334747   1.000000
      6        -16.985903   1.000000
      7        -16.984331   1.000000
      8        -16.820827   1.000000
      9        -16.737262   1.000000
     10        -10.079275   1.000000
     11        -10.076634   1.000000
     12        -10.016634   1.000000
     13         -9.711965   1.000000
     14         -9.101722   1.000000
     15         -9.098639   1.000000
     16         -7.887658   1.000000
     17         -7.732170   1.000000
     18         -7.642523   1.000000
     19         -7.638939   1.000000
     20         -6.628293   1.000000
     21         -6.608103   1.000000
     22         -6.606309   1.000000
     23         -6.486819   1.000000
     24         -6.484737   1.000000
     25         -5.993700   1.000000
     26         -5.993077   1.000000
     27         -5.675682   1.000000
     28         -5.621040   1.000000
     29         -5.617754   1.000000
     30         -5.210148   1.000000
     31         -5.206921   1.000000
     32         -4.889960   1.000000
     33         -4.730667   1.000000
     34         -4.729052   1.000000
     35         -4.530098   1.000000
     36         -4.413640   1.000000
     37         -1.286324   0.000000
     38         -0.075469   0.000000
     39         -0.071535   0.000000
     40          0.684892   0.000000
     41          0.699157   0.000000
     42          0.701837   0.000000
     43          0.762907   0.000000
     44          0.896671   0.000000
     45          1.073958   0.000000
     46          1.077746   0.000000
     47          1.086221   0.000000
     48          1.088707   0.000000
     49          1.152814   0.000000
     50          1.154219   0.000000
     51          1.157047   0.000000
     52          1.254943   0.000000
     53          1.259699   0.000000
     54          1.752786   0.000000
     55          2.047401   0.000000
 
 -0.4000000E+00  0.2000000E+00  0.1276756E-14  0.8000000E-01
      1        -18.215328   1.000000
      2        -18.215013   1.000000
      3        -17.977529   1.000000
      4        -17.365712   1.000000
      5        -17.062575   1.000000
      6        -17.059099   1.000000
      7        -16.880725   1.000000
      8        -16.847216   1.000000
      9        -16.844518   1.000000
     10        -10.292422   1.000000
     11        -10.133283   1.000000
     12        -10.131793   1.000000
     13         -9.468041   1.000000
     14         -9.465833   1.000000
     15         -8.909151   1.000000
     16         -7.420765   1.000000
     17         -7.299844   1.000000
     18         -7.298212   1.000000
     19         -7.068234   1.000000
     20         -7.066944   1.000000
     21         -6.791488   1.000000
     22         -6.613943   1.000000
     23         -6.611183   1.000000
     24         -6.551728   1.000000
     25         -6.365194   1.000000
     26         -6.364651   1.000000
     27         -6.052811   1.000000
     28         -5.684644   1.000000
     29         -5.248995   1.000000
     30         -5.227598   1.000000
     31         -5.223562   1.000000
     32         -4.847402   1.000000
     33         -4.844376   1.000000
     34         -4.585942   1.000000
     35         -4.550339   1.000000
     36         -4.547842   1.000000
     37         -0.691253   0.000000
     38         -0.688732   0.000000
     39         -0.109534   0.000000
     40          0.581091   0.000000
     41          0.686382   0.000000
     42          0.688683   0.000000
     43          0.887056   0.000000
     44          0.888896   0.000000
     45          0.981201   0.000000
     46          0.984577   0.000000
     47          1.067486   0.000000
     48          1.121527   0.000000
     49          1.221229   0.000000
     50          1.334224   0.000000
     51          1.542643   0.000000
     52          1.543556   0.000000
     53          1.894666   0.000000
     54          1.899332   0.000000
     55          1.904574   0.000000
 
  0.4000000E+00 -0.4000000E+00  0.1276756E-14  0.8000000E-01
      1        -18.215326   1.000000
      2        -18.215007   1.000000
      3        -17.977531   1.000000
      4        -17.365685   1.000000
      5        -17.062584   1.000000
      6        -17.059109   1.000000
      7        -16.880839   1.000000
      8        -16.847172   1.000000
      9        -16.844479   1.000000
     10        -10.290069   1.000000
     11        -10.134211   1.000000
     12        -10.132728   1.000000
     13         -9.467497   1.000000
     14         -9.465258   1.000000
     15         -8.911727   1.000000
     16         -7.423395   1.000000
     17         -7.300366   1.000000
     18         -7.298763   1.000000
     19         -7.067674   1.000000
     20         -7.066334   1.000000
     21         -6.789218   1.000000
     22         -6.612024   1.000000
     23         -6.609072   1.000000
     24         -6.553083   1.000000
     25         -6.365301   1.000000
     26         -6.364774   1.000000
     27         -6.052574   1.000000
     28         -5.682079   1.000000
     29         -5.248555   1.000000
     30         -5.229477   1.000000
     31         -5.225696   1.000000
     32         -4.847517   1.000000
     33         -4.844501   1.000000
     34         -4.587041   1.000000
     35         -4.549939   1.000000
     36         -4.547474   1.000000
     37         -0.690975   0.000000
     38         -0.688473   0.000000
     39         -0.109966   0.000000
     40          0.583269   0.000000
     41          0.685597   0.000000
     42          0.687895   0.000000
     43          0.887114   0.000000
     44          0.888954   0.000000
     45          0.981513   0.000000
     46          0.984869   0.000000
     47          1.067263   0.000000
     48          1.120567   0.000000
     49          1.220825   0.000000
     50          1.332858   0.000000
     51          1.542654   0.000000
     52          1.543641   0.000000
     53          1.894438   0.000000
     54          1.901259   0.000000
     55          1.904279   0.000000
 
 -0.2000000E+00  0.4000000E+00  0.1276756E-14  0.8000000E-01
      1        -18.215177   1.000000
      2        -18.215158   1.000000
      3        -17.977532   1.000000
      4        -17.365704   1.000000
      5        -17.060872   1.000000
      6        -17.060809   1.000000
      7        -16.880813   1.000000
      8        -16.845898   1.000000
      9        -16.845761   1.000000
     10        -10.291245   1.000000
     11        -10.134216   1.000000
     12        -10.131791   1.000000
     13         -9.468014   1.000000
     14         -9.465298   1.000000
     15         -8.910441   1.000000
     16         -7.422077   1.000000
     17         -7.300434   1.000000
     18         -7.298168   1.000000
     19         -7.068127   1.000000
     20         -7.066477   1.000000
     21         -6.790359   1.000000
     22         -6.612483   1.000000
     23         -6.610660   1.000000
     24         -6.552358   1.000000
     25         -6.365037   1.000000
     26         -6.364922   1.000000
     27         -6.052694   1.000000
     28         -5.683369   1.000000
     29         -5.248776   1.000000
     30         -5.227532   1.000000
     31         -5.225620   1.000000
     32         -4.846276   1.000000
     33         -4.845620   1.000000
     34         -4.586511   1.000000
     35         -4.549373   1.000000
     36         -4.548401   1.000000
     37         -0.690038   0.000000
     38         -0.689692   0.000000
     39         -0.109742   0.000000
     40          0.582208   0.000000
     41          0.686099   0.000000
     42          0.688146   0.000000
     43          0.887956   0.000000
     44          0.888038   0.000000
     45          0.982316   0.000000
     46          0.983795   0.000000
     47          1.067301   0.000000
     48          1.121111   0.000000
     49          1.221004   0.000000
     50          1.333532   0.000000
     51          1.543049   0.000000
     52          1.543193   0.000000
     53          1.897399   0.000000
     54          1.898613   0.000000
     55          1.904891   0.000000
