Mo S  Se
 1.0000000000000000
     3.2508260000000000    0.0000000000000003    0.0000000000000000
     1.6254130000000002    2.8152978992829483    0.0000000000000000
     0.0000000000000000    0.0000000000000000   20.0000000000000000
 Mo  S   Se 
   2   2   2
Direct
  0.0000000000000000  0.0000000000000000  0.4822569223490303
  0.3333333333333358  0.3333333333333357  0.8588750351377161
  0.3333333333333358  0.3333333333333357  0.4052111576819082
  0.3333333333333358  0.3333333333333357  0.5593115043979395
  0.0000000000000000  0.0000000000000000  0.7740615043979417
  0.0000000000000000  0.0000000000000000  0.9436836347972867
Cartesian
  0.0000000000000000  0.0000000000000000  0.0000000000000000
  0.0000000000000000  0.0000000000000000  0.0000000000000000
  0.0000000000000000  0.0000000000000000  0.0000000000000000
  0.0000000000000000  0.0000000000000000  0.0000000000000000
  0.0000000000000000  0.0000000000000000  0.0000000000000000
  0.0000000000000000  0.0000000000000000  0.0000000000000000
