generated by phonopy                    
   1.00000000000000     
     9.5767137363913584    0.0000000000000000    0.0000000000000000
     4.7883568681956792    8.2936773804863044    0.0000000000000000
     0.0000000000000000    0.0000000000000000   20.0000000000000000
   Mo   S 
     9    18
Direct
     0.0000000000000000    0.0000000000000000    0.5000000000000000
     0.3333333333333357    0.0000000000000000    0.5000000000000000
     0.6666666666666643    0.0000000000000000    0.5000000000000000
     0.0000000000000000    0.3333333333333357    0.5000000000000000
     0.3333333333333357    0.3333333333333357    0.5000000000000000
     0.6666666666666643    0.3333333333333357    0.5000000000000000
     0.0000000000000000    0.6666666666666643    0.5000000000000000
     0.3333333333333357    0.6666666666666643    0.5000000000000000
     0.6666666666666643    0.6666666666666643    0.5000000000000000
     0.1115620772749750    0.1111111111111143    0.4227483603473061
     0.4444444444444429    0.1111111111111143    0.4222973941834454
     0.7777777777777786    0.1111111111111143    0.4222973941834454
     0.1111111111111143    0.4444444444444429    0.4222973941834454
     0.4444444444444429    0.4444444444444429    0.4222973941834454
     0.7777777777777786    0.4444444444444429    0.4222973941834454
     0.1111111111111143    0.7777777777777786    0.4222973941834454
     0.4444444444444429    0.7777777777777786    0.4222973941834454
     0.7777777777777786    0.7777777777777786    0.4222973941834454
     0.1111111111111143    0.1111111111111143    0.5777026058165546
     0.4444444444444429    0.1111111111111143    0.5777026058165546
     0.7777777777777786    0.1111111111111143    0.5777026058165546
     0.1111111111111143    0.4444444444444429    0.5777026058165546
     0.4444444444444429    0.4444444444444429    0.5777026058165546
     0.7777777777777786    0.4444444444444429    0.5777026058165546
     0.1111111111111143    0.7777777777777786    0.5777026058165546
     0.4444444444444429    0.7777777777777786    0.5777026058165546
     0.7777777777777786    0.7777777777777786    0.5777026058165546
 
  0.00000000E+00  0.00000000E+00  0.00000000E+00
  0.00000000E+00  0.00000000E+00  0.00000000E+00
  0.00000000E+00  0.00000000E+00  0.00000000E+00
  0.00000000E+00  0.00000000E+00  0.00000000E+00
  0.00000000E+00  0.00000000E+00  0.00000000E+00
  0.00000000E+00  0.00000000E+00  0.00000000E+00
  0.00000000E+00  0.00000000E+00  0.00000000E+00
  0.00000000E+00  0.00000000E+00  0.00000000E+00
  0.00000000E+00  0.00000000E+00  0.00000000E+00
  0.00000000E+00  0.00000000E+00  0.00000000E+00
  0.00000000E+00  0.00000000E+00  0.00000000E+00
  0.00000000E+00  0.00000000E+00  0.00000000E+00
  0.00000000E+00  0.00000000E+00  0.00000000E+00
  0.00000000E+00  0.00000000E+00  0.00000000E+00
  0.00000000E+00  0.00000000E+00  0.00000000E+00
  0.00000000E+00  0.00000000E+00  0.00000000E+00
  0.00000000E+00  0.00000000E+00  0.00000000E+00
  0.00000000E+00  0.00000000E+00  0.00000000E+00
  0.00000000E+00  0.00000000E+00  0.00000000E+00
  0.00000000E+00  0.00000000E+00  0.00000000E+00
  0.00000000E+00  0.00000000E+00  0.00000000E+00
  0.00000000E+00  0.00000000E+00  0.00000000E+00
  0.00000000E+00  0.00000000E+00  0.00000000E+00
  0.00000000E+00  0.00000000E+00  0.00000000E+00
  0.00000000E+00  0.00000000E+00  0.00000000E+00
  0.00000000E+00  0.00000000E+00  0.00000000E+00
  0.00000000E+00  0.00000000E+00  0.00000000E+00
