cpu-bind=MASK - c030, task  0  0 [2366675]: mask 0xfffffffffff0 set
 running  264 mpi-ranks, with    1 threads/rank, on    6 nodes
 distrk:  each k-point on   44 cores,    6 groups
 distr:  one band on    4 cores,   11 groups
 vasp.6.5.1 10Mar25 (build Aug 29 2025 00:30:47) complex                        
  
 POSCAR found type information on POSCAR MoS 
 POSCAR found :  2 types and      27 ions
 scaLAPACK will be used
 LDA part: xc-table for (Slater+PW92), standard interpolation
 POSCAR, INCAR and KPOINTS ok, starting setup
 FFT: planning ... GRIDC
 FFT: planning ... GRID_SOFT
 FFT: planning ... GRID
 WAVECAR not read
 entering main loop
       N       E                     dE             d eps       ncg     rms          rms(c)
DAV:   1     0.202208588694E+04    0.20221E+04   -0.11608E+05  4642   0.132E+03
DAV:   2    -0.438613346929E+01   -0.20265E+04   -0.19898E+04  5049   0.301E+02
DAV:   3    -0.203498771834E+03   -0.19911E+03   -0.19701E+03  4301   0.880E+01
DAV:   4    -0.210247358187E+03   -0.67486E+01   -0.66880E+01  4840   0.160E+01
DAV:   5    -0.210449718061E+03   -0.20236E+00   -0.20172E+00  5280   0.264E+00    0.707E+01
DAV:   6    -0.200114138724E+03    0.10336E+02   -0.90626E+01  4114   0.251E+01    0.274E+01
DAV:   7    -0.198170156975E+03    0.19440E+01   -0.35094E+01  4158   0.158E+01    0.167E+01
DAV:   8    -0.196656993484E+03    0.15132E+01   -0.54920E+00  4521   0.680E+00    0.521E+00
DAV:   9    -0.196691953785E+03   -0.34960E-01   -0.80886E-01  5027   0.195E+00    0.258E+00
DAV:  10    -0.196640950727E+03    0.51003E-01   -0.22604E-01  4642   0.146E+00    0.831E-01
DAV:  11    -0.196632741696E+03    0.82090E-02   -0.35064E-02  4906   0.703E-01    0.541E-01
DAV:  12    -0.196621283640E+03    0.11458E-01   -0.11464E-02  4598   0.352E-01    0.195E-01
DAV:  13    -0.196619627481E+03    0.16562E-02   -0.19186E-03  4829   0.151E-01    0.110E-01
DAV:  14    -0.196617191618E+03    0.24359E-02   -0.13309E-03  4521   0.143E-01    0.105E-01
DAV:  15    -0.196612402279E+03    0.47893E-02   -0.30370E-03  4389   0.134E-01    0.110E-01
DAV:  16    -0.196608838249E+03    0.35640E-02   -0.21610E-03  4103   0.780E-02    0.699E-02
DAV:  17    -0.196605151661E+03    0.36866E-02   -0.15445E-03  4290   0.713E-02    0.654E-02
DAV:  18    -0.196605229474E+03   -0.77814E-04   -0.35022E-04  4807   0.752E-02    0.672E-02
DAV:  19    -0.196607023343E+03   -0.17939E-02   -0.27056E-04  4609   0.542E-02    0.462E-02
DAV:  20    -0.196612017015E+03   -0.49937E-02   -0.78064E-04  4466   0.471E-02    0.336E-02
DAV:  21    -0.196614368409E+03   -0.23514E-02   -0.26082E-04  4675   0.439E-02    0.269E-02
DAV:  22    -0.196616013645E+03   -0.16452E-02   -0.15118E-04  4477   0.325E-02    0.165E-02
DAV:  23    -0.196617298678E+03   -0.12850E-02   -0.12291E-04  4444   0.164E-02    0.156E-02
DAV:  24    -0.196617656419E+03   -0.35774E-03   -0.15532E-05  3828   0.559E-03    0.108E-02
DAV:  25    -0.196617880885E+03   -0.22447E-03   -0.10585E-05  3608   0.545E-03    0.319E-03
DAV:  26    -0.196617945972E+03   -0.65087E-04   -0.20216E-06  3322   0.345E-03    0.206E-03
DAV:  27    -0.196617968833E+03   -0.22861E-04   -0.63424E-07  3003   0.230E-03    0.193E-03
DAV:  28    -0.196617977414E+03   -0.85807E-05   -0.13533E-07  2629   0.713E-04    0.125E-03
DAV:  29    -0.196617981420E+03   -0.40062E-05   -0.90236E-08  2464   0.490E-04    0.498E-04
DAV:  30    -0.196617983415E+03   -0.19951E-05   -0.62827E-08  2475   0.317E-04    0.795E-05
DAV:  31    -0.196617983735E+03   -0.31970E-06   -0.79536E-09  2189   0.173E-04
   1 F= -.20505602E+03 E0= -.20505602E+03  d E =-.225142E-20
