B1 N1                                   
   1.00000000000000     
     2.5099000000000000    0.0000000000000000    0.0000000000000000
     1.2549500000000000    2.1736371648351911    0.0000000000000000
     0.0000000000000000    0.0000000000000000   20.0000000000000000
   B    N 
     1     1
Direct
     0.0000000000000000    0.0000000000000000    0.5000000000000000
     0.3333333333333357    0.3333333333333357    0.5000000000000000
 
  0.00000000E+00  0.00000000E+00  0.00000000E+00
  0.00000000E+00  0.00000000E+00  0.00000000E+00
