Bilayer WS2/WSe2 3R (relaxed monolayers)
   1.00000000000000     
     3.1870363500967978    0.0000000000000000    0.0000000000000000
     1.5935181750483989    2.7600544419682631    0.0000000000000000
     0.0000000000000000    0.0000000000000000   20.0000000000000000
   W    S    Se
     2     2     2
Direct
    -0.0000000000000000   -0.0000000000000000    0.5067021879684854
     0.3333333333333357    0.3333333333333357    0.8183357511231137
     0.3333333333333357    0.3333333333333357    0.4283961592923385
     0.3333333333333357    0.3333333333333357    0.5848478980319008
     0.6666666666666714    0.6666666666666714    0.7321187732875207
     0.6666666666666714    0.6666666666666714    0.9045992302966434
 
  0.00000000E+00  0.00000000E+00  0.00000000E+00
  0.00000000E+00  0.00000000E+00  0.00000000E+00
  0.00000000E+00  0.00000000E+00  0.00000000E+00
  0.00000000E+00  0.00000000E+00  0.00000000E+00
  0.00000000E+00  0.00000000E+00  0.00000000E+00
  0.00000000E+00  0.00000000E+00  0.00000000E+00
