Mo S  W 
 1.0000000000000000
    15.7870374999999985   10.9375804203980582    0.0000000000000000
    -1.5787037499999999   19.1407657356966006    0.0000000000000000
     0.0000000000000000    0.0000000000000000   20.0000000000000000
 Mo  S   W  
  37 148  37
Direct
  0.0000000000000000  0.0000000000000000  0.4999999999999999
  0.0270270270270270  0.2702702702702703  0.4999999999999999
  0.1351351351351351  0.3513513513513514  0.4999999999999999
  0.3243243243243243  0.2432432432432433  0.4999999999999999
  0.2432432432432433  0.4324324324324325  0.4999999999999999
  0.4054054054054054  0.0540540540540540  0.4999999999999999
  0.3513513513513514  0.5135135135135136  0.4999999999999999
  0.4594594594594595  0.5945945945945946  0.4999999999999999
  0.9729729729729730  0.7297297297297296  0.4999999999999999
  0.5675675675675675  0.6756756756756757  0.4999999999999999
  0.6216216216216217  0.2162162162162161  0.4999999999999999
  0.8648648648648649  0.6486486486486487  0.4999999999999999
  0.7837837837837841  0.8378378378378375  0.4999999999999999
  0.7567567567567571  0.5675675675675675  0.4999999999999999
  0.8918918918918919  0.9189189189189189  0.4999999999999999
  0.6486486486486487  0.4864864864864865  0.4999999999999999
  0.9189189189189191  0.1891891891891892  0.4999999999999999
  0.1081081081081081  0.0810810810810811  0.4999999999999999
  0.5405405405405406  0.4054054054054054  0.4999999999999999
  0.2162162162162162  0.1621621621621622  0.4999999999999999
  0.4324324324324325  0.3243243243243243  0.4999999999999999
  0.6756756756756757  0.7567567567567568  0.4999999999999999
  0.5945945945945950  0.9459459459459456  0.4999999999999999
  0.5135135135135136  0.1351351351351351  0.4999999999999999
  0.7027027027027027  0.0270270270270270  0.4999999999999999
  0.4864864864864865  0.8648648648648649  0.4999999999999999
  0.0810810810810811  0.8108108108108107  0.4999999999999999
  0.7297297297297298  0.2972972972972973  0.4999999999999999
  0.2972972972972975  0.9729729729729729  0.4999999999999999
  0.3783783783783786  0.7837837837837837  0.4999999999999999
  0.8378378378378379  0.3783783783783783  0.4999999999999999
  0.1891891891891893  0.8918918918918919  0.4999999999999999
  0.1621621621621622  0.6216216216216216  0.4999999999999999
  0.0540540540540541  0.5405405405405406  0.4999999999999999
  0.2702702702702703  0.7027027027027029  0.4999999999999999
  0.8108108108108109  0.1081081081081080  0.4999999999999999
  0.9459459459459464  0.4594594594594593  0.4999999999999999
  0.3693693693693696  0.9369369369369369  0.7235047939965877
  0.3423423423423424  0.2342342342342342  0.8811176939965876
  0.3963963963963966  0.6396396396396397  0.8811176939965876
  0.2882882882882885  0.8288288288288290  0.8811176939965876
  0.5045045045045047  0.4504504504504503  0.7235047939965877
  0.2882882882882885  0.8288288288288290  0.7235047939965877
  0.5045045045045047  0.4504504504504503  0.8811176939965876
  0.2072072072072074  0.7207207207207208  0.8811176939965876
  0.5855855855855859  0.5585585585585585  0.7235047939965877
  0.4234234234234235  0.3423423423423423  0.7235047939965877
  0.4234234234234235  0.3423423423423423  0.8811176939965876
  0.2612612612612614  0.1261261261261261  0.7235047939965877
  0.2612612612612614  0.1261261261261261  0.8811176939965876
  0.4774774774774776  0.7477477477477478  0.7235047939965877
  0.3963963963963966  0.6396396396396397  0.7235047939965877
  0.3153153153153155  0.5315315315315317  0.8811176939965876
  0.4774774774774776  0.7477477477477478  0.8811176939965876
  0.5585585585585587  0.8558558558558561  0.7235047939965877
  0.5585585585585587  0.8558558558558561  0.8811176939965876
  0.3423423423423424  0.2342342342342342  0.7235047939965877
  0.3153153153153155  0.5315315315315317  0.7235047939965877
  0.2342342342342343  0.4234234234234234  0.8811176939965876
  0.6396396396396399  0.9639639639639642  0.8811176939965876
  0.1801801801801802  0.0180180180180180  0.7235047939965877
  0.1801801801801802  0.0180180180180180  0.8811176939965876
  0.2342342342342343  0.4234234234234234  0.7235047939965877
  0.3693693693693696  0.9369369369369369  0.8811176939965876
  0.6396396396396399  0.9639639639639642  0.7235047939965877
  0.5855855855855859  0.5585585585585585  0.8811176939965876
  0.1801801801801802  0.8018018018018017  0.4216838500000000
  0.6666666666666671  0.6666666666666665  0.8811176939965876
  0.0990990990990992  0.9099099099099099  0.8811176939965876
  0.7207207207207209  0.0720720720720720  0.7235047939965877
  0.7207207207207209  0.0720720720720720  0.8811176939965876
  0.8018018018018019  0.1801801801801800  0.7235047939965877
  0.8018018018018019  0.1801801801801800  0.8811176939965876
  0.8828828828828832  0.2882882882882882  0.7235047939965877
  0.8828828828828832  0.2882882882882882  0.8811176939965876
  0.9639639639639640  0.3963963963963962  0.7235047939965877
  0.0990990990990992  0.9099099099099099  0.7235047939965877
  0.9639639639639640  0.3963963963963962  0.8811176939965876
  0.0450450450450452  0.5045045045045047  0.8811176939965876
  0.1261261261261266  0.6126126126126127  0.7235047939965877
  0.1261261261261266  0.6126126126126127  0.8811176939965876
  0.9909909909909912  0.0990990990990988  0.7235047939965877
  0.9909909909909912  0.0990990990990988  0.8811176939965876
  0.0720720720720721  0.2072072072072073  0.7235047939965877
  0.0720720720720721  0.2072072072072073  0.8811176939965876
  0.1531531531531531  0.3153153153153153  0.7235047939965877
  0.0450450450450452  0.5045045045045047  0.7235047939965877
  0.0180180180180183  0.8018018018018018  0.8811176939965876
  0.0180180180180183  0.8018018018018018  0.7235047939965877
  0.9369369369369370  0.6936936936936937  0.8811176939965876
  0.7477477477477480  0.7747747747747750  0.7235047939965877
  0.7477477477477480  0.7747747747747750  0.8811176939965876
  0.8288288288288294  0.8828828828828826  0.7235047939965877
  0.8288288288288294  0.8828828828828826  0.8811176939965876
  0.9099099099099103  0.9909909909909907  0.7235047939965877
  0.9099099099099103  0.9909909909909907  0.8811176939965876
  0.4504504504504506  0.0450450450450449  0.7235047939965877
  0.4504504504504506  0.0450450450450449  0.8811176939965876
  0.5315315315315315  0.1531531531531531  0.7235047939965877
  0.5315315315315315  0.1531531531531531  0.8811176939965876
  0.6126126126126128  0.2612612612612611  0.7235047939965877
  0.6126126126126128  0.2612612612612611  0.8811176939965876
  0.6936936936936939  0.3693693693693691  0.7235047939965877
  0.6936936936936939  0.3693693693693691  0.8811176939965876
  0.7747747747747750  0.4774774774774775  0.7235047939965877
  0.7747747747747750  0.4774774774774775  0.8811176939965876
  0.8558558558558560  0.5855855855855854  0.7235047939965877
  0.8558558558558560  0.5855855855855854  0.8811176939965876
  0.9369369369369370  0.6936936936936937  0.7235047939965877
  0.6666666666666671  0.6666666666666665  0.7235047939965877
  0.2072072072072074  0.7207207207207208  0.7235047939965877
  0.0180180180180181  0.1801801801801801  0.5783161500000000
  0.1531531531531531  0.3153153153153153  0.8811176939965876
  0.9909909909909912  0.9099099099099098  0.5783161500000000
  0.0990990990990991  0.9909909909909911  0.4216838500000000
  0.0990990990990991  0.9909909909909911  0.5783161500000000
  0.2072072072072073  0.0720720720720720  0.4216838500000000
  0.4774774774774775  0.7747747747747746  0.4216838500000000
  0.2072072072072073  0.0720720720720720  0.5783161500000000
  0.3153153153153153  0.1531531531531531  0.4216838500000000
  0.3693693693693694  0.6936936936936937  0.5783161500000000
  0.3153153153153153  0.1531531531531531  0.5783161500000000
  0.4234234234234234  0.2342342342342342  0.4216838500000000
  0.4234234234234234  0.2342342342342342  0.5783161500000000
  0.5315315315315315  0.3153153153153153  0.4216838500000000
  0.3693693693693694  0.6936936936936937  0.4216838500000000
  0.5315315315315315  0.3153153153153153  0.5783161500000000
  0.2342342342342342  0.3423423423423423  0.4216838500000000
  0.4774774774774775  0.7747747747747746  0.5783161500000000
  0.9909909909909912  0.9099099099099098  0.4216838500000000
  0.8828828828828829  0.8288288288288285  0.5783161500000000
  0.5855855855855856  0.8558558558558559  0.4216838500000000
  0.1261261261261261  0.2612612612612613  0.4216838500000000
  0.2342342342342342  0.3423423423423423  0.5783161500000000
  0.3423423423423424  0.4234234234234234  0.4216838500000000
  0.6936936936936937  0.9369369369369366  0.5783161500000000
  0.3423423423423424  0.4234234234234234  0.5783161500000000
  0.4504504504504505  0.5045045045045045  0.4216838500000000
  0.4504504504504505  0.5045045045045045  0.5783161500000000
  0.2612612612612613  0.6126126126126126  0.5783161500000000
  0.5585585585585586  0.5855855855855856  0.4216838500000000
  0.5585585585585586  0.5855855855855856  0.5783161500000000
  0.6666666666666665  0.6666666666666666  0.4216838500000000
  0.5855855855855856  0.8558558558558559  0.5783161500000000
  0.6666666666666665  0.6666666666666666  0.5783161500000000
  0.7747747747747749  0.7477477477477478  0.4216838500000000
  0.7747747747747749  0.7477477477477478  0.5783161500000000
  0.8828828828828829  0.8288288288288285  0.4216838500000000
  0.6936936936936937  0.9369369369369366  0.4216838500000000
  0.6396396396396398  0.3963963963963961  0.5783161500000000
  0.6396396396396398  0.3963963963963961  0.4216838500000000
  0.1261261261261261  0.2612612612612613  0.5783161500000000
  0.0450450450450453  0.4504504504504505  0.5783161500000000
  0.8018018018018018  0.0180180180180180  0.5783161500000000
  0.0450450450450453  0.4504504504504505  0.4216838500000000
  0.9369369369369371  0.3693693693693693  0.5783161500000000
  0.2882882882882883  0.8828828828828829  0.5783161500000000
  0.9369369369369371  0.3693693693693693  0.4216838500000000
  0.8288288288288291  0.2882882882882882  0.5783161500000000
  0.9099099099099101  0.0990990990990989  0.4216838500000000
  0.3963963963963965  0.9639639639639640  0.4216838500000000
  0.8288288288288291  0.2882882882882882  0.4216838500000000
  0.7207207207207208  0.2072072072072071  0.5783161500000000
  0.7477477477477478  0.4774774774774775  0.4216838500000000
  0.7207207207207208  0.2072072072072071  0.4216838500000000
  0.6126126126126128  0.1261261261261260  0.5783161500000000
  0.3963963963963965  0.9639639639639640  0.5783161500000000
  0.6126126126126128  0.1261261261261260  0.4216838500000000
  0.1801801801801802  0.8018018018018017  0.5783161500000000
  0.7477477477477478  0.4774774774774775  0.5783161500000000
  0.8558558558558559  0.5585585585585585  0.4216838500000000
  0.2612612612612613  0.6126126126126126  0.4216838500000000
  0.8558558558558559  0.5585585585585585  0.5783161500000000
  0.9639639639639640  0.6396396396396397  0.4216838500000000
  0.0180180180180181  0.1801801801801801  0.4216838500000000
  0.8018018018018018  0.0180180180180180  0.4216838500000000
  0.1531531531531532  0.5315315315315315  0.5783161500000000
  0.0720720720720723  0.7207207207207206  0.4216838500000000
  0.9099099099099101  0.0990990990990989  0.5783161500000000
  0.0720720720720723  0.7207207207207206  0.5783161500000000
  0.5045045045045046  0.0450450450450450  0.4216838500000000
  0.1531531531531532  0.5315315315315315  0.4216838500000000
  0.5045045045045046  0.0450450450450450  0.5783161500000000
  0.9639639639639640  0.6396396396396397  0.5783161500000000
  0.2882882882882883  0.8828828828828829  0.4216838500000000
  0.9549549549549551  0.4954954954954955  0.8023112439965875
  0.9819819819819821  0.1981981981981981  0.8023112439965875
  0.7117117117117119  0.1711711711711711  0.8023112439965875
  0.7927927927927930  0.2792792792792793  0.8023112439965875
  0.0360360360360363  0.6036036036036039  0.8023112439965875
  0.8738738738738741  0.3873873873873874  0.8023112439965875
  0.6306306306306307  0.0630630630630630  0.8023112439965875
  0.9009009009009009  0.0900900900900899  0.8023112439965875
  0.1171171171171173  0.7117117117117118  0.8023112439965875
  0.9279279279279283  0.7927927927927927  0.8023112439965875
  0.1981981981981984  0.8198198198198199  0.8023112439965875
  0.2792792792792795  0.9279279279279280  0.8023112439965875
  0.1441441441441442  0.4144144144144145  0.8023112439965875
  0.2252252252252254  0.5225225225225226  0.8023112439965875
  0.3063063063063065  0.6306306306306307  0.8023112439965875
  0.3873873873873875  0.7387387387387387  0.8023112439965875
  0.4684684684684687  0.8468468468468471  0.8023112439965875
  0.5495495495495499  0.9549549549549552  0.8023112439965875
  0.0900900900900901  0.0090090090090090  0.8023112439965875
  0.1711711711711712  0.1171171171171171  0.8023112439965875
  0.2522522522522523  0.2252252252252251  0.8023112439965875
  0.3333333333333335  0.3333333333333333  0.8023112439965875
  0.4144144144144147  0.4414414414414413  0.8023112439965875
  0.4954954954954958  0.5495495495495497  0.8023112439965875
  0.5765765765765767  0.6576576576576578  0.8023112439965875
  0.6576576576576578  0.7657657657657659  0.8023112439965875
  0.7387387387387391  0.8738738738738738  0.8023112439965875
  0.0630630630630632  0.3063063063063063  0.8023112439965875
  0.3603603603603605  0.0360360360360360  0.8023112439965875
  0.4414414414414416  0.1441441441441441  0.8023112439965875
  0.5225225225225226  0.2522522522522522  0.8023112439965875
  0.6036036036036039  0.3603603603603602  0.8023112439965875
  0.6846846846846848  0.4684684684684685  0.8023112439965875
  0.7657657657657659  0.5765765765765763  0.8023112439965875
  0.8468468468468470  0.6846846846846847  0.8023112439965875
  0.0090090090090092  0.9009009009009009  0.8023112439965875
  0.8198198198198201  0.9819819819819821  0.8023112439965875
