Bilayer WS2/WSe2 3R (relaxed monolayers)
   1.00000000000000     
     3.2210950000000000    0.0000000000000000    0.0000000000000000
     1.6105475000000000    2.7895500980030361    0.0000000000000000
     0.0000000000000000    0.0000000000000000   20.0000000000000000
   W    S    Se
     2     2     2
Direct
     0.0000000000000000    0.0000000000000000    0.5010558083261426
     0.3333333333333357    0.3333333333333357    0.8117162670927400
     0.3333333333333357    0.3333333333333357    0.4233375963013934
     0.3333333333333357    0.3333333333333357    0.5786281512037361
     0.6666666666666714    0.6666666666666714    0.7261795634949987
     0.6666666666666714    0.6666666666666714    0.8973124377571683
 
  0.00000000E+00  0.00000000E+00  0.00000000E+00
  0.00000000E+00  0.00000000E+00  0.00000000E+00
  0.00000000E+00  0.00000000E+00  0.00000000E+00
  0.00000000E+00  0.00000000E+00  0.00000000E+00
  0.00000000E+00  0.00000000E+00  0.00000000E+00
  0.00000000E+00  0.00000000E+00  0.00000000E+00
