cpu-bind=MASK - c211, task  0  0 [3046304]: mask 0x7ffefffefffe set
 running  264 mpi-ranks, with    1 threads/rank, on    6 nodes
 distrk:  each k-point on   44 cores,    6 groups
 distr:  one band on    4 cores,   11 groups
 vasp.6.5.1 10Mar25 (build Aug 29 2025 00:30:47) complex                        
  
 POSCAR found type information on POSCAR NbSe
 POSCAR found :  2 types and       3 ions
 scaLAPACK will be used
 -----------------------------------------------------------------------------
|                                                                             |
|               ----> ADVICE to this user running VASP <----                  |
|                                                                             |
|     You have a (more or less) 'small supercell' and for smaller cells       |
|     it is recommended to use the reciprocal-space projection scheme!        |
|     The real-space optimization is not efficient for small cells and it     |
|     is also less accurate ...                                               |
|     Therefore, set LREAL=.FALSE. in the INCAR file.                         |
|                                                                             |
 -----------------------------------------------------------------------------

 LDA part: xc-table for (Slater+PW92), standard interpolation
 POSCAR, INCAR and KPOINTS ok, starting setup
 FFT: planning ... GRIDC
 FFT: planning ... GRID_SOFT
 FFT: planning ... GRID
 WAVECAR not read
 entering main loop
       N       E                     dE             d eps       ncg     rms          rms(c)
DAV:   1     0.157240772064E+03    0.15724E+03   -0.11257E+04  1419   0.869E+02
DAV:   2    -0.483560220935E+01   -0.16208E+03   -0.15130E+03  1595   0.244E+02
DAV:   3    -0.207216624587E+02   -0.15886E+02   -0.15710E+02  2255   0.633E+01
DAV:   4    -0.209701649076E+02   -0.24850E+00   -0.24783E+00  1628   0.822E+00
DAV:   5    -0.209833992351E+02   -0.13234E-01   -0.13231E-01  1903   0.153E+00    0.880E+00
DAV:   6    -0.200136035002E+02    0.96980E+00   -0.43082E+00  1848   0.149E+01    0.423E+00
DAV:   7    -0.198299283589E+02    0.18368E+00   -0.83477E-01  1892   0.657E+00    0.235E+00
DAV:   8    -0.197833464530E+02    0.46582E-01   -0.17569E-01  1925   0.346E+00    0.561E-01
DAV:   9    -0.197788248164E+02    0.45216E-02   -0.15723E-02  1749   0.889E-01    0.201E-01
DAV:  10    -0.197765889084E+02    0.22359E-02   -0.20381E-03  1837   0.313E-01    0.660E-02
DAV:  11    -0.197754493569E+02    0.11396E-02   -0.48518E-04  1628   0.131E-01    0.416E-02
DAV:  12    -0.197742638379E+02    0.11855E-02   -0.47827E-04  1573   0.976E-02    0.375E-02
DAV:  13    -0.197735882667E+02    0.67557E-03   -0.53022E-04  1419   0.119E-01    0.292E-02
DAV:  14    -0.197725606192E+02    0.10276E-02   -0.43077E-04  1364   0.760E-02    0.224E-02
DAV:  15    -0.197727926383E+02   -0.23202E-03   -0.83831E-05  1419   0.344E-02    0.158E-02
DAV:  16    -0.197738325177E+02   -0.10399E-02   -0.19820E-04  1419   0.506E-02    0.203E-02
DAV:  17    -0.197742888683E+02   -0.45635E-03   -0.50687E-05  1474   0.311E-02    0.812E-03
DAV:  18    -0.197746247426E+02   -0.33587E-03   -0.37608E-05  1518   0.223E-02    0.661E-03
DAV:  19    -0.197747343562E+02   -0.10961E-03   -0.17429E-05  1463   0.173E-02    0.351E-03
DAV:  20    -0.197747515351E+02   -0.17179E-04   -0.93674E-07  1562   0.492E-03    0.114E-03
DAV:  21    -0.197747584740E+02   -0.69388E-05   -0.29295E-07  1331   0.180E-03    0.524E-04
DAV:  22    -0.197747606599E+02   -0.21859E-05   -0.72355E-08  1210   0.851E-04    0.250E-04
DAV:  23    -0.197747608964E+02   -0.23652E-06   -0.52020E-09  1298   0.339E-04
   1 F= -.20791815E+02 E0= -.20789311E+02  d E =-.207918E+02
 BRION: g(F)=  0.671E-02 g(S)=  0.000E+00
 bond charge predicted
       N       E                     dE             d eps       ncg     rms          rms(c)
DAV:   1    -0.197812355574E+02   -0.64749E-02   -0.25635E-01  1188   0.197E+00    0.166E-01
DAV:   2    -0.197818911111E+02   -0.65555E-03   -0.92300E-03  1540   0.572E-01    0.100E-01
DAV:   3    -0.197818793407E+02    0.11770E-04   -0.21503E-04  1672   0.930E-02    0.676E-02
DAV:   4    -0.197818784652E+02    0.87549E-06   -0.64539E-05  1430   0.451E-02    0.240E-02
DAV:   5    -0.197818676126E+02    0.10853E-04   -0.25252E-05  1551   0.395E-02    0.607E-03
DAV:   6    -0.197818660770E+02    0.15355E-05   -0.24574E-06  1661   0.106E-02    0.351E-03
DAV:   7    -0.197818647945E+02    0.12826E-05   -0.50483E-07  1452   0.375E-03    0.149E-03
DAV:   8    -0.197818646528E+02    0.14167E-06   -0.46598E-08  1287   0.115E-03
   2 F= -.20796188E+02 E0= -.20793853E+02  d E =-.437324E-02
 BRION: g(F)=  0.553E-03 g(S)=  0.000E+00 retain N=  1 mean eig= 1.40
 eig:   1.403
 bond charge predicted
       N       E                     dE             d eps       ncg     rms          rms(c)
DAV:   1    -0.197832747931E+02   -0.14100E-02   -0.41646E-02  1188   0.794E-01    0.675E-02
DAV:   2    -0.197833814110E+02   -0.10662E-03   -0.15029E-03  1562   0.230E-01    0.397E-02
DAV:   3    -0.197833782405E+02    0.31706E-05   -0.35449E-05  1848   0.381E-02    0.265E-02
DAV:   4    -0.197833767504E+02    0.14901E-05   -0.10209E-05  1573   0.180E-02    0.103E-02
DAV:   5    -0.197833742389E+02    0.25114E-05   -0.42203E-06  1683   0.162E-02    0.246E-03
DAV:   6    -0.197833738100E+02    0.42896E-06   -0.40724E-07  1617   0.445E-03
   3 F= -.20796597E+02 E0= -.20794340E+02  d E =-.408971E-03
 BRION: g(F)=  0.409E-05 g(S)=  0.000E+00 retain N=  1 mean eig= 1.53
 eig:   1.535
 bond charge predicted
       N       E                     dE             d eps       ncg     rms          rms(c)
DAV:   1    -0.197834782221E+02   -0.10398E-03   -0.37394E-04  1342   0.753E-02    0.658E-03
DAV:   2    -0.197834790844E+02   -0.86227E-06   -0.13908E-05  1529   0.219E-02    0.352E-03
DAV:   3    -0.197834789493E+02    0.13506E-06   -0.33207E-07  1672   0.370E-03
   4 F= -.20796599E+02 E0= -.20794350E+02  d E =-.165536E-05
 BRION: g(F)=  0.230E-06 g(S)=  0.000E+00 retain N=  1 mean eig= 1.24
 eig:   1.241
 bond charge predicted
       N       E                     dE             d eps       ncg     rms          rms(c)
DAV:   1    -0.197834591243E+02    0.19960E-04   -0.14667E-05  1364   0.150E-02    0.183E-03
DAV:   2    -0.197834591676E+02   -0.43247E-07   -0.66310E-07  1540   0.541E-03
   5 F= -.20796599E+02 E0= -.20794348E+02  d E =-.568958E-07
 BRION: g(F)=  0.919E-08 g(S)=  0.000E+00 retain N=  1 mean eig= 1.03
 eig:   1.034
 bond charge predicted
       N       E                     dE             d eps       ncg     rms          rms(c)
DAV:   1    -0.197834625082E+02   -0.33839E-05   -0.34380E-07  1386   0.282E-03    0.346E-04
DAV:   2    -0.197834625590E+02   -0.50789E-07   -0.15115E-08  1155   0.681E-04
   6 F= -.20796599E+02 E0= -.20794349E+02  d E =-.867407E-07
 BRION: g(F)=  0.883E-08 g(S)=  0.000E+00 retain N=  1 mean eig= 0.52
 eig:   0.522
 bond charge predicted
       N       E                     dE             d eps       ncg     rms          rms(c)
DAV:   1    -0.197834609912E+02    0.15170E-05   -0.75656E-08  1199   0.123E-03    0.253E-04
DAV:   2    -0.197834610665E+02   -0.75261E-07   -0.60188E-09  1199   0.593E-04
   7 F= -.20796599E+02 E0= -.20794349E+02  d E =-.143277E-06
 BRION: g(F)=  0.402E-10 g(S)=  0.000E+00 retain N=  1 mean eig= 0.56
 eig:   0.560
 bond charge predicted
       N       E                     dE             d eps       ncg     rms          rms(c)
DAV:   1    -0.197834610232E+02   -0.31962E-07   -0.24291E-09  1243   0.272E-04    0.123E-04
DAV:   2    -0.197834611045E+02   -0.81333E-07   -0.77622E-10  1265   0.233E-04
   8 F= -.20796599E+02 E0= -.20794349E+02  d E =-.156395E-06
 BRION: g(F)=  0.505E-09 g(S)=  0.000E+00 retain N=  1 mean eig= 0.22
 eig:   0.220
 bond charge predicted
       N       E                     dE             d eps       ncg     rms          rms(c)
DAV:   1    -0.197834613898E+02   -0.36661E-06   -0.15926E-09  1298   0.157E-04    0.921E-05
DAV:   2    -0.197834614737E+02   -0.83917E-07   -0.32364E-10  1353   0.108E-04
   9 F= -.20796599E+02 E0= -.20794349E+02  d E =-.204317E-06
 BRION: g(F)=  0.150E-08 g(S)=  0.000E+00 retain N=  1 mean eig= 0.30
 eig:   0.303
 bond charge predicted
       N       E                     dE             d eps       ncg     rms          rms(c)
DAV:   1    -0.197834613939E+02   -0.40704E-08   -0.57189E-09  1254   0.279E-04    0.941E-05
DAV:   2    -0.197834614758E+02   -0.81927E-07   -0.41560E-10  1386   0.128E-04
  10 F= -.20796600E+02 E0= -.20794349E+02  d E =-.394090E-06
 BRION: g(F)=  0.499E-09 g(S)=  0.000E+00 retain N=  1 mean eig= 0.71
 eig:   0.715
 bond charge predicted
       N       E                     dE             d eps       ncg     rms          rms(c)
DAV:   1    -0.197834610859E+02    0.30792E-06   -0.99546E-09  1210   0.400E-04    0.923E-05
DAV:   2    -0.197834611618E+02   -0.75907E-07   -0.73967E-10  1364   0.174E-04
  11 F= -.20796600E+02 E0= -.20794350E+02  d E =-.218335E-06
 BRION: g(F)=  0.723E-10 g(S)=  0.000E+00 retain N=  1 mean eig= 1.15
 eig:   1.154
 bond charge predicted
       N       E                     dE             d eps       ncg     rms          rms(c)
DAV:   1    -0.197834609288E+02    0.15719E-06   -0.38839E-09  1188   0.257E-04    0.777E-05
DAV:   2    -0.197834609980E+02   -0.69199E-07   -0.37863E-10  1342   0.155E-04
  12 F= -.20796600E+02 E0= -.20794350E+02  d E =-.163444E-06
 BRION: g(F)=  0.406E-11 g(S)=  0.000E+00 retain N=  1 mean eig= 1.51
 eig:   1.513
 bond charge predicted
       N       E                     dE             d eps       ncg     rms          rms(c)
DAV:   1    -0.197834609937E+02   -0.64947E-07   -0.50358E-10  1166   0.961E-05    0.547E-05
DAV:   2    -0.197834610553E+02   -0.61604E-07   -0.70092E-11  1276   0.701E-05
  13 F= -.20796600E+02 E0= -.20794350E+02  d E =-.158962E-06
 BRION: g(F)=  0.715E-11 g(S)=  0.000E+00 retain N=  1 mean eig= 4.61
 eig:   4.614
 bond charge predicted
       N       E                     dE             d eps       ncg     rms          rms(c)
DAV:   1    -0.197834616875E+02   -0.69382E-06   -0.64729E-09  1133   0.316E-04    0.558E-05
DAV:   2    -0.197834617349E+02   -0.47424E-07   -0.40097E-10  1375   0.102E-04
  14 F= -.20796600E+02 E0= -.20794350E+02  d E =-.268071E-06
 BRION: g(F)=  0.330E-09 g(S)=  0.000E+00 retain N=  1 mean eig= 0.80
 eig:   0.797
 bond charge predicted
       N       E                     dE             d eps       ncg     rms          rms(c)
DAV:   1    -0.197834613388E+02    0.34876E-06   -0.73209E-09  1166   0.348E-04    0.515E-05
DAV:   2    -0.197834613813E+02   -0.42508E-07   -0.49079E-10  1254   0.146E-04
  15 F= -.20796601E+02 E0= -.20794350E+02  d E =-.128968E-06
 BRION: g(F)=  0.616E-11 g(S)=  0.000E+00 retain N=  1 mean eig= 0.70
 eig:   0.701
 bond charge predicted
       N       E                     dE             d eps       ncg     rms          rms(c)
DAV:   1    -0.197834614861E+02   -0.14736E-06   -0.12523E-10  1166   0.925E-05    0.339E-05
DAV:   2    -0.197834615233E+02   -0.37161E-07   -0.23070E-11  1155   0.387E-05
  16 F= -.20796601E+02 E0= -.20794350E+02  d E =-.839821E-07
 BRION: g(F)=  0.316E-10 g(S)=  0.000E+00 retain N=  1 mean eig= 0.21
 eig:   0.215
 bond charge predicted
       N       E                     dE             d eps       ncg     rms          rms(c)
DAV:   1    -0.197834616684E+02   -0.18225E-06   -0.38050E-10  1089   0.732E-05    0.359E-05
DAV:   2    -0.197834616937E+02   -0.25306E-07   -0.60618E-11  1331   0.758E-05
  17 F= -.20796601E+02 E0= -.20794351E+02  d E =-.210657E-06
 BRION: g(F)=  0.688E-11 g(S)=  0.000E+00 retain N=  1 mean eig= 0.40
 eig:   0.402
 bond charge predicted
       N       E                     dE             d eps       ncg     rms          rms(c)
DAV:   1    -0.197834616879E+02   -0.19485E-07   -0.79551E-11  1144   0.533E-05    0.266E-05
DAV:   2    -0.197834617102E+02   -0.22370E-07   -0.16467E-11  1188   0.512E-05
  18 F= -.20796601E+02 E0= -.20794351E+02  d E =-.517330E-07
 BRION: g(F)=  0.276E-11 g(S)=  0.000E+00 retain N=  1 mean eig= 1.10
 eig:   1.097
 bond charge predicted
       N       E                     dE             d eps       ncg     rms          rms(c)
DAV:   1    -0.197834616807E+02    0.71459E-08   -0.15020E-10  1133   0.571E-05    0.239E-05
DAV:   2    -0.197834617001E+02   -0.19363E-07   -0.14096E-11  1221   0.504E-05
  19 F= -.20796601E+02 E0= -.20794351E+02  d E =-.506080E-07
 BRION: g(F)=  0.242E-12 g(S)=  0.000E+00 retain N=  1 mean eig= 1.56
 eig:   1.559
 bond charge predicted
       N       E                     dE             d eps       ncg     rms          rms(c)
DAV:   1    -0.197834616997E+02   -0.18981E-07   -0.29975E-11  1144   0.341E-05    0.202E-05
DAV:   2    -0.197834617167E+02   -0.16970E-07    0.10677E-12  1177   0.354E-05
  20 F= -.20796601E+02 E0= -.20794351E+02  d E =-.421587E-07
 BRION: g(F)=  0.659E-13 g(S)=  0.000E+00 retain N=  1 mean eig= 3.26
 eig:   3.258
 reached required accuracy - stopping structural energy minimisation
