<?xml version="1.0" encoding="ISO-8859-1"?>
<modeling>
 <generator>
  <i name="program" type="string">vasp </i>
  <i name="version" type="string">6.5.1  </i>
  <i name="subversion" type="string">10Mar25 (build Aug 29 2025 00:30:47) complex                          parallel </i>
  <i name="platform" type="string">LinuxIFC </i>
  <i name="date" type="string">2026 06 01 </i>
  <i name="time" type="string">17:18:01 </i>
 </generator>
 <incar>
  <i type="string" name="SYSTEM">NbSe2 relaxation</i>
  <i type="string" name="PREC">Accurate</i>
  <i type="string" name="ALGO">Normal</i>
  <i name="AMIN">      0.01000000</i>
  <i type="int" name="NELM">   200</i>
  <i type="int" name="IBRION">     1</i>
  <i name="EDIFF">      0.00000100</i>
  <i name="EDIFFG">     -0.00010000</i>
  <i type="int" name="NSW">   600</i>
  <i type="int" name="ISIF">     2</i>
  <i name="ENCUT">    520.00000000</i>
  <i type="string" name="LREAL">Auto</i>
  <i type="int" name="ISMEAR">     0</i>
  <i name="SIGMA">      0.05000000</i>
  <i type="logical" name="LWAVE"> F  </i>
  <i type="logical" name="LCHARG"> F  </i>
  <i type="int" name="IVDW">    12</i>
 </incar>
 <primitive_cell>
  <structure name="primitive_cell" >
   <crystal>
    <varray name="basis" >
     <v>       3.42130000       0.00000000       0.00000000 </v>
     <v>       1.71065000       2.96293271       0.00000000 </v>
     <v>       0.00000000       0.00000000      20.00000000 </v>
    </varray>
    <i name="volume">    202.74163389 </i>
    <varray name="rec_basis" >
     <v>       0.29228656      -0.16875172       0.00000000 </v>
     <v>       0.00000000       0.33750345       0.00000000 </v>
     <v>       0.00000000       0.00000000       0.05000000 </v>
    </varray>
   </crystal>
   <varray name="positions" >
    <v>       0.00000000       0.00000000       0.50000000 </v>
    <v>       0.33333333       0.33333333       0.41643682 </v>
    <v>       0.33333333       0.33333333       0.58356318 </v>
   </varray>
  </structure>
  <varray name="primitive_index" >
   <v type="int" >        1 </v>
   <v type="int" >        2 </v>
   <v type="int" >        3 </v>
  </varray>
 </primitive_cell>
 <kpoints>
  <generation param="Gamma">
   <v type="int" name="divisions">      15       15        1 </v>
   <v name="usershift">      0.00000000       0.00000000       0.00000000 </v>
   <v name="genvec1">      0.06666667      -0.00000000       0.00000000 </v>
   <v name="genvec2">      0.00000000       0.06666667       0.00000000 </v>
   <v name="genvec3">      0.00000000       0.00000000       1.00000000 </v>
   <v name="shift">      0.00000000       0.00000000       0.00000000 </v>
  </generation>
  <varray name="kpointlist" >
   <v>       0.00000000       0.00000000       0.00000000 </v>
   <v>       0.06666667       0.00000000       0.00000000 </v>
   <v>       0.13333333       0.00000000       0.00000000 </v>
   <v>       0.20000000       0.00000000       0.00000000 </v>
   <v>       0.26666667       0.00000000       0.00000000 </v>
   <v>       0.33333333       0.00000000       0.00000000 </v>
   <v>       0.40000000       0.00000000       0.00000000 </v>
   <v>       0.46666667       0.00000000       0.00000000 </v>
   <v>       0.13333333       0.06666667       0.00000000 </v>
   <v>       0.20000000       0.06666667       0.00000000 </v>
   <v>       0.26666667       0.06666667       0.00000000 </v>
   <v>       0.33333333       0.06666667       0.00000000 </v>
   <v>       0.40000000       0.06666667       0.00000000 </v>
   <v>       0.46666667       0.06666667       0.00000000 </v>
   <v>      -0.46666667       0.06666667       0.00000000 </v>
   <v>       0.26666667       0.13333333       0.00000000 </v>
   <v>       0.33333333       0.13333333       0.00000000 </v>
   <v>       0.40000000       0.13333333       0.00000000 </v>
   <v>       0.46666667       0.13333333       0.00000000 </v>
   <v>      -0.46666667       0.13333333       0.00000000 </v>
   <v>       0.40000000       0.20000000       0.00000000 </v>
   <v>       0.46666667       0.20000000       0.00000000 </v>
   <v>      -0.46666667       0.20000000       0.00000000 </v>
   <v>      -0.40000000       0.20000000       0.00000000 </v>
   <v>      -0.46666667       0.26666667       0.00000000 </v>
   <v>      -0.40000000       0.26666667       0.00000000 </v>
   <v>      -0.33333333       0.33333333       0.00000000 </v>
  </varray>
  <varray name="weights" >
   <v>       0.00444444 </v>
   <v>       0.02666667 </v>
   <v>       0.02666667 </v>
   <v>       0.02666667 </v>
   <v>       0.02666667 </v>
   <v>       0.02666667 </v>
   <v>       0.02666667 </v>
   <v>       0.02666667 </v>
   <v>       0.02666667 </v>
   <v>       0.05333333 </v>
   <v>       0.05333333 </v>
   <v>       0.05333333 </v>
   <v>       0.05333333 </v>
   <v>       0.05333333 </v>
   <v>       0.02666667 </v>
   <v>       0.02666667 </v>
   <v>       0.05333333 </v>
   <v>       0.05333333 </v>
   <v>       0.05333333 </v>
   <v>       0.05333333 </v>
   <v>       0.02666667 </v>
   <v>       0.05333333 </v>
   <v>       0.05333333 </v>
   <v>       0.02666667 </v>
   <v>       0.02666667 </v>
   <v>       0.05333333 </v>
   <v>       0.00888889 </v>
  </varray>
 </kpoints>
 <parameters>
  <separator name="general" >
   <i type="string" name="SYSTEM">NbSe2 relaxation</i>
   <i type="logical" name="LCOMPAT"> F  </i>
  </separator>
  <separator name="electronic" >
   <i type="string" name="PREC">accura</i>
   <i name="ENMAX">    520.00000000</i>
   <i name="ENAUG">    455.65900000</i>
   <i name="EDIFF">      0.00000100</i>
   <i type="int" name="IALGO">    38</i>
   <i type="int" name="IWAVPR">    11</i>
   <i type="int" name="NBANDS">    22</i>
   <i type="int" name="NBANDSLOW">    -1</i>
   <i type="int" name="NBANDSHIGH">    -1</i>
   <i name="NELECT">     25.00000000</i>
   <i type="int" name="TURBO">     0</i>
   <i type="int" name="IRESTART">     0</i>
   <i type="int" name="NREBOOT">     0</i>
   <i type="int" name="NMIN">     0</i>
   <i name="EREF">      0.00000000</i>
   <separator name="electronic smearing" >
    <i type="int" name="ISMEAR">     0</i>
    <i name="SIGMA">      0.05000000</i>
    <i name="KSPACING">      0.50000000</i>
    <i type="logical" name="KGAMMA"> T  </i>
    <i type="logical" name="KBLOWUP"> T  </i>
   </separator>
   <separator name="electronic projectors" >
    <i type="logical" name="LREAL"> T  </i>
    <v name="ROPT">     -0.00025000     -0.00025000</v>
    <i type="int" name="LMAXPAW">  -100</i>
    <i type="int" name="LMAXMIX">     2</i>
    <i type="logical" name="NLSPLINE"> F  </i>
   </separator>
   <separator name="electronic startup" >
    <i type="int" name="ISTART">     0</i>
    <i type="int" name="ICHARG">     2</i>
    <i type="int" name="INIWAV">     1</i>
   </separator>
   <separator name="electronic spin" >
    <i type="int" name="ISPIN">     1</i>
    <i type="logical" name="LNONCOLLINEAR"> F  </i>
    <v name="MAGMOM">      1.00000000      1.00000000      1.00000000</v>
    <i name="NUPDOWN">     -1.00000000</i>
    <i type="logical" name="LSORBIT"> F  </i>
    <v name="SAXIS">      0.00000000      0.00000000      1.00000000</v>
    <i type="logical" name="LSPIRAL"> F  </i>
    <v name="QSPIRAL">      0.00000000      0.00000000      0.00000000</v>
    <i type="logical" name="LZEROZ"> F  </i>
   </separator>
   <separator name="electronic exchange-correlation" >
    <i type="logical" name="LASPH"> F  </i>
   </separator>
   <separator name="electronic convergence" >
    <i type="int" name="NELM">   200</i>
    <i type="int" name="NELMDL">    -5</i>
    <i type="int" name="NELMIN">     2</i>
    <i name="ENINI">    520.00000000</i>
    <separator name="electronic convergence detail" >
     <i type="logical" name="LDIAG"> T  </i>
     <i type="logical" name="LSUBROT"> F  </i>
     <i type="logical" name="LROBUST"> F  </i>
     <i type="int" name="ISEARCH">     0</i>
     <i name="WEIMIN">      0.00100000</i>
     <i name="EBREAK">      0.00000001</i>
     <i name="DEPER">      0.30000000</i>
     <i type="int" name="NRMM">     4</i>
     <i name="TIME">      0.40000000</i>
    </separator>
   </separator>
   <separator name="electronic mixer" >
    <i name="AMIX">      0.40000000</i>
    <i name="BMIX">      1.00000000</i>
    <i name="AMIN">      0.01000000</i>
    <i name="AMIX_MAG">      1.60000000</i>
    <i name="BMIX_MAG">      1.00000000</i>
    <separator name="electronic mixer details" >
     <i type="int" name="IMIX">     4</i>
     <i type="logical" name="MIXFIRST"> F  </i>
     <i type="int" name="MAXMIX">   -45</i>
     <i name="WC">    100.00000000</i>
     <i type="int" name="INIMIX">     1</i>
     <i type="int" name="MIXPRE">     1</i>
     <i type="int" name="MREMOVE">     5</i>
    </separator>
   </separator>
   <separator name="electronic dipolcorrection" >
    <i type="logical" name="LDIPOL"> F  </i>
    <i type="logical" name="LMONO"> F  </i>
    <i type="int" name="IDIPOL">     0</i>
    <i name="EPSILON">      1.00000000</i>
    <v name="DIPOL">   -100.00000000   -100.00000000   -100.00000000</v>
    <i name="EFIELD">      0.00000000</i>
    <i type="logical" name="LVACPOTAV"> F  </i>
   </separator>
  </separator>
  <separator name="grids" >
   <i type="int" name="NGX">    28</i>
   <i type="int" name="NGY">    28</i>
   <i type="int" name="NGZ">   150</i>
   <i type="int" name="NGXF">    56</i>
   <i type="int" name="NGYF">    56</i>
   <i type="int" name="NGZF">   300</i>
   <i type="logical" name="ADDGRID"> F  </i>
  </separator>
  <separator name="ionic" >
   <i type="int" name="NSW">   600</i>
   <i type="int" name="IBRION">     1</i>
   <i type="int" name="MDALGO">     0</i>
   <i type="int" name="ISIF">     2</i>
   <i name="PSTRESS">      0.00000000</i>
   <i name="EDIFFG">     -0.00010000</i>
   <i type="int" name="NFREE">     0</i>
   <i name="POTIM">      0.50000000</i>
   <i name="SMASS">     -3.00000000</i>
   <i name="SCALEE">      1.00000000</i>
  </separator>
  <separator name="ionic md" >
   <i name="TEBEG">      0.00010000</i>
   <i name="TEEND">      0.00010000</i>
   <i type="int" name="NBLOCK">     1</i>
   <i type="int" name="KBLOCK">   600</i>
   <i type="int" name="NPACO">   256</i>
   <i name="APACO">     10.00000000</i>
  </separator>
  <separator name="symmetry" >
   <i type="int" name="ISYM">     2</i>
   <i name="SYMPREC">      0.00001000</i>
  </separator>
  <separator name="dos" >
   <i type="int" name="LORBIT">     0</i>
   <v name="RWIGS">     -1.00000000     -1.00000000</v>
   <i type="int" name="NEDOS">   301</i>
   <i name="EMIN">     10.00000000</i>
   <i name="EMAX">    -10.00000000</i>
   <i name="EFERMI">      0.00000000</i>
  </separator>
  <separator name="writing" >
   <i type="int" name="NWRITE">     2</i>
   <i type="logical" name="LWAVE"> F  </i>
   <i type="logical" name="LDOWNSAMPLE"> F  </i>
   <i type="logical" name="LCHARG"> F  </i>
   <i type="logical" name="LPARD"> F  </i>
   <i type="logical" name="LVTOT"> F  </i>
   <i type="logical" name="LVHAR"> F  </i>
   <i type="logical" name="LELF"> F  </i>
   <i type="logical" name="LOPTICS"> F  </i>
   <v name="STM">      0.00000000      0.00000000      0.00000000      0.00000000      0.00000000      0.00000000      0.00000000</v>
  </separator>
  <separator name="performance" >
   <i type="int" name="NPAR">    11</i>
   <i type="int" name="NSIM">     4</i>
   <i type="int" name="NBLK">    -1</i>
   <i type="logical" name="LPLANE"> T  </i>
   <i type="logical" name="LSCALAPACK"> T  </i>
   <i type="logical" name="LSCAAWARE"> F  </i>
   <i type="logical" name="LSCALU"> F  </i>
   <i type="logical" name="LASYNC"> F  </i>
   <i type="logical" name="LORBITALREAL"> F  </i>
  </separator>
  <separator name="miscellaneous" >
   <i type="int" name="IDIOT">     3</i>
   <i type="int" name="PHON_NSTRUCT">    -1</i>
   <i type="logical" name="LMUSIC"> F  </i>
   <v name="POMASS">     92.91000000     78.96000000</v>
   <v name="DARWINR">      0.00000000      0.00000000</v>
   <v name="DARWINV">      1.00000000      1.00000000</v>
   <i type="logical" name="LCORR"> T  </i>
  </separator>
  <i type="logical" name="GGA_COMPAT"> T  </i>
  <i type="logical" name="LBERRY"> F  </i>
  <i type="int" name="ICORELEVEL">     0</i>
  <i type="logical" name="LDAU"> F  </i>
  <i type="int" name="I_CONSTRAINED_M">     0</i>
  <separator name="electronic exchange-correlation" >
   <i type="string" name="GGA    ">PE</i>
   <i type="string" name="XC_C">1</i>
   <i type="int" name="VOSKOWN">     0</i>
   <i type="logical" name="LHFCALC"> F  </i>
   <i type="string" name="PRECFOCK"></i>
   <i type="logical" name="LSYMGRAD"> F  </i>
   <i type="logical" name="LHFONE"> F  </i>
   <i type="logical" name="LRHFCALC"> F  </i>
   <i type="logical" name="LTHOMAS"> F  </i>
   <i type="logical" name="LMODELHF"> F  </i>
   <i type="logical" name="LFOCKACE"> F  </i>
   <i name="ENCUT4O">     -1.00000000</i>
   <i type="int" name="EXXOEP">     0</i>
   <i type="int" name="FOURORBIT">     0</i>
   <i name="AEXX">      0.00000000</i>
   <i name="HFALPHA">      0.00000000</i>
   <i name="MCALPHA">      0.00000000</i>
   <i name="ALDAX">      1.00000000</i>
   <i name="AGGAX">      1.00000000</i>
   <i name="AMGGAX">      1.00000000</i>
   <i name="ALDAC">      1.00000000</i>
   <i name="AGGAC">      1.00000000</i>
   <i name="AMGGAC">      1.00000000</i>
   <i type="int" name="NKREDX">     1</i>
   <i type="int" name="NKREDY">     1</i>
   <i type="int" name="NKREDZ">     1</i>
   <i type="logical" name="SHIFTRED"> F  </i>
   <i type="logical" name="ODDONLY"> F  </i>
   <i type="logical" name="EVENONLY"> F  </i>
   <i type="int" name="LMAXFOCK">     0</i>
   <i type="int" name="NMAXFOCKAE">     0</i>
   <i type="logical" name="LFOCKAEDFT"> F  </i>
   <i name="HFSCREEN">      0.00000000</i>
   <i name="HFSCREENC">      0.00000000</i>
   <i type="int" name="NBANDSGWLOW">     0</i>
  </separator>
  <separator name="vdW DFT" >
   <i type="logical" name="LUSE_VDW"> F  </i>
   <i type="int" name="IVDW_NL">    -1</i>
   <i type="logical" name="LSPIN_VDW"> F  </i>
   <i name="ZAB_VDW">     -0.84910000</i>
   <i name="GAMMA_VDW">      1.39626340</i>
   <i name="ALPHA_VDW">      0.00000000</i>
   <i name="PARAM1">      0.12340000</i>
   <i name="PARAM2">      1.00000000</i>
   <i name="BPARAM">      6.30000000</i>
   <i name="CPARAM">      0.00930000</i>
  </separator>
  <separator name="model GW" >
   <i type="int" name="MODEL_GW">     0</i>
   <i name="MODEL_EPS0">     40.54832678</i>
   <i name="MODEL_ALPHA">      1.00000000</i>
  </separator>
  <separator name="linear response parameters" >
   <i type="logical" name="LEPSILON"> F  </i>
   <i type="logical" name="LRPA"> F  </i>
   <i type="logical" name="LNABLA"> F  </i>
   <i type="logical" name="LVEL"> F  </i>
   <i name="CSHIFT">      0.10000000</i>
   <i name="OMEGAMAX">     -1.00000000</i>
   <i name="DEG_THRESHOLD">      0.00200000</i>
   <i name="RTIME">     -0.10000000</i>
   <i name="WPLASMAI">      0.00000000</i>
   <v name="DFIELD">      0.00000000      0.00000000      0.00000000</v>
   <v name="WPLASMA">      0.00000000      0.00000000      0.00000000      0.00000000      0.00000000      0.00000000      0.00000000      0.00000000      0.00000000</v>
  </separator>
  <separator name="orbital magnetization" >
   <i type="logical" name="NUCIND"> F  </i>
   <v name="MAGPOS">      0.00000000      0.00000000      0.00000000</v>
   <i type="logical" name="LNICSALL"> T  </i>
   <i type="logical" name="ORBITALMAG"> F  </i>
   <i type="logical" name="LMAGBLOCH"> F  </i>
   <i type="logical" name="LCHIMAG"> F  </i>
   <i type="logical" name="LGAUGE"> T  </i>
   <i type="int" name="MAGATOM">     0</i>
   <v name="MAGDIPOL">      0.00000000      0.00000000      0.00000000</v>
   <v name="AVECCONST">      0.00000000      0.00000000      0.00000000</v>
  </separator>
  <separator name="response functions" >
   <i type="logical" name="LALL_IN_ONE"> F  </i>
   <i type="int" name="IALL_IN_ONE">    -1</i>
   <i type="int" name="NBANDS_WAVE">    -1</i>
   <i type="logical" name="LFINITE_TEMPERATURE"> F  </i>
   <i type="logical" name="LADDER"> F  </i>
   <i type="logical" name="LRPAFORCE"> F  </i>
   <i type="logical" name="LFXC"> F  </i>
   <i type="logical" name="LHARTREE"> T  </i>
   <i type="int" name="IBSE">     2</i>
   <v type="int" name="KPOINT">    -1     0     0     0</v>
   <i type="logical" name="LTCTC"> F  </i>
   <i type="logical" name="LTCTE"> F  </i>
   <i type="logical" name="LTETE"> F  </i>
   <i type="logical" name="LTRIPLET"> F  </i>
   <i type="logical" name="LFXCEPS"> F  </i>
   <i type="logical" name="LFXHEG"> F  </i>
   <i type="int" name="NATURALO">     2</i>
   <i type="logical" name="LHOLEGF"> F  </i>
   <i type="logical" name="L2ORDER"> F  </i>
   <i type="logical" name="LDMP1"> F  </i>
   <i type="logical" name="LMP2LT"> F  </i>
   <i type="logical" name="LSMP2LT"> F  </i>
   <i type="logical" name="LGWLF"> F  </i>
   <i name="ENCUTGW">     -1.60000002</i>
   <i name="ENCUTGWSOFT">     -1.60000002</i>
   <i name="ENCUTLF">     -1.00000000</i>
   <i type="logical" name="ESF_SPLINES"> F  </i>
   <i name="ESF_CONV">      0.01000000</i>
   <i type="int" name="ESF_NINTER">    15</i>
   <i type="int" name="LMAXMP2">    -1</i>
   <i name="SCISSOR">      0.00000000</i>
   <i type="int" name="NOMEGA">     0</i>
   <i type="int" name="NOMEGAR">     0</i>
   <i type="int" name="NBANDSGW">    -1</i>
   <i type="int" name="NBANDSO">    -1</i>
   <i type="int" name="NBANDSV">    -1</i>
   <i type="int" name="NELMGW">     1</i>
   <i type="int" name="NELMHF">     1</i>
   <i type="int" name="DIM">     3</i>
   <i type="int" name="IESPILON">     4</i>
   <i type="int" name="ANTIRES">     0</i>
   <i name="OMEGAMAX">    -30.00000000</i>
   <i name="OMEGAMIN">    -30.00000000</i>
   <i name="OMEGATL">   -200.00000000</i>
   <i type="int" name="OMEGAGRID">     0</i>
   <i name="CSHIFT">     -0.10000000</i>
   <i type="logical" name="LSELFENERGY"> F  </i>
   <i type="logical" name="LSPECTRAL"> F  </i>
   <i type="logical" name="LSPECTRALGW"> F  </i>
   <i type="logical" name="LSINGLES"> F  </i>
   <i type="logical" name="LFERMIGW"> F  </i>
   <i type="logical" name="ODDONLYGW"> F  </i>
   <i type="logical" name="EVENONLYGW"> F  </i>
   <i type="int" name="NKREDLFX">     1</i>
   <i type="int" name="NKREDLFY">     1</i>
   <i type="int" name="NKREDLFZ">     1</i>
   <i type="int" name="MAXMEM">  2800</i>
   <i type="int" name="TELESCOPE">     0</i>
   <i type="int" name="NTAUPAR">    -1</i>
   <i type="int" name="NOMEGAPAR">    -1</i>
   <i name="DAMP_NEWTON">      0.80000001</i>
   <i name="LAMBDA">      1.00000000</i>
  </separator>
  <separator name="External order field" >
   <i name="OFIELD_KAPPA">      0.00000000</i>
   <v name="OFIELD_K">      0.00000000      0.00000000      0.00000000</v>
   <i name="OFIELD_Q6_NEAR">      0.00000000</i>
   <i name="OFIELD_Q6_FAR">      0.00000000</i>
   <i name="OFIELD_A">      0.00000000</i>
  </separator>
  <separator name="optional k-points parameters" >
   <i type="int" name="KPOINTS_OPT_MODE">     1</i>
   <i type="logical" name="LKPOINTS_OPT"> F  </i>
  </separator>
 </parameters>
 <atominfo>
  <atoms>       3 </atoms>
  <types>       2 </types>
  <array name="atoms" >
   <dimension dim="1">ion</dimension>
   <field type="string">element</field>
   <field type="int">atomtype</field>
   <set>
    <rc><c>Nb</c><c>   1</c></rc>
    <rc><c>Se</c><c>   2</c></rc>
    <rc><c>Se</c><c>   2</c></rc>
   </set>
  </array>
  <array name="atomtypes" >
   <dimension dim="1">type</dimension>
   <field type="int">atomspertype</field>
   <field type="string">element</field>
   <field>mass</field>
   <field>valence</field>
   <field type="string">pseudopotential</field>
   <set>
    <rc><c>   1</c><c>Nb</c><c>     92.91000000</c><c>     13.00000000</c><c>  PAW_PBE Nb_sv 25May2007               </c></rc>
    <rc><c>   2</c><c>Se</c><c>     78.96000000</c><c>      6.00000000</c><c>  PAW_PBE Se 06Sep2000                  </c></rc>
   </set>
  </array>
 </atominfo>
 <structure name="initialpos" >
  <crystal>
   <varray name="basis" >
    <v>       3.42130000       0.00000000       0.00000000 </v>
    <v>       1.71065000       2.96293271       0.00000000 </v>
    <v>       0.00000000       0.00000000      20.00000000 </v>
   </varray>
   <i name="volume">    202.74163389 </i>
   <varray name="rec_basis" >
    <v>       0.29228656      -0.16875172       0.00000000 </v>
    <v>       0.00000000       0.33750345       0.00000000 </v>
    <v>       0.00000000       0.00000000       0.05000000 </v>
   </varray>
  </crystal>
  <varray name="positions" >
   <v>       0.00000000       0.00000000       0.50000000 </v>
   <v>       0.33333333       0.33333333       0.41643682 </v>
   <v>       0.33333333       0.33333333       0.58356318 </v>
  </varray>
 </structure>
 <calculation>
  <scstep>
   <time name="dav">    0.10    0.11</time>
   <time name="total">    0.13    0.14</time>
   <energy>
    <i name="alphaZ">     28.47185301 </i>
    <i name="ewald">   4081.08838470 </i>
    <i name="hartreedc">  -5870.44325848 </i>
    <i name="XCdc">     55.62390070 </i>
    <i name="pawpsdc">   1654.39688979 </i>
    <i name="pawaedc">  -1607.78010786 </i>
    <i name="eentropy">     -0.00134351 </i>
    <i name="bandstr">   -253.55660144 </i>
    <i name="atom">   2069.44105515 </i>
    <i name="e_fr_energy">    157.24077206 </i>
    <i name="e_wo_entrp">    157.24211558 </i>
    <i name="e_0_energy">    157.24144382 </i>
   </energy>
  </scstep>
  <scstep>
   <time name="dav">    0.08    0.09</time>
   <time name="total">    0.09    0.09</time>
   <energy>
    <i name="e_fr_energy">     -4.83560221 </i>
    <i name="e_wo_entrp">     -4.83099247 </i>
    <i name="e_0_energy">     -4.83329734 </i>
   </energy>
  </scstep>
  <scstep>
   <time name="dav">    0.11    0.11</time>
   <time name="total">    0.11    0.11</time>
   <energy>
    <i name="e_fr_energy">    -20.72166246 </i>
    <i name="e_wo_entrp">    -20.71853122 </i>
    <i name="e_0_energy">    -20.72009684 </i>
   </energy>
  </scstep>
  <scstep>
   <time name="dav">    0.08    0.08</time>
   <time name="total">    0.08    0.08</time>
   <energy>
    <i name="e_fr_energy">    -20.97016491 </i>
    <i name="e_wo_entrp">    -20.96714552 </i>
    <i name="e_0_energy">    -20.96865521 </i>
   </energy>
  </scstep>
  <scstep>
   <time name="dav">    0.09    0.09</time>
   <time name="total">    0.11    0.11</time>
   <energy>
    <i name="e_fr_energy">    -20.98339923 </i>
    <i name="e_wo_entrp">    -20.98037832 </i>
    <i name="e_0_energy">    -20.98188878 </i>
   </energy>
  </scstep>
  <scstep>
   <time name="dav">    0.08    0.08</time>
   <time name="total">    0.12    0.12</time>
   <energy>
    <i name="e_fr_energy">    -20.01360350 </i>
    <i name="e_wo_entrp">    -20.00840235 </i>
    <i name="e_0_energy">    -20.01100293 </i>
   </energy>
  </scstep>
  <scstep>
   <time name="dav">    0.09    0.09</time>
   <time name="total">    0.12    0.13</time>
   <energy>
    <i name="e_fr_energy">    -19.82992836 </i>
    <i name="e_wo_entrp">    -19.82556787 </i>
    <i name="e_0_energy">    -19.82774811 </i>
   </energy>
  </scstep>
  <scstep>
   <time name="dav">    0.09    0.09</time>
   <time name="total">    0.13    0.13</time>
   <energy>
    <i name="e_fr_energy">    -19.78334645 </i>
    <i name="e_wo_entrp">    -19.77823786 </i>
    <i name="e_0_energy">    -19.78079216 </i>
   </energy>
  </scstep>
  <scstep>
   <time name="dav">    0.08    0.08</time>
   <time name="total">    0.12    0.12</time>
   <energy>
    <i name="e_fr_energy">    -19.77882482 </i>
    <i name="e_wo_entrp">    -19.77375274 </i>
    <i name="e_0_energy">    -19.77628878 </i>
   </energy>
  </scstep>
  <scstep>
   <time name="dav">    0.09    0.09</time>
   <time name="total">    0.12    0.12</time>
   <energy>
    <i name="e_fr_energy">    -19.77658891 </i>
    <i name="e_wo_entrp">    -19.77151816 </i>
    <i name="e_0_energy">    -19.77405354 </i>
   </energy>
  </scstep>
  <scstep>
   <time name="dav">    0.08    0.08</time>
   <time name="total">    0.12    0.12</time>
   <energy>
    <i name="e_fr_energy">    -19.77544936 </i>
    <i name="e_wo_entrp">    -19.77039975 </i>
    <i name="e_0_energy">    -19.77292455 </i>
   </energy>
  </scstep>
  <scstep>
   <time name="dav">    0.08    0.08</time>
   <time name="total">    0.11    0.12</time>
   <energy>
    <i name="e_fr_energy">    -19.77426384 </i>
    <i name="e_wo_entrp">    -19.76924443 </i>
    <i name="e_0_energy">    -19.77175413 </i>
   </energy>
  </scstep>
  <scstep>
   <time name="dav">    0.07    0.07</time>
   <time name="total">    0.11    0.11</time>
   <energy>
    <i name="e_fr_energy">    -19.77358827 </i>
    <i name="e_wo_entrp">    -19.76855962 </i>
    <i name="e_0_energy">    -19.77107395 </i>
   </energy>
  </scstep>
  <scstep>
   <time name="dav">    0.07    0.07</time>
   <time name="total">    0.11    0.11</time>
   <energy>
    <i name="e_fr_energy">    -19.77256062 </i>
    <i name="e_wo_entrp">    -19.76754953 </i>
    <i name="e_0_energy">    -19.77005507 </i>
   </energy>
  </scstep>
  <scstep>
   <time name="dav">    0.08    0.08</time>
   <time name="total">    0.11    0.11</time>
   <energy>
    <i name="e_fr_energy">    -19.77279264 </i>
    <i name="e_wo_entrp">    -19.76778380 </i>
    <i name="e_0_energy">    -19.77028822 </i>
   </energy>
  </scstep>
  <scstep>
   <time name="dav">    0.07    0.07</time>
   <time name="total">    0.11    0.11</time>
   <energy>
    <i name="e_fr_energy">    -19.77383252 </i>
    <i name="e_wo_entrp">    -19.76882496 </i>
    <i name="e_0_energy">    -19.77132874 </i>
   </energy>
  </scstep>
  <scstep>
   <time name="dav">    0.07    0.07</time>
   <time name="total">    0.11    0.11</time>
   <energy>
    <i name="e_fr_energy">    -19.77428887 </i>
    <i name="e_wo_entrp">    -19.76928016 </i>
    <i name="e_0_energy">    -19.77178452 </i>
   </energy>
  </scstep>
  <scstep>
   <time name="dav">    0.08    0.08</time>
   <time name="total">    0.11    0.11</time>
   <energy>
    <i name="e_fr_energy">    -19.77462474 </i>
    <i name="e_wo_entrp">    -19.76961842 </i>
    <i name="e_0_energy">    -19.77212158 </i>
   </energy>
  </scstep>
  <scstep>
   <time name="dav">    0.08    0.08</time>
   <time name="total">    0.11    0.11</time>
   <energy>
    <i name="e_fr_energy">    -19.77473436 </i>
    <i name="e_wo_entrp">    -19.76972701 </i>
    <i name="e_0_energy">    -19.77223068 </i>
   </energy>
  </scstep>
  <scstep>
   <time name="dav">    0.07    0.07</time>
   <time name="total">    0.11    0.11</time>
   <energy>
    <i name="e_fr_energy">    -19.77475153 </i>
    <i name="e_wo_entrp">    -19.76974441 </i>
    <i name="e_0_energy">    -19.77224797 </i>
   </energy>
  </scstep>
  <scstep>
   <time name="dav">    0.07    0.07</time>
   <time name="total">    0.10    0.11</time>
   <energy>
    <i name="e_fr_energy">    -19.77475829 </i>
    <i name="e_wo_entrp">    -19.76975166 </i>
    <i name="e_0_energy">    -19.77225498 </i>
   </energy>
  </scstep>
  <scstep>
   <time name="dav">    0.07    0.07</time>
   <time name="total">    0.10    0.10</time>
   <energy>
    <i name="e_fr_energy">    -19.77476066 </i>
    <i name="e_wo_entrp">    -19.76975393 </i>
    <i name="e_0_energy">    -19.77225730 </i>
   </energy>
  </scstep>
  <scstep>
   <time name="dav">    0.07    0.07</time>
   <time name="total">    0.09    0.09</time>
   <energy>
    <i name="alphaZ">     28.47185301 </i>
    <i name="ewald">   4081.08838470 </i>
    <i name="hartreedc">  -5874.40800084 </i>
    <i name="XCdc">     55.38296137 </i>
    <i name="pawpsdc">   2158.41580881 </i>
    <i name="pawaedc">  -2111.47920874 </i>
    <i name="eentropy">     -0.00500674 </i>
    <i name="bandstr">   -426.68260755 </i>
    <i name="atom">   2069.44105515 </i>
    <i name="e_fr_energy">    -19.77476082 </i>
    <i name="e_wo_entrp">    -19.76975408 </i>
    <i name="e_0_energy">    -19.77225745 </i>
   </energy>
  </scstep>
  <structure>
   <crystal>
    <varray name="basis" >
     <v>       3.42130000       0.00000000       0.00000000 </v>
     <v>       1.71065000       2.96293271       0.00000000 </v>
     <v>       0.00000000       0.00000000      20.00000000 </v>
    </varray>
    <i name="volume">    202.74163389 </i>
    <varray name="rec_basis" >
     <v>       0.29228656      -0.16875172       0.00000000 </v>
     <v>       0.00000000       0.33750345       0.00000000 </v>
     <v>       0.00000000       0.00000000       0.05000000 </v>
    </varray>
   </crystal>
   <varray name="positions" >
    <v>       0.00000000       0.00000000       0.50000000 </v>
    <v>       0.33333333       0.33333333       0.41643682 </v>
    <v>       0.33333333       0.33333333       0.58356318 </v>
   </varray>
  </structure>
  <varray name="forces" >
   <v>       0.00000000       0.00000000       0.00000000 </v>
   <v>      -0.00000000      -0.00000000      -0.26361463 </v>
   <v>      -0.00000000      -0.00000000       0.26361463 </v>
  </varray>
  <varray name="stress" >
   <v>       4.85748494       0.00000000      -0.00000000 </v>
   <v>      -0.00000000       4.85748494       0.00000000 </v>
   <v>       0.00000000       0.00000000       6.85305073 </v>
  </varray>
  <energy>
   <i name="e_fr_energy">    -20.79181470 </i>
   <i name="e_wo_entrp">    -20.78680796 </i>
   <i name="e_0_energy">    -20.78931133 </i>
  </energy>
  <time name="totalsc">    2.75    2.83</time>
 </calculation>
 <calculation>
  <scstep>
   <time name="dav">    0.06    0.06</time>
   <time name="total">    0.10    0.10</time>
   <energy>
    <i name="alphaZ">     28.47185301 </i>
    <i name="ewald">   4062.22097228 </i>
    <i name="hartreedc">  -5856.07793748 </i>
    <i name="XCdc">     55.31109638 </i>
    <i name="pawpsdc">   2158.41991447 </i>
    <i name="pawaedc">  -2111.48323708 </i>
    <i name="eentropy">     -0.00460123 </i>
    <i name="bandstr">   -426.08034936 </i>
    <i name="atom">   2069.44105515 </i>
    <i name="e_fr_energy">    -19.78123385 </i>
    <i name="e_wo_entrp">    -19.77663262 </i>
    <i name="e_0_energy">    -19.77893324 </i>
   </energy>
  </scstep>
  <scstep>
   <time name="dav">    0.07    0.07</time>
   <time name="total">    0.11    0.11</time>
   <energy>
    <i name="e_fr_energy">    -19.78189048 </i>
    <i name="e_wo_entrp">    -19.77722166 </i>
    <i name="e_0_energy">    -19.77955607 </i>
   </energy>
  </scstep>
  <scstep>
   <time name="dav">    0.08    0.08</time>
   <time name="total">    0.11    0.11</time>
   <energy>
    <i name="e_fr_energy">    -19.78187861 </i>
    <i name="e_wo_entrp">    -19.77722095 </i>
    <i name="e_0_energy">    -19.77954978 </i>
   </energy>
  </scstep>
  <scstep>
   <time name="dav">    0.07    0.07</time>
   <time name="total">    0.11    0.11</time>
   <energy>
    <i name="e_fr_energy">    -19.78187771 </i>
    <i name="e_wo_entrp">    -19.77719304 </i>
    <i name="e_0_energy">    -19.77953537 </i>
   </energy>
  </scstep>
  <scstep>
   <time name="dav">    0.08    0.08</time>
   <time name="total">    0.11    0.11</time>
   <energy>
    <i name="e_fr_energy">    -19.78186688 </i>
    <i name="e_wo_entrp">    -19.77719417 </i>
    <i name="e_0_energy">    -19.77953052 </i>
   </energy>
  </scstep>
  <scstep>
   <time name="dav">    0.08    0.08</time>
   <time name="total">    0.11    0.11</time>
   <energy>
    <i name="e_fr_energy">    -19.78186533 </i>
    <i name="e_wo_entrp">    -19.77719505 </i>
    <i name="e_0_energy">    -19.77953019 </i>
   </energy>
  </scstep>
  <scstep>
   <time name="dav">    0.06    0.06</time>
   <time name="total">    0.10    0.10</time>
   <energy>
    <i name="e_fr_energy">    -19.78186408 </i>
    <i name="e_wo_entrp">    -19.77719451 </i>
    <i name="e_0_energy">    -19.77952929 </i>
   </energy>
  </scstep>
  <scstep>
   <time name="dav">    0.07    0.07</time>
   <time name="total">    0.09    0.09</time>
   <energy>
    <i name="alphaZ">     28.47185301 </i>
    <i name="ewald">   4062.22097228 </i>
    <i name="hartreedc">  -5855.84441225 </i>
    <i name="XCdc">     55.31100581 </i>
    <i name="pawpsdc">   2144.13777151 </i>
    <i name="pawaedc">  -2097.22840802 </i>
    <i name="eentropy">     -0.00466922 </i>
    <i name="bandstr">   -426.28703216 </i>
    <i name="atom">   2069.44105515 </i>
    <i name="e_fr_energy">    -19.78186389 </i>
    <i name="e_wo_entrp">    -19.77719466 </i>
    <i name="e_0_energy">    -19.77952928 </i>
   </energy>
  </scstep>
  <structure>
   <crystal>
    <varray name="basis" >
     <v>       3.42130000       0.00000000       0.00000000 </v>
     <v>       1.71065000       2.96293271       0.00000000 </v>
     <v>       0.00000000       0.00000000      20.00000000 </v>
    </varray>
    <i name="volume">    202.74163389 </i>
    <varray name="rec_basis" >
     <v>       0.29228656      -0.16875172       0.00000000 </v>
     <v>       0.00000000       0.33750345       0.00000000 </v>
     <v>       0.00000000       0.00000000       0.05000000 </v>
    </varray>
   </crystal>
   <varray name="positions" >
    <v>       0.00000000       0.00000000       0.50000000 </v>
    <v>       0.33333333       0.33333333       0.41580094 </v>
    <v>       0.33333333       0.33333333       0.58419906 </v>
   </varray>
  </structure>
  <varray name="forces" >
   <v>      -0.00000000      -0.00000000      -0.00000000 </v>
   <v>       0.00000000       0.00000000      -0.07554694 </v>
   <v>      -0.00000000      -0.00000000       0.07554694 </v>
  </varray>
  <varray name="stress" >
   <v>       3.09185733      -0.00000000      -0.00000000 </v>
   <v>      -0.00000000       3.09185733      -0.00000000 </v>
   <v>      -0.00000000      -0.00000000       2.00810691 </v>
  </varray>
  <energy>
   <i name="e_fr_energy">    -20.79618768 </i>
   <i name="e_wo_entrp">    -20.79151846 </i>
   <i name="e_0_energy">    -20.79385307 </i>
  </energy>
  <time name="totalsc">    1.03    1.05</time>
 </calculation>
 <calculation>
  <scstep>
   <time name="dav">    0.06    0.06</time>
   <time name="total">    0.09    0.09</time>
   <energy>
    <i name="alphaZ">     28.47185301 </i>
    <i name="ewald">   4054.64545279 </i>
    <i name="hartreedc">  -5848.48652054 </i>
    <i name="XCdc">     55.28229601 </i>
    <i name="pawpsdc">   2144.18269462 </i>
    <i name="pawaedc">  -2097.27350747 </i>
    <i name="eentropy">     -0.00448736 </i>
    <i name="bandstr">   -426.04210780 </i>
    <i name="atom">   2069.44105515 </i>
    <i name="e_fr_energy">    -19.78327158 </i>
    <i name="e_wo_entrp">    -19.77878422 </i>
    <i name="e_0_energy">    -19.78102790 </i>
   </energy>
  </scstep>
  <scstep>
   <time name="dav">    0.07    0.07</time>
   <time name="total">    0.11    0.11</time>
   <energy>
    <i name="e_fr_energy">    -19.78337758 </i>
    <i name="e_wo_entrp">    -19.77886394 </i>
    <i name="e_0_energy">    -19.78112076 </i>
   </energy>
  </scstep>
  <scstep>
   <time name="dav">    0.08    0.08</time>
   <time name="total">    0.12    0.12</time>
   <energy>
    <i name="e_fr_energy">    -19.78337442 </i>
    <i name="e_wo_entrp">    -19.77886548 </i>
    <i name="e_0_energy">    -19.78111995 </i>
   </energy>
  </scstep>
  <scstep>
   <time name="dav">    0.07    0.08</time>
   <time name="total">    0.11    0.11</time>
   <energy>
    <i name="e_fr_energy">    -19.78337286 </i>
    <i name="e_wo_entrp">    -19.77885311 </i>
    <i name="e_0_energy">    -19.78111299 </i>
   </energy>
  </scstep>
  <scstep>
   <time name="dav">    0.08    0.08</time>
   <time name="total">    0.11    0.11</time>
   <energy>
    <i name="e_fr_energy">    -19.78337026 </i>
    <i name="e_wo_entrp">    -19.77885512 </i>
    <i name="e_0_energy">    -19.78111269 </i>
   </energy>
  </scstep>
  <scstep>
   <time name="dav">    0.07    0.07</time>
   <time name="total">    0.09    0.09</time>
   <energy>
    <i name="alphaZ">     28.47185301 </i>
    <i name="ewald">   4054.64545279 </i>
    <i name="hartreedc">  -5848.39938587 </i>
    <i name="XCdc">     55.28242990 </i>
    <i name="pawpsdc">   2138.64927517 </i>
    <i name="pawaedc">  -2091.75067534 </i>
    <i name="eentropy">     -0.00451405 </i>
    <i name="bandstr">   -426.11886057 </i>
    <i name="atom">   2069.44105515 </i>
    <i name="e_fr_energy">    -19.78336980 </i>
    <i name="e_wo_entrp">    -19.77885575 </i>
    <i name="e_0_energy">    -19.78111278 </i>
   </energy>
  </scstep>
  <structure>
   <crystal>
    <varray name="basis" >
     <v>       3.42130000       0.00000000       0.00000000 </v>
     <v>       1.71065000       2.96293271       0.00000000 </v>
     <v>       0.00000000       0.00000000      20.00000000 </v>
    </varray>
    <i name="volume">    202.74163389 </i>
    <varray name="rec_basis" >
     <v>       0.29228656      -0.16875172       0.00000000 </v>
     <v>       0.00000000       0.33750345       0.00000000 </v>
     <v>       0.00000000       0.00000000       0.05000000 </v>
    </varray>
   </crystal>
   <varray name="positions" >
    <v>      -0.00000000      -0.00000000       0.50000000 </v>
    <v>       0.33333333       0.33333333       0.41554551 </v>
    <v>       0.33333333       0.33333333       0.58445449 </v>
   </varray>
  </structure>
  <varray name="forces" >
   <v>       0.00000000       0.00000000       0.00000000 </v>
   <v>      -0.00000000      -0.00000000      -0.00674949 </v>
   <v>      -0.00000000      -0.00000000       0.00674949 </v>
  </varray>
  <varray name="stress" >
   <v>       2.53130714       0.00000000       0.00000000 </v>
   <v>      -0.00000000       2.53130714       0.00000000 </v>
   <v>       0.00000000       0.00000000       0.19447091 </v>
  </varray>
  <energy>
   <i name="e_fr_energy">    -20.79659675 </i>
   <i name="e_wo_entrp">    -20.79208270 </i>
   <i name="e_0_energy">    -20.79433973 </i>
  </energy>
  <time name="totalsc">    0.83    0.84</time>
 </calculation>
 <calculation>
  <scstep>
   <time name="dav">    0.07    0.07</time>
   <time name="total">    0.11    0.11</time>
   <energy>
    <i name="alphaZ">     28.47185301 </i>
    <i name="ewald">   4053.90235605 </i>
    <i name="hartreedc">  -5847.68444589 </i>
    <i name="XCdc">     55.27964808 </i>
    <i name="pawpsdc">   2138.42414266 </i>
    <i name="pawaedc">  -2091.52619827 </i>
    <i name="eentropy">     -0.00449573 </i>
    <i name="bandstr">   -426.08739355 </i>
    <i name="atom">   2069.44105515 </i>
    <i name="e_fr_energy">    -19.78347847 </i>
    <i name="e_wo_entrp">    -19.77898275 </i>
    <i name="e_0_energy">    -19.78123061 </i>
   </energy>
  </scstep>
  <scstep>
   <time name="dav">    0.07    0.07</time>
   <time name="total">    0.11    0.11</time>
   <energy>
    <i name="e_fr_energy">    -19.78347937 </i>
    <i name="e_wo_entrp">    -19.77898121 </i>
    <i name="e_0_energy">    -19.78123029 </i>
   </energy>
  </scstep>
  <scstep>
   <time name="dav">    0.07    0.07</time>
   <time name="total">    0.09    0.09</time>
   <energy>
    <i name="alphaZ">     28.47185301 </i>
    <i name="ewald">   4053.90235605 </i>
    <i name="hartreedc">  -5847.68032549 </i>
    <i name="XCdc">     55.27957527 </i>
    <i name="pawpsdc">   2138.17448766 </i>
    <i name="pawaedc">  -2091.27715383 </i>
    <i name="eentropy">     -0.00449758 </i>
    <i name="bandstr">   -426.09082946 </i>
    <i name="atom">   2069.44105515 </i>
    <i name="e_fr_energy">    -19.78347921 </i>
    <i name="e_wo_entrp">    -19.77898163 </i>
    <i name="e_0_energy">    -19.78123042 </i>
   </energy>
  </scstep>
  <structure>
   <crystal>
    <varray name="basis" >
     <v>       3.42130000       0.00000000       0.00000000 </v>
     <v>       1.71065000       2.96293271       0.00000000 </v>
     <v>       0.00000000       0.00000000      20.00000000 </v>
    </varray>
    <i name="volume">    202.74163389 </i>
    <varray name="rec_basis" >
     <v>       0.29228656      -0.16875172       0.00000000 </v>
     <v>       0.00000000       0.33750345       0.00000000 </v>
     <v>       0.00000000       0.00000000       0.05000000 </v>
    </varray>
   </crystal>
   <varray name="positions" >
    <v>       0.00000000       0.00000000       0.50000000 </v>
    <v>       0.33333333       0.33333333       0.41552045 </v>
    <v>       0.33333333       0.33333333       0.58447955 </v>
   </varray>
  </structure>
  <varray name="forces" >
   <v>       0.00000000       0.00000000      -0.00000000 </v>
   <v>      -0.00000000      -0.00000000       0.00170879 </v>
   <v>      -0.00000000      -0.00000000      -0.00170879 </v>
  </varray>
  <varray name="stress" >
   <v>       2.45195766      -0.00000000       0.00000000 </v>
   <v>      -0.00000000       2.45195766       0.00000000 </v>
   <v>      -0.00000000       0.00000000      -0.04004840 </v>
  </varray>
  <energy>
   <i name="e_fr_energy">    -20.79659855 </i>
   <i name="e_wo_entrp">    -20.79210097 </i>
   <i name="e_0_energy">    -20.79434976 </i>
  </energy>
  <time name="totalsc">    0.50    0.51</time>
 </calculation>
 <calculation>
  <scstep>
   <time name="dav">    0.07    0.07</time>
   <time name="total">    0.10    0.11</time>
   <energy>
    <i name="alphaZ">     28.47185301 </i>
    <i name="ewald">   4054.05247888 </i>
    <i name="hartreedc">  -5847.82722663 </i>
    <i name="XCdc">     55.28016659 </i>
    <i name="pawpsdc">   2138.07152982 </i>
    <i name="pawaedc">  -2091.17455044 </i>
    <i name="eentropy">     -0.00450196 </i>
    <i name="bandstr">   -426.09426193 </i>
    <i name="atom">   2069.44105515 </i>
    <i name="e_fr_energy">    -19.78345750 </i>
    <i name="e_wo_entrp">    -19.77895554 </i>
    <i name="e_0_energy">    -19.78120652 </i>
   </energy>
  </scstep>
  <scstep>
   <time name="dav">    0.07    0.07</time>
   <time name="total">    0.09    0.09</time>
   <energy>
    <i name="alphaZ">     28.47185301 </i>
    <i name="ewald">   4054.05247888 </i>
    <i name="hartreedc">  -5847.83387391 </i>
    <i name="XCdc">     55.28025152 </i>
    <i name="pawpsdc">   2138.08272378 </i>
    <i name="pawaedc">  -2091.18573797 </i>
    <i name="eentropy">     -0.00450102 </i>
    <i name="bandstr">   -426.08770698 </i>
    <i name="atom">   2069.44105515 </i>
    <i name="e_fr_energy">    -19.78345753 </i>
    <i name="e_wo_entrp">    -19.77895652 </i>
    <i name="e_0_energy">    -19.78120703 </i>
   </energy>
  </scstep>
  <structure>
   <crystal>
    <varray name="basis" >
     <v>       3.42130000       0.00000000       0.00000000 </v>
     <v>       1.71065000       2.96293271       0.00000000 </v>
     <v>       0.00000000       0.00000000      20.00000000 </v>
    </varray>
    <i name="volume">    202.74163389 </i>
    <varray name="rec_basis" >
     <v>       0.29228656      -0.16875172       0.00000000 </v>
     <v>       0.00000000       0.33750345       0.00000000 </v>
     <v>       0.00000000       0.00000000       0.05000000 </v>
    </varray>
   </crystal>
   <varray name="positions" >
    <v>       0.00000000       0.00000000       0.50000000 </v>
    <v>       0.33333333       0.33333333       0.41552552 </v>
    <v>       0.33333333       0.33333333       0.58447448 </v>
   </varray>
  </structure>
  <varray name="forces" >
   <v>      -0.00000000      -0.00000000      -0.00000000 </v>
   <v>       0.00000000       0.00000000      -0.00046176 </v>
   <v>      -0.00000000       0.00000000       0.00046176 </v>
  </varray>
  <varray name="stress" >
   <v>       2.46868877      -0.00000000      -0.00000000 </v>
   <v>      -0.00000000       2.46868877       0.00000000 </v>
   <v>      -0.00000000       0.00000000      -0.00745542 </v>
  </varray>
  <energy>
   <i name="e_fr_energy">    -20.79659862 </i>
   <i name="e_wo_entrp">    -20.79209760 </i>
   <i name="e_0_energy">    -20.79434811 </i>
  </energy>
  <time name="totalsc">    0.39    0.45</time>
 </calculation>
 <calculation>
  <scstep>
   <time name="dav">    0.06    0.06</time>
   <time name="total">    0.09    0.09</time>
   <energy>
    <i name="alphaZ">     28.47185301 </i>
    <i name="ewald">   4054.02054208 </i>
    <i name="hartreedc">  -5847.80298067 </i>
    <i name="XCdc">     55.28011037 </i>
    <i name="pawpsdc">   2138.08442268 </i>
    <i name="pawaedc">  -2091.18756319 </i>
    <i name="eentropy">     -0.00450056 </i>
    <i name="bandstr">   -426.08640108 </i>
    <i name="atom">   2069.44105515 </i>
    <i name="e_fr_energy">    -19.78346220 </i>
    <i name="e_wo_entrp">    -19.77896164 </i>
    <i name="e_0_energy">    -19.78121192 </i>
   </energy>
  </scstep>
  <scstep>
   <time name="dav">    0.06    0.06</time>
   <time name="total">    0.08    0.08</time>
   <energy>
    <i name="alphaZ">     28.47185301 </i>
    <i name="ewald">   4054.02054208 </i>
    <i name="hartreedc">  -5847.80522895 </i>
    <i name="XCdc">     55.28011716 </i>
    <i name="pawpsdc">   2138.05818296 </i>
    <i name="pawaedc">  -2091.16137193 </i>
    <i name="eentropy">     -0.00450042 </i>
    <i name="bandstr">   -426.08411131 </i>
    <i name="atom">   2069.44105515 </i>
    <i name="e_fr_energy">    -19.78346225 </i>
    <i name="e_wo_entrp">    -19.77896183 </i>
    <i name="e_0_energy">    -19.78121204 </i>
   </energy>
  </scstep>
  <structure>
   <crystal>
    <varray name="basis" >
     <v>       3.42130000       0.00000000       0.00000000 </v>
     <v>       1.71065000       2.96293271       0.00000000 </v>
     <v>       0.00000000       0.00000000      20.00000000 </v>
    </varray>
    <i name="volume">    202.74163389 </i>
    <varray name="rec_basis" >
     <v>       0.29228656      -0.16875172       0.00000000 </v>
     <v>       0.00000000       0.33750345       0.00000000 </v>
     <v>       0.00000000       0.00000000       0.05000000 </v>
    </varray>
   </crystal>
   <varray name="positions" >
    <v>       0.00000000      -0.00000000       0.50000000 </v>
    <v>       0.33333333       0.33333333       0.41552444 </v>
    <v>       0.33333333       0.33333333       0.58447556 </v>
   </varray>
  </structure>
  <varray name="forces" >
   <v>      -0.00000000      -0.00000000       0.00000000 </v>
   <v>      -0.00000000      -0.00000000       0.00054804 </v>
   <v>       0.00000000       0.00000000      -0.00054804 </v>
  </varray>
  <varray name="stress" >
   <v>       2.46559027      -0.00000000       0.00000000 </v>
   <v>      -0.00000000       2.46559027       0.00000000 </v>
   <v>       0.00000000      -0.00000000      -0.00668023 </v>
  </varray>
  <energy>
   <i name="e_fr_energy">    -20.79659870 </i>
   <i name="e_wo_entrp">    -20.79209828 </i>
   <i name="e_0_energy">    -20.79434849 </i>
  </energy>
  <time name="totalsc">    0.37    0.44</time>
 </calculation>
 <calculation>
  <scstep>
   <time name="dav">    0.06    0.06</time>
   <time name="total">    0.10    0.10</time>
   <energy>
    <i name="alphaZ">     28.47185301 </i>
    <i name="ewald">   4054.03787497 </i>
    <i name="hartreedc">  -5847.82349484 </i>
    <i name="XCdc">     55.28018595 </i>
    <i name="pawpsdc">   2138.05882979 </i>
    <i name="pawaedc">  -2091.16206095 </i>
    <i name="eentropy">     -0.00450085 </i>
    <i name="bandstr">   -426.08320205 </i>
    <i name="atom">   2069.44105515 </i>
    <i name="e_fr_energy">    -19.78345979 </i>
    <i name="e_wo_entrp">    -19.77895895 </i>
    <i name="e_0_energy">    -19.78120937 </i>
   </energy>
  </scstep>
  <scstep>
   <time name="dav">    0.06    0.06</time>
   <time name="total">    0.08    0.08</time>
   <energy>
    <i name="alphaZ">     28.47185301 </i>
    <i name="ewald">   4054.03787497 </i>
    <i name="hartreedc">  -5847.82551899 </i>
    <i name="XCdc">     55.28020706 </i>
    <i name="pawpsdc">   2138.05465660 </i>
    <i name="pawaedc">  -2091.15787677 </i>
    <i name="eentropy">     -0.00450081 </i>
    <i name="bandstr">   -426.08121011 </i>
    <i name="atom">   2069.44105515 </i>
    <i name="e_fr_energy">    -19.78345987 </i>
    <i name="e_wo_entrp">    -19.77895906 </i>
    <i name="e_0_energy">    -19.78120947 </i>
   </energy>
  </scstep>
  <structure>
   <crystal>
    <varray name="basis" >
     <v>       3.42130000       0.00000000       0.00000000 </v>
     <v>       1.71065000       2.96293271       0.00000000 </v>
     <v>       0.00000000       0.00000000      20.00000000 </v>
    </varray>
    <i name="volume">    202.74163389 </i>
    <varray name="rec_basis" >
     <v>       0.29228656      -0.16875172       0.00000000 </v>
     <v>       0.00000000       0.33750345       0.00000000 </v>
     <v>       0.00000000       0.00000000       0.05000000 </v>
    </varray>
   </crystal>
   <varray name="positions" >
    <v>       0.00000000      -0.00000000       0.50000000 </v>
    <v>       0.33333333       0.33333333       0.41552502 </v>
    <v>       0.33333333       0.33333333       0.58447498 </v>
   </varray>
  </structure>
  <varray name="forces" >
   <v>      -0.00000000      -0.00000000       0.00000000 </v>
   <v>       0.00000000       0.00000000      -0.00012972 </v>
   <v>       0.00000000       0.00000000       0.00012972 </v>
  </varray>
  <varray name="stress" >
   <v>       2.46860776       0.00000000      -0.00000000 </v>
   <v>       0.00000000       2.46860776       0.00000000 </v>
   <v>       0.00000000      -0.00000000      -0.00560571 </v>
  </varray>
  <energy>
   <i name="e_fr_energy">    -20.79659883 </i>
   <i name="e_wo_entrp">    -20.79209803 </i>
   <i name="e_0_energy">    -20.79434843 </i>
  </energy>
  <time name="totalsc">    0.38    0.39</time>
 </calculation>
 <calculation>
  <scstep>
   <time name="dav">    0.07    0.07</time>
   <time name="total">    0.10    0.10</time>
   <energy>
    <i name="alphaZ">     28.47185301 </i>
    <i name="ewald">   4054.03455745 </i>
    <i name="hartreedc">  -5847.82316607 </i>
    <i name="XCdc">     55.28019722 </i>
    <i name="pawpsdc">   2138.05772365 </i>
    <i name="pawaedc">  -2091.16095409 </i>
    <i name="eentropy">     -0.00450074 </i>
    <i name="bandstr">   -426.08022598 </i>
    <i name="atom">   2069.44105515 </i>
    <i name="e_fr_energy">    -19.78346040 </i>
    <i name="e_wo_entrp">    -19.77895965 </i>
    <i name="e_0_energy">    -19.78121003 </i>
   </energy>
  </scstep>
  <scstep>
   <time name="dav">    0.06    0.06</time>
   <time name="total">    0.08    0.08</time>
   <energy>
    <i name="alphaZ">     28.47185301 </i>
    <i name="ewald">   4054.03455745 </i>
    <i name="hartreedc">  -5847.82464834 </i>
    <i name="XCdc">     55.28020192 </i>
    <i name="pawpsdc">   2138.05813742 </i>
    <i name="pawaedc">  -2091.16137745 </i>
    <i name="eentropy">     -0.00450073 </i>
    <i name="bandstr">   -426.07873892 </i>
    <i name="atom">   2069.44105515 </i>
    <i name="e_fr_energy">    -19.78346048 </i>
    <i name="e_wo_entrp">    -19.77895974 </i>
    <i name="e_0_energy">    -19.78121011 </i>
   </energy>
  </scstep>
  <structure>
   <crystal>
    <varray name="basis" >
     <v>       3.42130000       0.00000000       0.00000000 </v>
     <v>       1.71065000       2.96293271       0.00000000 </v>
     <v>       0.00000000       0.00000000      20.00000000 </v>
    </varray>
    <i name="volume">    202.74163389 </i>
    <varray name="rec_basis" >
     <v>       0.29228656      -0.16875172       0.00000000 </v>
     <v>       0.00000000       0.33750345       0.00000000 </v>
     <v>       0.00000000       0.00000000       0.05000000 </v>
    </varray>
   </crystal>
   <varray name="positions" >
    <v>       0.00000000      -0.00000000       0.50000000 </v>
    <v>       0.33333333       0.33333333       0.41552491 </v>
    <v>       0.33333333       0.33333333       0.58447509 </v>
   </varray>
  </structure>
  <varray name="forces" >
   <v>      -0.00000000      -0.00000000       0.00000000 </v>
   <v>       0.00000000       0.00000000       0.00008138 </v>
   <v>       0.00000000       0.00000000      -0.00008138 </v>
  </varray>
  <varray name="stress" >
   <v>       2.46814140      -0.00000000      -0.00000000 </v>
   <v>      -0.00000000       2.46814140       0.00000000 </v>
   <v>      -0.00000000      -0.00000000      -0.00619387 </v>
  </varray>
  <energy>
   <i name="e_fr_energy">    -20.79659896 </i>
   <i name="e_wo_entrp">    -20.79209823 </i>
   <i name="e_0_energy">    -20.79434860 </i>
  </energy>
  <time name="totalsc">    0.36    0.37</time>
  <eigenvalues>
   <array>
    <dimension dim="1">band</dimension>
    <dimension dim="2">kpoint</dimension>
    <dimension dim="3">spin</dimension>
    <field>eigene</field>
    <field>occ</field>
    <set>
     <set comment="spin 1">
      <set comment="kpoint 1">
       <r>  -56.8857    1.0000 </r>
       <r>  -32.9737    1.0000 </r>
       <r>  -32.8421    1.0000 </r>
       <r>  -32.8421    1.0000 </r>
       <r>  -15.5879    1.0000 </r>
       <r>  -14.6101    1.0000 </r>
       <r>   -6.8531    1.0000 </r>
       <r>   -3.6705    1.0000 </r>
       <r>   -3.6705    1.0000 </r>
       <r>   -3.4158    1.0000 </r>
       <r>   -2.6760    1.0000 </r>
       <r>   -2.6760    1.0000 </r>
       <r>   -1.4192    0.0000 </r>
       <r>    1.1442    0.0000 </r>
       <r>    1.1442    0.0000 </r>
       <r>    1.3065    0.0000 </r>
       <r>    1.3065    0.0000 </r>
       <r>    2.7536    0.0000 </r>
       <r>    3.2592    0.0000 </r>
       <r>    3.4860    0.0000 </r>
       <r>    4.1730    0.0000 </r>
       <r>    5.1060    0.0000 </r>
      </set>
      <set comment="kpoint 2">
       <r>  -56.8846    1.0000 </r>
       <r>  -32.9709    1.0000 </r>
       <r>  -32.8548    1.0000 </r>
       <r>  -32.8450    1.0000 </r>
       <r>  -15.5346    1.0000 </r>
       <r>  -14.5853    1.0000 </r>
       <r>   -6.7824    1.0000 </r>
       <r>   -3.8477    1.0000 </r>
       <r>   -3.6172    1.0000 </r>
       <r>   -3.5809    1.0000 </r>
       <r>   -2.7795    1.0000 </r>
       <r>   -2.6317    1.0000 </r>
       <r>   -1.4471    0.0000 </r>
       <r>    1.0160    0.0000 </r>
       <r>    1.0812    0.0000 </r>
       <r>    1.2372    0.0000 </r>
       <r>    1.2543    0.0000 </r>
       <r>    2.9658    0.0000 </r>
       <r>    3.3433    0.0000 </r>
       <r>    3.6681    0.0000 </r>
       <r>    4.3033    0.0000 </r>
       <r>    5.1927    0.0000 </r>
      </set>
      <set comment="kpoint 3">
       <r>  -56.8815    1.0000 </r>
       <r>  -32.9630    1.0000 </r>
       <r>  -32.8903    1.0000 </r>
       <r>  -32.8529    1.0000 </r>
       <r>  -15.3800    1.0000 </r>
       <r>  -14.5135    1.0000 </r>
       <r>   -6.5834    1.0000 </r>
       <r>   -4.3017    1.0000 </r>
       <r>   -3.9482    1.0000 </r>
       <r>   -3.4664    1.0000 </r>
       <r>   -3.0418    1.0000 </r>
       <r>   -2.6574    1.0000 </r>
       <r>   -1.5655    0.0000 </r>
       <r>    0.7108    0.0000 </r>
       <r>    0.8563    0.0000 </r>
       <r>    1.0642    0.0000 </r>
       <r>    1.5287    0.0000 </r>
       <r>    3.3109    0.0000 </r>
       <r>    3.5788    0.0000 </r>
       <r>    4.0977    0.0000 </r>
       <r>    4.7771    0.0000 </r>
       <r>    5.4220    0.0000 </r>
      </set>
      <set comment="kpoint 4">
       <r>  -56.8770    1.0000 </r>
       <r>  -32.9514    1.0000 </r>
       <r>  -32.9422    1.0000 </r>
       <r>  -32.8647    1.0000 </r>
       <r>  -15.1408    1.0000 </r>
       <r>  -14.4025    1.0000 </r>
       <r>   -6.3066    1.0000 </r>
       <r>   -4.8738    1.0000 </r>
       <r>   -4.4157    1.0000 </r>
       <r>   -3.3709    1.0000 </r>
       <r>   -3.2445    1.0000 </r>
       <r>   -2.8417    1.0000 </r>
       <r>   -1.8216    0.0003 </r>
       <r>    0.5081    0.0000 </r>
       <r>    0.8655    0.0000 </r>
       <r>    0.9241    0.0000 </r>
       <r>    1.8570    0.0000 </r>
       <r>    3.6877    0.0000 </r>
       <r>    3.9466    0.0000 </r>
       <r>    4.5272    0.0000 </r>
       <r>    5.4878    0.0000 </r>
       <r>    5.7660    0.0000 </r>
      </set>
      <set comment="kpoint 5">
       <r>  -56.8718    1.0000 </r>
       <r>  -33.0011    1.0000 </r>
       <r>  -32.9381    1.0000 </r>
       <r>  -32.8781    1.0000 </r>
       <r>  -14.8460    1.0000 </r>
       <r>  -14.2664    1.0000 </r>
       <r>   -6.1138    1.0000 </r>
       <r>   -5.3548    1.0000 </r>
       <r>   -4.9398    1.0000 </r>
       <r>   -3.6929    1.0000 </r>
       <r>   -3.0752    1.0000 </r>
       <r>   -2.9958    1.0000 </r>
       <r>   -2.1306    1.0000 </r>
       <r>    0.5379    0.0000 </r>
       <r>    0.7184    0.0000 </r>
       <r>    1.1982    0.0000 </r>
       <r>    2.1513    0.0000 </r>
       <r>    4.1216    0.0000 </r>
       <r>    4.4243    0.0000 </r>
       <r>    4.9943    0.0000 </r>
       <r>    5.8558    0.0000 </r>
       <r>    6.1422    0.0000 </r>
      </set>
      <set comment="kpoint 6">
       <r>  -56.8668    1.0000 </r>
       <r>  -33.0568    1.0000 </r>
       <r>  -32.9253    1.0000 </r>
       <r>  -32.8909    1.0000 </r>
       <r>  -14.5383    1.0000 </r>
       <r>  -14.1260    1.0000 </r>
       <r>   -6.3522    1.0000 </r>
       <r>   -5.4483    1.0000 </r>
       <r>   -5.4153    1.0000 </r>
       <r>   -3.9624    1.0000 </r>
       <r>   -3.2568    1.0000 </r>
       <r>   -2.7737    1.0000 </r>
       <r>   -2.3084    1.0000 </r>
       <r>    0.6687    0.0000 </r>
       <r>    0.7159    0.0000 </r>
       <r>    1.5355    0.0000 </r>
       <r>    2.3688    0.0000 </r>
       <r>    4.5635    0.0000 </r>
       <r>    4.9556    0.0000 </r>
       <r>    5.3155    0.0000 </r>
       <r>    5.6121    0.0000 </r>
       <r>    6.1036    0.0000 </r>
      </set>
      <set comment="kpoint 7">
       <r>  -56.8629    1.0000 </r>
       <r>  -33.0999    1.0000 </r>
       <r>  -32.9153    1.0000 </r>
       <r>  -32.9008    1.0000 </r>
       <r>  -14.2750    1.0000 </r>
       <r>  -14.0081    1.0000 </r>
       <r>   -6.7372    1.0000 </r>
       <r>   -5.8500    1.0000 </r>
       <r>   -5.3382    1.0000 </r>
       <r>   -4.1535    1.0000 </r>
       <r>   -3.3655    1.0000 </r>
       <r>   -2.6192    1.0000 </r>
       <r>   -2.2759    1.0000 </r>
       <r>    0.7064    0.0000 </r>
       <r>    0.9464    0.0000 </r>
       <r>    1.8068    0.0000 </r>
       <r>    2.5034    0.0000 </r>
       <r>    4.4147    0.0000 </r>
       <r>    5.0933    0.0000 </r>
       <r>    5.3813    0.0000 </r>
       <r>    6.0932    0.0000 </r>
       <r>    6.2534    0.0000 </r>
      </set>
      <set comment="kpoint 8">
       <r>  -56.8607    1.0000 </r>
       <r>  -33.1234    1.0000 </r>
       <r>  -32.9098    1.0000 </r>
       <r>  -32.9063    1.0000 </r>
       <r>  -14.1202    1.0000 </r>
       <r>  -13.9401    1.0000 </r>
       <r>   -6.9720    1.0000 </r>
       <r>   -6.0711    1.0000 </r>
       <r>   -5.3162    1.0000 </r>
       <r>   -4.2522    1.0000 </r>
       <r>   -3.4138    1.0000 </r>
       <r>   -2.5446    1.0000 </r>
       <r>   -2.1646    1.0000 </r>
       <r>    0.7622    0.0000 </r>
       <r>    1.1295    0.0000 </r>
       <r>    1.9446    0.0000 </r>
       <r>    2.5658    0.0000 </r>
       <r>    3.8583    0.0000 </r>
       <r>    5.3789    0.0000 </r>
       <r>    5.5699    0.0000 </r>
       <r>    6.3301    0.0000 </r>
       <r>    6.9074    0.0000 </r>
      </set>
      <set comment="kpoint 9">
       <r>  -56.8825    1.0000 </r>
       <r>  -32.9656    1.0000 </r>
       <r>  -32.8784    1.0000 </r>
       <r>  -32.8508    1.0000 </r>
       <r>  -15.4306    1.0000 </r>
       <r>  -14.5370    1.0000 </r>
       <r>   -6.6471    1.0000 </r>
       <r>   -4.1579    1.0000 </r>
       <r>   -3.8253    1.0000 </r>
       <r>   -3.5201    1.0000 </r>
       <r>   -3.0264    1.0000 </r>
       <r>   -2.5761    1.0000 </r>
       <r>   -1.5200    0.0000 </r>
       <r>    0.8046    0.0000 </r>
       <r>    0.8591    0.0000 </r>
       <r>    1.1079    0.0000 </r>
       <r>    1.4621    0.0000 </r>
       <r>    3.2210    0.0000 </r>
       <r>    3.5025    0.0000 </r>
       <r>    3.9824    0.0000 </r>
       <r>    4.6122    0.0000 </r>
       <r>    5.3486    0.0000 </r>
      </set>
      <set comment="kpoint 10">
       <r>  -56.8787    1.0000 </r>
       <r>  -32.9559    1.0000 </r>
       <r>  -32.9210    1.0000 </r>
       <r>  -32.8617    1.0000 </r>
       <r>  -15.2335    1.0000 </r>
       <r>  -14.4454    1.0000 </r>
       <r>   -6.4044    1.0000 </r>
       <r>   -4.6557    1.0000 </r>
       <r>   -4.1927    1.0000 </r>
       <r>   -3.4309    1.0000 </r>
       <r>   -3.3535    1.0000 </r>
       <r>   -2.6115    1.0000 </r>
       <r>   -1.7083    0.0000 </r>
       <r>    0.5358    0.0000 </r>
       <r>    0.7953    0.0000 </r>
       <r>    0.9246    0.0000 </r>
       <r>    1.7857    0.0000 </r>
       <r>    3.5593    0.0000 </r>
       <r>    3.8043    0.0000 </r>
       <r>    4.3904    0.0000 </r>
       <r>    5.2747    0.0000 </r>
       <r>    5.6350    0.0000 </r>
      </set>
      <set comment="kpoint 11">
       <r>  -56.8738    1.0000 </r>
       <r>  -32.9749    1.0000 </r>
       <r>  -32.9434    1.0000 </r>
       <r>  -32.8757    1.0000 </r>
       <r>  -14.9659    1.0000 </r>
       <r>  -14.3212    1.0000 </r>
       <r>   -6.1408    1.0000 </r>
       <r>   -5.1795    1.0000 </r>
       <r>   -4.6665    1.0000 </r>
       <r>   -3.8002    1.0000 </r>
       <r>   -3.1696    1.0000 </r>
       <r>   -2.7927    1.0000 </r>
       <r>   -1.9846    0.8709 </r>
       <r>    0.4263    0.0000 </r>
       <r>    0.8045    0.0000 </r>
       <r>    0.9607    0.0000 </r>
       <r>    2.1031    0.0000 </r>
       <r>    3.9686    0.0000 </r>
       <r>    4.2301    0.0000 </r>
       <r>    4.8303    0.0000 </r>
       <r>    5.8940    0.0000 </r>
       <r>    6.0194    0.0000 </r>
      </set>
      <set comment="kpoint 12">
       <r>  -56.8687    1.0000 </r>
       <r>  -33.0307    1.0000 </r>
       <r>  -32.9303    1.0000 </r>
       <r>  -32.8904    1.0000 </r>
       <r>  -14.6629    1.0000 </r>
       <r>  -14.1817    1.0000 </r>
       <r>   -6.1521    1.0000 </r>
       <r>   -5.4274    1.0000 </r>
       <r>   -5.1991    1.0000 </r>
       <r>   -4.0518    1.0000 </r>
       <r>   -3.0442    1.0000 </r>
       <r>   -3.0290    1.0000 </r>
       <r>   -2.1755    1.0000 </r>
       <r>    0.4647    0.0000 </r>
       <r>    0.8120    0.0000 </r>
       <r>    1.2786    0.0000 </r>
       <r>    2.3382    0.0000 </r>
       <r>    4.4323    0.0000 </r>
       <r>    4.7469    0.0000 </r>
       <r>    5.3433    0.0000 </r>
       <r>    5.8050    0.0000 </r>
       <r>    6.3115    0.0000 </r>
      </set>
      <set comment="kpoint 13">
       <r>  -56.8643    1.0000 </r>
       <r>  -33.0788    1.0000 </r>
       <r>  -32.9189    1.0000 </r>
       <r>  -32.9031    1.0000 </r>
       <r>  -14.3745    1.0000 </r>
       <r>  -14.0508    1.0000 </r>
       <r>   -6.5159    1.0000 </r>
       <r>   -5.6755    1.0000 </r>
       <r>   -5.3494    1.0000 </r>
       <r>   -4.2064    1.0000 </r>
       <r>   -3.2336    1.0000 </r>
       <r>   -2.9869    1.0000 </r>
       <r>   -2.1600    1.0000 </r>
       <r>    0.6002    0.0000 </r>
       <r>    0.9192    0.0000 </r>
       <r>    1.6250    0.0000 </r>
       <r>    2.4507    0.0000 </r>
       <r>    4.7653    0.0000 </r>
       <r>    5.1402    0.0000 </r>
       <r>    5.2813    0.0000 </r>
       <r>    5.9812    0.0000 </r>
       <r>    6.2476    0.0000 </r>
      </set>
      <set comment="kpoint 14">
       <r>  -56.8613    1.0000 </r>
       <r>  -33.1112    1.0000 </r>
       <r>  -32.9117    1.0000 </r>
       <r>  -32.9112    1.0000 </r>
       <r>  -14.1619    1.0000 </r>
       <r>  -13.9559    1.0000 </r>
       <r>   -6.8279    1.0000 </r>
       <r>   -6.0000    1.0000 </r>
       <r>   -5.3025    1.0000 </r>
       <r>   -4.2910    1.0000 </r>
       <r>   -3.3650    1.0000 </r>
       <r>   -2.9353    1.0000 </r>
       <r>   -2.0333    0.9939 </r>
       <r>    0.7320    0.0000 </r>
       <r>    1.0794    0.0000 </r>
       <r>    1.9100    0.0000 </r>
       <r>    2.4389    0.0000 </r>
       <r>    4.1648    0.0000 </r>
       <r>    5.4164    0.0000 </r>
       <r>    5.7117    0.0000 </r>
       <r>    6.3502    0.0000 </r>
       <r>    6.7028    0.0000 </r>
      </set>
      <set comment="kpoint 15">
       <r>  -56.8602    1.0000 </r>
       <r>  -33.1226    1.0000 </r>
       <r>  -32.9147    1.0000 </r>
       <r>  -32.9084    1.0000 </r>
       <r>  -14.0828    1.0000 </r>
       <r>  -13.9211    1.0000 </r>
       <r>   -6.9443    1.0000 </r>
       <r>   -6.1147    1.0000 </r>
       <r>   -5.2977    1.0000 </r>
       <r>   -4.3181    1.0000 </r>
       <r>   -3.4095    1.0000 </r>
       <r>   -2.9104    1.0000 </r>
       <r>   -1.9604    0.6720 </r>
       <r>    0.7730    0.0000 </r>
       <r>    1.1795    0.0000 </r>
       <r>    2.0424    0.0000 </r>
       <r>    2.3915    0.0000 </r>
       <r>    3.8520    0.0000 </r>
       <r>    5.6243    0.0000 </r>
       <r>    5.9162    0.0000 </r>
       <r>    6.4253    0.0000 </r>
       <r>    7.0811    0.0000 </r>
      </set>
      <set comment="kpoint 16">
       <r>  -56.8746    1.0000 </r>
       <r>  -32.9637    1.0000 </r>
       <r>  -32.9453    1.0000 </r>
       <r>  -32.8769    1.0000 </r>
       <r>  -15.0075    1.0000 </r>
       <r>  -14.3402    1.0000 </r>
       <r>   -6.1581    1.0000 </r>
       <r>   -5.0878    1.0000 </r>
       <r>   -4.4870    1.0000 </r>
       <r>   -3.9777    1.0000 </r>
       <r>   -3.2666    1.0000 </r>
       <r>   -2.6083    1.0000 </r>
       <r>   -1.9191    0.2348 </r>
       <r>    0.3703    0.0000 </r>
       <r>    0.8112    0.0000 </r>
       <r>    0.8363    0.0000 </r>
       <r>    2.1158    0.0000 </r>
       <r>    3.9252    0.0000 </r>
       <r>    4.1662    0.0000 </r>
       <r>    4.7881    0.0000 </r>
       <r>    5.9448    0.0000 </r>
       <r>    5.9694    0.0000 </r>
      </set>
      <set comment="kpoint 17">
       <r>  -56.8698    1.0000 </r>
       <r>  -33.0112    1.0000 </r>
       <r>  -32.9331    1.0000 </r>
       <r>  -32.8954    1.0000 </r>
       <r>  -14.7299    1.0000 </r>
       <r>  -14.2112    1.0000 </r>
       <r>   -6.0224    1.0000 </r>
       <r>   -5.3921    1.0000 </r>
       <r>   -4.9519    1.0000 </r>
       <r>   -4.3111    1.0000 </r>
       <r>   -3.3049    1.0000 </r>
       <r>   -2.7623    1.0000 </r>
       <r>   -2.0705    0.9998 </r>
       <r>    0.3133    0.0000 </r>
       <r>    0.8780    0.0000 </r>
       <r>    1.0055    0.0000 </r>
       <r>    2.3769    0.0000 </r>
       <r>    4.3789    0.0000 </r>
       <r>    4.6402    0.0000 </r>
       <r>    5.2767    0.0000 </r>
       <r>    6.1849    0.0000 </r>
       <r>    6.3778    0.0000 </r>
      </set>
      <set comment="kpoint 18">
       <r>  -56.8652    1.0000 </r>
       <r>  -33.0558    1.0000 </r>
       <r>  -32.9214    1.0000 </r>
       <r>  -32.9134    1.0000 </r>
       <r>  -14.4422    1.0000 </r>
       <r>  -14.0783    1.0000 </r>
       <r>   -6.2589    1.0000 </r>
       <r>   -5.4873    1.0000 </r>
       <r>   -5.3391    1.0000 </r>
       <r>   -4.4221    1.0000 </r>
       <r>   -3.4467    1.0000 </r>
       <r>   -3.0063    1.0000 </r>
       <r>   -2.0639    0.9996 </r>
       <r>    0.4409    0.0000 </r>
       <r>    0.9716    0.0000 </r>
       <r>    1.3171    0.0000 </r>
       <r>    2.5049    0.0000 </r>
       <r>    4.8562    0.0000 </r>
       <r>    5.1875    0.0000 </r>
       <r>    5.6227    0.0000 </r>
       <r>    5.8639    0.0000 </r>
       <r>    6.6629    0.0000 </r>
      </set>
      <set comment="kpoint 19">
       <r>  -56.8617    1.0000 </r>
       <r>  -33.0903    1.0000 </r>
       <r>  -32.9276    1.0000 </r>
       <r>  -32.9122    1.0000 </r>
       <r>  -14.1982    1.0000 </r>
       <r>  -13.9667    1.0000 </r>
       <r>   -6.5647    1.0000 </r>
       <r>   -5.9081    1.0000 </r>
       <r>   -5.2581    1.0000 </r>
       <r>   -4.4384    1.0000 </r>
       <r>   -3.5430    1.0000 </r>
       <r>   -3.2443    1.0000 </r>
       <r>   -1.9365    0.4093 </r>
       <r>    0.6462    0.0000 </r>
       <r>    1.0812    0.0000 </r>
       <r>    1.6476    0.0000 </r>
       <r>    2.4829    0.0000 </r>
       <r>    4.6562    0.0000 </r>
       <r>    5.5597    0.0000 </r>
       <r>    5.7563    0.0000 </r>
       <r>    6.5565    0.0000 </r>
       <r>    6.7944    0.0000 </r>
      </set>
      <set comment="kpoint 20">
       <r>  -56.8597    1.0000 </r>
       <r>  -33.1090    1.0000 </r>
       <r>  -32.9354    1.0000 </r>
       <r>  -32.9072    1.0000 </r>
       <r>  -14.0558    1.0000 </r>
       <r>  -13.9023    1.0000 </r>
       <r>   -6.7479    1.0000 </r>
       <r>   -6.1359    1.0000 </r>
       <r>   -5.2511    1.0000 </r>
       <r>   -4.4218    1.0000 </r>
       <r>   -3.5660    1.0000 </r>
       <r>   -3.3942    1.0000 </r>
       <r>   -1.7973    0.0000 </r>
       <r>    0.7095    0.0000 </r>
       <r>    1.2509    0.0000 </r>
       <r>    1.9131    0.0000 </r>
       <r>    2.3610    0.0000 </r>
       <r>    4.1224    0.0000 </r>
       <r>    6.0224    0.0000 </r>
       <r>    6.2917    0.0000 </r>
       <r>    6.8668    0.0000 </r>
       <r>    7.1101    0.0000 </r>
      </set>
      <set comment="kpoint 21">
       <r>  -56.8656    1.0000 </r>
       <r>  -33.0450    1.0000 </r>
       <r>  -32.9223    1.0000 </r>
       <r>  -32.9199    1.0000 </r>
       <r>  -14.4662    1.0000 </r>
       <r>  -14.0877    1.0000 </r>
       <r>   -6.1352    1.0000 </r>
       <r>   -5.3842    1.0000 </r>
       <r>   -5.3275    1.0000 </r>
       <r>   -4.5512    1.0000 </r>
       <r>   -3.6538    1.0000 </r>
       <r>   -2.8979    1.0000 </r>
       <r>   -2.0363    0.9953 </r>
       <r>    0.3755    0.0000 </r>
       <r>    0.9938    0.0000 </r>
       <r>    1.1666    0.0000 </r>
       <r>    2.5486    0.0000 </r>
       <r>    4.8598    0.0000 </r>
       <r>    5.1495    0.0000 </r>
       <r>    5.8246    0.0000 </r>
       <r>    5.9237    0.0000 </r>
       <r>    6.7882    0.0000 </r>
      </set>
      <set comment="kpoint 22">
       <r>  -56.8619    1.0000 </r>
       <r>  -33.0716    1.0000 </r>
       <r>  -32.9437    1.0000 </r>
       <r>  -32.9128    1.0000 </r>
       <r>  -14.2193    1.0000 </r>
       <r>  -13.9720    1.0000 </r>
       <r>   -6.3251    1.0000 </r>
       <r>   -5.8323    1.0000 </r>
       <r>   -5.1959    1.0000 </r>
       <r>   -4.5747    1.0000 </r>
       <r>   -4.0180    1.0000 </r>
       <r>   -3.1385    1.0000 </r>
       <r>   -1.9080    0.1503 </r>
       <r>    0.5681    0.0000 </r>
       <r>    1.1017    0.0000 </r>
       <r>    1.3902    0.0000 </r>
       <r>    2.6129    0.0000 </r>
       <r>    5.1020    0.0000 </r>
       <r>    5.6244    0.0000 </r>
       <r>    5.7182    0.0000 </r>
       <r>    6.4293    0.0000 </r>
       <r>    7.0380    0.0000 </r>
      </set>
      <set comment="kpoint 23">
       <r>  -56.8594    1.0000 </r>
       <r>  -33.0883    1.0000 </r>
       <r>  -32.9611    1.0000 </r>
       <r>  -32.9064    1.0000 </r>
       <r>  -14.0407    1.0000 </r>
       <r>  -13.8884    1.0000 </r>
       <r>   -6.4562    1.0000 </r>
       <r>   -6.1425    1.0000 </r>
       <r>   -5.1779    1.0000 </r>
       <r>   -4.5144    1.0000 </r>
       <r>   -4.2250    1.0000 </r>
       <r>   -3.3722    1.0000 </r>
       <r>   -1.7166    0.0000 </r>
       <r>    0.5916    0.0000 </r>
       <r>    1.3287    0.0000 </r>
       <r>    1.5758    0.0000 </r>
       <r>    2.6110    0.0000 </r>
       <r>    4.5765    0.0000 </r>
       <r>    6.0061    0.0000 </r>
       <r>    6.2909    0.0000 </r>
       <r>    6.7143    0.0000 </r>
       <r>    7.3976    0.0000 </r>
      </set>
      <set comment="kpoint 24">
       <r>  -56.8585    1.0000 </r>
       <r>  -33.0940    1.0000 </r>
       <r>  -32.9675    1.0000 </r>
       <r>  -32.9042    1.0000 </r>
       <r>  -13.9750    1.0000 </r>
       <r>  -13.8577    1.0000 </r>
       <r>   -6.5007    1.0000 </r>
       <r>   -6.2520    1.0000 </r>
       <r>   -5.2029    1.0000 </r>
       <r>   -4.4729    1.0000 </r>
       <r>   -4.2760    1.0000 </r>
       <r>   -3.4747    1.0000 </r>
       <r>   -1.6107    0.0000 </r>
       <r>    0.5322    0.0000 </r>
       <r>    1.4865    0.0000 </r>
       <r>    1.6478    0.0000 </r>
       <r>    2.5995    0.0000 </r>
       <r>    4.2984    0.0000 </r>
       <r>    6.2137    0.0000 </r>
       <r>    6.6363    0.0000 </r>
       <r>    6.7947    0.0000 </r>
       <r>    7.7013    0.0000 </r>
      </set>
      <set comment="kpoint 25">
       <r>  -56.8593    1.0000 </r>
       <r>  -33.0762    1.0000 </r>
       <r>  -32.9750    1.0000 </r>
       <r>  -32.9061    1.0000 </r>
       <r>  -14.0359    1.0000 </r>
       <r>  -13.8833    1.0000 </r>
       <r>   -6.2890    1.0000 </r>
       <r>   -6.1431    1.0000 </r>
       <r>   -5.1037    1.0000 </r>
       <r>   -4.5709    1.0000 </r>
       <r>   -4.5522    1.0000 </r>
       <r>   -3.3600    1.0000 </r>
       <r>   -1.6912    0.0000 </r>
       <r>    0.5352    0.0000 </r>
       <r>    1.3596    0.0000 </r>
       <r>    1.4440    0.0000 </r>
       <r>    2.7215    0.0000 </r>
       <r>    4.9409    0.0000 </r>
       <r>    5.6579    0.0000 </r>
       <r>    6.2806    0.0000 </r>
       <r>    6.6464    0.0000 </r>
       <r>    7.4060    0.0000 </r>
      </set>
      <set comment="kpoint 26">
       <r>  -56.8578    1.0000 </r>
       <r>  -33.0736    1.0000 </r>
       <r>  -32.9974    1.0000 </r>
       <r>  -32.9025    1.0000 </r>
       <r>  -13.9319    1.0000 </r>
       <r>  -13.8322    1.0000 </r>
       <r>   -6.3216    1.0000 </r>
       <r>   -6.1841    1.0000 </r>
       <r>   -5.1853    1.0000 </r>
       <r>   -4.8400    1.0000 </r>
       <r>   -4.4738    1.0000 </r>
       <r>   -3.5440    1.0000 </r>
       <r>   -1.4793    0.0000 </r>
       <r>    0.3499    0.0000 </r>
       <r>    1.4589    0.0000 </r>
       <r>    1.6490    0.0000 </r>
       <r>    2.8059    0.0000 </r>
       <r>    4.6557    0.0000 </r>
       <r>    5.5164    0.0000 </r>
       <r>    6.7640    0.0000 </r>
       <r>    7.1707    0.0000 </r>
       <r>    7.9424    0.0000 </r>
      </set>
      <set comment="kpoint 27">
       <r>  -56.8573    1.0000 </r>
       <r>  -33.0587    1.0000 </r>
       <r>  -33.0199    1.0000 </r>
       <r>  -32.9011    1.0000 </r>
       <r>  -13.8930    1.0000 </r>
       <r>  -13.8117    1.0000 </r>
       <r>   -6.3883    1.0000 </r>
       <r>   -5.9103    1.0000 </r>
       <r>   -5.4327    1.0000 </r>
       <r>   -4.9927    1.0000 </r>
       <r>   -4.4324    1.0000 </r>
       <r>   -3.6306    1.0000 </r>
       <r>   -1.3523    0.0000 </r>
       <r>    0.2009    0.0000 </r>
       <r>    1.4072    0.0000 </r>
       <r>    1.7976    0.0000 </r>
       <r>    2.8955    0.0000 </r>
       <r>    4.8514    0.0000 </r>
       <r>    5.0781    0.0000 </r>
       <r>    6.9959    0.0000 </r>
       <r>    7.6194    0.0000 </r>
       <r>    8.1078    0.0000 </r>
      </set>
     </set>
    </set>
   </array>
  </eigenvalues>
  <separator name="orbital magnetization" >
   <v name="MAGDIPOLOUT">      0.00000000      0.00000000      0.00000000</v>
  </separator>
 </calculation>
 <structure name="finalpos" >
  <crystal>
   <varray name="basis" >
    <v>       3.42130000       0.00000000       0.00000000 </v>
    <v>       1.71065000       2.96293271       0.00000000 </v>
    <v>       0.00000000       0.00000000      20.00000000 </v>
   </varray>
   <i name="volume">    202.74163389 </i>
   <varray name="rec_basis" >
    <v>       0.29228656      -0.16875172       0.00000000 </v>
    <v>       0.00000000       0.33750345       0.00000000 </v>
    <v>       0.00000000       0.00000000       0.05000000 </v>
   </varray>
  </crystal>
  <varray name="positions" >
   <v>       0.00000000      -0.00000000       0.50000000 </v>
   <v>       0.33333333       0.33333333       0.41552491 </v>
   <v>       0.33333333       0.33333333       0.58447509 </v>
  </varray>
 </structure>
</modeling>
