NbSe2 relaxation                        
           1
     3.421300    0.000000    0.000000
     1.710650    2.962933    0.000000
     0.000000    0.000000   20.000000
   Nb   Se
     1     2
Direct configuration=     1
   0.00000000  0.00000000  0.50000000
   0.33333333  0.33333333  0.41643682
   0.33333333  0.33333333  0.58356318
Direct configuration=     2
  -0.00000000  0.00000000  0.50000000
   0.33333333  0.33333333  0.41580085
   0.33333333  0.33333333  0.58419915
Direct configuration=     3
  -0.00000000  0.00000000  0.50000000
   0.33333333  0.33333333  0.41554464
   0.33333333  0.33333333  0.58445536
Direct configuration=     4
   0.00000000  0.00000000  0.50000000
   0.33333333  0.33333333  0.41552054
   0.33333333  0.33333333  0.58447946
Direct configuration=     5
  -0.00000000  0.00000000  0.50000000
   0.33333333  0.33333333  0.41552516
   0.33333333  0.33333333  0.58447484
Direct configuration=     6
  -0.00000000  0.00000000  0.50000000
   0.33333333  0.33333333  0.41552439
   0.33333333  0.33333333  0.58447561
Direct configuration=     7
  -0.00000000  0.00000000  0.50000000
   0.33333333  0.33333333  0.41552477
   0.33333333  0.33333333  0.58447523
Direct configuration=     8
  -0.00000000  0.00000000  0.50000000
   0.33333333  0.33333333  0.41552480
   0.33333333  0.33333333  0.58447520
Direct configuration=     9
  -0.00000000  0.00000000  0.50000000
   0.33333333  0.33333333  0.41552476
   0.33333333  0.33333333  0.58447524
Direct configuration=    10
  -0.00000000  0.00000000  0.50000000
   0.33333333  0.33333333  0.41552485
   0.33333333  0.33333333  0.58447515
Direct configuration=    11
   0.00000000  0.00000000  0.50000000
   0.33333333  0.33333333  0.41552497
   0.33333333  0.33333333  0.58447503
Direct configuration=    12
   0.00000000  0.00000000  0.50000000
   0.33333333  0.33333333  0.41552505
   0.33333333  0.33333333  0.58447495
Direct configuration=    13
   0.00000000  0.00000000  0.50000000
   0.33333333  0.33333333  0.41552507
   0.33333333  0.33333333  0.58447493
Direct configuration=    14
   0.00000000  0.00000000  0.50000000
   0.33333333  0.33333333  0.41552498
   0.33333333  0.33333333  0.58447502
Direct configuration=    15
  -0.00000000  0.00000000  0.50000000
   0.33333333  0.33333333  0.41552509
   0.33333333  0.33333333  0.58447491
Direct configuration=    16
   0.00000000  0.00000000  0.50000000
   0.33333333  0.33333333  0.41552508
   0.33333333  0.33333333  0.58447492
Direct configuration=    17
  -0.00000000  0.00000000  0.50000000
   0.33333333  0.33333333  0.41552509
   0.33333333  0.33333333  0.58447491
Direct configuration=    18
  -0.00000000  0.00000000  0.50000000
   0.33333333  0.33333333  0.41552509
   0.33333333  0.33333333  0.58447491
Direct configuration=    19
  -0.00000000 -0.00000000  0.50000000
   0.33333333  0.33333333  0.41552511
   0.33333333  0.33333333  0.58447489
Direct configuration=    20
  -0.00000000 -0.00000000  0.50000000
   0.33333333  0.33333333  0.41552511
   0.33333333  0.33333333  0.58447489
