Mo S                                    
   1.00000000000000     
     6.3844758242609050    5.5291182536575363    0.0000000000000000
    -1.5961189560652262    8.2936773804863044    0.0000000000000000
     0.0000000000000000    0.0000000000000000   20.0000000000000000
   Mo   S 
    14    28
Direct
     0.3333333333333357    0.3333333333333357    0.8077954847112173
     0.1427741351580857    0.5710364538685979    0.4932096641627996
     0.1905591981752500    0.0471439223600346    0.8081374244842748
     0.4279766898742858    0.7148081748843302    0.4931278821967428
     0.9053566434590088    0.4761181980919827    0.8082192064504348
     0.0471439223600346    0.7622968794647307    0.8081374244842748
     0.7148081748843302    0.8572151352413627    0.4931278821967428
     0.8572151352413627    0.4279766898742858    0.4931278821967428
     0.7622968794647307    0.1905591981752500    0.8081374244842748
     0.0000000000000000   -0.0000000000000000    0.4935516039358506
     0.4761181980919827    0.6185251584490055    0.8082192064504348
     0.2861894109733009    0.1427741351580857    0.4932096641627996
     0.6185251584490055    0.9053566434590088    0.8082192064504348
     0.5710364538685979    0.2861894109733009    0.4932096641627996
     0.6666666666666643    0.6666666666666643    0.7313901574697980
     0.6666666666666643    0.6666666666666643    0.8859294463141935
     0.3805330138826557    0.5241570593150119    0.4154749402794479
     0.5238024645353707    0.3804966869161473    0.8857461394331856
     0.9534236639446665    0.2379624122209285    0.7304851610942055
     0.9528003194506789    0.2380234065311349    0.8858721483675008
     0.0949850187547308    0.5250403136309338    0.7303395933327431
     0.0957008485486057    0.5238024645353707    0.8857461394331856
     0.2379624122209285    0.8086139238346597    0.7304851610942055
     0.8086139238346597    0.9534236639446665    0.7304851610942055
     0.8091762740183238    0.9528003194506789    0.8858721483675008
     0.0953709211124068    0.3799096693887331    0.5708619275528574
     0.3804966869161473    0.0957008485486057    0.8857461394331856
     0.3799746676143240    0.0949850187547308    0.7303395933327431
     0.0953099268022546    0.3805330138826557    0.4154749402794479
     0.8082930197024019    0.2383483145785933    0.5710074953143197
     0.8095308687979650    0.2376324847847428    0.4156009492138295
     0.5247194094986760    0.0953709211124068    0.5708619275528574
     0.5241570593150119    0.0953099268022546    0.4154749402794479
     0.2383483145785933    0.9533586657190385    0.5710074953143197
     0.2376324847847428    0.9528366464173894    0.4156009492138290
     0.9533586657190385    0.8082930197024019    0.5710074953143197
     0.9528366464173894    0.8095308687979650    0.4156009492138290
     0.6666666666666643    0.6666666666666643    0.5699569311772649
     0.6666666666666643    0.6666666666666643    0.4154176423329980
     0.3799096693887341    0.5247194094986760    0.5708619275528574
     0.5250403136309338    0.3799746676143240    0.7303395933327431
     0.2380234065311349    0.8091762740183238    0.8858721483675008
 
  0.00000000E+00  0.00000000E+00  0.00000000E+00
  0.00000000E+00  0.00000000E+00  0.00000000E+00
  0.00000000E+00  0.00000000E+00  0.00000000E+00
  0.00000000E+00  0.00000000E+00  0.00000000E+00
  0.00000000E+00  0.00000000E+00  0.00000000E+00
  0.00000000E+00  0.00000000E+00  0.00000000E+00
  0.00000000E+00  0.00000000E+00  0.00000000E+00
  0.00000000E+00  0.00000000E+00  0.00000000E+00
  0.00000000E+00  0.00000000E+00  0.00000000E+00
  0.00000000E+00  0.00000000E+00  0.00000000E+00
  0.00000000E+00  0.00000000E+00  0.00000000E+00
  0.00000000E+00  0.00000000E+00  0.00000000E+00
  0.00000000E+00  0.00000000E+00  0.00000000E+00
  0.00000000E+00  0.00000000E+00  0.00000000E+00
  0.00000000E+00  0.00000000E+00  0.00000000E+00
  0.00000000E+00  0.00000000E+00  0.00000000E+00
  0.00000000E+00  0.00000000E+00  0.00000000E+00
  0.00000000E+00  0.00000000E+00  0.00000000E+00
  0.00000000E+00  0.00000000E+00  0.00000000E+00
  0.00000000E+00  0.00000000E+00  0.00000000E+00
  0.00000000E+00  0.00000000E+00  0.00000000E+00
  0.00000000E+00  0.00000000E+00  0.00000000E+00
  0.00000000E+00  0.00000000E+00  0.00000000E+00
  0.00000000E+00  0.00000000E+00  0.00000000E+00
  0.00000000E+00  0.00000000E+00  0.00000000E+00
  0.00000000E+00  0.00000000E+00  0.00000000E+00
  0.00000000E+00  0.00000000E+00  0.00000000E+00
  0.00000000E+00  0.00000000E+00  0.00000000E+00
  0.00000000E+00  0.00000000E+00  0.00000000E+00
  0.00000000E+00  0.00000000E+00  0.00000000E+00
  0.00000000E+00  0.00000000E+00  0.00000000E+00
  0.00000000E+00  0.00000000E+00  0.00000000E+00
  0.00000000E+00  0.00000000E+00  0.00000000E+00
  0.00000000E+00  0.00000000E+00  0.00000000E+00
  0.00000000E+00  0.00000000E+00  0.00000000E+00
  0.00000000E+00  0.00000000E+00  0.00000000E+00
  0.00000000E+00  0.00000000E+00  0.00000000E+00
  0.00000000E+00  0.00000000E+00  0.00000000E+00
  0.00000000E+00  0.00000000E+00  0.00000000E+00
  0.00000000E+00  0.00000000E+00  0.00000000E+00
  0.00000000E+00  0.00000000E+00  0.00000000E+00
  0.00000000E+00  0.00000000E+00  0.00000000E+00
