cpu-bind=MASK - c211, task  0  0 [3057139]: mask 0x7ffefffefffe set
 running  264 mpi-ranks, with    1 threads/rank, on    6 nodes
 distrk:  each k-point on   44 cores,    6 groups
 distr:  one band on    4 cores,   11 groups
 vasp.6.5.1 10Mar25 (build Aug 29 2025 00:30:47) complex                        
  
 POSCAR found type information on POSCAR GaN 
 POSCAR found :  2 types and      18 ions
 scaLAPACK will be used
 LDA part: xc-table for (Slater+PW92), standard interpolation
 POSCAR, INCAR and KPOINTS ok, starting setup
 FFT: planning ... GRIDC
 FFT: planning ... GRID_SOFT
 FFT: planning ... GRID
 WAVECAR not read
 entering main loop
       N       E                     dE             d eps       ncg     rms          rms(c)
DAV:   1     0.596402420717E+03    0.59640E+03   -0.21856E+04  1617   0.883E+02
DAV:   2     0.573396157096E+02   -0.53906E+03   -0.51274E+03  2310   0.177E+02
DAV:   3    -0.120622717463E+03   -0.17796E+03   -0.17592E+03  2079   0.105E+02
DAV:   4    -0.128592976598E+03   -0.79703E+01   -0.79322E+01  1826   0.280E+01
DAV:   5    -0.128728476186E+03   -0.13550E+00   -0.13535E+00  2112   0.315E+00    0.311E+01
DAV:   6    -0.102576731436E+03    0.26152E+02   -0.10462E+02  1716   0.337E+01    0.124E+01
DAV:   7    -0.102442357902E+03    0.13437E+00   -0.63976E+00  1771   0.722E+00    0.695E+00
DAV:   8    -0.101911946017E+03    0.53041E+00   -0.55634E-01  1947   0.289E+00    0.235E+00
DAV:   9    -0.101729702327E+03    0.18224E+00   -0.11312E-01  1870   0.121E+00    0.538E-01
DAV:  10    -0.101685050923E+03    0.44651E-01   -0.39929E-02  1892   0.503E-01    0.295E-01
DAV:  11    -0.101660330125E+03    0.24721E-01   -0.15407E-02  1749   0.431E-01    0.187E-01
DAV:  12    -0.101635660761E+03    0.24669E-01   -0.18155E-02  1606   0.310E-01    0.136E-01
DAV:  13    -0.101625791288E+03    0.98695E-02   -0.16647E-03  1694   0.136E-01    0.869E-02
DAV:  14    -0.101637475607E+03   -0.11684E-01   -0.56356E-03  1573   0.184E-01    0.765E-02
DAV:  15    -0.101643530734E+03   -0.60551E-02   -0.35100E-03  1628   0.140E-01    0.101E-01
DAV:  16    -0.101645228406E+03   -0.16977E-02   -0.74510E-04  1749   0.813E-02    0.638E-02
DAV:  17    -0.101650223869E+03   -0.49955E-02   -0.98056E-04  1771   0.102E-01    0.643E-02
DAV:  18    -0.101651436364E+03   -0.12125E-02   -0.12909E-04  1749   0.507E-02    0.585E-02
DAV:  19    -0.101653309034E+03   -0.18727E-02   -0.10034E-04  1617   0.350E-02    0.143E-02
DAV:  20    -0.101653804574E+03   -0.49554E-03   -0.29678E-05  1705   0.161E-02    0.125E-02
DAV:  21    -0.101654051849E+03   -0.24727E-03   -0.95048E-06  1617   0.879E-03    0.948E-03
DAV:  22    -0.101654218951E+03   -0.16710E-03   -0.89148E-06  1672   0.995E-03    0.361E-03
DAV:  23    -0.101654238751E+03   -0.19800E-04   -0.75017E-07  1265   0.394E-03    0.316E-03
DAV:  24    -0.101654253764E+03   -0.15012E-04   -0.53080E-07  1298   0.261E-03    0.135E-03
DAV:  25    -0.101654263226E+03   -0.94628E-05   -0.47981E-07  1265   0.242E-03    0.973E-04
DAV:  26    -0.101654265259E+03   -0.20328E-05   -0.12707E-07  1342   0.138E-03    0.102E-03
DAV:  27    -0.101654265725E+03   -0.46594E-06   -0.41041E-08  1155   0.756E-04
   1 F= -.10325129E+03 E0= -.10325129E+03  d E =-.130467E-14
