    6    6  600    1
  0.3295884E+02  0.3378946E-09  0.3378946E-09  0.2000000E-08  0.5000000E-15
  1.000000000000000E-004
  CAR 
 MoS2_MoTe2_2H relaxation                
     52     27     33
 
  0.1276756E-14  0.1276756E-14  0.1276756E-14  0.4444444E-02
      1        -58.518864   1.000000
      2        -57.129898   1.000000
      3        -32.541992   1.000000
      4        -32.535522   1.000000
      5        -32.535522   1.000000
      6        -31.380924   1.000000
      7        -31.119565   1.000000
      8        -31.119565   1.000000
      9        -11.216859   1.000000
     10         -9.895543   1.000000
     11         -9.620216   1.000000
     12         -8.827486   1.000000
     13         -2.864452   1.000000
     14         -1.806088   1.000000
     15         -0.449854   1.000000
     16         -0.449854   1.000000
     17          0.628127   1.000000
     18          0.641212   1.000000
     19          0.641212   1.000000
     20          1.830462   1.000000
     21          2.063238   1.000000
     22          2.063238   1.000000
     23          2.585020   1.000000
     24          2.861792   1.000000
     25          2.861793   1.000000
     26          3.373241   1.000000
     27          4.832254   0.000000
     28          4.832254   0.000000
     29          5.216270   0.000000
     30          5.216270   0.000000
     31          7.069236   0.000000
     32          7.069236   0.000000
     33          7.317931   0.000000
 
  0.6666667E-01  0.8389420E-14  0.1276756E-14  0.2666667E-01
      1        -58.518138   1.000000
      2        -57.129167   1.000000
      3        -32.544428   1.000000
      4        -32.540319   1.000000
      5        -32.537577   1.000000
      6        -31.379082   1.000000
      7        -31.128160   1.000000
      8        -31.121562   1.000000
      9        -11.166180   1.000000
     10         -9.863734   1.000000
     11         -9.560317   1.000000
     12         -8.775040   1.000000
     13         -2.804127   1.000000
     14         -1.731692   1.000000
     15         -0.566591   1.000000
     16         -0.395012   1.000000
     17          0.322413   1.000000
     18          0.557099   1.000000
     19          0.816024   1.000000
     20          1.822579   1.000000
     21          1.916778   1.000000
     22          2.125041   1.000000
     23          2.582264   1.000000
     24          2.769952   1.000000
     25          2.842974   1.000000
     26          3.281612   1.000000
     27          4.778945   0.000000
     28          4.933848   0.000000
     29          5.146123   0.000000
     30          5.151290   0.000000
     31          6.726656   0.000000
     32          6.849299   0.000000
     33          7.105654   0.000000
 
  0.1333333E+00  0.8393043E-14  0.1276756E-14  0.2666667E-01
      1        -58.516099   1.000000
      2        -57.127111   1.000000
      3        -32.569529   1.000000
      4        -32.543384   1.000000
      5        -32.535589   1.000000
      6        -31.373874   1.000000
      7        -31.152387   1.000000
      8        -31.127203   1.000000
      9        -11.019931   1.000000
     10         -9.786368   1.000000
     11         -9.368547   1.000000
     12         -8.619557   1.000000
     13         -2.638899   1.000000
     14         -1.523020   1.000000
     15         -0.860693   1.000000
     16         -0.236951   1.000000
     17         -0.046056   1.000000
     18          0.340073   1.000000
     19          0.794277   1.000000
     20          1.483288   1.000000
     21          1.805191   1.000000
     22          2.303410   1.000000
     23          2.527939   1.000000
     24          2.551948   1.000000
     25          2.702071   1.000000
     26          2.997571   1.000000
     27          4.730564   0.000000
     28          4.960217   0.000000
     29          5.022419   0.000000
     30          5.216757   0.000000
     31          5.964515   0.000000
     32          6.142710   0.000000
     33          6.740061   0.000000
 
  0.2000000E+00  0.1292168E-14  0.1276756E-14  0.2666667E-01
      1        -58.513088   1.000000
      2        -57.124076   1.000000
      3        -32.606298   1.000000
      4        -32.551924   1.000000
      5        -32.528610   1.000000
      6        -31.366194   1.000000
      7        -31.187880   1.000000
      8        -31.135501   1.000000
      9        -10.795617   1.000000
     10         -9.687851   1.000000
     11         -9.038805   1.000000
     12         -8.368049   1.000000
     13         -2.430901   1.000000
     14         -1.295025   1.000000
     15         -1.140408   1.000000
     16         -0.422150   1.000000
     17         -0.002270   1.000000
     18          0.069152   1.000000
     19          0.560378   1.000000
     20          0.850332   1.000000
     21          1.672310   1.000000
     22          2.208528   1.000000
     23          2.345529   1.000000
     24          2.418303   1.000000
     25          2.575953   1.000000
     26          2.604814   1.000000
     27          4.732413   0.000000
     28          4.818057   0.000000
     29          4.867882   0.000000
     30          5.282075   0.000000
     31          5.553528   0.000000
     32          5.894840   0.000000
     33          6.257922   0.000000
 
  0.2666667E+00  0.1327253E-14  0.1276756E-14  0.2666667E-01
      1        -58.509643   1.000000
      2        -57.120603   1.000000
      3        -32.648221   1.000000
      4        -32.561712   1.000000
      5        -32.520587   1.000000
      6        -31.357367   1.000000
      7        -31.228357   1.000000
      8        -31.145011   1.000000
      9        -10.522890   1.000000
     10         -9.580437   1.000000
     11         -8.591953   1.000000
     12         -8.037127   1.000000
     13         -2.337036   1.000000
     14         -1.455300   1.000000
     15         -1.040589   1.000000
     16         -0.699327   1.000000
     17         -0.218255   1.000000
     18          0.077607   1.000000
     19          0.145518   1.000000
     20          0.300572   1.000000
     21          1.435772   1.000000
     22          1.882343   1.000000
     23          1.933539   1.000000
     24          2.056394   1.000000
     25          2.384048   1.000000
     26          2.900170   1.000000
     27          4.505784   0.000000
     28          4.658644   0.000000
     29          4.935001   0.000000
     30          5.219507   0.000000
     31          5.755308   0.000000
     32          5.949046   0.000000
     33          6.063908   0.000000
 
  0.3333333E+00  0.8399909E-14  0.1276756E-14  0.2666667E-01
      1        -58.506342   1.000000
      2        -57.117276   1.000000
      3        -32.688013   1.000000
      4        -32.571052   1.000000
      5        -32.512903   1.000000
      6        -31.348915   1.000000
      7        -31.266785   1.000000
      8        -31.154087   1.000000
      9        -10.243740   1.000000
     10         -9.476706   1.000000
     11         -8.071447   1.000000
     12         -7.661116   1.000000
     13         -2.476351   1.000000
     14         -1.508976   1.000000
     15         -1.280937   1.000000
     16         -1.114448   1.000000
     17         -0.572008   1.000000
     18         -0.452531   1.000000
     19         -0.109295   1.000000
     20          0.595359   1.000000
     21          1.226634   1.000000
     22          1.601057   1.000000
     23          1.641183   1.000000
     24          1.838963   1.000000
     25          2.287776   1.000000
     26          3.210637   1.000000
     27          4.324369   0.000000
     28          4.643725   0.000000
     29          4.948825   0.000000
     30          5.478149   0.000000
     31          5.532065   0.000000
     32          6.174384   0.000000
     33          6.401107   0.000000
 
  0.4000000E+00  0.8439303E-14  0.1276756E-14  0.2666667E-01
      1        -58.503755   1.000000
      2        -57.114667   1.000000
      3        -32.718907   1.000000
      4        -32.578335   1.000000
      5        -32.506891   1.000000
      6        -31.342305   1.000000
      7        -31.296625   1.000000
      8        -31.161167   1.000000
      9        -10.010337   1.000000
     10         -9.392999   1.000000
     11         -7.559735   1.000000
     12         -7.305481   1.000000
     13         -2.680954   1.000000
     14         -1.930768   1.000000
     15         -1.644274   1.000000
     16         -1.434197   1.000000
     17         -1.124357   1.000000
     18         -0.619942   1.000000
     19         -0.010997   1.000000
     20          0.835612   1.000000
     21          1.113615   1.000000
     22          1.398754   1.000000
     23          1.496596   1.000000
     24          1.847625   1.000000
     25          2.378930   1.000000
     26          3.433825   0.999570
     27          4.206931   0.000000
     28          4.630289   0.000000
     29          5.097710   0.000000
     30          5.320645   0.000000
     31          5.822309   0.000000
     32          6.345272   0.000000
     33          6.729069   0.000000
 
  0.4666667E+00  0.1352306E-14  0.1276756E-14  0.2666667E-01
      1        -58.502341   1.000000
      2        -57.113242   1.000000
      3        -32.735744   1.000000
      4        -32.582317   1.000000
      5        -32.503599   1.000000
      6        -31.338685   1.000000
      7        -31.312889   1.000000
      8        -31.165037   1.000000
      9         -9.875856   1.000000
     10         -9.345782   1.000000
     11         -7.211491   1.000000
     12         -7.075803   1.000000
     13         -2.820049   1.000000
     14         -2.415716   1.000000
     15         -1.836378   1.000000
     16         -1.666690   1.000000
     17         -1.291241   1.000000
     18         -0.706677   1.000000
     19          0.033612   1.000000
     20          0.968697   1.000000
     21          1.073902   1.000000
     22          1.295434   1.000000
     23          1.430227   1.000000
     24          1.972188   1.000000
     25          2.526563   1.000000
     26          3.537483   0.655793
     27          4.151436   0.000000
     28          4.559447   0.000000
     29          5.279978   0.000000
     30          5.303606   0.000000
     31          5.979437   0.000000
     32          6.427765   0.000000
     33          6.913223   0.000000
 
  0.1333333E+00  0.6666667E-01  0.1276756E-14  0.2666667E-01
      1        -58.516758   1.000000
      2        -57.127775   1.000000
      3        -32.561144   1.000000
      4        -32.541796   1.000000
      5        -32.537118   1.000000
      6        -31.375558   1.000000
      7        -31.144290   1.000000
      8        -31.125661   1.000000
      9        -11.067694   1.000000
     10         -9.809871   1.000000
     11         -9.433726   1.000000
     12         -8.671036   1.000000
     13         -2.690802   1.000000
     14         -1.589385   1.000000
     15         -0.770086   1.000000
     16         -0.290656   1.000000
     17          0.071091   1.000000
     18          0.375697   1.000000
     19          0.835748   1.000000
     20          1.624393   1.000000
     21          1.830925   1.000000
     22          2.238525   1.000000
     23          2.539855   1.000000
     24          2.572473   1.000000
     25          2.802253   1.000000
     26          3.110202   1.000000
     27          4.705734   0.000000
     28          4.990286   0.000000
     29          5.073542   0.000000
     30          5.158864   0.000000
     31          6.223391   0.000000
     32          6.290991   0.000000
     33          6.805924   0.000000
 
  0.2000000E+00  0.6666667E-01  0.1276756E-14  0.5333333E-01
      1        -58.514234   1.000000
      2        -57.125231   1.000000
      3        -32.591310   1.000000
      4        -32.549736   1.000000
      5        -32.531263   1.000000
      6        -31.369114   1.000000
      7        -31.173400   1.000000
      8        -31.133378   1.000000
      9        -10.882239   1.000000
     10         -9.724130   1.000000
     11         -9.170444   1.000000
     12         -8.467214   1.000000
     13         -2.498905   1.000000
     14         -1.342126   1.000000
     15         -1.074308   1.000000
     16         -0.252984   1.000000
     17         -0.100809   1.000000
     18          0.081572   1.000000
     19          0.715040   1.000000
     20          1.117380   1.000000
     21          1.787133   1.000000
     22          2.118854   1.000000
     23          2.402786   1.000000
     24          2.476455   1.000000
     25          2.644252   1.000000
     26          2.851808   1.000000
     27          4.697885   0.000000
     28          4.767240   0.000000
     29          4.958661   0.000000
     30          5.490092   0.000000
     31          5.511907   0.000000
     32          5.867807   0.000000
     33          6.302657   0.000000
 
  0.2666667E+00  0.6666667E-01  0.1276756E-14  0.5333333E-01
      1        -58.511006   1.000000
      2        -57.121977   1.000000
      3        -32.629629   1.000000
      4        -32.559921   1.000000
      5        -32.523762   1.000000
      6        -31.360860   1.000000
      7        -31.210382   1.000000
      8        -31.143279   1.000000
      9        -10.633143   1.000000
     10         -9.622509   1.000000
     11         -8.779483   1.000000
     12         -8.174811   1.000000
     13         -2.331740   1.000000
     14         -1.383072   1.000000
     15         -1.040923   1.000000
     16         -0.600256   1.000000
     17         -0.197560   1.000000
     18          0.148973   1.000000
     19          0.385822   1.000000
     20          0.465833   1.000000
     21          1.531224   1.000000
     22          1.745637   1.000000
     23          2.114223   1.000000
     24          2.339478   1.000000
     25          2.500109   1.000000
     26          2.815124   1.000000
     27          4.530445   0.000000
     28          4.737126   0.000000
     29          4.841936   0.000000
     30          5.121565   0.000000
     31          5.755504   0.000000
     32          5.856047   0.000000
     33          5.949654   0.000000
 
  0.3333333E+00  0.6666667E-01  0.1276756E-14  0.5333333E-01
      1        -58.507629   1.000000
      2        -57.118573   1.000000
      3        -32.669403   1.000000
      4        -32.570559   1.000000
      5        -32.515907   1.000000
      6        -31.352220   1.000000
      7        -31.248776   1.000000
      8        -31.153621   1.000000
      9        -10.355928   1.000000
     10         -9.516867   1.000000
     11         -8.291951   1.000000
     12         -7.818091   1.000000
     13         -2.363755   1.000000
     14         -1.468749   1.000000
     15         -1.152099   1.000000
     16         -0.835382   1.000000
     17         -0.438512   1.000000
     18         -0.203684   1.000000
     19         -0.023320   1.000000
     20          0.399527   1.000000
     21          1.214555   1.000000
     22          1.512998   1.000000
     23          1.806936   1.000000
     24          2.117291   1.000000
     25          2.191029   1.000000
     26          3.084959   1.000000
     27          4.367022   0.000000
     28          4.596498   0.000000
     29          4.890307   0.000000
     30          5.260259   0.000000
     31          5.549864   0.000000
     32          6.080008   0.000000
     33          6.190357   0.000000
 
  0.4000000E+00  0.6666667E-01  0.1276756E-14  0.5333333E-01
      1        -58.504685   1.000000
      2        -57.115605   1.000000
      3        -32.703803   1.000000
      4        -32.579804   1.000000
      5        -32.509059   1.000000
      6        -31.344689   1.000000
      7        -31.281987   1.000000
      8        -31.162611   1.000000
      9        -10.097602   1.000000
     10         -9.422191   1.000000
     11         -7.766839   1.000000
     12         -7.444922   1.000000
     13         -2.546018   1.000000
     14         -1.590942   1.000000
     15         -1.525586   1.000000
     16         -1.331256   1.000000
     17         -0.874232   1.000000
     18         -0.560318   1.000000
     19         -0.003443   1.000000
     20          0.604357   1.000000
     21          1.071703   1.000000
     22          1.319523   1.000000
     23          1.688908   1.000000
     24          1.863154   1.000000
     25          2.151934   1.000000
     26          3.285958   1.000000
     27          4.273484   0.000000
     28          4.600439   0.000000
     29          4.925615   0.000000
     30          5.431742   0.000000
     31          5.603308   0.000000
     32          6.323119   0.000000
     33          6.435658   0.000000
 
  0.4666667E+00  0.6666667E-01  0.1276756E-14  0.5333333E-01
      1        -58.502687   1.000000
      2        -57.113591   1.000000
      3        -32.727028   1.000000
      4        -32.586070   1.000000
      5        -32.504407   1.000000
      6        -31.339574   1.000000
      7        -31.304413   1.000000
      8        -31.168704   1.000000
      9         -9.911474   1.000000
     10         -9.355594   1.000000
     11         -7.318416   1.000000
     12         -7.140524   1.000000
     13         -2.710732   1.000000
     14         -2.173989   1.000000
     15         -1.766883   1.000000
     16         -1.601088   1.000000
     17         -1.227416   1.000000
     18         -0.640911   1.000000
     19          0.058372   1.000000
     20          0.747331   1.000000
     21          1.037255   1.000000
     22          1.197442   1.000000
     23          1.548125   1.000000
     24          1.909436   1.000000
     25          2.267368   1.000000
     26          3.388437   0.999998
     27          4.188916   0.000000
     28          4.602084   0.000000
     29          5.109592   0.000000
     30          5.437108   0.000000
     31          5.884273   0.000000
     32          6.364419   0.000000
     33          6.703388   0.000000
 
 -0.4666667E+00  0.6666667E-01  0.1276756E-14  0.2666667E-01
      1        -58.501980   1.000000
      2        -57.112879   1.000000
      3        -32.735220   1.000000
      4        -32.588284   1.000000
      5        -32.502760   1.000000
      6        -31.337764   1.000000
      7        -31.312323   1.000000
      8        -31.170857   1.000000
      9         -9.843249   1.000000
     10         -9.331472   1.000000
     11         -7.130403   1.000000
     12         -7.018559   1.000000
     13         -2.782664   1.000000
     14         -2.424062   1.000000
     15         -1.867725   1.000000
     16         -1.752989   1.000000
     17         -1.295920   1.000000
     18         -0.666910   1.000000
     19          0.069897   1.000000
     20          0.801969   1.000000
     21          1.038046   1.000000
     22          1.155494   1.000000
     23          1.474985   1.000000
     24          1.993673   1.000000
     25          2.338109   1.000000
     26          3.422363   0.999872
     27          4.137845   0.000000
     28          4.599127   0.000000
     29          5.227178   0.000000
     30          5.467325   0.000000
     31          6.005939   0.000000
     32          6.341934   0.000000
     33          6.839638   0.000000
 
  0.2666667E+00  0.1333333E+00  0.1276756E-14  0.2666667E-01
      1        -58.511490   1.000000
      2        -57.122465   1.000000
      3        -32.621670   1.000000
      4        -32.560671   1.000000
      5        -32.524885   1.000000
      6        -31.362096   1.000000
      7        -31.202673   1.000000
      8        -31.144018   1.000000
      9        -10.671570   1.000000
     10         -9.637274   1.000000
     11         -8.843041   1.000000
     12         -8.221647   1.000000
     13         -2.333705   1.000000
     14         -1.336452   1.000000
     15         -1.060434   1.000000
     16         -0.518801   1.000000
     17         -0.258191   1.000000
     18          0.080041   1.000000
     19          0.546833   1.000000
     20          0.623486   1.000000
     21          1.456424   1.000000
     22          1.775394   1.000000
     23          2.167976   1.000000
     24          2.271381   1.000000
     25          2.725725   1.000000
     26          2.821794   1.000000
     27          4.507336   0.000000
     28          4.696996   0.000000
     29          4.808892   0.000000
     30          5.138746   0.000000
     31          5.669154   0.000000
     32          5.764551   0.000000
     33          5.932666   0.000000
 
  0.3333333E+00  0.1333333E+00  0.1276756E-14  0.5333333E-01
      1        -58.508336   1.000000
      2        -57.119285   1.000000
      3        -32.655575   1.000000
      4        -32.573961   1.000000
      5        -32.517552   1.000000
      6        -31.354029   1.000000
      7        -31.235353   1.000000
      8        -31.156957   1.000000
      9        -10.416539   1.000000
     10         -9.538087   1.000000
     11         -8.406843   1.000000
     12         -7.900108   1.000000
     13         -2.281372   1.000000
     14         -1.427352   1.000000
     15         -1.056522   1.000000
     16         -0.776083   1.000000
     17         -0.429623   1.000000
     18          0.077242   1.000000
     19          0.202005   1.000000
     20          0.250237   1.000000
     21          0.937601   1.000000
     22          1.628217   1.000000
     23          1.842756   1.000000
     24          1.983166   1.000000
     25          2.472154   1.000000
     26          3.034720   1.000000
     27          4.321061   0.000000
     28          4.550968   0.000000
     29          4.825217   0.000000
     30          5.032419   0.000000
     31          5.513885   0.000000
     32          5.766151   0.000000
     33          6.220990   0.000000
 
  0.4000000E+00  0.1333333E+00  0.1276756E-14  0.5333333E-01
      1        -58.505317   1.000000
      2        -57.116242   1.000000
      3        -32.687493   1.000000
      4        -32.586952   1.000000
      5        -32.510532   1.000000
      6        -31.346310   1.000000
      7        -31.266114   1.000000
      8        -31.169611   1.000000
      9        -10.157198   1.000000
     10         -9.440375   1.000000
     11         -7.904285   1.000000
     12         -7.537150   1.000000
     13         -2.386167   1.000000
     14         -1.487390   1.000000
     15         -1.389520   1.000000
     16         -1.065775   1.000000
     17         -0.622376   1.000000
     18         -0.465223   1.000000
     19          0.075232   1.000000
     20          0.294035   1.000000
     21          0.764688   1.000000
     22          1.395653   1.000000
     23          1.673113   1.000000
     24          1.768151   1.000000
     25          2.122343   1.000000
     26          3.159565   1.000000
     27          4.316416   0.000000
     28          4.470912   0.000000
     29          4.823444   0.000000
     30          5.276638   0.000000
     31          5.506189   0.000000
     32          5.914420   0.000000
     33          6.397867   0.000000
 
  0.4666667E+00  0.1333333E+00  0.1276756E-14  0.5333333E-01
      1        -58.502958   1.000000
      2        -57.113864   1.000000
      3        -32.712194   1.000000
      4        -32.597192   1.000000
      5        -32.505041   1.000000
      6        -31.340274   1.000000
      7        -31.289917   1.000000
      8        -31.179590   1.000000
      9         -9.942077   1.000000
     10         -9.360706   1.000000
     11         -7.416884   1.000000
     12         -7.196738   1.000000
     13         -2.513954   1.000000
     14         -1.811892   1.000000
     15         -1.771824   1.000000
     16         -1.417207   1.000000
     17         -1.061440   1.000000
     18         -0.567754   1.000000
     19          0.141126   1.000000
     20          0.309384   1.000000
     21          0.743613   1.000000
     22          1.199391   1.000000
     23          1.636838   1.000000
     24          1.704559   1.000000
     25          1.908982   1.000000
     26          3.218241   1.000000
     27          4.239564   0.000000
     28          4.594096   0.000000
     29          4.968134   0.000000
     30          5.553956   0.000000
     31          5.595735   0.000000
     32          6.046493   0.000000
     33          6.445248   0.000000
 
 -0.4666667E+00  0.1333333E+00  0.1276756E-14  0.5333333E-01
      1        -58.501667   1.000000
      2        -57.112563   1.000000
      3        -32.725640   1.000000
      4        -32.602816   1.000000
      5        -32.502034   1.000000
      6        -31.336969   1.000000
      7        -31.302874   1.000000
      8        -31.185071   1.000000
      9         -9.819001   1.000000
     10         -9.315510   1.000000
     11         -7.090786   1.000000
     12         -6.978808   1.000000
     13         -2.596979   1.000000
     14         -2.199463   1.000000
     15         -1.973864   1.000000
     16         -1.683749   1.000000
     17         -1.247667   1.000000
     18         -0.552120   1.000000
     19          0.139767   1.000000
     20          0.334336   1.000000
     21          0.765085   1.000000
     22          1.087031   1.000000
     23          1.541106   1.000000
     24          1.687790   1.000000
     25          1.997241   1.000000
     26          3.285203   1.000000
     27          4.067702   0.000000
     28          4.763635   0.000000
     29          5.156540   0.000000
     30          5.635964   0.000000
     31          5.789490   0.000000
     32          6.101490   0.000000
     33          6.434300   0.000000
 
  0.4000000E+00  0.2000000E+00  0.1276756E-14  0.2666667E-01
      1        -58.505543   1.000000
      2        -57.116470   1.000000
      3        -32.679769   1.000000
      4        -32.591453   1.000000
      5        -32.511054   1.000000
      6        -31.346884   1.000000
      7        -31.258570   1.000000
      8        -31.174032   1.000000
      9        -10.178320   1.000000
     10         -9.446511   1.000000
     11         -7.952179   1.000000
     12         -7.569295   1.000000
     13         -2.312844   1.000000
     14         -1.457189   1.000000
     15         -1.362064   1.000000
     16         -0.901772   1.000000
     17         -0.597367   1.000000
     18         -0.275379   1.000000
     19          0.086765   1.000000
     20          0.201922   1.000000
     21          0.553895   1.000000
     22          1.370700   1.000000
     23          1.552225   1.000000
     24          1.724532   1.000000
     25          2.255807   1.000000
     26          3.119571   1.000000
     27          4.291801   0.000000
     28          4.433881   0.000000
     29          4.792513   0.000000
     30          5.129334   0.000000
     31          5.513274   0.000000
     32          5.691905   0.000000
     33          6.436557   0.000000
 
  0.4666667E+00  0.2000000E+00  0.1276756E-14  0.5333333E-01
      1        -58.503106   1.000000
      2        -57.114013   1.000000
      3        -32.698942   1.000000
      4        -32.608475   1.000000
      5        -32.505390   1.000000
      6        -31.340659   1.000000
      7        -31.276898   1.000000
      8        -31.190689   1.000000
      9         -9.959779   1.000000
     10         -9.362573   1.000000
     11         -7.474866   1.000000
     12         -7.229264   1.000000
     13         -2.349347   1.000000
     14         -1.844290   1.000000
     15         -1.474241   1.000000
     16         -1.183813   1.000000
     17         -0.841148   1.000000
     18         -0.558082   1.000000
     19         -0.070821   1.000000
     20          0.264251   1.000000
     21          0.455081   1.000000
     22          0.980899   1.000000
     23          1.302685   1.000000
     24          1.743132   1.000000
     25          1.970416   1.000000
     26          3.136041   1.000000
     27          4.263326   0.000000
     28          4.525764   0.000000
     29          4.926890   0.000000
     30          5.287163   0.000000
     31          5.631111   0.000000
     32          5.700315   0.000000
     33          6.520833   0.000000
 
 -0.4666667E+00  0.2000000E+00  0.1276756E-14  0.5333333E-01
      1        -58.501449   1.000000
      2        -57.112343   1.000000
      3        -32.711044   1.000000
      4        -32.620884   1.000000
      5        -32.501544   1.000000
      6        -31.336432   1.000000
      7        -31.288415   1.000000
      8        -31.202863   1.000000
      9         -9.804850   1.000000
     10         -9.302748   1.000000
     11         -7.081517   1.000000
     12         -6.957702   1.000000
     13         -2.349886   1.000000
     14         -2.103688   1.000000
     15         -1.829670   1.000000
     16         -1.459712   1.000000
     17         -1.140632   1.000000
     18         -0.467412   1.000000
     19         -0.211189   1.000000
     20          0.188854   1.000000
     21          0.414749   1.000000
     22          0.905527   1.000000
     23          1.101052   1.000000
     24          1.626562   1.000000
     25          1.992788   1.000000
     26          3.228194   1.000000
     27          3.981022   0.000000
     28          4.840845   0.000000
     29          5.132177   0.000000
     30          5.332802   0.000000
     31          5.731031   0.000000
     32          5.888070   0.000000
     33          6.493303   0.000000
 
 -0.4000000E+00  0.2000000E+00  0.1276756E-14  0.2666667E-01
      1        -58.500863   1.000000
      2        -57.111752   1.000000
      3        -32.715150   1.000000
      4        -32.625436   1.000000
      5        -32.500183   1.000000
      6        -31.334937   1.000000
      7        -31.292311   1.000000
      8        -31.207336   1.000000
      9         -9.748668   1.000000
     10         -9.280941   1.000000
     11         -6.922048   1.000000
     12         -6.850702   1.000000
     13         -2.349822   1.000000
     14         -2.187590   1.000000
     15         -1.988664   1.000000
     16         -1.616300   1.000000
     17         -1.230361   1.000000
     18         -0.410627   1.000000
     19         -0.261125   1.000000
     20          0.123441   1.000000
     21          0.407603   1.000000
     22          0.921810   1.000000
     23          1.026913   1.000000
     24          1.527483   1.000000
     25          2.091963   1.000000
     26          3.298801   1.000000
     27          3.828669   0.000000
     28          4.995681   0.000000
     29          5.184910   0.000000
     30          5.332574   0.000000
     31          5.863958   0.000000
     32          5.942866   0.000000
     33          6.462645   0.000000
 
 -0.4666667E+00  0.2666667E+00  0.1276756E-14  0.2666667E-01
      1        -58.501371   1.000000
      2        -57.112264   1.000000
      3        -32.702563   1.000000
      4        -32.630614   1.000000
      5        -32.501371   1.000000
      6        -31.336243   1.000000
      7        -31.279915   1.000000
      8        -31.212560   1.000000
      9         -9.800302   1.000000
     10         -9.297849   1.000000
     11         -7.081630   1.000000
     12         -6.951422   1.000000
     13         -2.236373   1.000000
     14         -2.139483   1.000000
     15         -1.612704   1.000000
     16         -1.285824   1.000000
     17         -1.054701   1.000000
     18         -0.583064   1.000000
     19         -0.369875   1.000000
     20          0.159025   1.000000
     21          0.234133   1.000000
     22          0.594056   1.000000
     23          1.080213   1.000000
     24          1.666218   1.000000
     25          1.993472   1.000000
     26          3.211913   1.000000
     27          3.943896   0.000000
     28          4.817139   0.000000
     29          5.098281   0.000000
     30          5.218707   0.000000
     31          5.680389   0.000000
     32          5.887629   0.000000
     33          6.540467   0.000000
 
 -0.4000000E+00  0.2666667E+00  0.1276756E-14  0.5333333E-01
      1        -58.500424   1.000000
      2        -57.111310   1.000000
      3        -32.700927   1.000000
      4        -32.646347   1.000000
      5        -32.499172   1.000000
      6        -31.333827   1.000000
      7        -31.277689   1.000000
      8        -31.228406   1.000000
      9         -9.711053   1.000000
     10         -9.260713   1.000000
     11         -6.835866   1.000000
     12         -6.780362   1.000000
     13         -2.341558   1.000000
     14         -2.026105   1.000000
     15         -1.674872   1.000000
     16         -1.475461   1.000000
     17         -1.158849   1.000000
     18         -0.818357   1.000000
     19         -0.318757   1.000000
     20         -0.217791   1.000000
     21          0.133025   1.000000
     22          0.636546   1.000000
     23          0.929353   1.000000
     24          1.524612   1.000000
     25          2.182994   1.000000
     26          3.346163   1.000000
     27          3.639354   0.006563
     28          4.954395   0.000000
     29          5.013897   0.000000
     30          5.377383   0.000000
     31          5.810669   0.000000
     32          6.085020   0.000000
     33          6.511025   0.000000
 
 -0.3333333E+00  0.3333333E+00  0.1276756E-14  0.8888889E-02
      1        -58.500058   1.000000
      2        -57.110941   1.000000
      3        -32.690784   1.000000
      4        -32.661928   1.000000
      5        -32.498332   1.000000
      6        -31.332905   1.000000
      7        -31.265571   1.000000
      8        -31.245772   1.000000
      9         -9.677796   1.000000
     10         -9.245268   1.000000
     11         -6.745411   1.000000
     12         -6.714174   1.000000
     13         -2.418196   1.000000
     14         -1.750733   1.000000
     15         -1.499496   1.000000
     16         -1.477911   1.000000
     17         -1.257317   1.000000
     18         -1.029235   1.000000
     19         -0.706562   1.000000
     20         -0.192851   1.000000
     21          0.008206   1.000000
     22          0.628516   1.000000
     23          0.854868   1.000000
     24          1.482490   1.000000
     25          2.303258   1.000000
     26          3.423190   0.999860
     27          3.460432   0.995065
     28          4.875038   0.000000
     29          4.952487   0.000000
     30          5.511700   0.000000
     31          5.836024   0.000000
     32          6.231590   0.000000
     33          6.500597   0.000000
