Bilayer MoS2/MoTe2 2H (relaxed monolayers)
 1.0000000000000000
  3.3789462357194506   0.0000000000000000   0.0000000000000000
  1.6894731178597253   2.9262532781548463   0.0000000000000000
  0.0000000000000000   0.0000000000000000  20.0000000000000000
   Mo   S   Te
     2     2     2
Cartesian
  0.0000000000000000   0.0000000000000000  10.0000000000000000
  1.6894731178597253   0.9754177593849487  16.5000000000000000
  1.6894731178597373   0.9754177593849557   8.4459478836688664
  1.6894731178597373   0.9754177593849557  11.5540521163311301
  5.0684193535791637   2.9262532781548392  14.7046443675928717
  5.0684193535791637   2.9262532781548392  18.2953556324071265
