cpu-bind=MASK - c008, task  0  0 [260132]: mask 0xfffffffffff0 set
 running  264 mpi-ranks, with    1 threads/rank, on    6 nodes
 distrk:  each k-point on   44 cores,    6 groups
 distr:  one band on    4 cores,   11 groups
 vasp.6.5.1 10Mar25 (build Aug 29 2025 00:30:47) complex                        
  
 POSCAR found type information on POSCAR MoS Te
 POSCAR found :  3 types and       6 ions
 scaLAPACK will be used
 -----------------------------------------------------------------------------
|                                                                             |
|               ----> ADVICE to this user running VASP <----                  |
|                                                                             |
|     You have a (more or less) 'small supercell' and for smaller cells       |
|     it is recommended to use the reciprocal-space projection scheme!        |
|     The real-space optimization is not efficient for small cells and it     |
|     is also less accurate ...                                               |
|     Therefore, set LREAL=.FALSE. in the INCAR file.                         |
|                                                                             |
 -----------------------------------------------------------------------------

 LDA part: xc-table for (Slater+PW92), standard interpolation
 POSCAR, INCAR and KPOINTS ok, starting setup
 FFT: planning ... GRIDC
 FFT: planning ... GRID_SOFT
 FFT: planning ... GRID
 WAVECAR not read
 entering main loop
       N       E                     dE             d eps       ncg     rms          rms(c)
DAV:   1     0.379753251748E+03    0.37975E+03   -0.27948E+04  2134   0.137E+03
DAV:   2    -0.185420843187E+02   -0.39830E+03   -0.39108E+03  2189   0.316E+02
DAV:   3    -0.410951213610E+02   -0.22553E+02   -0.22330E+02  2387   0.663E+01
DAV:   4    -0.416653340972E+02   -0.57021E+00   -0.56929E+00  2596   0.109E+01
DAV:   5    -0.416772807922E+02   -0.11947E-01   -0.11943E-01  2607   0.130E+00    0.260E+01
DAV:   6    -0.400639796123E+02    0.16133E+01   -0.14432E+01  2013   0.196E+01    0.119E+01
DAV:   7    -0.399496415459E+02    0.11434E+00   -0.95558E+00  1936   0.157E+01    0.748E+00
DAV:   8    -0.392347581056E+02    0.71488E+00   -0.16817E+00  1947   0.708E+00    0.232E+00
DAV:   9    -0.392337754096E+02    0.98270E-03   -0.24493E-01  2299   0.234E+00    0.139E+00
DAV:  10    -0.392204458844E+02    0.13330E-01   -0.29132E-02  2277   0.999E-01    0.574E-01
DAV:  11    -0.392164259279E+02    0.40200E-02   -0.13955E-02  2519   0.558E-01    0.277E-01
DAV:  12    -0.392146250788E+02    0.18008E-02   -0.61032E-03  2255   0.345E-01    0.177E-01
DAV:  13    -0.392141468760E+02    0.47820E-03   -0.63647E-04  2299   0.119E-01    0.117E-01
DAV:  14    -0.392123203349E+02    0.18265E-02   -0.25149E-03  2299   0.274E-01    0.917E-02
DAV:  15    -0.392122992945E+02    0.21040E-04   -0.33444E-04  2145   0.647E-02    0.700E-02
DAV:  16    -0.392120070009E+02    0.29229E-03   -0.10657E-03  2288   0.175E-01    0.927E-02
DAV:  17    -0.392123923445E+02   -0.38534E-03   -0.38060E-04  2222   0.789E-02    0.971E-02
DAV:  18    -0.392125306709E+02   -0.13833E-03   -0.36832E-05  2277   0.233E-02    0.576E-02
DAV:  19    -0.392129091255E+02   -0.37845E-03   -0.99992E-05  2134   0.416E-02    0.310E-02
DAV:  20    -0.392130707229E+02   -0.16160E-03   -0.46071E-05  2222   0.274E-02    0.549E-02
DAV:  21    -0.392130831133E+02   -0.12390E-04   -0.75772E-06  2178   0.162E-02    0.431E-02
DAV:  22    -0.392130922382E+02   -0.91250E-05   -0.13468E-05  2123   0.144E-02    0.116E-02
DAV:  23    -0.392130845580E+02    0.76802E-05   -0.32596E-06  1793   0.669E-03    0.930E-03
DAV:  24    -0.392130861788E+02   -0.16208E-05   -0.28612E-07  1331   0.221E-03    0.677E-03
DAV:  25    -0.392130937226E+02   -0.75438E-05   -0.25064E-06  1617   0.494E-03    0.486E-03
DAV:  26    -0.392130940049E+02   -0.28230E-06   -0.93967E-08  1056   0.144E-03
   1 F= -.41717158E+02 E0= -.41717109E+02  d E =-.417172E+02
 BRION: g(F)=  0.195E+00 g(S)=  0.000E+00
 bond charge predicted
       N       E                     dE             d eps       ncg     rms          rms(c)
DAV:   1    -0.393186043507E+02   -0.10551E+00   -0.69130E+00  1826   0.960E+00    0.259E+00
DAV:   2    -0.393431385852E+02   -0.24534E-01   -0.35453E-01  2167   0.253E+00    0.115E+00
DAV:   3    -0.393418538840E+02    0.12847E-02   -0.18008E-02  2156   0.737E-01    0.646E-01
DAV:   4    -0.393428591968E+02   -0.10053E-02   -0.13239E-02  2134   0.621E-01    0.476E-01
DAV:   5    -0.393410342570E+02    0.18249E-02   -0.56031E-03  2002   0.422E-01    0.789E-02
DAV:   6    -0.393410235491E+02    0.10708E-04   -0.43244E-04  2530   0.916E-02    0.696E-02
DAV:   7    -0.393410057025E+02    0.17847E-04   -0.94644E-05  2079   0.407E-02    0.418E-02
DAV:   8    -0.393410074633E+02   -0.17607E-05   -0.44977E-05  2233   0.292E-02    0.240E-02
DAV:   9    -0.393410101484E+02   -0.26851E-05   -0.12440E-05  2277   0.161E-02    0.773E-03
DAV:  10    -0.393410176247E+02   -0.74764E-05   -0.14668E-06  1804   0.561E-03    0.501E-03
DAV:  11    -0.393410350637E+02   -0.17439E-04   -0.42967E-06  1936   0.764E-03    0.433E-03
DAV:  12    -0.393410417592E+02   -0.66955E-05   -0.17102E-06  1848   0.483E-03    0.439E-03
DAV:  13    -0.393410451337E+02   -0.33745E-05   -0.61531E-07  1419   0.258E-03    0.165E-03
DAV:  14    -0.393410463397E+02   -0.12060E-05   -0.20738E-07  1221   0.162E-03    0.104E-03
DAV:  15    -0.393410468048E+02   -0.46519E-06   -0.85502E-08  1067   0.813E-04
   2 F= -.41839904E+02 E0= -.41839506E+02  d E =-.122746E+00
 BRION: g(F)=  0.138E-01 g(S)=  0.000E+00 retain N=  1 mean eig= 1.35
 eig:   1.346
 bond charge predicted
       N       E                     dE             d eps       ncg     rms          rms(c)
DAV:   1    -0.393481277553E+02   -0.70814E-02   -0.99548E-01  1782   0.493E+00    0.836E-01
DAV:   2    -0.393519645811E+02   -0.38368E-02   -0.51286E-02  2167   0.108E+00    0.380E-01
DAV:   3    -0.393518508235E+02    0.11376E-03   -0.17628E-03  2321   0.229E-01    0.221E-01
DAV:   4    -0.393519444197E+02   -0.93596E-04   -0.15009E-03  2233   0.197E-01    0.141E-01
DAV:   5    -0.393517744797E+02    0.16994E-03   -0.74797E-04  2112   0.142E-01    0.344E-02
DAV:   6    -0.393517707474E+02    0.37324E-05   -0.41326E-05  2266   0.319E-02    0.288E-02
DAV:   7    -0.393517696556E+02    0.10918E-05   -0.44769E-06  2200   0.948E-03    0.179E-02
DAV:   8    -0.393517684433E+02    0.12123E-05   -0.70971E-06  1991   0.124E-02    0.751E-03
DAV:   9    -0.393517684178E+02    0.25466E-07   -0.15431E-06  1309   0.541E-03
   3 F= -.41849190E+02 E0= -.41848783E+02  d E =-.928528E-02
 BRION: g(F)=  0.747E-03 g(S)=  0.000E+00 retain N=  2 mean eig= 2.74
 eig:   1.396  4.088
 bond charge predicted
       N       E                     dE             d eps       ncg     rms          rms(c)
DAV:   1    -0.393519193902E+02   -0.15095E-03   -0.31123E-02  1782   0.128E+00    0.709E-02
DAV:   2    -0.393520502653E+02   -0.13088E-03   -0.14269E-03  2068   0.229E-01    0.213E-02
DAV:   3    -0.393520467528E+02    0.35125E-05   -0.21933E-05  2266   0.278E-02    0.155E-02
DAV:   4    -0.393520458637E+02    0.88913E-06   -0.66977E-06  2343   0.132E-02
   4 F= -.41849433E+02 E0= -.41849032E+02  d E =-.243836E-03
 BRION: g(F)=  0.113E-03 g(S)=  0.000E+00 retain N=  2 mean eig= 0.93
 eig:   1.243  0.616
 bond charge predicted
       N       E                     dE             d eps       ncg     rms          rms(c)
DAV:   1    -0.393518660394E+02    0.18071E-03   -0.15560E-02  1782   0.927E-01    0.489E-02
DAV:   2    -0.393519287013E+02   -0.62662E-04   -0.69309E-04  1892   0.164E-01    0.218E-02
DAV:   3    -0.393519270400E+02    0.16613E-05   -0.91637E-06  2266   0.194E-02    0.152E-02
DAV:   4    -0.393519264314E+02    0.60857E-06   -0.37164E-06  2167   0.101E-02
   5 F= -.41849537E+02 E0= -.41849137E+02  d E =-.103760E-03
 BRION: g(F)=  0.785E-04 g(S)=  0.000E+00 retain N=  3 mean eig= 1.11
 eig:   0.720  1.311  1.311
 bond charge predicted
       N       E                     dE             d eps       ncg     rms          rms(c)
DAV:   1    -0.393515186615E+02    0.40838E-03   -0.16827E-02  1782   0.947E-01    0.451E-02
DAV:   2    -0.393515902730E+02   -0.71612E-04   -0.78714E-04  1980   0.172E-01    0.195E-02
DAV:   3    -0.393515887483E+02    0.15247E-05   -0.10352E-05  2145   0.206E-02    0.146E-02
DAV:   4    -0.393515883124E+02    0.43594E-06   -0.23532E-06  1903   0.808E-03
   6 F= -.41849644E+02 E0= -.41849245E+02  d E =-.106391E-03
 BRION: g(F)=  0.677E-04 g(S)=  0.000E+00 retain N=  4 mean eig= 1.84
 eig:   0.769  1.269  2.664  2.664
 bond charge predicted
       N       E                     dE             d eps       ncg     rms          rms(c)
DAV:   1    -0.393499250945E+02    0.16637E-02   -0.16236E-01  1782   0.302E+00    0.115E-01
DAV:   2    -0.393506159050E+02   -0.69081E-03   -0.74589E-03  1925   0.536E-01    0.540E-02
DAV:   3    -0.393506021894E+02    0.13716E-04   -0.90184E-05  2123   0.622E-02    0.411E-02
DAV:   4    -0.393505980016E+02    0.41879E-05   -0.24145E-05  2398   0.258E-02    0.257E-02
DAV:   5    -0.393505976137E+02    0.38787E-06   -0.46085E-06  2211   0.127E-02
   7 F= -.41849928E+02 E0= -.41849531E+02  d E =-.284359E-03
 BRION: g(F)=  0.820E-04 g(S)=  0.000E+00 retain N=  4 mean eig= 3.73
 eig:   6.729  6.729  0.603  0.866
 bond charge predicted
       N       E                     dE             d eps       ncg     rms          rms(c)
DAV:   1    -0.393370195563E+02    0.13578E-01   -0.22005E+00  1782   0.111E+01    0.468E-01
DAV:   2    -0.393464997751E+02   -0.94802E-02   -0.10317E-01  1947   0.199E+00    0.205E-01
DAV:   3    -0.393463104134E+02    0.18936E-03   -0.12915E-03  2134   0.236E-01    0.156E-01
DAV:   4    -0.393462555583E+02    0.54855E-04   -0.32832E-04  2299   0.939E-02    0.100E-01
DAV:   5    -0.393462508639E+02    0.46944E-05   -0.60448E-05  2266   0.467E-02    0.551E-02
DAV:   6    -0.393462534279E+02   -0.25640E-05   -0.25701E-05  2266   0.310E-02    0.205E-02
DAV:   7    -0.393462537889E+02   -0.36098E-06   -0.90339E-06  2068   0.155E-02
   8 F= -.41850807E+02 E0= -.41850416E+02  d E =-.878994E-03
 BRION: g(F)=  0.296E-04 g(S)=  0.000E+00
 BRIONS problems: POTIM should be increased
 retain N=  1 mean eig=17.93
 eig:  17.928
 bond charge predicted
       N       E                     dE             d eps       ncg     rms          rms(c)
DAV:   1    -0.393433938803E+02    0.28595E-02   -0.27524E-01  1782   0.386E+00    0.182E-01
DAV:   2    -0.393445791781E+02   -0.11853E-02   -0.13012E-02  2046   0.699E-01    0.748E-02
DAV:   3    -0.393445543511E+02    0.24827E-04   -0.16533E-04  2145   0.834E-02    0.578E-02
DAV:   4    -0.393445482449E+02    0.61061E-05   -0.38045E-05  2354   0.319E-02    0.373E-02
DAV:   5    -0.393445473419E+02    0.90303E-06   -0.82557E-06  2222   0.179E-02
   9 F= -.41851008E+02 E0= -.41850616E+02  d E =-.200969E-03
 BRION: g(F)=  0.180E-04 g(S)=  0.000E+00 retain N=  1 mean eig= 2.11
 eig:   2.110
 bond charge predicted
       N       E                     dE             d eps       ncg     rms          rms(c)
DAV:   1    -0.393449291550E+02   -0.38091E-03   -0.17121E-02  1782   0.923E-01    0.508E-02
DAV:   2    -0.393450028011E+02   -0.73646E-04   -0.80490E-04  2101   0.169E-01    0.188E-02
DAV:   3    -0.393450010511E+02    0.17500E-05   -0.11592E-05  2101   0.211E-02    0.149E-02
DAV:   4    -0.393450007455E+02    0.30555E-06   -0.16466E-06  1727   0.642E-03
  10 F= -.41850964E+02 E0= -.41850572E+02  d E =0.435047E-04
 BRION: g(F)=  0.159E-04 g(S)=  0.000E+00 retain N=  2 mean eig= 1.71
 eig:   2.476  0.940
 bond charge predicted
       N       E                     dE             d eps       ncg     rms          rms(c)
DAV:   1    -0.393445231815E+02    0.47787E-03   -0.15934E-02  1782   0.933E-01    0.456E-02
DAV:   2    -0.393445921512E+02   -0.68970E-04   -0.75240E-04  1991   0.168E-01    0.153E-02
DAV:   3    -0.393445906830E+02    0.14682E-05   -0.99098E-06  2156   0.204E-02    0.119E-02
DAV:   4    -0.393445903599E+02    0.32314E-06   -0.20805E-06  1518   0.742E-03
  11 F= -.41851006E+02 E0= -.41850614E+02  d E =-.413257E-04
 BRION: g(F)=  0.115E-04 g(S)=  0.000E+00 retain N=  1 mean eig= 2.46
 eig:   2.459
 bond charge predicted
       N       E                     dE             d eps       ncg     rms          rms(c)
DAV:   1    -0.393441688236E+02    0.42186E-03   -0.15041E-02  1782   0.923E-01    0.336E-02
DAV:   2    -0.393442326145E+02   -0.63791E-04   -0.68911E-04  1914   0.164E-01    0.180E-02
DAV:   3    -0.393442313430E+02    0.12716E-05   -0.82133E-06  2178   0.188E-02    0.137E-02
DAV:   4    -0.393442308687E+02    0.47432E-06   -0.23807E-06  1903   0.839E-03
  12 F= -.41851038E+02 E0= -.41850646E+02  d E =-.325746E-04
 BRION: g(F)=  0.832E-05 g(S)=  0.000E+00 retain N=  1 mean eig= 7.10
 eig:   7.101
 bond charge predicted
       N       E                     dE             d eps       ncg     rms          rms(c)
DAV:   1    -0.393436136154E+02    0.61773E-03   -0.24259E-02  1782   0.114E+00    0.501E-02
DAV:   2    -0.393437165395E+02   -0.10292E-03   -0.11252E-03  1991   0.206E-01    0.242E-02
DAV:   3    -0.393437145016E+02    0.20379E-05   -0.14091E-05  2145   0.242E-02    0.185E-02
DAV:   4    -0.393437138469E+02    0.65465E-06   -0.34706E-06  2233   0.984E-03
  13 F= -.41851083E+02 E0= -.41850692E+02  d E =-.449131E-04
 BRION: g(F)=  0.122E-04 g(S)=  0.000E+00 retain N=  2 mean eig= 4.86
 eig:   6.850  2.862
 bond charge predicted
       N       E                     dE             d eps       ncg     rms          rms(c)
DAV:   1    -0.393430328793E+02    0.68162E-03   -0.30028E-02  1782   0.130E+00    0.510E-02
DAV:   2    -0.393431611063E+02   -0.12823E-03   -0.13948E-03  1947   0.232E-01    0.265E-02
DAV:   3    -0.393431585001E+02    0.26062E-05   -0.16816E-05  2112   0.270E-02    0.201E-02
DAV:   4    -0.393431576610E+02    0.83915E-06   -0.49595E-06  2233   0.119E-02
  14 F= -.41851130E+02 E0= -.41850740E+02  d E =-.469931E-04
 BRION: g(F)=  0.843E-05 g(S)=  0.000E+00 retain N=  1 mean eig= 6.16
 eig:   6.165
 bond charge predicted
       N       E                     dE             d eps       ncg     rms          rms(c)
DAV:   1    -0.393422189767E+02    0.93952E-03   -0.52605E-02  1782   0.172E+00    0.668E-02
DAV:   2    -0.393424431902E+02   -0.22421E-03   -0.24360E-03  1947   0.307E-01    0.345E-02
DAV:   3    -0.393424386034E+02    0.45868E-05   -0.29550E-05  2189   0.357E-02    0.262E-02
DAV:   4    -0.393424371515E+02    0.14520E-05   -0.84330E-06  2354   0.156E-02    0.167E-02
DAV:   5    -0.393424371210E+02    0.30434E-07   -0.17840E-06  1617   0.814E-03
  15 F= -.41851180E+02 E0= -.41850788E+02  d E =-.502967E-04
 BRION: g(F)=  0.644E-05 g(S)=  0.000E+00 retain N=  2 mean eig= 6.03
 eig:   6.030  6.030
 bond charge predicted
       N       E                     dE             d eps       ncg     rms          rms(c)
DAV:   1    -0.393417717619E+02    0.66539E-03   -0.25771E-02  1782   0.119E+00    0.522E-02
DAV:   2    -0.393418815072E+02   -0.10975E-03   -0.12058E-03  1980   0.214E-01    0.237E-02
DAV:   3    -0.393418794114E+02    0.20958E-05   -0.15135E-05  2156   0.253E-02    0.181E-02
DAV:   4    -0.393418787795E+02    0.63188E-06   -0.36949E-06  2189   0.102E-02
  16 F= -.41851196E+02 E0= -.41850804E+02  d E =-.156464E-04
 BRION: g(F)=  0.478E-05 g(S)=  0.000E+00 retain N=  2 mean eig= 5.03
 eig:   5.025  5.025
 bond charge predicted
       N       E                     dE             d eps       ncg     rms          rms(c)
DAV:   1    -0.393415470160E+02    0.33240E-03   -0.79601E-03  1782   0.676E-01    0.240E-02
DAV:   2    -0.393415807850E+02   -0.33769E-04   -0.36552E-04  1859   0.120E-01    0.145E-02
DAV:   3    -0.393415802120E+02    0.57305E-06   -0.44900E-06  1991   0.139E-02
  17 F= -.41851210E+02 E0= -.41850819E+02  d E =-.136671E-04
 BRION: g(F)=  0.539E-05 g(S)=  0.000E+00 retain N=  2 mean eig= 1.36
 eig:   2.479  0.245
 bond charge predicted
       N       E                     dE             d eps       ncg     rms          rms(c)
DAV:   1    -0.393418467213E+02   -0.26594E-03   -0.84450E-03  1782   0.683E-01    0.346E-02
DAV:   2    -0.393418837413E+02   -0.37020E-04   -0.40323E-04  2057   0.123E-01    0.979E-03
DAV:   3    -0.393418828951E+02    0.84621E-06   -0.51694E-06  2156   0.149E-02
  18 F= -.41851196E+02 E0= -.41850805E+02  d E =0.139132E-04
 BRION: g(F)=  0.446E-05 g(S)=  0.000E+00 retain N=  3 mean eig= 3.07
 eig:   6.196  0.265  2.761
 bond charge predicted
       N       E                     dE             d eps       ncg     rms          rms(c)
DAV:   1    -0.393412483149E+02    0.63543E-03   -0.25240E-02  1782   0.118E+00    0.529E-02
DAV:   2    -0.393413570454E+02   -0.10873E-03   -0.11838E-03  1991   0.212E-01    0.188E-02
DAV:   3    -0.393413548407E+02    0.22047E-05   -0.15114E-05  2189   0.252E-02    0.148E-02
DAV:   4    -0.393413544021E+02    0.43853E-06   -0.33806E-06  2123   0.929E-03
  19 F= -.41851221E+02 E0= -.41850831E+02  d E =-.251834E-04
 BRION: g(F)=  0.573E-05 g(S)=  0.000E+00 retain N=  4 mean eig= 3.34
 eig:   7.934  2.054  2.760  0.598
 bond charge predicted
       N       E                     dE             d eps       ncg     rms          rms(c)
DAV:   1    -0.393347609551E+02    0.65939E-02   -0.81548E-01  1782   0.675E+00    0.284E-01
DAV:   2    -0.393382628570E+02   -0.35019E-02   -0.38090E-02  1947   0.121E+00    0.128E-01
DAV:   3    -0.393381911138E+02    0.71743E-04   -0.47595E-04  2134   0.143E-01    0.974E-02
DAV:   4    -0.393381702747E+02    0.20839E-04   -0.12319E-04  2288   0.575E-02    0.624E-02
DAV:   5    -0.393381683689E+02    0.19058E-05   -0.24430E-05  2255   0.297E-02    0.343E-02
DAV:   6    -0.393381695931E+02   -0.12242E-05   -0.95230E-06  2266   0.181E-02    0.139E-02
DAV:   7    -0.393381698232E+02   -0.23017E-06   -0.38443E-06  1991   0.102E-02
  20 F= -.41851307E+02 E0= -.41850920E+02  d E =-.855718E-04
 BRION: g(F)=  0.733E-05 g(S)=  0.000E+00
 BRIONS problems: POTIM should be increased
 retain N=  1 mean eig=19.19
 eig:  19.186
 bond charge predicted
       N       E                     dE             d eps       ncg     rms          rms(c)
DAV:   1    -0.393388186831E+02   -0.64909E-03   -0.29810E-01  1782   0.409E+00    0.164E-01
DAV:   2    -0.393400923998E+02   -0.12737E-02   -0.13782E-02  1936   0.729E-01    0.744E-02
DAV:   3    -0.393400656949E+02    0.26705E-04   -0.17083E-04  2134   0.853E-02    0.573E-02
DAV:   4    -0.393400579504E+02    0.77446E-05   -0.43477E-05  2343   0.339E-02    0.365E-02
DAV:   5    -0.393400565030E+02    0.14473E-05   -0.91358E-06  2255   0.181E-02    0.205E-02
DAV:   6    -0.393400566755E+02   -0.17251E-06   -0.32230E-06  2057   0.100E-02
  21 F= -.41851275E+02 E0= -.41850885E+02  d E =0.317861E-04
 BRION: g(F)=  0.307E-05 g(S)=  0.000E+00 retain N=  1 mean eig= 4.41
 eig:   4.412
 bond charge predicted
       N       E                     dE             d eps       ncg     rms          rms(c)
DAV:   1    -0.393391764543E+02    0.88005E-03   -0.41621E-02  1782   0.152E+00    0.627E-02
DAV:   2    -0.393393553446E+02   -0.17889E-03   -0.19275E-03  1991   0.272E-01    0.290E-02
DAV:   3    -0.393393512215E+02    0.41231E-05   -0.23236E-05  2178   0.316E-02    0.225E-02
DAV:   4    -0.393393500861E+02    0.11354E-05   -0.62774E-06  2288   0.127E-02    0.143E-02
DAV:   5    -0.393393499003E+02    0.18587E-06   -0.10934E-06  1045   0.675E-03
  22 F= -.41851295E+02 E0= -.41850907E+02  d E =-.204770E-04
 BRION: g(F)=  0.183E-05 g(S)=  0.000E+00 retain N=  1 mean eig= 4.01
 eig:   4.006
 bond charge predicted
       N       E                     dE             d eps       ncg     rms          rms(c)
DAV:   1    -0.393395451380E+02   -0.19505E-03   -0.24558E-03  1782   0.362E-01    0.196E-02
DAV:   2    -0.393395558963E+02   -0.10758E-04   -0.11815E-04  2101   0.660E-02    0.752E-03
DAV:   3    -0.393395555430E+02    0.35328E-06   -0.16241E-06  1386   0.827E-03
  23 F= -.41851291E+02 E0= -.41850902E+02  d E =0.394475E-05
 BRION: g(F)=  0.184E-05 g(S)=  0.000E+00 retain N=  2 mean eig= 4.09
 eig:   4.091  4.091
 bond charge predicted
       N       E                     dE             d eps       ncg     rms          rms(c)
DAV:   1    -0.393395598833E+02   -0.39869E-05   -0.11345E-05  1826   0.251E-02    0.428E-03
DAV:   2    -0.393395598535E+02    0.29801E-07   -0.55288E-07  1034   0.487E-03
  24 F= -.41851291E+02 E0= -.41850902E+02  d E =0.813322E-07
 BRION: g(F)=  0.147E-05 g(S)=  0.000E+00 retain N=  3 mean eig= 5.36
 eig:   7.855  7.855  0.358
 bond charge predicted
       N       E                     dE             d eps       ncg     rms          rms(c)
DAV:   1    -0.393395479655E+02    0.11918E-04   -0.15900E-05  1815   0.298E-02    0.166E-03
DAV:   2    -0.393395480183E+02   -0.52801E-07   -0.72356E-07   891   0.549E-03
  25 F= -.41851292E+02 E0= -.41850903E+02  d E =-.341007E-06
 BRION: g(F)=  0.109E-05 g(S)=  0.000E+00 retain N=  4 mean eig= 4.56
 eig:   7.518  7.518  0.874  2.315
 bond charge predicted
       N       E                     dE             d eps       ncg     rms          rms(c)
DAV:   1    -0.393395220361E+02    0.25929E-04   -0.70181E-05  1782   0.550E-02    0.361E-03
DAV:   2    -0.393395222820E+02   -0.24589E-06   -0.32557E-06  2332   0.103E-02
  26 F= -.41851293E+02 E0= -.41850903E+02  d E =-.937203E-06
 BRION: g(F)=  0.967E-06 g(S)=  0.000E+00 retain N=  4 mean eig= 2.10
 eig:   2.226  2.595  2.595  0.974
 bond charge predicted
       N       E                     dE             d eps       ncg     rms          rms(c)
DAV:   1    -0.393394730853E+02    0.48951E-04   -0.22456E-04  1782   0.112E-01    0.394E-03
DAV:   2    -0.393394739929E+02   -0.90763E-06   -0.10196E-05  1958   0.200E-02    0.294E-03
DAV:   3    -0.393394739618E+02    0.31165E-07   -0.11246E-07   924   0.230E-03
  27 F= -.41851294E+02 E0= -.41850904E+02  d E =-.125838E-05
 BRION: g(F)=  0.928E-06 g(S)=  0.000E+00 retain N=  1 mean eig= 5.11
 eig:   5.109
 bond charge predicted
       N       E                     dE             d eps       ncg     rms          rms(c)
DAV:   1    -0.393393996838E+02    0.74309E-04   -0.65804E-04  1782   0.192E-01    0.559E-03
DAV:   2    -0.393394023944E+02   -0.27106E-05   -0.28840E-05  1826   0.335E-02    0.330E-03
DAV:   3    -0.393394023512E+02    0.43149E-07   -0.30910E-07  1001   0.379E-03
  28 F= -.41851295E+02 E0= -.41850906E+02  d E =-.160415E-05
 BRION: g(F)=  0.627E-06 g(S)=  0.000E+00 retain N=  2 mean eig= 4.07
 eig:   6.251  1.883
 bond charge predicted
       N       E                     dE             d eps       ncg     rms          rms(c)
DAV:   1    -0.393391775698E+02    0.22482E-03   -0.35533E-03  1782   0.444E-01    0.184E-02
DAV:   2    -0.393391927138E+02   -0.15144E-04   -0.16506E-04  1980   0.795E-02    0.903E-03
DAV:   3    -0.393391924029E+02    0.31097E-06   -0.19014E-06  1606   0.926E-03
  29 F= -.41851299E+02 E0= -.41850910E+02  d E =-.337719E-05
 BRION: g(F)=  0.138E-06 g(S)=  0.000E+00 retain N=  2 mean eig= 4.83
 eig:   2.027  7.641
 bond charge predicted
       N       E                     dE             d eps       ncg     rms          rms(c)
DAV:   1    -0.393390728148E+02    0.11990E-03   -0.11291E-03  1782   0.255E-01    0.730E-03
DAV:   2    -0.393390774976E+02   -0.46827E-05   -0.50472E-05  1826   0.449E-02    0.677E-03
DAV:   3    -0.393390774375E+02    0.60062E-07   -0.54240E-07  1078   0.492E-03
  30 F= -.41851300E+02 E0= -.41850911E+02  d E =-.842248E-06
 BRION: g(F)=  0.694E-07 g(S)=  0.000E+00 retain N=  2 mean eig= 6.52
 eig:   6.524  6.524
 bond charge predicted
       N       E                     dE             d eps       ncg     rms          rms(c)
DAV:   1    -0.393390440414E+02    0.33456E-04   -0.98959E-05  1782   0.720E-02    0.211E-03
DAV:   2    -0.393390444388E+02   -0.39742E-06   -0.42518E-06  2079   0.129E-02
  31 F= -.41851300E+02 E0= -.41850911E+02  d E =-.593458E-06
 BRION: g(F)=  0.179E-05 g(S)=  0.000E+00 retain N=  3 mean eig= 6.14
 eig:   7.517  5.444  5.444
 bond charge predicted
       N       E                     dE             d eps       ncg     rms          rms(c)
DAV:   1    -0.393390145937E+02    0.29448E-04   -0.67263E-05  1782   0.609E-02    0.190E-03
DAV:   2    -0.393390148780E+02   -0.28431E-06   -0.30283E-06  1793   0.110E-02
  32 F= -.41851301E+02 E0= -.41850912E+02  d E =-.760424E-06
 BRION: g(F)=  0.150E-05 g(S)=  0.000E+00 retain N=  1 mean eig= 4.73
 eig:   4.728
 bond charge predicted
       N       E                     dE             d eps       ncg     rms          rms(c)
DAV:   1    -0.393386687697E+02    0.34582E-03   -0.72355E-03  1782   0.632E-01    0.268E-02
DAV:   2    -0.393386998164E+02   -0.31047E-04   -0.33776E-04  2002   0.114E-01    0.135E-02
DAV:   3    -0.393386991620E+02    0.65435E-06   -0.42017E-06  2167   0.133E-02
  33 F= -.41851307E+02 E0= -.41850918E+02  d E =-.565100E-05
 BRION: g(F)=  0.113E-06 g(S)=  0.000E+00 retain N=  1 mean eig= 4.89
 eig:   4.886
 bond charge predicted
       N       E                     dE             d eps       ncg     rms          rms(c)
DAV:   1    -0.393386250644E+02    0.74752E-04   -0.43490E-04  1782   0.159E-01    0.469E-03
DAV:   2    -0.393386267747E+02   -0.17102E-05   -0.18521E-05  1782   0.277E-02    0.659E-03
DAV:   3    -0.393386267636E+02    0.11017E-07   -0.19585E-07   924   0.282E-03
  34 F= -.41851307E+02 E0= -.41850919E+02  d E =-.372822E-06
 BRION: g(F)=  0.972E-07 g(S)=  0.000E+00 retain N=  2 mean eig= 2.87
 eig:   4.487  1.243
 bond charge predicted
       N       E                     dE             d eps       ncg     rms          rms(c)
DAV:   1    -0.393385901789E+02    0.36596E-04   -0.99593E-05  1782   0.729E-02    0.216E-03
DAV:   2    -0.393385905830E+02   -0.40402E-06   -0.44406E-06  1958   0.132E-02
  35 F= -.41851307E+02 E0= -.41850919E+02  d E =-.321737E-06
 BRION: g(F)=  0.182E-06 g(S)=  0.000E+00 retain N=  3 mean eig= 1.84
 eig:   4.203  0.046  1.278
 bond charge predicted
       N       E                     dE             d eps       ncg     rms          rms(c)
DAV:   1    -0.393385797154E+02    0.10464E-04   -0.95015E-06  1782   0.225E-02    0.205E-03
DAV:   2    -0.393385797510E+02   -0.35618E-07   -0.39166E-07   891   0.427E-03
  36 F= -.41851307E+02 E0= -.41850919E+02  d E =-.105623E-06
 BRION: g(F)=  0.125E-06 g(S)=  0.000E+00 retain N=  3 mean eig= 0.81
 eig:   0.822  0.129  1.467
 bond charge predicted
       N       E                     dE             d eps       ncg     rms          rms(c)
DAV:   1    -0.393386067894E+02   -0.27074E-04   -0.58915E-05  1782   0.582E-02    0.322E-03
DAV:   2    -0.393386070342E+02   -0.24485E-06   -0.27344E-06  1815   0.102E-02
  37 F= -.41851307E+02 E0= -.41850919E+02  d E =0.171677E-06
 BRION: g(F)=  0.215E-06 g(S)=  0.000E+00 retain N=  4 mean eig= 1.55
 eig:   1.907  1.907  1.196  1.196
 bond charge predicted
       N       E                     dE             d eps       ncg     rms          rms(c)
DAV:   1    -0.393386014479E+02    0.53415E-05   -0.25800E-06  1485   0.125E-02    0.658E-04
DAV:   2    -0.393386014619E+02   -0.13982E-07   -0.16319E-07   891   0.240E-03
  38 F= -.41851307E+02 E0= -.41850919E+02  d E =-.186324E-07
 BRION: g(F)=  0.129E-06 g(S)=  0.000E+00 retain N=  1 mean eig= 0.48
 eig:   0.484
 bond charge predicted
       N       E                     dE             d eps       ncg     rms          rms(c)
DAV:   1    -0.393385971611E+02    0.42868E-05   -0.75201E-06  1936   0.165E-02    0.147E-03
DAV:   2    -0.393385971762E+02   -0.15161E-07   -0.31180E-07   891   0.312E-03
  39 F= -.41851307E+02 E0= -.41850919E+02  d E =-.444111E-07
 BRION: g(F)=  0.169E-06 g(S)=  0.000E+00 retain N=  2 mean eig= 0.22
 eig:   0.363  0.072
 bond charge predicted
       N       E                     dE             d eps       ncg     rms          rms(c)
DAV:   1    -0.393385943865E+02    0.27745E-05   -0.75821E-06  1804   0.208E-02    0.886E-04
DAV:   2    -0.393385944066E+02   -0.20078E-07   -0.29110E-07   891   0.348E-03
  40 F= -.41851307E+02 E0= -.41850919E+02  d E =-.251991E-07
 BRION: g(F)=  0.744E-07 g(S)=  0.000E+00 retain N=  3 mean eig= 2.52
 eig:   7.044  0.405  0.102
 bond charge predicted
       N       E                     dE             d eps       ncg     rms          rms(c)
DAV:   1    -0.393385903946E+02    0.39920E-05   -0.18223E-06  1199   0.903E-03    0.360E-04
DAV:   2    -0.393385904046E+02   -0.10055E-07   -0.16310E-07   891   0.223E-03
  41 F= -.41851307E+02 E0= -.41850919E+02  d E =-.251621E-07
 BRION: g(F)=  0.272E-07 g(S)=  0.000E+00 retain N=  2 mean eig= 0.48
 eig:   0.233  0.719
 bond charge predicted
       N       E                     dE             d eps       ncg     rms          rms(c)
DAV:   1    -0.393385834058E+02    0.69888E-05   -0.43836E-06  1749   0.141E-02    0.644E-04
DAV:   2    -0.393385834220E+02   -0.16284E-07   -0.18380E-07   891   0.256E-03
  42 F= -.41851307E+02 E0= -.41850919E+02  d E =-.368201E-07
 BRION: g(F)=  0.751E-07 g(S)=  0.000E+00 retain N=  1 mean eig= 0.12
 eig:   0.116
 bond charge predicted
       N       E                     dE             d eps       ncg     rms          rms(c)
DAV:   1    -0.393385835146E+02   -0.10888E-06   -0.93157E-07  1188   0.685E-03    0.235E-04
DAV:   2    -0.393385835194E+02   -0.47803E-08   -0.55738E-08   891   0.141E-03
  43 F= -.41851307E+02 E0= -.41850919E+02  d E =-.462207E-08
 BRION: g(F)=  0.771E-07 g(S)=  0.000E+00 retain N=  2 mean eig= 0.27
 eig:   0.132  0.408
 bond charge predicted
       N       E                     dE             d eps       ncg     rms          rms(c)
DAV:   1    -0.393385831870E+02    0.32764E-06   -0.16284E-08   891   0.954E-04    0.130E-04
DAV:   2    -0.393385831871E+02   -0.87311E-10   -0.18001E-09   891   0.231E-04
  44 F= -.41851307E+02 E0= -.41850919E+02  d E =-.307377E-08
 BRION: g(F)=  0.869E-07 g(S)=  0.000E+00 retain N=  3 mean eig= 2.84
 eig:   7.952  0.289  0.289
 bond charge predicted
       N       E                     dE             d eps       ncg     rms          rms(c)
DAV:   1    -0.393385902275E+02   -0.70405E-05   -0.10825E-05  1782   0.257E-02    0.646E-04
DAV:   2    -0.393385902665E+02   -0.38976E-07   -0.42051E-07   891   0.429E-03
  45 F= -.41851307E+02 E0= -.41850919E+02  d E =0.625663E-07
 BRION: g(F)=  0.188E-06 g(S)=  0.000E+00 retain N=  2 mean eig= 2.94
 eig:   0.020  5.852
 bond charge predicted
       N       E                     dE             d eps       ncg     rms          rms(c)
DAV:   1    -0.393385576265E+02    0.32601E-04   -0.17319E-04  1782   0.983E-02    0.305E-03
DAV:   2    -0.393385583373E+02   -0.71086E-06   -0.75082E-06  1782   0.169E-02
  46 F= -.41851308E+02 E0= -.41850919E+02  d E =-.233201E-06
 BRION: g(F)=  0.175E-06 g(S)=  0.000E+00 retain N=  2 mean eig= 0.87
 eig:   0.867  0.867
 bond charge predicted
       N       E                     dE             d eps       ncg     rms          rms(c)
DAV:   1    -0.393385665745E+02   -0.89480E-05   -0.34955E-05  1782   0.435E-02    0.199E-03
DAV:   2    -0.393385667090E+02   -0.13454E-06   -0.14488E-06  1397   0.732E-03
  47 F= -.41851308E+02 E0= -.41850919E+02  d E =0.568137E-07
 BRION: g(F)=  0.163E-06 g(S)=  0.000E+00 retain N=  1 mean eig= 0.50
 eig:   0.496
 bond charge predicted
       N       E                     dE             d eps       ncg     rms          rms(c)
DAV:   1    -0.393385533777E+02    0.13197E-04   -0.15876E-05  1782   0.304E-02    0.111E-03
DAV:   2    -0.393385534392E+02   -0.61547E-07   -0.69555E-07   891   0.534E-03
  48 F= -.41851308E+02 E0= -.41850919E+02  d E =-.836795E-07
 BRION: g(F)=  0.141E-07 g(S)=  0.000E+00 retain N=  2 mean eig= 0.47
 eig:   0.073  0.866
 bond charge predicted
       N       E                     dE             d eps       ncg     rms          rms(c)
DAV:   1    -0.393385481172E+02    0.52605E-05   -0.36709E-06  1606   0.146E-02    0.409E-04
DAV:   2    -0.393385481359E+02   -0.18722E-07   -0.19522E-07   891   0.275E-03
  49 F= -.41851308E+02 E0= -.41850919E+02  d E =-.322890E-07
 BRION: g(F)=  0.301E-07 g(S)=  0.000E+00 retain N=  3 mean eig= 0.36
 eig:   0.585  0.243  0.243
 bond charge predicted
       N       E                     dE             d eps       ncg     rms          rms(c)
DAV:   1    -0.393385462654E+02    0.18517E-05   -0.41005E-07   891   0.396E-03    0.376E-04
DAV:   2    -0.393385462708E+02   -0.53287E-08   -0.48107E-08   891   0.130E-03
  50 F= -.41851308E+02 E0= -.41850919E+02  d E =-.158455E-07
 BRION: g(F)=  0.134E-07 g(S)=  0.000E+00 retain N=  1 mean eig= 0.27
 eig:   0.273
 bond charge predicted
       N       E                     dE             d eps       ncg     rms          rms(c)
DAV:   1    -0.393385413084E+02    0.49570E-05   -0.23990E-06  1254   0.118E-02    0.283E-04
DAV:   2    -0.393385413268E+02   -0.18365E-07   -0.18694E-07   891   0.249E-03
  51 F= -.41851308E+02 E0= -.41850919E+02  d E =-.269236E-07
 BRION: g(F)=  0.508E-08 g(S)=  0.000E+00 retain N=  2 mean eig= 0.77
 eig:   0.770  0.770
 bond charge predicted
       N       E                     dE             d eps       ncg     rms          rms(c)
DAV:   1    -0.393385381508E+02    0.31577E-05   -0.48860E-07   891   0.383E-03    0.236E-04
DAV:   2    -0.393385381580E+02   -0.72214E-08   -0.72145E-08   891   0.145E-03
  52 F= -.41851308E+02 E0= -.41850919E+02  d E =-.172303E-07
 BRION: g(F)=  0.141E-07 g(S)=  0.000E+00 retain N=  3 mean eig= 0.90
 eig:   1.492  0.604  0.604
 bond charge predicted
       N       E                     dE             d eps       ncg     rms          rms(c)
DAV:   1    -0.393385353254E+02    0.28253E-05   -0.13375E-06  1188   0.875E-03    0.168E-04
DAV:   2    -0.393385353359E+02   -0.10492E-07   -0.10150E-07   891   0.184E-03
  53 F= -.41851308E+02 E0= -.41850919E+02  d E =-.183008E-07
 BRION: g(F)=  0.499E-08 g(S)=  0.000E+00 retain N=  1 mean eig= 0.35
 eig:   0.347
 bond charge predicted
       N       E                     dE             d eps       ncg     rms          rms(c)
DAV:   1    -0.393385325951E+02    0.27303E-05   -0.87358E-07  1188   0.614E-03    0.183E-04
DAV:   2    -0.393385326036E+02   -0.84465E-08   -0.79525E-08   891   0.155E-03
  54 F= -.41851308E+02 E0= -.41850919E+02  d E =-.163574E-07
 BRION: g(F)=  0.984E-08 g(S)=  0.000E+00 retain N=  2 mean eig= 0.52
 eig:   0.367  0.671
 bond charge predicted
       N       E                     dE             d eps       ncg     rms          rms(c)
DAV:   1    -0.393385314462E+02    0.11489E-05   -0.14643E-07   891   0.274E-03    0.109E-04
DAV:   2    -0.393385314485E+02   -0.22410E-08   -0.17379E-08   891   0.779E-04
  55 F= -.41851308E+02 E0= -.41850919E+02  d E =-.773569E-08
 BRION: g(F)=  0.165E-07 g(S)=  0.000E+00 retain N=  2 mean eig= 2.18
 eig:   0.570  3.783
 bond charge predicted
       N       E                     dE             d eps       ncg     rms          rms(c)
DAV:   1    -0.393385383593E+02   -0.69131E-05   -0.52443E-06  1705   0.167E-02    0.517E-04
DAV:   2    -0.393385383809E+02   -0.21546E-07   -0.24521E-07   891   0.306E-03
  56 F= -.41851308E+02 E0= -.41850919E+02  d E =0.438401E-07
 BRION: g(F)=  0.113E-06 g(S)=  0.000E+00 retain N=  2 mean eig= 0.69
 eig:   0.693  0.693
 bond charge predicted
       N       E                     dE             d eps       ncg     rms          rms(c)
DAV:   1    -0.393385250839E+02    0.13275E-04   -0.16588E-05  1782   0.298E-02    0.130E-03
DAV:   2    -0.393385251460E+02   -0.62154E-07   -0.68960E-07   891   0.526E-03
  57 F= -.41851308E+02 E0= -.41850919E+02  d E =-.692776E-07
 BRION: g(F)=  0.107E-07 g(S)=  0.000E+00 retain N=  3 mean eig= 2.32
 eig:   2.631  2.631  1.689
 bond charge predicted
       N       E                     dE             d eps       ncg     rms          rms(c)
DAV:   1    -0.393385185054E+02    0.65785E-05   -0.44518E-06  1705   0.157E-02    0.452E-04
DAV:   2    -0.393385185258E+02   -0.20368E-07   -0.20275E-07   891   0.293E-03
  58 F= -.41851308E+02 E0= -.41850919E+02  d E =-.379435E-07
 BRION: g(F)=  0.171E-07 g(S)=  0.000E+00 retain N=  1 mean eig= 2.81
 eig:   2.806
 bond charge predicted
       N       E                     dE             d eps       ncg     rms          rms(c)
DAV:   1    -0.393385275613E+02   -0.90559E-05   -0.75199E-06  1782   0.173E-02    0.116E-03
DAV:   2    -0.393385275869E+02   -0.25620E-07   -0.30664E-07   891   0.320E-03
  59 F= -.41851308E+02 E0= -.41850919E+02  d E =0.531244E-07
 BRION: g(F)=  0.123E-06 g(S)=  0.000E+00 retain N=  2 mean eig= 2.20
 eig:   4.109  0.282
 bond charge predicted
       N       E                     dE             d eps       ncg     rms          rms(c)
DAV:   1    -0.393385489819E+02   -0.21421E-04   -0.50765E-05  1782   0.540E-02    0.181E-03
DAV:   2    -0.393385491897E+02   -0.20775E-06   -0.22197E-06  1584   0.953E-03
  60 F= -.41851308E+02 E0= -.41850919E+02  d E =0.119703E-06
 BRION: g(F)=  0.192E-06 g(S)=  0.000E+00 retain N=  2 mean eig= 1.97
 eig:   0.909  3.032
 bond charge predicted
       N       E                     dE             d eps       ncg     rms          rms(c)
DAV:   1    -0.393384977789E+02    0.51203E-04   -0.23703E-04  1782   0.115E-01    0.497E-03
DAV:   2    -0.393384988028E+02   -0.10240E-05   -0.11192E-05  1958   0.205E-02    0.154E-03
DAV:   3    -0.393384987833E+02    0.19573E-07   -0.13961E-07   902   0.256E-03
  61 F= -.41851308E+02 E0= -.41850919E+02  d E =-.259885E-06
 BRION: g(F)=  0.187E-07 g(S)=  0.000E+00 retain N=  2 mean eig= 5.49
 eig:   5.491  5.491
 bond charge predicted
       N       E                     dE             d eps       ncg     rms          rms(c)
DAV:   1    -0.393384757189E+02    0.23084E-04   -0.47038E-05  1782   0.516E-02    0.154E-03
DAV:   2    -0.393384759056E+02   -0.18675E-06   -0.20217E-06  1518   0.912E-03
  62 F= -.41851308E+02 E0= -.41850920E+02  d E =-.700096E-07
 BRION: g(F)=  0.222E-08 g(S)=  0.000E+00 retain N=  1 mean eig= 2.93
 eig:   2.932
 bond charge predicted
       N       E                     dE             d eps       ncg     rms          rms(c)
DAV:   1    -0.393384813019E+02   -0.55830E-05   -0.28941E-06  1408   0.131E-02    0.914E-04
DAV:   2    -0.393384813170E+02   -0.15109E-07   -0.20643E-07   891   0.263E-03
  63 F= -.41851308E+02 E0= -.41850920E+02  d E =0.140827E-07
 BRION: g(F)=  0.788E-07 g(S)=  0.000E+00 retain N=  1 mean eig= 0.41
 eig:   0.414
 bond charge predicted
       N       E                     dE             d eps       ncg     rms          rms(c)
DAV:   1    -0.393384762726E+02    0.50292E-05   -0.19339E-06  1188   0.109E-02    0.668E-04
DAV:   2    -0.393384762837E+02   -0.11047E-07   -0.14191E-07   891   0.217E-03
  64 F= -.41851308E+02 E0= -.41850920E+02  d E =-.179436E-07
 BRION: g(F)=  0.530E-08 g(S)=  0.000E+00 retain N=  1 mean eig= 0.37
 eig:   0.369
 bond charge predicted
       N       E                     dE             d eps       ncg     rms          rms(c)
DAV:   1    -0.393384769562E+02   -0.68358E-06   -0.79181E-07  1188   0.627E-03    0.210E-04
DAV:   2    -0.393384769613E+02   -0.51014E-08   -0.50374E-08   891   0.126E-03
  65 F= -.41851308E+02 E0= -.41850920E+02  d E =-.106887E-08
 BRION: g(F)=  0.390E-07 g(S)=  0.000E+00 retain N=  2 mean eig= 0.61
 eig:   0.343  0.876
 bond charge predicted
       N       E                     dE             d eps       ncg     rms          rms(c)
DAV:   1    -0.393384763734E+02    0.58284E-06   -0.39998E-07  1188   0.455E-03    0.157E-04
DAV:   2    -0.393384763756E+02   -0.22119E-08   -0.22962E-08   891   0.864E-04
  66 F= -.41851308E+02 E0= -.41850920E+02  d E =-.307858E-08
 BRION: g(F)=  0.150E-07 g(S)=  0.000E+00 retain N=  2 mean eig= 2.46
 eig:   0.245  4.669
 bond charge predicted
       N       E                     dE             d eps       ncg     rms          rms(c)
DAV:   1    -0.393384763810E+02   -0.76470E-08   -0.28541E-09   891   0.296E-04    0.368E-05
DAV:   2    -0.393384763812E+02   -0.18463E-09   -0.64800E-10   891   0.142E-04
  67 F= -.41851308E+02 E0= -.41850920E+02  d E =-.100415E-08
 BRION: g(F)=  0.142E-07 g(S)=  0.000E+00 retain N=  1 mean eig= 0.00
 eig:   0.000
 bond charge predicted
       N       E                     dE             d eps       ncg     rms          rms(c)
DAV:   1    -0.393384729401E+02    0.34409E-05   -0.21336E-06  1364   0.880E-03    0.324E-04
DAV:   2    -0.393384729534E+02   -0.13327E-07   -0.14758E-07   891   0.208E-03
  68 F= -.41851308E+02 E0= -.41850920E+02  d E =-.800169E-08
 BRION: g(F)=  0.274E-07 g(S)=  0.000E+00 retain N=  2 mean eig= 0.11
 eig:   0.007  0.203
 bond charge predicted
       N       E                     dE             d eps       ncg     rms          rms(c)
DAV:   1    -0.393384735755E+02   -0.63538E-06   -0.94960E-07  1188   0.625E-03    0.289E-04
DAV:   2    -0.393384735798E+02   -0.43619E-08   -0.49507E-08   891   0.119E-03
  69 F= -.41851308E+02 E0= -.41850920E+02  d E =0.146886E-08
 BRION: g(F)=  0.415E-07 g(S)=  0.000E+00 retain N=  1 mean eig= 0.20
 eig:   0.195
 bond charge predicted
       N       E                     dE             d eps       ncg     rms          rms(c)
DAV:   1    -0.393384707085E+02    0.28669E-05   -0.31325E-06  1507   0.140E-02    0.384E-04
DAV:   2    -0.393384707237E+02   -0.15145E-07   -0.15041E-07   891   0.248E-03
  70 F= -.41851308E+02 E0= -.41850920E+02  d E =-.657536E-08
 BRION: g(F)=  0.309E-07 g(S)=  0.000E+00 retain N=  2 mean eig= 0.14
 eig:   0.242  0.037
 bond charge predicted
       N       E                     dE             d eps       ncg     rms          rms(c)
DAV:   1    -0.393384707754E+02   -0.66846E-07   -0.67031E-07  1188   0.629E-03    0.209E-04
DAV:   2    -0.393384707793E+02   -0.39263E-08   -0.41523E-08   891   0.119E-03
  71 F= -.41851308E+02 E0= -.41850920E+02  d E =-.270730E-08
 BRION: g(F)=  0.244E-07 g(S)=  0.000E+00 retain N=  1 mean eig= 0.20
 eig:   0.196
 bond charge predicted
       N       E                     dE             d eps       ncg     rms          rms(c)
DAV:   1    -0.393384683208E+02    0.24546E-05   -0.13405E-06  1199   0.811E-03    0.222E-04
DAV:   2    -0.393384683288E+02   -0.80181E-08   -0.91566E-08   891   0.171E-03
  72 F= -.41851308E+02 E0= -.41850920E+02  d E =-.653159E-08
 BRION: g(F)=  0.997E-08 g(S)=  0.000E+00 retain N=  2 mean eig= 0.36
 eig:   0.140  0.574
 bond charge predicted
       N       E                     dE             d eps       ncg     rms          rms(c)
DAV:   1    -0.393384682055E+02    0.11535E-06   -0.44091E-07  1122   0.482E-03    0.203E-04
DAV:   2    -0.393384682075E+02   -0.20073E-08   -0.24190E-08   891   0.929E-04
  73 F= -.41851308E+02 E0= -.41850920E+02  d E =0.212026E-10
 BRION: g(F)=  0.260E-07 g(S)=  0.000E+00 retain N=  2 mean eig= 2.22
 eig:   0.370  4.067
 bond charge predicted
       N       E                     dE             d eps       ncg     rms          rms(c)
DAV:   1    -0.393384667077E+02    0.14977E-05   -0.19856E-07   891   0.295E-03    0.112E-04
DAV:   2    -0.393384667095E+02   -0.17417E-08   -0.18348E-08   891   0.751E-04
  74 F= -.41851308E+02 E0= -.41850920E+02  d E =-.423453E-08
 BRION: g(F)=  0.157E-08 g(S)=  0.000E+00 retain N=  1 mean eig= 0.21
 eig:   0.214
 bond charge predicted
       N       E                     dE             d eps       ncg     rms          rms(c)
DAV:   1    -0.393384654859E+02    0.12219E-05   -0.38961E-07  1188   0.463E-03    0.108E-04
DAV:   2    -0.393384654884E+02   -0.24929E-08   -0.24756E-08   891   0.902E-04
  75 F= -.41851308E+02 E0= -.41850920E+02  d E =-.251255E-08
 BRION: g(F)=  0.882E-08 g(S)=  0.000E+00 retain N=  2 mean eig= 0.91
 eig:   0.187  1.631
 bond charge predicted
       N       E                     dE             d eps       ncg     rms          rms(c)
DAV:   1    -0.393384651601E+02    0.32573E-06   -0.72120E-08   891   0.198E-03    0.885E-05
DAV:   2    -0.393384651608E+02   -0.67121E-09   -0.61631E-09   891   0.450E-04
  76 F= -.41851308E+02 E0= -.41850920E+02  d E =-.155092E-08
 BRION: g(F)=  0.143E-07 g(S)=  0.000E+00 retain N=  2 mean eig= 1.21
 eig:   0.372  2.044
 bond charge predicted
       N       E                     dE             d eps       ncg     rms          rms(c)
DAV:   1    -0.393384660788E+02   -0.91862E-06   -0.73372E-08   891   0.210E-03    0.127E-04
DAV:   2    -0.393384660794E+02   -0.63483E-09   -0.64918E-09   891   0.476E-04
  77 F= -.41851308E+02 E0= -.41850920E+02  d E =0.188339E-08
 BRION: g(F)=  0.232E-07 g(S)=  0.000E+00 retain N=  3 mean eig= 1.44
 eig:   0.350  0.350  3.625
 bond charge predicted
       N       E                     dE             d eps       ncg     rms          rms(c)
DAV:   1    -0.393384659705E+02    0.10825E-06   -0.40576E-08   891   0.160E-03    0.485E-05
DAV:   2    -0.393384659706E+02   -0.88221E-10   -0.25780E-09   891   0.314E-04
  78 F= -.41851308E+02 E0= -.41850920E+02  d E =-.769170E-09
 BRION: g(F)=  0.723E-08 g(S)=  0.000E+00 retain N=  2 mean eig= 0.48
 eig:   0.555  0.401
 bond charge predicted
       N       E                     dE             d eps       ncg     rms          rms(c)
DAV:   1    -0.393384645841E+02    0.13864E-05   -0.25952E-07   891   0.374E-03    0.115E-04
DAV:   2    -0.393384645865E+02   -0.23483E-08   -0.22142E-08   891   0.870E-04
  79 F= -.41851308E+02 E0= -.41850920E+02  d E =-.388120E-08
 BRION: g(F)=  0.132E-08 g(S)=  0.000E+00 retain N=  3 mean eig= 1.15
 eig:   0.403  1.519  1.519
 reached required accuracy - stopping structural energy minimisation
