<?xml version="1.0" encoding="ISO-8859-1"?>
<modeling>
 <generator>
  <i name="program" type="string">vasp </i>
  <i name="version" type="string">6.5.1  </i>
  <i name="subversion" type="string">10Mar25 (build Aug 29 2025 00:30:47) complex                          parallel </i>
  <i name="platform" type="string">LinuxIFC </i>
  <i name="date" type="string">2026 06 04 </i>
  <i name="time" type="string">18:26:44 </i>
 </generator>
 <incar>
  <i type="string" name="SYSTEM">MoS2_MoTe2_2H relaxation</i>
  <i type="string" name="PREC">Accurate</i>
  <i type="string" name="ALGO">Normal</i>
  <i name="AMIN">      0.01000000</i>
  <i type="int" name="NELM">   200</i>
  <i type="int" name="IBRION">     1</i>
  <i name="EDIFF">      0.00000100</i>
  <i name="EDIFFG">     -0.00010000</i>
  <i type="int" name="NSW">   600</i>
  <i type="int" name="ISIF">     2</i>
  <i name="ENCUT">    520.00000000</i>
  <i type="string" name="LREAL">Auto</i>
  <i type="int" name="ISMEAR">     0</i>
  <i name="SIGMA">      0.05000000</i>
  <i type="logical" name="LWAVE"> F  </i>
  <i type="logical" name="LCHARG"> F  </i>
  <i type="int" name="IVDW">    12</i>
 </incar>
 <primitive_cell>
  <structure name="primitive_cell" >
   <crystal>
    <varray name="basis" >
     <v>       3.37894624       0.00000000       0.00000000 </v>
     <v>       1.68947312       2.92625328       0.00000000 </v>
     <v>       0.00000000       0.00000000      20.00000000 </v>
    </varray>
    <i name="volume">    197.75304998 </i>
    <varray name="rec_basis" >
     <v>       0.29595025      -0.17086696       0.00000000 </v>
     <v>       0.00000000       0.34173392       0.00000000 </v>
     <v>       0.00000000       0.00000000       0.05000000 </v>
    </varray>
   </crystal>
   <varray name="positions" >
    <v>       0.00000000       0.00000000       0.50000000 </v>
    <v>       0.33333333       0.33333333       0.82500000 </v>
    <v>       0.33333333       0.33333333       0.42229739 </v>
    <v>       0.33333333       0.33333333       0.57770261 </v>
    <v>       0.00000000       0.00000000       0.73523222 </v>
    <v>       0.00000000       0.00000000       0.91476778 </v>
   </varray>
  </structure>
  <varray name="primitive_index" >
   <v type="int" >        1 </v>
   <v type="int" >        2 </v>
   <v type="int" >        3 </v>
   <v type="int" >        4 </v>
   <v type="int" >        5 </v>
   <v type="int" >        6 </v>
  </varray>
 </primitive_cell>
 <kpoints>
  <generation param="Gamma">
   <v type="int" name="divisions">      15       15        1 </v>
   <v name="usershift">      0.00000000       0.00000000       0.00000000 </v>
   <v name="genvec1">      0.06666667      -0.00000000       0.00000000 </v>
   <v name="genvec2">      0.00000000       0.06666667       0.00000000 </v>
   <v name="genvec3">      0.00000000       0.00000000       1.00000000 </v>
   <v name="shift">      0.00000000       0.00000000       0.00000000 </v>
  </generation>
  <varray name="kpointlist" >
   <v>       0.00000000       0.00000000       0.00000000 </v>
   <v>       0.06666667       0.00000000       0.00000000 </v>
   <v>       0.13333333       0.00000000       0.00000000 </v>
   <v>       0.20000000       0.00000000       0.00000000 </v>
   <v>       0.26666667       0.00000000       0.00000000 </v>
   <v>       0.33333333       0.00000000       0.00000000 </v>
   <v>       0.40000000       0.00000000       0.00000000 </v>
   <v>       0.46666667       0.00000000       0.00000000 </v>
   <v>       0.13333333       0.06666667       0.00000000 </v>
   <v>       0.20000000       0.06666667       0.00000000 </v>
   <v>       0.26666667       0.06666667       0.00000000 </v>
   <v>       0.33333333       0.06666667       0.00000000 </v>
   <v>       0.40000000       0.06666667       0.00000000 </v>
   <v>       0.46666667       0.06666667       0.00000000 </v>
   <v>      -0.46666667       0.06666667       0.00000000 </v>
   <v>       0.26666667       0.13333333       0.00000000 </v>
   <v>       0.33333333       0.13333333       0.00000000 </v>
   <v>       0.40000000       0.13333333       0.00000000 </v>
   <v>       0.46666667       0.13333333       0.00000000 </v>
   <v>      -0.46666667       0.13333333       0.00000000 </v>
   <v>       0.40000000       0.20000000       0.00000000 </v>
   <v>       0.46666667       0.20000000       0.00000000 </v>
   <v>      -0.46666667       0.20000000       0.00000000 </v>
   <v>      -0.40000000       0.20000000       0.00000000 </v>
   <v>      -0.46666667       0.26666667       0.00000000 </v>
   <v>      -0.40000000       0.26666667       0.00000000 </v>
   <v>      -0.33333333       0.33333333       0.00000000 </v>
  </varray>
  <varray name="weights" >
   <v>       0.00444444 </v>
   <v>       0.02666667 </v>
   <v>       0.02666667 </v>
   <v>       0.02666667 </v>
   <v>       0.02666667 </v>
   <v>       0.02666667 </v>
   <v>       0.02666667 </v>
   <v>       0.02666667 </v>
   <v>       0.02666667 </v>
   <v>       0.05333333 </v>
   <v>       0.05333333 </v>
   <v>       0.05333333 </v>
   <v>       0.05333333 </v>
   <v>       0.05333333 </v>
   <v>       0.02666667 </v>
   <v>       0.02666667 </v>
   <v>       0.05333333 </v>
   <v>       0.05333333 </v>
   <v>       0.05333333 </v>
   <v>       0.05333333 </v>
   <v>       0.02666667 </v>
   <v>       0.05333333 </v>
   <v>       0.05333333 </v>
   <v>       0.02666667 </v>
   <v>       0.02666667 </v>
   <v>       0.05333333 </v>
   <v>       0.00888889 </v>
  </varray>
 </kpoints>
 <parameters>
  <separator name="general" >
   <i type="string" name="SYSTEM">MoS2_MoTe2_2H relaxation</i>
   <i type="logical" name="LCOMPAT"> F  </i>
  </separator>
  <separator name="electronic" >
   <i type="string" name="PREC">accura</i>
   <i name="ENMAX">    520.00000000</i>
   <i name="ENAUG">    446.01400000</i>
   <i name="EDIFF">      0.00000100</i>
   <i type="int" name="IALGO">    38</i>
   <i type="int" name="IWAVPR">    11</i>
   <i type="int" name="NBANDS">    33</i>
   <i type="int" name="NBANDSLOW">    -1</i>
   <i type="int" name="NBANDSHIGH">    -1</i>
   <i name="NELECT">     52.00000000</i>
   <i type="int" name="TURBO">     0</i>
   <i type="int" name="IRESTART">     0</i>
   <i type="int" name="NREBOOT">     0</i>
   <i type="int" name="NMIN">     0</i>
   <i name="EREF">      0.00000000</i>
   <separator name="electronic smearing" >
    <i type="int" name="ISMEAR">     0</i>
    <i name="SIGMA">      0.05000000</i>
    <i name="KSPACING">      0.50000000</i>
    <i type="logical" name="KGAMMA"> T  </i>
    <i type="logical" name="KBLOWUP"> T  </i>
   </separator>
   <separator name="electronic projectors" >
    <i type="logical" name="LREAL"> T  </i>
    <v name="ROPT">     -0.00025000     -0.00025000     -0.00025000</v>
    <i type="int" name="LMAXPAW">  -100</i>
    <i type="int" name="LMAXMIX">     2</i>
    <i type="logical" name="NLSPLINE"> F  </i>
   </separator>
   <separator name="electronic startup" >
    <i type="int" name="ISTART">     0</i>
    <i type="int" name="ICHARG">     2</i>
    <i type="int" name="INIWAV">     1</i>
   </separator>
   <separator name="electronic spin" >
    <i type="int" name="ISPIN">     1</i>
    <i type="logical" name="LNONCOLLINEAR"> F  </i>
    <v name="MAGMOM">      1.00000000      1.00000000      1.00000000      1.00000000      1.00000000      1.00000000</v>
    <i name="NUPDOWN">     -1.00000000</i>
    <i type="logical" name="LSORBIT"> F  </i>
    <v name="SAXIS">      0.00000000      0.00000000      1.00000000</v>
    <i type="logical" name="LSPIRAL"> F  </i>
    <v name="QSPIRAL">      0.00000000      0.00000000      0.00000000</v>
    <i type="logical" name="LZEROZ"> F  </i>
   </separator>
   <separator name="electronic exchange-correlation" >
    <i type="logical" name="LASPH"> F  </i>
   </separator>
   <separator name="electronic convergence" >
    <i type="int" name="NELM">   200</i>
    <i type="int" name="NELMDL">    -5</i>
    <i type="int" name="NELMIN">     2</i>
    <i name="ENINI">    520.00000000</i>
    <separator name="electronic convergence detail" >
     <i type="logical" name="LDIAG"> T  </i>
     <i type="logical" name="LSUBROT"> F  </i>
     <i type="logical" name="LROBUST"> F  </i>
     <i type="int" name="ISEARCH">     0</i>
     <i name="WEIMIN">      0.00100000</i>
     <i name="EBREAK">      0.00000001</i>
     <i name="DEPER">      0.30000000</i>
     <i type="int" name="NRMM">     4</i>
     <i name="TIME">      0.40000000</i>
    </separator>
   </separator>
   <separator name="electronic mixer" >
    <i name="AMIX">      0.40000000</i>
    <i name="BMIX">      1.00000000</i>
    <i name="AMIN">      0.01000000</i>
    <i name="AMIX_MAG">      1.60000000</i>
    <i name="BMIX_MAG">      1.00000000</i>
    <separator name="electronic mixer details" >
     <i type="int" name="IMIX">     4</i>
     <i type="logical" name="MIXFIRST"> F  </i>
     <i type="int" name="MAXMIX">   -45</i>
     <i name="WC">    100.00000000</i>
     <i type="int" name="INIMIX">     1</i>
     <i type="int" name="MIXPRE">     1</i>
     <i type="int" name="MREMOVE">     5</i>
    </separator>
   </separator>
   <separator name="electronic dipolcorrection" >
    <i type="logical" name="LDIPOL"> F  </i>
    <i type="logical" name="LMONO"> F  </i>
    <i type="int" name="IDIPOL">     0</i>
    <i name="EPSILON">      1.00000000</i>
    <v name="DIPOL">   -100.00000000   -100.00000000   -100.00000000</v>
    <i name="EFIELD">      0.00000000</i>
    <i type="logical" name="LVACPOTAV"> F  </i>
   </separator>
  </separator>
  <separator name="grids" >
   <i type="int" name="NGX">    28</i>
   <i type="int" name="NGY">    28</i>
   <i type="int" name="NGZ">   150</i>
   <i type="int" name="NGXF">    56</i>
   <i type="int" name="NGYF">    56</i>
   <i type="int" name="NGZF">   300</i>
   <i type="logical" name="ADDGRID"> F  </i>
  </separator>
  <separator name="ionic" >
   <i type="int" name="NSW">   600</i>
   <i type="int" name="IBRION">     1</i>
   <i type="int" name="MDALGO">     0</i>
   <i type="int" name="ISIF">     2</i>
   <i name="PSTRESS">      0.00000000</i>
   <i name="EDIFFG">     -0.00010000</i>
   <i type="int" name="NFREE">     0</i>
   <i name="POTIM">      0.50000000</i>
   <i name="SMASS">     -3.00000000</i>
   <i name="SCALEE">      1.00000000</i>
  </separator>
  <separator name="ionic md" >
   <i name="TEBEG">      0.00010000</i>
   <i name="TEEND">      0.00010000</i>
   <i type="int" name="NBLOCK">     1</i>
   <i type="int" name="KBLOCK">   600</i>
   <i type="int" name="NPACO">   256</i>
   <i name="APACO">     10.00000000</i>
  </separator>
  <separator name="symmetry" >
   <i type="int" name="ISYM">     2</i>
   <i name="SYMPREC">      0.00001000</i>
  </separator>
  <separator name="dos" >
   <i type="int" name="LORBIT">     0</i>
   <v name="RWIGS">     -1.00000000     -1.00000000     -1.00000000</v>
   <i type="int" name="NEDOS">   301</i>
   <i name="EMIN">     10.00000000</i>
   <i name="EMAX">    -10.00000000</i>
   <i name="EFERMI">      0.00000000</i>
  </separator>
  <separator name="writing" >
   <i type="int" name="NWRITE">     2</i>
   <i type="logical" name="LWAVE"> F  </i>
   <i type="logical" name="LDOWNSAMPLE"> F  </i>
   <i type="logical" name="LCHARG"> F  </i>
   <i type="logical" name="LPARD"> F  </i>
   <i type="logical" name="LVTOT"> F  </i>
   <i type="logical" name="LVHAR"> F  </i>
   <i type="logical" name="LELF"> F  </i>
   <i type="logical" name="LOPTICS"> F  </i>
   <v name="STM">      0.00000000      0.00000000      0.00000000      0.00000000      0.00000000      0.00000000      0.00000000</v>
  </separator>
  <separator name="performance" >
   <i type="int" name="NPAR">    11</i>
   <i type="int" name="NSIM">     4</i>
   <i type="int" name="NBLK">    -1</i>
   <i type="logical" name="LPLANE"> T  </i>
   <i type="logical" name="LSCALAPACK"> T  </i>
   <i type="logical" name="LSCAAWARE"> F  </i>
   <i type="logical" name="LSCALU"> F  </i>
   <i type="logical" name="LASYNC"> F  </i>
   <i type="logical" name="LORBITALREAL"> F  </i>
  </separator>
  <separator name="miscellaneous" >
   <i type="int" name="IDIOT">     3</i>
   <i type="int" name="PHON_NSTRUCT">    -1</i>
   <i type="logical" name="LMUSIC"> F  </i>
   <v name="POMASS">     95.94000000     32.06600000    127.60000000</v>
   <v name="DARWINR">      0.00000000      0.00000000      0.00000000</v>
   <v name="DARWINV">      1.00000000      1.00000000      1.00000000</v>
   <i type="logical" name="LCORR"> T  </i>
  </separator>
  <i type="logical" name="GGA_COMPAT"> T  </i>
  <i type="logical" name="LBERRY"> F  </i>
  <i type="int" name="ICORELEVEL">     0</i>
  <i type="logical" name="LDAU"> F  </i>
  <i type="int" name="I_CONSTRAINED_M">     0</i>
  <separator name="electronic exchange-correlation" >
   <i type="string" name="GGA    ">PE</i>
   <i type="string" name="XC_C">1</i>
   <i type="int" name="VOSKOWN">     0</i>
   <i type="logical" name="LHFCALC"> F  </i>
   <i type="string" name="PRECFOCK"></i>
   <i type="logical" name="LSYMGRAD"> F  </i>
   <i type="logical" name="LHFONE"> F  </i>
   <i type="logical" name="LRHFCALC"> F  </i>
   <i type="logical" name="LTHOMAS"> F  </i>
   <i type="logical" name="LMODELHF"> F  </i>
   <i type="logical" name="LFOCKACE"> F  </i>
   <i name="ENCUT4O">     -1.00000000</i>
   <i type="int" name="EXXOEP">     0</i>
   <i type="int" name="FOURORBIT">     0</i>
   <i name="AEXX">      0.00000000</i>
   <i name="HFALPHA">      0.00000000</i>
   <i name="MCALPHA">      0.00000000</i>
   <i name="ALDAX">      1.00000000</i>
   <i name="AGGAX">      1.00000000</i>
   <i name="AMGGAX">      1.00000000</i>
   <i name="ALDAC">      1.00000000</i>
   <i name="AGGAC">      1.00000000</i>
   <i name="AMGGAC">      1.00000000</i>
   <i type="int" name="NKREDX">     1</i>
   <i type="int" name="NKREDY">     1</i>
   <i type="int" name="NKREDZ">     1</i>
   <i type="logical" name="SHIFTRED"> F  </i>
   <i type="logical" name="ODDONLY"> F  </i>
   <i type="logical" name="EVENONLY"> F  </i>
   <i type="int" name="LMAXFOCK">     0</i>
   <i type="int" name="NMAXFOCKAE">     0</i>
   <i type="logical" name="LFOCKAEDFT"> F  </i>
   <i name="HFSCREEN">      0.00000000</i>
   <i name="HFSCREENC">      0.00000000</i>
   <i type="int" name="NBANDSGWLOW">     0</i>
  </separator>
  <separator name="vdW DFT" >
   <i type="logical" name="LUSE_VDW"> F  </i>
   <i type="int" name="IVDW_NL">    -1</i>
   <i type="logical" name="LSPIN_VDW"> F  </i>
   <i name="ZAB_VDW">     -0.84910000</i>
   <i name="GAMMA_VDW">      1.39626340</i>
   <i name="ALPHA_VDW">      0.00000000</i>
   <i name="PARAM1">      0.12340000</i>
   <i name="PARAM2">      1.00000000</i>
   <i name="BPARAM">      6.30000000</i>
   <i name="CPARAM">      0.00930000</i>
  </separator>
  <separator name="model GW" >
   <i type="int" name="MODEL_GW">     0</i>
   <i name="MODEL_EPS0">     19.77530500</i>
   <i name="MODEL_ALPHA">      1.00000000</i>
  </separator>
  <separator name="linear response parameters" >
   <i type="logical" name="LEPSILON"> F  </i>
   <i type="logical" name="LRPA"> F  </i>
   <i type="logical" name="LNABLA"> F  </i>
   <i type="logical" name="LVEL"> F  </i>
   <i name="CSHIFT">      0.10000000</i>
   <i name="OMEGAMAX">     -1.00000000</i>
   <i name="DEG_THRESHOLD">      0.00200000</i>
   <i name="RTIME">     -0.10000000</i>
   <i name="WPLASMAI">      0.00000000</i>
   <v name="DFIELD">      0.00000000      0.00000000      0.00000000</v>
   <v name="WPLASMA">      0.00000000      0.00000000      0.00000000      0.00000000      0.00000000      0.00000000      0.00000000      0.00000000      0.00000000</v>
  </separator>
  <separator name="orbital magnetization" >
   <i type="logical" name="NUCIND"> F  </i>
   <v name="MAGPOS">      0.00000000      0.00000000      0.00000000</v>
   <i type="logical" name="LNICSALL"> T  </i>
   <i type="logical" name="ORBITALMAG"> F  </i>
   <i type="logical" name="LMAGBLOCH"> F  </i>
   <i type="logical" name="LCHIMAG"> F  </i>
   <i type="logical" name="LGAUGE"> T  </i>
   <i type="int" name="MAGATOM">     0</i>
   <v name="MAGDIPOL">      0.00000000      0.00000000      0.00000000</v>
   <v name="AVECCONST">      0.00000000      0.00000000      0.00000000</v>
  </separator>
  <separator name="response functions" >
   <i type="logical" name="LALL_IN_ONE"> F  </i>
   <i type="int" name="IALL_IN_ONE">    -1</i>
   <i type="int" name="NBANDS_WAVE">    -1</i>
   <i type="logical" name="LFINITE_TEMPERATURE"> F  </i>
   <i type="logical" name="LADDER"> F  </i>
   <i type="logical" name="LRPAFORCE"> F  </i>
   <i type="logical" name="LFXC"> F  </i>
   <i type="logical" name="LHARTREE"> T  </i>
   <i type="int" name="IBSE">     2</i>
   <v type="int" name="KPOINT">    -1     0     0     0</v>
   <i type="logical" name="LTCTC"> F  </i>
   <i type="logical" name="LTCTE"> F  </i>
   <i type="logical" name="LTETE"> F  </i>
   <i type="logical" name="LTRIPLET"> F  </i>
   <i type="logical" name="LFXCEPS"> F  </i>
   <i type="logical" name="LFXHEG"> F  </i>
   <i type="int" name="NATURALO">     2</i>
   <i type="logical" name="LHOLEGF"> F  </i>
   <i type="logical" name="L2ORDER"> F  </i>
   <i type="logical" name="LDMP1"> F  </i>
   <i type="logical" name="LMP2LT"> F  </i>
   <i type="logical" name="LSMP2LT"> F  </i>
   <i type="logical" name="LGWLF"> F  </i>
   <i name="ENCUTGW">     -1.60000002</i>
   <i name="ENCUTGWSOFT">     -1.60000002</i>
   <i name="ENCUTLF">     -1.00000000</i>
   <i type="logical" name="ESF_SPLINES"> F  </i>
   <i name="ESF_CONV">      0.01000000</i>
   <i type="int" name="ESF_NINTER">    15</i>
   <i type="int" name="LMAXMP2">    -1</i>
   <i name="SCISSOR">      0.00000000</i>
   <i type="int" name="NOMEGA">     0</i>
   <i type="int" name="NOMEGAR">     0</i>
   <i type="int" name="NBANDSGW">    -1</i>
   <i type="int" name="NBANDSO">    -1</i>
   <i type="int" name="NBANDSV">    -1</i>
   <i type="int" name="NELMGW">     1</i>
   <i type="int" name="NELMHF">     1</i>
   <i type="int" name="DIM">     3</i>
   <i type="int" name="IESPILON">     4</i>
   <i type="int" name="ANTIRES">     0</i>
   <i name="OMEGAMAX">    -30.00000000</i>
   <i name="OMEGAMIN">    -30.00000000</i>
   <i name="OMEGATL">   -200.00000000</i>
   <i type="int" name="OMEGAGRID">     0</i>
   <i name="CSHIFT">     -0.10000000</i>
   <i type="logical" name="LSELFENERGY"> F  </i>
   <i type="logical" name="LSPECTRAL"> F  </i>
   <i type="logical" name="LSPECTRALGW"> F  </i>
   <i type="logical" name="LSINGLES"> F  </i>
   <i type="logical" name="LFERMIGW"> F  </i>
   <i type="logical" name="ODDONLYGW"> F  </i>
   <i type="logical" name="EVENONLYGW"> F  </i>
   <i type="int" name="NKREDLFX">     1</i>
   <i type="int" name="NKREDLFY">     1</i>
   <i type="int" name="NKREDLFZ">     1</i>
   <i type="int" name="MAXMEM">  2800</i>
   <i type="int" name="TELESCOPE">     0</i>
   <i type="int" name="NTAUPAR">    -1</i>
   <i type="int" name="NOMEGAPAR">    -1</i>
   <i name="DAMP_NEWTON">      0.80000001</i>
   <i name="LAMBDA">      1.00000000</i>
  </separator>
  <separator name="External order field" >
   <i name="OFIELD_KAPPA">      0.00000000</i>
   <v name="OFIELD_K">      0.00000000      0.00000000      0.00000000</v>
   <i name="OFIELD_Q6_NEAR">      0.00000000</i>
   <i name="OFIELD_Q6_FAR">      0.00000000</i>
   <i name="OFIELD_A">      0.00000000</i>
  </separator>
  <separator name="optional k-points parameters" >
   <i type="int" name="KPOINTS_OPT_MODE">     1</i>
   <i type="logical" name="LKPOINTS_OPT"> F  </i>
  </separator>
 </parameters>
 <atominfo>
  <atoms>       6 </atoms>
  <types>       3 </types>
  <array name="atoms" >
   <dimension dim="1">ion</dimension>
   <field type="string">element</field>
   <field type="int">atomtype</field>
   <set>
    <rc><c>Mo</c><c>   1</c></rc>
    <rc><c>Mo</c><c>   1</c></rc>
    <rc><c>S </c><c>   2</c></rc>
    <rc><c>S </c><c>   2</c></rc>
    <rc><c>Te</c><c>   3</c></rc>
    <rc><c>Te</c><c>   3</c></rc>
   </set>
  </array>
  <array name="atomtypes" >
   <dimension dim="1">type</dimension>
   <field type="int">atomspertype</field>
   <field type="string">element</field>
   <field>mass</field>
   <field>valence</field>
   <field type="string">pseudopotential</field>
   <set>
    <rc><c>   2</c><c>Mo</c><c>     95.94000000</c><c>     14.00000000</c><c>  PAW_PBE Mo_sv 02Feb2006               </c></rc>
    <rc><c>   2</c><c>S </c><c>     32.06600000</c><c>      6.00000000</c><c>  PAW_PBE S 06Sep2000                   </c></rc>
    <rc><c>   2</c><c>Te</c><c>    127.60000000</c><c>      6.00000000</c><c>  PAW_PBE Te 08Apr2002                  </c></rc>
   </set>
  </array>
 </atominfo>
 <structure name="initialpos" >
  <crystal>
   <varray name="basis" >
    <v>       3.37894624       0.00000000       0.00000000 </v>
    <v>       1.68947312       2.92625328       0.00000000 </v>
    <v>       0.00000000       0.00000000      20.00000000 </v>
   </varray>
   <i name="volume">    197.75304998 </i>
   <varray name="rec_basis" >
    <v>       0.29595025      -0.17086696       0.00000000 </v>
    <v>       0.00000000       0.34173392       0.00000000 </v>
    <v>       0.00000000       0.00000000       0.05000000 </v>
   </varray>
  </crystal>
  <varray name="positions" >
   <v>       0.00000000       0.00000000       0.50000000 </v>
   <v>       0.33333333       0.33333333       0.82500000 </v>
   <v>       0.33333333       0.33333333       0.42229739 </v>
   <v>       0.33333333       0.33333333       0.57770261 </v>
   <v>       0.00000000       0.00000000       0.73523222 </v>
   <v>       0.00000000       0.00000000       0.91476778 </v>
  </varray>
 </structure>
 <calculation>
  <scstep>
   <time name="dav">    0.11    0.11</time>
   <time name="total">    0.14    0.14</time>
   <energy>
    <i name="alphaZ">     84.73417088 </i>
    <i name="ewald">   3428.19966743 </i>
    <i name="hartreedc">  -7831.24174700 </i>
    <i name="XCdc">    101.99881557 </i>
    <i name="pawpsdc">   3846.09813213 </i>
    <i name="pawaedc">  -3725.77977171 </i>
    <i name="eentropy">     -0.00395635 </i>
    <i name="bandstr">   -248.99693655 </i>
    <i name="atom">   4724.74487735 </i>
    <i name="e_fr_energy">    379.75325175 </i>
    <i name="e_wo_entrp">    379.75720810 </i>
    <i name="e_0_energy">    379.75522992 </i>
   </energy>
  </scstep>
  <scstep>
   <time name="dav">    0.11    0.11</time>
   <time name="total">    0.11    0.11</time>
   <energy>
    <i name="e_fr_energy">    -18.54208432 </i>
    <i name="e_wo_entrp">    -18.54183289 </i>
    <i name="e_0_energy">    -18.54195860 </i>
   </energy>
  </scstep>
  <scstep>
   <time name="dav">    0.11    0.11</time>
   <time name="total">    0.11    0.11</time>
   <energy>
    <i name="e_fr_energy">    -41.09512136 </i>
    <i name="e_wo_entrp">    -41.09512136 </i>
    <i name="e_0_energy">    -41.09512136 </i>
   </energy>
  </scstep>
  <scstep>
   <time name="dav">    0.12    0.12</time>
   <time name="total">    0.12    0.12</time>
   <energy>
    <i name="e_fr_energy">    -41.66533410 </i>
    <i name="e_wo_entrp">    -41.66533410 </i>
    <i name="e_0_energy">    -41.66533410 </i>
   </energy>
  </scstep>
  <scstep>
   <time name="dav">    0.12    0.12</time>
   <time name="total">    0.14    0.14</time>
   <energy>
    <i name="e_fr_energy">    -41.67728079 </i>
    <i name="e_wo_entrp">    -41.67728079 </i>
    <i name="e_0_energy">    -41.67728079 </i>
   </energy>
  </scstep>
  <scstep>
   <time name="dav">    0.10    0.10</time>
   <time name="total">    0.14    0.14</time>
   <energy>
    <i name="e_fr_energy">    -40.06397961 </i>
    <i name="e_wo_entrp">    -40.06118890 </i>
    <i name="e_0_energy">    -40.06258426 </i>
   </energy>
  </scstep>
  <scstep>
   <time name="dav">    0.09    0.09</time>
   <time name="total">    0.13    0.13</time>
   <energy>
    <i name="e_fr_energy">    -39.94964155 </i>
    <i name="e_wo_entrp">    -39.94964155 </i>
    <i name="e_0_energy">    -39.94964155 </i>
   </energy>
  </scstep>
  <scstep>
   <time name="dav">    0.10    0.10</time>
   <time name="total">    0.13    0.13</time>
   <energy>
    <i name="e_fr_energy">    -39.23475811 </i>
    <i name="e_wo_entrp">    -39.23475811 </i>
    <i name="e_0_energy">    -39.23475811 </i>
   </energy>
  </scstep>
  <scstep>
   <time name="dav">    0.12    0.12</time>
   <time name="total">    0.18    0.18</time>
   <energy>
    <i name="e_fr_energy">    -39.23377541 </i>
    <i name="e_wo_entrp">    -39.23377541 </i>
    <i name="e_0_energy">    -39.23377541 </i>
   </energy>
  </scstep>
  <scstep>
   <time name="dav">    0.11    0.11</time>
   <time name="total">    0.16    0.16</time>
   <energy>
    <i name="e_fr_energy">    -39.22044588 </i>
    <i name="e_wo_entrp">    -39.22044588 </i>
    <i name="e_0_energy">    -39.22044588 </i>
   </energy>
  </scstep>
  <scstep>
   <time name="dav">    0.12    0.12</time>
   <time name="total">    0.16    0.16</time>
   <energy>
    <i name="e_fr_energy">    -39.21642593 </i>
    <i name="e_wo_entrp">    -39.21642589 </i>
    <i name="e_0_energy">    -39.21642591 </i>
   </energy>
  </scstep>
  <scstep>
   <time name="dav">    0.11    0.11</time>
   <time name="total">    0.15    0.15</time>
   <energy>
    <i name="e_fr_energy">    -39.21462508 </i>
    <i name="e_wo_entrp">    -39.21462455 </i>
    <i name="e_0_energy">    -39.21462481 </i>
   </energy>
  </scstep>
  <scstep>
   <time name="dav">    0.11    0.11</time>
   <time name="total">    0.17    0.17</time>
   <energy>
    <i name="e_fr_energy">    -39.21414688 </i>
    <i name="e_wo_entrp">    -39.21414608 </i>
    <i name="e_0_energy">    -39.21414648 </i>
   </energy>
  </scstep>
  <scstep>
   <time name="dav">    0.11    0.11</time>
   <time name="total">    0.15    0.15</time>
   <energy>
    <i name="e_fr_energy">    -39.21232033 </i>
    <i name="e_wo_entrp">    -39.21230072 </i>
    <i name="e_0_energy">    -39.21231053 </i>
   </energy>
  </scstep>
  <scstep>
   <time name="dav">    0.10    0.10</time>
   <time name="total">    0.14    0.14</time>
   <energy>
    <i name="e_fr_energy">    -39.21229929 </i>
    <i name="e_wo_entrp">    -39.21227553 </i>
    <i name="e_0_energy">    -39.21228741 </i>
   </energy>
  </scstep>
  <scstep>
   <time name="dav">    0.11    0.11</time>
   <time name="total">    0.15    0.15</time>
   <energy>
    <i name="e_fr_energy">    -39.21200700 </i>
    <i name="e_wo_entrp">    -39.21187731 </i>
    <i name="e_0_energy">    -39.21194215 </i>
   </energy>
  </scstep>
  <scstep>
   <time name="dav">    0.11    0.11</time>
   <time name="total">    0.14    0.14</time>
   <energy>
    <i name="e_fr_energy">    -39.21239234 </i>
    <i name="e_wo_entrp">    -39.21223870 </i>
    <i name="e_0_energy">    -39.21231552 </i>
   </energy>
  </scstep>
  <scstep>
   <time name="dav">    0.11    0.11</time>
   <time name="total">    0.14    0.15</time>
   <energy>
    <i name="e_fr_energy">    -39.21253067 </i>
    <i name="e_wo_entrp">    -39.21237932 </i>
    <i name="e_0_energy">    -39.21245500 </i>
   </energy>
  </scstep>
  <scstep>
   <time name="dav">    0.11    0.11</time>
   <time name="total">    0.14    0.14</time>
   <energy>
    <i name="e_fr_energy">    -39.21290913 </i>
    <i name="e_wo_entrp">    -39.21277534 </i>
    <i name="e_0_energy">    -39.21284223 </i>
   </energy>
  </scstep>
  <scstep>
   <time name="dav">    0.11    0.11</time>
   <time name="total">    0.15    0.15</time>
   <energy>
    <i name="e_fr_energy">    -39.21307072 </i>
    <i name="e_wo_entrp">    -39.21294973 </i>
    <i name="e_0_energy">    -39.21301023 </i>
   </energy>
  </scstep>
  <scstep>
   <time name="dav">    0.11    0.11</time>
   <time name="total">    0.15    0.15</time>
   <energy>
    <i name="e_fr_energy">    -39.21308311 </i>
    <i name="e_wo_entrp">    -39.21297483 </i>
    <i name="e_0_energy">    -39.21302897 </i>
   </energy>
  </scstep>
  <scstep>
   <time name="dav">    0.10    0.10</time>
   <time name="total">    0.14    0.14</time>
   <energy>
    <i name="e_fr_energy">    -39.21309224 </i>
    <i name="e_wo_entrp">    -39.21299093 </i>
    <i name="e_0_energy">    -39.21304158 </i>
   </energy>
  </scstep>
  <scstep>
   <time name="dav">    0.09    0.09</time>
   <time name="total">    0.13    0.13</time>
   <energy>
    <i name="e_fr_energy">    -39.21308456 </i>
    <i name="e_wo_entrp">    -39.21298571 </i>
    <i name="e_0_energy">    -39.21303513 </i>
   </energy>
  </scstep>
  <scstep>
   <time name="dav">    0.08    0.08</time>
   <time name="total">    0.12    0.12</time>
   <energy>
    <i name="e_fr_energy">    -39.21308618 </i>
    <i name="e_wo_entrp">    -39.21298709 </i>
    <i name="e_0_energy">    -39.21303663 </i>
   </energy>
  </scstep>
  <scstep>
   <time name="dav">    0.08    0.08</time>
   <time name="total">    0.12    0.12</time>
   <energy>
    <i name="e_fr_energy">    -39.21309372 </i>
    <i name="e_wo_entrp">    -39.21299389 </i>
    <i name="e_0_energy">    -39.21304380 </i>
   </energy>
  </scstep>
  <scstep>
   <time name="dav">    0.07    0.07</time>
   <time name="total">    0.09    0.09</time>
   <energy>
    <i name="alphaZ">     84.73417088 </i>
    <i name="ewald">   3428.19966743 </i>
    <i name="hartreedc">  -7815.00174368 </i>
    <i name="XCdc">    100.84827738 </i>
    <i name="pawpsdc">   5533.94238337 </i>
    <i name="pawaedc">  -5419.93196905 </i>
    <i name="eentropy">     -0.00009938 </i>
    <i name="bandstr">   -676.74865829 </i>
    <i name="atom">   4724.74487735 </i>
    <i name="e_fr_energy">    -39.21309400 </i>
    <i name="e_wo_entrp">    -39.21299462 </i>
    <i name="e_0_energy">    -39.21304431 </i>
   </energy>
  </scstep>
  <structure>
   <crystal>
    <varray name="basis" >
     <v>       3.37894624       0.00000000       0.00000000 </v>
     <v>       1.68947312       2.92625328       0.00000000 </v>
     <v>       0.00000000       0.00000000      20.00000000 </v>
    </varray>
    <i name="volume">    197.75304998 </i>
    <varray name="rec_basis" >
     <v>       0.29595025      -0.17086696       0.00000000 </v>
     <v>       0.00000000       0.34173392       0.00000000 </v>
     <v>       0.00000000       0.00000000       0.05000000 </v>
    </varray>
   </crystal>
   <varray name="positions" >
    <v>       0.00000000       0.00000000       0.50000000 </v>
    <v>       0.33333333       0.33333333       0.82500000 </v>
    <v>       0.33333333       0.33333333       0.42229739 </v>
    <v>       0.33333333       0.33333333       0.57770261 </v>
    <v>       0.00000000       0.00000000       0.73523222 </v>
    <v>       0.00000000       0.00000000       0.91476778 </v>
   </varray>
  </structure>
  <varray name="forces" >
   <v>       0.00000000       0.00000000      -0.02912813 </v>
   <v>       0.00000000       0.00000000      -0.01748370 </v>
   <v>       0.00000000      -0.00000000       0.92858457 </v>
   <v>       0.00000000       0.00000000      -0.84652561 </v>
   <v>      -0.00000000       0.00000000      -1.12916360 </v>
   <v>      -0.00000000      -0.00000000       1.09371648 </v>
  </varray>
  <varray name="stress" >
   <v>     -19.28507523       0.00000000      -0.00000000 </v>
   <v>       0.00000000     -19.28507523       0.00000000 </v>
   <v>       0.00000000       0.00000000       6.06824495 </v>
  </varray>
  <energy>
   <i name="e_fr_energy">    -41.71715821 </i>
   <i name="e_wo_entrp">    -41.71705883 </i>
   <i name="e_0_energy">    -41.71710852 </i>
  </energy>
  <time name="totalsc">    3.85    3.87</time>
 </calculation>
 <calculation>
  <scstep>
   <time name="dav">    0.09    0.09</time>
   <time name="total">    0.13    0.13</time>
   <energy>
    <i name="alphaZ">     84.73417088 </i>
    <i name="ewald">   3423.26029284 </i>
    <i name="hartreedc">  -7810.74821268 </i>
    <i name="XCdc">    100.78658880 </i>
    <i name="pawpsdc">   5533.95052879 </i>
    <i name="pawaedc">  -5419.94006374 </i>
    <i name="eentropy">     -0.00171353 </i>
    <i name="bandstr">   -676.10507306 </i>
    <i name="atom">   4724.74487735 </i>
    <i name="e_fr_energy">    -39.31860435 </i>
    <i name="e_wo_entrp">    -39.31689082 </i>
    <i name="e_0_energy">    -39.31774758 </i>
   </energy>
  </scstep>
  <scstep>
   <time name="dav">    0.10    0.10</time>
   <time name="total">    0.14    0.14</time>
   <energy>
    <i name="e_fr_energy">    -39.34313859 </i>
    <i name="e_wo_entrp">    -39.34234120 </i>
    <i name="e_0_energy">    -39.34273989 </i>
   </energy>
  </scstep>
  <scstep>
   <time name="dav">    0.10    0.10</time>
   <time name="total">    0.14    0.14</time>
   <energy>
    <i name="e_fr_energy">    -39.34185388 </i>
    <i name="e_wo_entrp">    -39.34110016 </i>
    <i name="e_0_energy">    -39.34147702 </i>
   </energy>
  </scstep>
  <scstep>
   <time name="dav">    0.11    0.11</time>
   <time name="total">    0.14    0.14</time>
   <energy>
    <i name="e_fr_energy">    -39.34285920 </i>
    <i name="e_wo_entrp">    -39.34216154 </i>
    <i name="e_0_energy">    -39.34251037 </i>
   </energy>
  </scstep>
  <scstep>
   <time name="dav">    0.10    0.10</time>
   <time name="total">    0.13    0.13</time>
   <energy>
    <i name="e_fr_energy">    -39.34103426 </i>
    <i name="e_wo_entrp">    -39.34024870 </i>
    <i name="e_0_energy">    -39.34064148 </i>
   </energy>
  </scstep>
  <scstep>
   <time name="dav">    0.12    0.12</time>
   <time name="total">    0.15    0.15</time>
   <energy>
    <i name="e_fr_energy">    -39.34102355 </i>
    <i name="e_wo_entrp">    -39.34023659 </i>
    <i name="e_0_energy">    -39.34063007 </i>
   </energy>
  </scstep>
  <scstep>
   <time name="dav">    0.10    0.10</time>
   <time name="total">    0.14    0.14</time>
   <energy>
    <i name="e_fr_energy">    -39.34100570 </i>
    <i name="e_wo_entrp">    -39.34021842 </i>
    <i name="e_0_energy">    -39.34061206 </i>
   </energy>
  </scstep>
  <scstep>
   <time name="dav">    0.11    0.11</time>
   <time name="total">    0.15    0.15</time>
   <energy>
    <i name="e_fr_energy">    -39.34100746 </i>
    <i name="e_wo_entrp">    -39.34021502 </i>
    <i name="e_0_energy">    -39.34061124 </i>
   </energy>
  </scstep>
  <scstep>
   <time name="dav">    0.11    0.11</time>
   <time name="total">    0.14    0.14</time>
   <energy>
    <i name="e_fr_energy">    -39.34101015 </i>
    <i name="e_wo_entrp">    -39.34021837 </i>
    <i name="e_0_energy">    -39.34061426 </i>
   </energy>
  </scstep>
  <scstep>
   <time name="dav">    0.10    0.10</time>
   <time name="total">    0.13    0.13</time>
   <energy>
    <i name="e_fr_energy">    -39.34101762 </i>
    <i name="e_wo_entrp">    -39.34022450 </i>
    <i name="e_0_energy">    -39.34062106 </i>
   </energy>
  </scstep>
  <scstep>
   <time name="dav">    0.11    0.11</time>
   <time name="total">    0.14    0.14</time>
   <energy>
    <i name="e_fr_energy">    -39.34103506 </i>
    <i name="e_wo_entrp">    -39.34024014 </i>
    <i name="e_0_energy">    -39.34063760 </i>
   </energy>
  </scstep>
  <scstep>
   <time name="dav">    0.10    0.10</time>
   <time name="total">    0.13    0.13</time>
   <energy>
    <i name="e_fr_energy">    -39.34104176 </i>
    <i name="e_wo_entrp">    -39.34024602 </i>
    <i name="e_0_energy">    -39.34064389 </i>
   </energy>
  </scstep>
  <scstep>
   <time name="dav">    0.08    0.08</time>
   <time name="total">    0.12    0.12</time>
   <energy>
    <i name="e_fr_energy">    -39.34104513 </i>
    <i name="e_wo_entrp">    -39.34024924 </i>
    <i name="e_0_energy">    -39.34064719 </i>
   </energy>
  </scstep>
  <scstep>
   <time name="dav">    0.07    0.07</time>
   <time name="total">    0.11    0.11</time>
   <energy>
    <i name="e_fr_energy">    -39.34104634 </i>
    <i name="e_wo_entrp">    -39.34025030 </i>
    <i name="e_0_energy">    -39.34064832 </i>
   </energy>
  </scstep>
  <scstep>
   <time name="dav">    0.07    0.07</time>
   <time name="total">    0.09    0.09</time>
   <energy>
    <i name="alphaZ">     84.73417088 </i>
    <i name="ewald">   3423.26029284 </i>
    <i name="hartreedc">  -7810.90587372 </i>
    <i name="XCdc">    100.80443439 </i>
    <i name="pawpsdc">   5519.85039503 </i>
    <i name="pawaedc">  -5405.84821218 </i>
    <i name="eentropy">     -0.00079604 </i>
    <i name="bandstr">   -675.98033536 </i>
    <i name="atom">   4724.74487735 </i>
    <i name="e_fr_energy">    -39.34104680 </i>
    <i name="e_wo_entrp">    -39.34025076 </i>
    <i name="e_0_energy">    -39.34064878 </i>
   </energy>
  </scstep>
  <structure>
   <crystal>
    <varray name="basis" >
     <v>       3.37894624       0.00000000       0.00000000 </v>
     <v>       1.68947312       2.92625328       0.00000000 </v>
     <v>       0.00000000       0.00000000      20.00000000 </v>
    </varray>
    <i name="volume">    197.75304998 </i>
    <varray name="rec_basis" >
     <v>       0.29595025      -0.17086696       0.00000000 </v>
     <v>       0.00000000       0.34173392       0.00000000 </v>
     <v>       0.00000000       0.00000000       0.05000000 </v>
    </varray>
   </crystal>
   <varray name="positions" >
    <v>       0.00000000       0.00000000       0.49992974 </v>
    <v>       0.33333333       0.33333333       0.82495783 </v>
    <v>       0.33333333       0.33333333       0.42453726 </v>
    <v>       0.33333333       0.33333333       0.57566067 </v>
    <v>      -0.00000000       0.00000000       0.73250853 </v>
    <v>      -0.00000000      -0.00000000       0.91740597 </v>
   </varray>
  </structure>
  <varray name="forces" >
   <v>       0.00000000       0.00000000       0.07922669 </v>
   <v>      -0.00000000      -0.00000000       0.01102777 </v>
   <v>       0.00000000       0.00000000       0.20618739 </v>
   <v>       0.00000000       0.00000000      -0.23732113 </v>
   <v>      -0.00000000       0.00000000      -0.32916531 </v>
   <v>      -0.00000000      -0.00000000       0.27004460 </v>
  </varray>
  <varray name="stress" >
   <v>     -24.04758812      -0.00000000      -0.00000000 </v>
   <v>       0.00000000     -24.04758812       0.00000000 </v>
   <v>       0.00000000       0.00000000      -0.09192430 </v>
  </varray>
  <energy>
   <i name="e_fr_energy">    -41.83990428 </i>
   <i name="e_wo_entrp">    -41.83910824 </i>
   <i name="e_0_energy">    -41.83950626 </i>
  </energy>
  <time name="totalsc">    2.26    2.27</time>
 </calculation>
 <calculation>
  <scstep>
   <time name="dav">    0.09    0.09</time>
   <time name="total">    0.12    0.12</time>
   <energy>
    <i name="alphaZ">     84.73417088 </i>
    <i name="ewald">   3425.83504001 </i>
    <i name="hartreedc">  -7813.68933253 </i>
    <i name="XCdc">    100.78116082 </i>
    <i name="pawpsdc">   5519.85608155 </i>
    <i name="pawaedc">  -5405.85390886 </i>
    <i name="eentropy">     -0.00110077 </i>
    <i name="bandstr">   -675.75511619 </i>
    <i name="atom">   4724.74487735 </i>
    <i name="e_fr_energy">    -39.34812776 </i>
    <i name="e_wo_entrp">    -39.34702698 </i>
    <i name="e_0_energy">    -39.34757737 </i>
   </energy>
  </scstep>
  <scstep>
   <time name="dav">    0.10    0.10</time>
   <time name="total">    0.14    0.14</time>
   <energy>
    <i name="e_fr_energy">    -39.35196458 </i>
    <i name="e_wo_entrp">    -39.35119550 </i>
    <i name="e_0_energy">    -39.35158004 </i>
   </energy>
  </scstep>
  <scstep>
   <time name="dav">    0.11    0.11</time>
   <time name="total">    0.14    0.14</time>
   <energy>
    <i name="e_fr_energy">    -39.35185082 </i>
    <i name="e_wo_entrp">    -39.35097668 </i>
    <i name="e_0_energy">    -39.35141375 </i>
   </energy>
  </scstep>
  <scstep>
   <time name="dav">    0.11    0.11</time>
   <time name="total">    0.15    0.15</time>
   <energy>
    <i name="e_fr_energy">    -39.35194442 </i>
    <i name="e_wo_entrp">    -39.35120643 </i>
    <i name="e_0_energy">    -39.35157543 </i>
   </energy>
  </scstep>
  <scstep>
   <time name="dav">    0.10    0.10</time>
   <time name="total">    0.14    0.14</time>
   <energy>
    <i name="e_fr_energy">    -39.35177448 </i>
    <i name="e_wo_entrp">    -39.35098048 </i>
    <i name="e_0_energy">    -39.35137748 </i>
   </energy>
  </scstep>
  <scstep>
   <time name="dav">    0.10    0.10</time>
   <time name="total">    0.14    0.14</time>
   <energy>
    <i name="e_fr_energy">    -39.35177075 </i>
    <i name="e_wo_entrp">    -39.35096655 </i>
    <i name="e_0_energy">    -39.35136865 </i>
   </energy>
  </scstep>
  <scstep>
   <time name="dav">    0.11    0.11</time>
   <time name="total">    0.15    0.15</time>
   <energy>
    <i name="e_fr_energy">    -39.35176966 </i>
    <i name="e_wo_entrp">    -39.35096532 </i>
    <i name="e_0_energy">    -39.35136749 </i>
   </energy>
  </scstep>
  <scstep>
   <time name="dav">    0.10    0.10</time>
   <time name="total">    0.14    0.14</time>
   <energy>
    <i name="e_fr_energy">    -39.35176844 </i>
    <i name="e_wo_entrp">    -39.35095690 </i>
    <i name="e_0_energy">    -39.35136267 </i>
   </energy>
  </scstep>
  <scstep>
   <time name="dav">    0.08    0.08</time>
   <time name="total">    0.10    0.10</time>
   <energy>
    <i name="alphaZ">     84.73417088 </i>
    <i name="ewald">   3425.83504001 </i>
    <i name="hartreedc">  -7813.69159880 </i>
    <i name="XCdc">    100.78791388 </i>
    <i name="pawpsdc">   5517.28207457 </i>
    <i name="pawaedc">  -5403.27931724 </i>
    <i name="eentropy">     -0.00081214 </i>
    <i name="bandstr">   -675.76411694 </i>
    <i name="atom">   4724.74487735 </i>
    <i name="e_fr_energy">    -39.35176842 </i>
    <i name="e_wo_entrp">    -39.35095628 </i>
    <i name="e_0_energy">    -39.35136235 </i>
   </energy>
  </scstep>
  <structure>
   <crystal>
    <varray name="basis" >
     <v>       3.37894624       0.00000000       0.00000000 </v>
     <v>       1.68947312       2.92625328       0.00000000 </v>
     <v>       0.00000000       0.00000000      20.00000000 </v>
    </varray>
    <i name="volume">    197.75304998 </i>
    <varray name="rec_basis" >
     <v>       0.29595025      -0.17086696       0.00000000 </v>
     <v>       0.00000000       0.34173392       0.00000000 </v>
     <v>       0.00000000       0.00000000       0.05000000 </v>
    </varray>
   </crystal>
   <varray name="positions" >
    <v>       0.00000000       0.00000000       0.50018704 </v>
    <v>       0.33333333       0.33333333       0.82499364 </v>
    <v>       0.33333333       0.33333333       0.42520690 </v>
    <v>       0.33333333       0.33333333       0.57488993 </v>
    <v>      -0.00000000       0.00000000       0.73143950 </v>
    <v>      -0.00000000      -0.00000000       0.91828299 </v>
   </varray>
  </structure>
  <varray name="forces" >
   <v>       0.00000000       0.00000000      -0.06873756 </v>
   <v>      -0.00000000       0.00000000      -0.03453472 </v>
   <v>      -0.00000000       0.00000000       0.04564350 </v>
   <v>       0.00000000       0.00000000       0.07517974 </v>
   <v>       0.00000000       0.00000000      -0.03766586 </v>
   <v>       0.00000000      -0.00000000       0.02011489 </v>
  </varray>
  <varray name="stress" >
   <v>     -25.38455301      -0.00000000      -0.00000000 </v>
   <v>       0.00000000     -25.38455301       0.00000000 </v>
   <v>       0.00000000       0.00000000      -2.10897239 </v>
  </varray>
  <energy>
   <i name="e_fr_energy">    -41.84918956 </i>
   <i name="e_wo_entrp">    -41.84837742 </i>
   <i name="e_0_energy">    -41.84878349 </i>
  </energy>
  <time name="totalsc">    1.50    1.51</time>
 </calculation>
 <calculation>
  <scstep>
   <time name="dav">    0.09    0.09</time>
   <time name="total">    0.13    0.13</time>
   <energy>
    <i name="alphaZ">     84.73417088 </i>
    <i name="ewald">   3425.36085694 </i>
    <i name="hartreedc">  -7813.27199889 </i>
    <i name="XCdc">    100.78224282 </i>
    <i name="pawpsdc">   5517.25496380 </i>
    <i name="pawaedc">  -5403.25219525 </i>
    <i name="eentropy">     -0.00081570 </i>
    <i name="bandstr">   -675.70402134 </i>
    <i name="atom">   4724.74487735 </i>
    <i name="e_fr_energy">    -39.35191939 </i>
    <i name="e_wo_entrp">    -39.35110369 </i>
    <i name="e_0_energy">    -39.35151154 </i>
   </energy>
  </scstep>
  <scstep>
   <time name="dav">    0.10    0.10</time>
   <time name="total">    0.14    0.14</time>
   <energy>
    <i name="e_fr_energy">    -39.35205027 </i>
    <i name="e_wo_entrp">    -39.35123997 </i>
    <i name="e_0_energy">    -39.35164512 </i>
   </energy>
  </scstep>
  <scstep>
   <time name="dav">    0.11    0.11</time>
   <time name="total">    0.14    0.14</time>
   <energy>
    <i name="e_fr_energy">    -39.35204675 </i>
    <i name="e_wo_entrp">    -39.35123866 </i>
    <i name="e_0_energy">    -39.35164271 </i>
   </energy>
  </scstep>
  <scstep>
   <time name="dav">    0.11    0.11</time>
   <time name="total">    0.13    0.13</time>
   <energy>
    <i name="alphaZ">     84.73417088 </i>
    <i name="ewald">   3425.36085694 </i>
    <i name="hartreedc">  -7813.25234248 </i>
    <i name="XCdc">    100.78204232 </i>
    <i name="pawpsdc">   5515.78296765 </i>
    <i name="pawaedc">  -5401.77916163 </i>
    <i name="eentropy">     -0.00080343 </i>
    <i name="bandstr">   -675.72465346 </i>
    <i name="atom">   4724.74487735 </i>
    <i name="e_fr_energy">    -39.35204586 </i>
    <i name="e_wo_entrp">    -39.35124243 </i>
    <i name="e_0_energy">    -39.35164415 </i>
   </energy>
  </scstep>
  <structure>
   <crystal>
    <varray name="basis" >
     <v>       3.37894624       0.00000000       0.00000000 </v>
     <v>       1.68947312       2.92625328       0.00000000 </v>
     <v>       0.00000000       0.00000000      20.00000000 </v>
    </varray>
    <i name="volume">    197.75304998 </i>
    <varray name="rec_basis" >
     <v>       0.29595025      -0.17086696       0.00000000 </v>
     <v>       0.00000000       0.34173392       0.00000000 </v>
     <v>       0.00000000       0.00000000       0.05000000 </v>
    </varray>
   </crystal>
   <varray name="positions" >
    <v>       0.00000000       0.00000000       0.50009882 </v>
    <v>       0.33333333       0.33333333       0.82494860 </v>
    <v>       0.33333333       0.33333333       0.42527194 </v>
    <v>       0.33333333       0.33333333       0.57498266 </v>
    <v>      -0.00000000       0.00000000       0.73138185 </v>
    <v>      -0.00000000      -0.00000000       0.91831613 </v>
   </varray>
  </structure>
  <varray name="forces" >
   <v>       0.00000000      -0.00000000       0.01688549 </v>
   <v>      -0.00000000       0.00000000      -0.02099415 </v>
   <v>      -0.00000000      -0.00000000       0.00900593 </v>
   <v>       0.00000000      -0.00000000       0.02633729 </v>
   <v>       0.00000000      -0.00000000      -0.02902485 </v>
   <v>      -0.00000000       0.00000000      -0.00220970 </v>
  </varray>
  <varray name="stress" >
   <v>     -25.54307847      -0.00000000      -0.00000000 </v>
   <v>      -0.00000000     -25.54307847       0.00000000 </v>
   <v>      -0.00000000       0.00000000      -2.53277351 </v>
  </varray>
  <energy>
   <i name="e_fr_energy">    -41.84943340 </i>
   <i name="e_wo_entrp">    -41.84862997 </i>
   <i name="e_0_energy">    -41.84903168 </i>
  </energy>
  <time name="totalsc">    0.81    0.81</time>
 </calculation>
 <calculation>
  <scstep>
   <time name="dav">    0.09    0.09</time>
   <time name="total">    0.12    0.12</time>
   <energy>
    <i name="alphaZ">     84.73417088 </i>
    <i name="ewald">   3428.13020486 </i>
    <i name="hartreedc">  -7816.07585700 </i>
    <i name="XCdc">    100.77693547 </i>
    <i name="pawpsdc">   5515.68208547 </i>
    <i name="pawaedc">  -5401.67771527 </i>
    <i name="eentropy">     -0.00080338 </i>
    <i name="bandstr">   -675.66576441 </i>
    <i name="atom">   4724.74487735 </i>
    <i name="e_fr_energy">    -39.35186604 </i>
    <i name="e_wo_entrp">    -39.35106266 </i>
    <i name="e_0_energy">    -39.35146435 </i>
   </energy>
  </scstep>
  <scstep>
   <time name="dav">    0.09    0.09</time>
   <time name="total">    0.13    0.13</time>
   <energy>
    <i name="e_fr_energy">    -39.35192870 </i>
    <i name="e_wo_entrp">    -39.35112590 </i>
    <i name="e_0_energy">    -39.35152730 </i>
   </energy>
  </scstep>
  <scstep>
   <time name="dav">    0.11    0.11</time>
   <time name="total">    0.14    0.14</time>
   <energy>
    <i name="e_fr_energy">    -39.35192704 </i>
    <i name="e_wo_entrp">    -39.35112422 </i>
    <i name="e_0_energy">    -39.35152563 </i>
   </energy>
  </scstep>
  <scstep>
   <time name="dav">    0.10    0.10</time>
   <time name="total">    0.12    0.12</time>
   <energy>
    <i name="alphaZ">     84.73417088 </i>
    <i name="ewald">   3428.13020486 </i>
    <i name="hartreedc">  -7816.05641561 </i>
    <i name="XCdc">    100.77652491 </i>
    <i name="pawpsdc">   5514.08209463 </i>
    <i name="pawaedc">  -5400.07639595 </i>
    <i name="eentropy">     -0.00080091 </i>
    <i name="bandstr">   -675.68618659 </i>
    <i name="atom">   4724.74487735 </i>
    <i name="e_fr_energy">    -39.35192643 </i>
    <i name="e_wo_entrp">    -39.35112552 </i>
    <i name="e_0_energy">    -39.35152597 </i>
   </energy>
  </scstep>
  <structure>
   <crystal>
    <varray name="basis" >
     <v>       3.37894624       0.00000000       0.00000000 </v>
     <v>       1.68947312       2.92625328       0.00000000 </v>
     <v>       0.00000000       0.00000000      20.00000000 </v>
    </varray>
    <i name="volume">    197.75304998 </i>
    <varray name="rec_basis" >
     <v>       0.29595025      -0.17086696       0.00000000 </v>
     <v>       0.00000000       0.34173392       0.00000000 </v>
     <v>       0.00000000       0.00000000       0.05000000 </v>
    </varray>
   </crystal>
   <varray name="positions" >
    <v>       0.00000000       0.00000000       0.50014670 </v>
    <v>       0.33333333       0.33333333       0.82489615 </v>
    <v>       0.33333333       0.33333333       0.42529555 </v>
    <v>       0.33333333       0.33333333       0.57504419 </v>
    <v>      -0.00000000       0.00000000       0.73130463 </v>
    <v>      -0.00000000      -0.00000000       0.91831277 </v>
   </varray>
  </structure>
  <varray name="forces" >
   <v>       0.00000000       0.00000000       0.01149626 </v>
   <v>      -0.00000000      -0.00000000      -0.01606547 </v>
   <v>      -0.00000000       0.00000000       0.01681532 </v>
   <v>      -0.00000000       0.00000000       0.02041968 </v>
   <v>       0.00000000       0.00000000      -0.01750132 </v>
   <v>       0.00000000      -0.00000000      -0.01516447 </v>
  </varray>
  <varray name="stress" >
   <v>     -25.70167604       0.00000000       0.00000000 </v>
   <v>       0.00000000     -25.70167604       0.00000000 </v>
   <v>      -0.00000000       0.00000000      -2.96011857 </v>
  </varray>
  <energy>
   <i name="e_fr_energy">    -41.84953716 </i>
   <i name="e_wo_entrp">    -41.84873625 </i>
   <i name="e_0_energy">    -41.84913670 </i>
  </energy>
  <time name="totalsc">    0.78    0.79</time>
 </calculation>
 <calculation>
  <scstep>
   <time name="dav">    0.09    0.09</time>
   <time name="total">    0.12    0.12</time>
   <energy>
    <i name="alphaZ">     84.73417088 </i>
    <i name="ewald">   3432.56670410 </i>
    <i name="hartreedc">  -7820.51160508 </i>
    <i name="XCdc">    100.77676112 </i>
    <i name="pawpsdc">   5513.96908154 </i>
    <i name="pawaedc">  -5399.96250820 </i>
    <i name="eentropy">     -0.00079881 </i>
    <i name="bandstr">   -675.66820155 </i>
    <i name="atom">   4724.74487735 </i>
    <i name="e_fr_energy">    -39.35151866 </i>
    <i name="e_wo_entrp">    -39.35071985 </i>
    <i name="e_0_energy">    -39.35111925 </i>
   </energy>
  </scstep>
  <scstep>
   <time name="dav">    0.10    0.10</time>
   <time name="total">    0.13    0.13</time>
   <energy>
    <i name="e_fr_energy">    -39.35159027 </i>
    <i name="e_wo_entrp">    -39.35079291 </i>
    <i name="e_0_energy">    -39.35119159 </i>
   </energy>
  </scstep>
  <scstep>
   <time name="dav">    0.10    0.10</time>
   <time name="total">    0.14    0.14</time>
   <energy>
    <i name="e_fr_energy">    -39.35158875 </i>
    <i name="e_wo_entrp">    -39.35079068 </i>
    <i name="e_0_energy">    -39.35118972 </i>
   </energy>
  </scstep>
  <scstep>
   <time name="dav">    0.09    0.09</time>
   <time name="total">    0.11    0.11</time>
   <energy>
    <i name="alphaZ">     84.73417088 </i>
    <i name="ewald">   3432.56670410 </i>
    <i name="hartreedc">  -7820.50599916 </i>
    <i name="XCdc">    100.77653934 </i>
    <i name="pawpsdc">   5513.74594496 </i>
    <i name="pawaedc">  -5399.73914373 </i>
    <i name="eentropy">     -0.00079704 </i>
    <i name="bandstr">   -675.67388501 </i>
    <i name="atom">   4724.74487735 </i>
    <i name="e_fr_energy">    -39.35158831 </i>
    <i name="e_wo_entrp">    -39.35079127 </i>
    <i name="e_0_energy">    -39.35118979 </i>
   </energy>
  </scstep>
  <structure>
   <crystal>
    <varray name="basis" >
     <v>       3.37894624       0.00000000       0.00000000 </v>
     <v>       1.68947312       2.92625328       0.00000000 </v>
     <v>       0.00000000       0.00000000      20.00000000 </v>
    </varray>
    <i name="volume">    197.75304998 </i>
    <varray name="rec_basis" >
     <v>       0.29595025      -0.17086696       0.00000000 </v>
     <v>       0.00000000       0.34173392       0.00000000 </v>
     <v>       0.00000000       0.00000000       0.05000000 </v>
    </varray>
   </crystal>
   <varray name="positions" >
    <v>       0.00000000       0.00000000       0.50019363 </v>
    <v>       0.33333333       0.33333333       0.82484235 </v>
    <v>       0.33333333       0.33333333       0.42534862 </v>
    <v>       0.33333333       0.33333333       0.57510992 </v>
    <v>      -0.00000000       0.00000000       0.73124515 </v>
    <v>       0.00000000      -0.00000000       0.91826033 </v>
   </varray>
  </structure>
  <varray name="forces" >
   <v>       0.00000000       0.00000000       0.01704429 </v>
   <v>      -0.00000000      -0.00000000      -0.01812324 </v>
   <v>      -0.00000000      -0.00000000       0.01431683 </v>
   <v>       0.00000000       0.00000000       0.01421160 </v>
   <v>       0.00000000       0.00000000      -0.01357498 </v>
   <v>       0.00000000       0.00000000      -0.01387449 </v>
  </varray>
  <varray name="stress" >
   <v>     -25.74797045       0.00000000       0.00000000 </v>
   <v>       0.00000000     -25.74797045       0.00000000 </v>
   <v>       0.00000000       0.00000000      -3.05828625 </v>
  </varray>
  <energy>
   <i name="e_fr_energy">    -41.84964355 </i>
   <i name="e_wo_entrp">    -41.84884651 </i>
   <i name="e_0_energy">    -41.84924503 </i>
  </energy>
  <time name="totalsc">    0.78    0.78</time>
 </calculation>
 <calculation>
  <scstep>
   <time name="dav">    0.09    0.09</time>
   <time name="total">    0.12    0.12</time>
   <energy>
    <i name="alphaZ">     84.73417088 </i>
    <i name="ewald">   3446.02726042 </i>
    <i name="hartreedc">  -7833.96881411 </i>
    <i name="XCdc">    100.77863408 </i>
    <i name="pawpsdc">   5513.72619633 </i>
    <i name="pawaedc">  -5399.71929300 </i>
    <i name="eentropy">     -0.00079486 </i>
    <i name="bandstr">   -675.67216216 </i>
    <i name="atom">   4724.74487735 </i>
    <i name="e_fr_energy">    -39.34992508 </i>
    <i name="e_wo_entrp">    -39.34913022 </i>
    <i name="e_0_energy">    -39.34952765 </i>
   </energy>
  </scstep>
  <scstep>
   <time name="dav">    0.09    0.09</time>
   <time name="total">    0.13    0.13</time>
   <energy>
    <i name="e_fr_energy">    -39.35061590 </i>
    <i name="e_wo_entrp">    -39.34982400 </i>
    <i name="e_0_energy">    -39.35021995 </i>
   </energy>
  </scstep>
  <scstep>
   <time name="dav">    0.10    0.10</time>
   <time name="total">    0.14    0.14</time>
   <energy>
    <i name="e_fr_energy">    -39.35060218 </i>
    <i name="e_wo_entrp">    -39.34980832 </i>
    <i name="e_0_energy">    -39.35020525 </i>
   </energy>
  </scstep>
  <scstep>
   <time name="dav">    0.11    0.11</time>
   <time name="total">    0.15    0.15</time>
   <energy>
    <i name="e_fr_energy">    -39.35059799 </i>
    <i name="e_wo_entrp">    -39.34980632 </i>
    <i name="e_0_energy">    -39.35020216 </i>
   </energy>
  </scstep>
  <scstep>
   <time name="dav">    0.11    0.11</time>
   <time name="total">    0.12    0.12</time>
   <energy>
    <i name="alphaZ">     84.73417088 </i>
    <i name="ewald">   3446.02726042 </i>
    <i name="hartreedc">  -7833.96905306 </i>
    <i name="XCdc">    100.77823114 </i>
    <i name="pawpsdc">   5513.90726073 </i>
    <i name="pawaedc">  -5399.89998045 </i>
    <i name="eentropy">     -0.00079343 </i>
    <i name="bandstr">   -675.67257119 </i>
    <i name="atom">   4724.74487735 </i>
    <i name="e_fr_energy">    -39.35059761 </i>
    <i name="e_wo_entrp">    -39.34980417 </i>
    <i name="e_0_energy">    -39.35020089 </i>
   </energy>
  </scstep>
  <structure>
   <crystal>
    <varray name="basis" >
     <v>       3.37894624       0.00000000       0.00000000 </v>
     <v>       1.68947312       2.92625328       0.00000000 </v>
     <v>       0.00000000       0.00000000      20.00000000 </v>
    </varray>
    <i name="volume">    197.75304998 </i>
    <varray name="rec_basis" >
     <v>       0.29595025      -0.17086696       0.00000000 </v>
     <v>       0.00000000       0.34173392       0.00000000 </v>
     <v>       0.00000000       0.00000000       0.05000000 </v>
    </varray>
   </crystal>
   <varray name="positions" >
    <v>       0.00000000       0.00000000       0.50034919 </v>
    <v>       0.33333333       0.33333333       0.82466854 </v>
    <v>       0.33333333       0.33333333       0.42549519 </v>
    <v>       0.33333333       0.33333333       0.57526604 </v>
    <v>      -0.00000000       0.00000000       0.73110245 </v>
    <v>       0.00000000       0.00000000       0.91811860 </v>
   </varray>
  </structure>
  <varray name="forces" >
   <v>       0.00000000       0.00000000       0.01483284 </v>
   <v>      -0.00000000      -0.00000000      -0.00274634 </v>
   <v>       0.00000000       0.00000000       0.01966631 </v>
   <v>       0.00000000       0.00000000       0.01116902 </v>
   <v>      -0.00000000      -0.00000000      -0.01707004 </v>
   <v>      -0.00000000      -0.00000000      -0.02585179 </v>
  </varray>
  <varray name="stress" >
   <v>     -25.70910571      -0.00000000       0.00000000 </v>
   <v>      -0.00000000     -25.70910571      -0.00000000 </v>
   <v>      -0.00000000       0.00000000      -2.92526779 </v>
  </varray>
  <energy>
   <i name="e_fr_energy">    -41.84992791 </i>
   <i name="e_wo_entrp">    -41.84913448 </i>
   <i name="e_0_energy">    -41.84953120 </i>
  </energy>
  <time name="totalsc">    0.93    0.94</time>
 </calculation>
 <calculation>
  <scstep>
   <time name="dav">    0.09    0.09</time>
   <time name="total">    0.12    0.12</time>
   <energy>
    <i name="alphaZ">     84.73417088 </i>
    <i name="ewald">   3499.09955750 </i>
    <i name="hartreedc">  -7886.99225104 </i>
    <i name="XCdc">    100.79375268 </i>
    <i name="pawpsdc">   5513.94676093 </i>
    <i name="pawaedc">  -5399.93905878 </i>
    <i name="eentropy">     -0.00077975 </i>
    <i name="bandstr">   -675.72404879 </i>
    <i name="atom">   4724.74487735 </i>
    <i name="e_fr_energy">    -39.33701903 </i>
    <i name="e_wo_entrp">    -39.33623927 </i>
    <i name="e_0_energy">    -39.33662915 </i>
   </energy>
  </scstep>
  <scstep>
   <time name="dav">    0.09    0.09</time>
   <time name="total">    0.13    0.13</time>
   <energy>
    <i name="e_fr_energy">    -39.34649967 </i>
    <i name="e_wo_entrp">    -39.34572238 </i>
    <i name="e_0_energy">    -39.34611103 </i>
   </energy>
  </scstep>
  <scstep>
   <time name="dav">    0.10    0.10</time>
   <time name="total">    0.14    0.14</time>
   <energy>
    <i name="e_fr_energy">    -39.34631030 </i>
    <i name="e_wo_entrp">    -39.34552910 </i>
    <i name="e_0_energy">    -39.34591970 </i>
   </energy>
  </scstep>
  <scstep>
   <time name="dav">    0.11    0.11</time>
   <time name="total">    0.14    0.14</time>
   <energy>
    <i name="e_fr_energy">    -39.34625545 </i>
    <i name="e_wo_entrp">    -39.34547747 </i>
    <i name="e_0_energy">    -39.34586646 </i>
   </energy>
  </scstep>
  <scstep>
   <time name="dav">    0.11    0.11</time>
   <time name="total">    0.14    0.14</time>
   <energy>
    <i name="e_fr_energy">    -39.34625075 </i>
    <i name="e_wo_entrp">    -39.34546873 </i>
    <i name="e_0_energy">    -39.34585974 </i>
   </energy>
  </scstep>
  <scstep>
   <time name="dav">    0.11    0.11</time>
   <time name="total">    0.14    0.14</time>
   <energy>
    <i name="e_fr_energy">    -39.34625332 </i>
    <i name="e_wo_entrp">    -39.34547667 </i>
    <i name="e_0_energy">    -39.34586499 </i>
   </energy>
  </scstep>
  <scstep>
   <time name="dav">    0.10    0.10</time>
   <time name="total">    0.12    0.12</time>
   <energy>
    <i name="alphaZ">     84.73417088 </i>
    <i name="ewald">   3499.09955750 </i>
    <i name="hartreedc">  -7886.99529189 </i>
    <i name="XCdc">    100.79184021 </i>
    <i name="pawpsdc">   5516.86629830 </i>
    <i name="pawaedc">  -5402.85981578 </i>
    <i name="eentropy">     -0.00078224 </i>
    <i name="bandstr">   -675.72710800 </i>
    <i name="atom">   4724.74487735 </i>
    <i name="e_fr_energy">    -39.34625368 </i>
    <i name="e_wo_entrp">    -39.34547144 </i>
    <i name="e_0_energy">    -39.34586256 </i>
   </energy>
  </scstep>
  <structure>
   <crystal>
    <varray name="basis" >
     <v>       3.37894624       0.00000000       0.00000000 </v>
     <v>       1.68947312       2.92625328       0.00000000 </v>
     <v>       0.00000000       0.00000000      20.00000000 </v>
    </varray>
    <i name="volume">    197.75304998 </i>
    <varray name="rec_basis" >
     <v>       0.29595025      -0.17086696       0.00000000 </v>
     <v>       0.00000000       0.34173392       0.00000000 </v>
     <v>       0.00000000       0.00000000       0.05000000 </v>
    </varray>
   </crystal>
   <varray name="positions" >
    <v>       0.00000000       0.00000000       0.50095063 </v>
    <v>       0.33333333       0.33333333       0.82406861 </v>
    <v>       0.33333333       0.33333333       0.42609611 </v>
    <v>       0.33333333       0.33333333       0.57585570 </v>
    <v>       0.00000000       0.00000000       0.73054196 </v>
    <v>       0.00000000       0.00000000       0.91748698 </v>
   </varray>
  </structure>
  <varray name="forces" >
   <v>       0.00000000       0.00000000       0.00098126 </v>
   <v>       0.00000000       0.00000000      -0.00142798 </v>
   <v>      -0.00000000      -0.00000000       0.01749887 </v>
   <v>       0.00000000       0.00000000       0.00461558 </v>
   <v>       0.00000000       0.00000000      -0.01570204 </v>
   <v>       0.00000000       0.00000000      -0.00596569 </v>
  </varray>
  <varray name="stress" >
   <v>     -25.44320847       0.00000000       0.00000000 </v>
   <v>       0.00000000     -25.44320847       0.00000000 </v>
   <v>      -0.00000000       0.00000000      -1.99156551 </v>
  </varray>
  <energy>
   <i name="e_fr_energy">    -41.85080692 </i>
   <i name="e_wo_entrp">    -41.85002468 </i>
   <i name="e_0_energy">    -41.85041580 </i>
  </energy>
  <time name="totalsc">    1.21    1.22</time>
 </calculation>
 <calculation>
  <scstep>
   <time name="dav">    0.09    0.09</time>
   <time name="total">    0.12    0.12</time>
   <energy>
    <i name="alphaZ">     84.73417088 </i>
    <i name="ewald">   3518.42774696 </i>
    <i name="hartreedc">  -7906.31285176 </i>
    <i name="XCdc">    100.79780018 </i>
    <i name="pawpsdc">   5516.90535595 </i>
    <i name="pawaedc">  -5402.89813982 </i>
    <i name="eentropy">     -0.00078826 </i>
    <i name="bandstr">   -675.74156562 </i>
    <i name="atom">   4724.74487735 </i>
    <i name="e_fr_energy">    -39.34339415 </i>
    <i name="e_wo_entrp">    -39.34260589 </i>
    <i name="e_0_energy">    -39.34300002 </i>
   </energy>
  </scstep>
  <scstep>
   <time name="dav">    0.10    0.10</time>
   <time name="total">    0.14    0.14</time>
   <energy>
    <i name="e_fr_energy">    -39.34457922 </i>
    <i name="e_wo_entrp">    -39.34379837 </i>
    <i name="e_0_energy">    -39.34418879 </i>
   </energy>
  </scstep>
  <scstep>
   <time name="dav">    0.10    0.10</time>
   <time name="total">    0.14    0.14</time>
   <energy>
    <i name="e_fr_energy">    -39.34455440 </i>
    <i name="e_wo_entrp">    -39.34377042 </i>
    <i name="e_0_energy">    -39.34416241 </i>
   </energy>
  </scstep>
  <scstep>
   <time name="dav">    0.11    0.11</time>
   <time name="total">    0.15    0.15</time>
   <energy>
    <i name="e_fr_energy">    -39.34454829 </i>
    <i name="e_wo_entrp">    -39.34376721 </i>
    <i name="e_0_energy">    -39.34415775 </i>
   </energy>
  </scstep>
  <scstep>
   <time name="dav">    0.10    0.10</time>
   <time name="total">    0.12    0.12</time>
   <energy>
    <i name="alphaZ">     84.73417088 </i>
    <i name="ewald">   3518.42774696 </i>
    <i name="hartreedc">  -7906.31200808 </i>
    <i name="XCdc">    100.79750572 </i>
    <i name="pawpsdc">   5517.93531749 </i>
    <i name="pawaedc">  -5403.92842208 </i>
    <i name="eentropy">     -0.00078413 </i>
    <i name="bandstr">   -675.74295150 </i>
    <i name="atom">   4724.74487735 </i>
    <i name="e_fr_energy">    -39.34454739 </i>
    <i name="e_wo_entrp">    -39.34376326 </i>
    <i name="e_0_energy">    -39.34415533 </i>
   </energy>
  </scstep>
  <structure>
   <crystal>
    <varray name="basis" >
     <v>       3.37894624       0.00000000       0.00000000 </v>
     <v>       1.68947312       2.92625328       0.00000000 </v>
     <v>       0.00000000       0.00000000      20.00000000 </v>
    </varray>
    <i name="volume">    197.75304998 </i>
    <varray name="rec_basis" >
     <v>       0.29595025      -0.17086696       0.00000000 </v>
     <v>       0.00000000       0.34173392       0.00000000 </v>
     <v>       0.00000000       0.00000000       0.05000000 </v>
    </varray>
   </crystal>
   <varray name="positions" >
    <v>       0.00000000       0.00000000       0.50115204 </v>
    <v>       0.33333333       0.33333333       0.82385606 </v>
    <v>       0.33333333       0.33333333       0.42634706 </v>
    <v>       0.33333333       0.33333333       0.57606792 </v>
    <v>       0.00000000       0.00000000       0.73030884 </v>
    <v>       0.00000000       0.00000000       0.91726808 </v>
   </varray>
  </structure>
  <varray name="forces" >
   <v>       0.00000000       0.00000000       0.01642650 </v>
   <v>       0.00000000       0.00000000      -0.00690177 </v>
   <v>      -0.00000000      -0.00000000      -0.00033621 </v>
   <v>      -0.00000000      -0.00000000       0.00114147 </v>
   <v>      -0.00000000      -0.00000000      -0.00571457 </v>
   <v>       0.00000000       0.00000000      -0.00461542 </v>
  </varray>
  <varray name="stress" >
   <v>     -25.46164301      -0.00000000      -0.00000000 </v>
   <v>      -0.00000000     -25.46164301       0.00000000 </v>
   <v>       0.00000000       0.00000000      -1.79055758 </v>
  </varray>
  <energy>
   <i name="e_fr_energy">    -41.85100787 </i>
   <i name="e_wo_entrp">    -41.85022374 </i>
   <i name="e_0_energy">    -41.85061581 </i>
  </energy>
  <time name="totalsc">    0.94    0.94</time>
 </calculation>
 <calculation>
  <scstep>
   <time name="dav">    0.09    0.09</time>
   <time name="total">    0.12    0.13</time>
   <energy>
    <i name="alphaZ">     84.73417088 </i>
    <i name="ewald">   3513.53153088 </i>
    <i name="hartreedc">  -7901.43567163 </i>
    <i name="XCdc">    100.79595408 </i>
    <i name="pawpsdc">   5518.05482155 </i>
    <i name="pawaedc">  -5404.04734866 </i>
    <i name="eentropy">     -0.00078026 </i>
    <i name="bandstr">   -675.72248338 </i>
    <i name="atom">   4724.74487735 </i>
    <i name="e_fr_energy">    -39.34492918 </i>
    <i name="e_wo_entrp">    -39.34414892 </i>
    <i name="e_0_energy">    -39.34453905 </i>
   </energy>
  </scstep>
  <scstep>
   <time name="dav">    0.10    0.10</time>
   <time name="total">    0.14    0.14</time>
   <energy>
    <i name="e_fr_energy">    -39.34500282 </i>
    <i name="e_wo_entrp">    -39.34421623 </i>
    <i name="e_0_energy">    -39.34460952 </i>
   </energy>
  </scstep>
  <scstep>
   <time name="dav">    0.10    0.10</time>
   <time name="total">    0.13    0.13</time>
   <energy>
    <i name="e_fr_energy">    -39.34500107 </i>
    <i name="e_wo_entrp">    -39.34421750 </i>
    <i name="e_0_energy">    -39.34460928 </i>
   </energy>
  </scstep>
  <scstep>
   <time name="dav">    0.10    0.10</time>
   <time name="total">    0.12    0.12</time>
   <energy>
    <i name="alphaZ">     84.73417088 </i>
    <i name="ewald">   3513.53153088 </i>
    <i name="hartreedc">  -7901.43053281 </i>
    <i name="XCdc">    100.79582211 </i>
    <i name="pawpsdc">   5517.87045171 </i>
    <i name="pawaedc">  -5403.86364024 </i>
    <i name="eentropy">     -0.00078503 </i>
    <i name="bandstr">   -675.72689561 </i>
    <i name="atom">   4724.74487735 </i>
    <i name="e_fr_energy">    -39.34500076 </i>
    <i name="e_wo_entrp">    -39.34421573 </i>
    <i name="e_0_energy">    -39.34460824 </i>
   </energy>
  </scstep>
  <structure>
   <crystal>
    <varray name="basis" >
     <v>       3.37894624       0.00000000       0.00000000 </v>
     <v>       1.68947312       2.92625328       0.00000000 </v>
     <v>       0.00000000       0.00000000      20.00000000 </v>
    </varray>
    <i name="volume">    197.75304998 </i>
    <varray name="rec_basis" >
     <v>       0.29595025      -0.17086696       0.00000000 </v>
     <v>       0.00000000       0.34173392       0.00000000 </v>
     <v>       0.00000000       0.00000000       0.05000000 </v>
    </varray>
   </crystal>
   <varray name="positions" >
    <v>       0.00000000       0.00000000       0.50111320 </v>
    <v>       0.33333333       0.33333333       0.82391363 </v>
    <v>       0.33333333       0.33333333       0.42627789 </v>
    <v>       0.33333333       0.33333333       0.57600366 </v>
    <v>       0.00000000       0.00000000       0.73036378 </v>
    <v>       0.00000000       0.00000000       0.91732784 </v>
   </varray>
  </structure>
  <varray name="forces" >
   <v>       0.00000000       0.00000000       0.00197757 </v>
   <v>      -0.00000000      -0.00000000      -0.00667910 </v>
   <v>       0.00000000       0.00000000       0.01005244 </v>
   <v>       0.00000000       0.00000000       0.00873788 </v>
   <v>       0.00000000       0.00000000      -0.00552885 </v>
   <v>       0.00000000       0.00000000      -0.00855994 </v>
  </varray>
  <varray name="stress" >
   <v>     -25.49637514      -0.00000000       0.00000000 </v>
   <v>       0.00000000     -25.49637514       0.00000000 </v>
   <v>      -0.00000000       0.00000000      -1.94721493 </v>
  </varray>
  <energy>
   <i name="e_fr_energy">    -41.85096437 </i>
   <i name="e_wo_entrp">    -41.85017933 </i>
   <i name="e_0_energy">    -41.85057185 </i>
  </energy>
  <time name="totalsc">    0.78    0.79</time>
 </calculation>
 <calculation>
  <scstep>
   <time name="dav">    0.09    0.09</time>
   <time name="total">    0.13    0.13</time>
   <energy>
    <i name="alphaZ">     84.73417088 </i>
    <i name="ewald">   3518.10994780 </i>
    <i name="hartreedc">  -7906.00558979 </i>
    <i name="XCdc">    100.79739808 </i>
    <i name="pawpsdc">   5517.82132512 </i>
    <i name="pawaedc">  -5403.81417318 </i>
    <i name="eentropy">     -0.00078368 </i>
    <i name="bandstr">   -675.73169595 </i>
    <i name="atom">   4724.74487735 </i>
    <i name="e_fr_energy">    -39.34452337 </i>
    <i name="e_wo_entrp">    -39.34373969 </i>
    <i name="e_0_energy">    -39.34413153 </i>
   </energy>
  </scstep>
  <scstep>
   <time name="dav">    0.10    0.10</time>
   <time name="total">    0.13    0.13</time>
   <energy>
    <i name="e_fr_energy">    -39.34459229 </i>
    <i name="e_wo_entrp">    -39.34380814 </i>
    <i name="e_0_energy">    -39.34420022 </i>
   </energy>
  </scstep>
  <scstep>
   <time name="dav">    0.10    0.10</time>
   <time name="total">    0.14    0.14</time>
   <energy>
    <i name="e_fr_energy">    -39.34459083 </i>
    <i name="e_wo_entrp">    -39.34380684 </i>
    <i name="e_0_energy">    -39.34419884 </i>
   </energy>
  </scstep>
  <scstep>
   <time name="dav">    0.08    0.08</time>
   <time name="total">    0.10    0.10</time>
   <energy>
    <i name="alphaZ">     84.73417088 </i>
    <i name="ewald">   3518.10994780 </i>
    <i name="hartreedc">  -7906.00477335 </i>
    <i name="XCdc">    100.79734040 </i>
    <i name="pawpsdc">   5518.00009745 </i>
    <i name="pawaedc">  -5403.99297477 </i>
    <i name="eentropy">     -0.00078411 </i>
    <i name="bandstr">   -675.73249215 </i>
    <i name="atom">   4724.74487735 </i>
    <i name="e_fr_energy">    -39.34459050 </i>
    <i name="e_wo_entrp">    -39.34380640 </i>
    <i name="e_0_energy">    -39.34419845 </i>
   </energy>
  </scstep>
  <structure>
   <crystal>
    <varray name="basis" >
     <v>       3.37894624       0.00000000       0.00000000 </v>
     <v>       1.68947312       2.92625328       0.00000000 </v>
     <v>       0.00000000       0.00000000      20.00000000 </v>
    </varray>
    <i name="volume">    197.75304998 </i>
    <varray name="rec_basis" >
     <v>       0.29595025      -0.17086696       0.00000000 </v>
     <v>       0.00000000       0.34173392       0.00000000 </v>
     <v>       0.00000000       0.00000000       0.05000000 </v>
    </varray>
   </crystal>
   <varray name="positions" >
    <v>       0.00000000       0.00000000       0.50116124 </v>
    <v>       0.33333333       0.33333333       0.82386087 </v>
    <v>       0.33333333       0.33333333       0.42633242 </v>
    <v>       0.33333333       0.33333333       0.57605543 </v>
    <v>       0.00000000       0.00000000       0.73031592 </v>
    <v>       0.00000000       0.00000000       0.91727412 </v>
   </varray>
  </structure>
  <varray name="forces" >
   <v>       0.00000000       0.00000000       0.00545214 </v>
   <v>      -0.00000000      -0.00000000      -0.00710824 </v>
   <v>       0.00000000       0.00000000       0.00684819 </v>
   <v>       0.00000000       0.00000000       0.00645944 </v>
   <v>       0.00000000       0.00000000      -0.00652003 </v>
   <v>       0.00000000       0.00000000      -0.00513149 </v>
  </varray>
  <varray name="stress" >
   <v>     -25.48732581      -0.00000000       0.00000000 </v>
   <v>      -0.00000000     -25.48732581       0.00000000 </v>
   <v>      -0.00000000       0.00000000      -1.86447102 </v>
  </varray>
  <energy>
   <i name="e_fr_energy">    -41.85100568 </i>
   <i name="e_wo_entrp">    -41.85022157 </i>
   <i name="e_0_energy">    -41.85061363 </i>
  </energy>
  <time name="totalsc">    0.77    0.78</time>
 </calculation>
 <calculation>
  <scstep>
   <time name="dav">    0.09    0.09</time>
   <time name="total">    0.13    0.13</time>
   <energy>
    <i name="alphaZ">     84.73417088 </i>
    <i name="ewald">   3522.26241604 </i>
    <i name="hartreedc">  -7910.15795469 </i>
    <i name="XCdc">    100.79788858 </i>
    <i name="pawpsdc">   5518.02994988 </i>
    <i name="pawaedc">  -5404.02291550 </i>
    <i name="eentropy">     -0.00078481 </i>
    <i name="bandstr">   -675.73181678 </i>
    <i name="atom">   4724.74487735 </i>
    <i name="e_fr_energy">    -39.34416906 </i>
    <i name="e_wo_entrp">    -39.34338425 </i>
    <i name="e_0_energy">    -39.34377665 </i>
   </energy>
  </scstep>
  <scstep>
   <time name="dav">    0.09    0.09</time>
   <time name="total">    0.13    0.13</time>
   <energy>
    <i name="e_fr_energy">    -39.34423282 </i>
    <i name="e_wo_entrp">    -39.34344916 </i>
    <i name="e_0_energy">    -39.34384099 </i>
   </energy>
  </scstep>
  <scstep>
   <time name="dav">    0.10    0.10</time>
   <time name="total">    0.14    0.14</time>
   <energy>
    <i name="e_fr_energy">    -39.34423155 </i>
    <i name="e_wo_entrp">    -39.34344725 </i>
    <i name="e_0_energy">    -39.34383940 </i>
   </energy>
  </scstep>
  <scstep>
   <time name="dav">    0.09    0.09</time>
   <time name="total">    0.11    0.11</time>
   <energy>
    <i name="alphaZ">     84.73417088 </i>
    <i name="ewald">   3522.26241604 </i>
    <i name="hartreedc">  -7910.15945890 </i>
    <i name="XCdc">    100.79783607 </i>
    <i name="pawpsdc">   5518.09136591 </i>
    <i name="pawaedc">  -5404.08407034 </i>
    <i name="eentropy">     -0.00078367 </i>
    <i name="bandstr">   -675.73058441 </i>
    <i name="atom">   4724.74487735 </i>
    <i name="e_fr_energy">    -39.34423108 </i>
    <i name="e_wo_entrp">    -39.34344740 </i>
    <i name="e_0_energy">    -39.34383924 </i>
   </energy>
  </scstep>
  <structure>
   <crystal>
    <varray name="basis" >
     <v>       3.37894624       0.00000000       0.00000000 </v>
     <v>       1.68947312       2.92625328       0.00000000 </v>
     <v>       0.00000000       0.00000000      20.00000000 </v>
    </varray>
    <i name="volume">    197.75304998 </i>
    <varray name="rec_basis" >
     <v>       0.29595025      -0.17086696       0.00000000 </v>
     <v>       0.00000000       0.34173392       0.00000000 </v>
     <v>       0.00000000       0.00000000       0.05000000 </v>
    </varray>
   </crystal>
   <varray name="positions" >
    <v>       0.00000000       0.00000000       0.50121037 </v>
    <v>       0.33333333       0.33333333       0.82380941 </v>
    <v>       0.33333333       0.33333333       0.42637879 </v>
    <v>       0.33333333       0.33333333       0.57610051 </v>
    <v>       0.00000000       0.00000000       0.73026815 </v>
    <v>       0.00000000       0.00000000       0.91723276 </v>
   </varray>
  </structure>
  <varray name="forces" >
   <v>       0.00000000       0.00000000       0.00251535 </v>
   <v>      -0.00000000      -0.00000000      -0.00464655 </v>
   <v>      -0.00000000       0.00000000       0.00620286 </v>
   <v>       0.00000000       0.00000000       0.00679390 </v>
   <v>       0.00000000       0.00000000      -0.00476462 </v>
   <v>       0.00000000       0.00000000      -0.00610094 </v>
  </varray>
  <varray name="stress" >
   <v>     -25.50357898      -0.00000000      -0.00000000 </v>
   <v>       0.00000000     -25.50357898       0.00000000 </v>
   <v>      -0.00000000      -0.00000000      -1.85009995 </v>
  </varray>
  <energy>
   <i name="e_fr_energy">    -41.85103825 </i>
   <i name="e_wo_entrp">    -41.85025458 </i>
   <i name="e_0_energy">    -41.85064642 </i>
  </energy>
  <time name="totalsc">    0.78    0.78</time>
 </calculation>
 <calculation>
  <scstep>
   <time name="dav">    0.09    0.09</time>
   <time name="total">    0.12    0.12</time>
   <energy>
    <i name="alphaZ">     84.73417088 </i>
    <i name="ewald">   3527.88942651 </i>
    <i name="hartreedc">  -7915.78284964 </i>
    <i name="XCdc">    100.79908294 </i>
    <i name="pawpsdc">   5518.11890776 </i>
    <i name="pawaedc">  -5404.11175806 </i>
    <i name="eentropy">     -0.00078314 </i>
    <i name="bandstr">   -675.73468793 </i>
    <i name="atom">   4724.74487735 </i>
    <i name="e_fr_energy">    -39.34361332 </i>
    <i name="e_wo_entrp">    -39.34283018 </i>
    <i name="e_0_energy">    -39.34322175 </i>
   </energy>
  </scstep>
  <scstep>
   <time name="dav">    0.09    0.09</time>
   <time name="total">    0.13    0.13</time>
   <energy>
    <i name="e_fr_energy">    -39.34371640 </i>
    <i name="e_wo_entrp">    -39.34293478 </i>
    <i name="e_0_energy">    -39.34332559 </i>
   </energy>
  </scstep>
  <scstep>
   <time name="dav">    0.10    0.10</time>
   <time name="total">    0.14    0.14</time>
   <energy>
    <i name="e_fr_energy">    -39.34371436 </i>
    <i name="e_wo_entrp">    -39.34293199 </i>
    <i name="e_0_energy">    -39.34332317 </i>
   </energy>
  </scstep>
  <scstep>
   <time name="dav">    0.10    0.10</time>
   <time name="total">    0.12    0.12</time>
   <energy>
    <i name="alphaZ">     84.73417088 </i>
    <i name="ewald">   3527.88942651 </i>
    <i name="hartreedc">  -7915.78529776 </i>
    <i name="XCdc">    100.79904109 </i>
    <i name="pawpsdc">   5518.29992830 </i>
    <i name="pawaedc">  -5404.29242130 </i>
    <i name="eentropy">     -0.00078157 </i>
    <i name="bandstr">   -675.73265721 </i>
    <i name="atom">   4724.74487735 </i>
    <i name="e_fr_energy">    -39.34371370 </i>
    <i name="e_wo_entrp">    -39.34293214 </i>
    <i name="e_0_energy">    -39.34332292 </i>
   </energy>
  </scstep>
  <structure>
   <crystal>
    <varray name="basis" >
     <v>       3.37894624       0.00000000       0.00000000 </v>
     <v>       1.68947312       2.92625328       0.00000000 </v>
     <v>       0.00000000       0.00000000      20.00000000 </v>
    </varray>
    <i name="volume">    197.75304998 </i>
    <varray name="rec_basis" >
     <v>       0.29595025      -0.17086696       0.00000000 </v>
     <v>       0.00000000       0.34173392       0.00000000 </v>
     <v>       0.00000000       0.00000000       0.05000000 </v>
    </varray>
   </crystal>
   <varray name="positions" >
    <v>       0.00000000       0.00000000       0.50126673 </v>
    <v>       0.33333333       0.33333333       0.82374377 </v>
    <v>       0.33333333       0.33333333       0.42644735 </v>
    <v>       0.33333333       0.33333333       0.57617179 </v>
    <v>       0.00000000       0.00000000       0.73020459 </v>
    <v>       0.00000000       0.00000000       0.91716577 </v>
   </varray>
  </structure>
  <varray name="forces" >
   <v>       0.00000000       0.00000000       0.01091608 </v>
   <v>      -0.00000000      -0.00000000      -0.00336018 </v>
   <v>      -0.00000000       0.00000000       0.00421133 </v>
   <v>       0.00000000       0.00000000       0.00237440 </v>
   <v>       0.00000000       0.00000000      -0.00698576 </v>
   <v>       0.00000000       0.00000000      -0.00715586 </v>
  </varray>
  <varray name="stress" >
   <v>     -25.49408392      -0.00000000      -0.00000000 </v>
   <v>      -0.00000000     -25.49408392       0.00000000 </v>
   <v>      -0.00000000      -0.00000000      -1.84744973 </v>
  </varray>
  <energy>
   <i name="e_fr_energy">    -41.85108320 </i>
   <i name="e_wo_entrp">    -41.85030163 </i>
   <i name="e_0_energy">    -41.85069241 </i>
  </energy>
  <time name="totalsc">    0.78    0.79</time>
 </calculation>
 <calculation>
  <scstep>
   <time name="dav">    0.09    0.09</time>
   <time name="total">    0.13    0.13</time>
   <energy>
    <i name="alphaZ">     84.73417088 </i>
    <i name="ewald">   3534.04395811 </i>
    <i name="hartreedc">  -7921.93432921 </i>
    <i name="XCdc">    100.80032902 </i>
    <i name="pawpsdc">   5518.33210501 </i>
    <i name="pawaedc">  -5404.32486859 </i>
    <i name="eentropy">     -0.00078212 </i>
    <i name="bandstr">   -675.73849267 </i>
    <i name="atom">   4724.74487735 </i>
    <i name="e_fr_energy">    -39.34303222 </i>
    <i name="e_wo_entrp">    -39.34225010 </i>
    <i name="e_0_energy">    -39.34264116 </i>
   </energy>
  </scstep>
  <scstep>
   <time name="dav">    0.09    0.09</time>
   <time name="total">    0.13    0.13</time>
   <energy>
    <i name="e_fr_energy">    -39.34316062 </i>
    <i name="e_wo_entrp">    -39.34238024 </i>
    <i name="e_0_energy">    -39.34277043 </i>
   </energy>
  </scstep>
  <scstep>
   <time name="dav">    0.10    0.10</time>
   <time name="total">    0.13    0.13</time>
   <energy>
    <i name="e_fr_energy">    -39.34315801 </i>
    <i name="e_wo_entrp">    -39.34237655 </i>
    <i name="e_0_energy">    -39.34276728 </i>
   </energy>
  </scstep>
  <scstep>
   <time name="dav">    0.11    0.11</time>
   <time name="total">    0.13    0.13</time>
   <energy>
    <i name="alphaZ">     84.73417088 </i>
    <i name="ewald">   3534.04395811 </i>
    <i name="hartreedc">  -7921.93825497 </i>
    <i name="XCdc">    100.80029307 </i>
    <i name="pawpsdc">   5518.53707987 </i>
    <i name="pawaedc">  -5404.52941038 </i>
    <i name="eentropy">     -0.00078060 </i>
    <i name="bandstr">   -675.73509050 </i>
    <i name="atom">   4724.74487735 </i>
    <i name="e_fr_energy">    -39.34315717 </i>
    <i name="e_wo_entrp">    -39.34237657 </i>
    <i name="e_0_energy">    -39.34276687 </i>
   </energy>
  </scstep>
  <structure>
   <crystal>
    <varray name="basis" >
     <v>       3.37894624       0.00000000       0.00000000 </v>
     <v>       1.68947312       2.92625328       0.00000000 </v>
     <v>       0.00000000       0.00000000      20.00000000 </v>
    </varray>
    <i name="volume">    197.75304998 </i>
    <varray name="rec_basis" >
     <v>       0.29595025      -0.17086696       0.00000000 </v>
     <v>       0.00000000       0.34173392       0.00000000 </v>
     <v>       0.00000000       0.00000000       0.05000000 </v>
    </varray>
   </crystal>
   <varray name="positions" >
    <v>       0.00000000       0.00000000       0.50134007 </v>
    <v>       0.33333333       0.33333333       0.82367585 </v>
    <v>       0.33333333       0.33333333       0.42651544 </v>
    <v>       0.33333333       0.33333333       0.57623889 </v>
    <v>       0.00000000       0.00000000       0.73013451 </v>
    <v>       0.00000000       0.00000000       0.91709524 </v>
   </varray>
  </structure>
  <varray name="forces" >
   <v>       0.00000000       0.00000000       0.00779199 </v>
   <v>      -0.00000000      -0.00000000      -0.00451968 </v>
   <v>       0.00000000       0.00000000       0.00566902 </v>
   <v>       0.00000000       0.00000000       0.00160820 </v>
   <v>       0.00000000      -0.00000000      -0.00653763 </v>
   <v>       0.00000000       0.00000000      -0.00401189 </v>
  </varray>
  <varray name="stress" >
   <v>     -25.52164050       0.00000000       0.00000000 </v>
   <v>       0.00000000     -25.52164050       0.00000000 </v>
   <v>      -0.00000000       0.00000000      -1.82630302 </v>
  </varray>
  <energy>
   <i name="e_fr_energy">    -41.85113022 </i>
   <i name="e_wo_entrp">    -41.85034962 </i>
   <i name="e_0_energy">    -41.85073992 </i>
  </energy>
  <time name="totalsc">    0.78    0.79</time>
 </calculation>
 <calculation>
  <scstep>
   <time name="dav">    0.09    0.09</time>
   <time name="total">    0.12    0.12</time>
   <energy>
    <i name="alphaZ">     84.73417088 </i>
    <i name="ewald">   3542.13554516 </i>
    <i name="hartreedc">  -7930.02082024 </i>
    <i name="XCdc">    100.80213957 </i>
    <i name="pawpsdc">   5518.57327886 </i>
    <i name="pawaedc">  -5404.56593190 </i>
    <i name="eentropy">     -0.00078586 </i>
    <i name="bandstr">   -675.74469170 </i>
    <i name="atom">   4724.74487735 </i>
    <i name="e_fr_energy">    -39.34221789 </i>
    <i name="e_wo_entrp">    -39.34143203 </i>
    <i name="e_0_energy">    -39.34182496 </i>
   </energy>
  </scstep>
  <scstep>
   <time name="dav">    0.09    0.09</time>
   <time name="total">    0.13    0.13</time>
   <energy>
    <i name="e_fr_energy">    -39.34244232 </i>
    <i name="e_wo_entrp">    -39.34166022 </i>
    <i name="e_0_energy">    -39.34205127 </i>
   </energy>
  </scstep>
  <scstep>
   <time name="dav">    0.10    0.10</time>
   <time name="total">    0.14    0.14</time>
   <energy>
    <i name="e_fr_energy">    -39.34243773 </i>
    <i name="e_wo_entrp">    -39.34165391 </i>
    <i name="e_0_energy">    -39.34204582 </i>
   </energy>
  </scstep>
  <scstep>
   <time name="dav">    0.11    0.11</time>
   <time name="total">    0.15    0.15</time>
   <energy>
    <i name="e_fr_energy">    -39.34243628 </i>
    <i name="e_wo_entrp">    -39.34165401 </i>
    <i name="e_0_energy">    -39.34204515 </i>
   </energy>
  </scstep>
  <scstep>
   <time name="dav">    0.09    0.09</time>
   <time name="total">    0.11    0.11</time>
   <energy>
    <i name="alphaZ">     84.73417088 </i>
    <i name="ewald">   3542.13554516 </i>
    <i name="hartreedc">  -7930.02370250 </i>
    <i name="XCdc">    100.80200831 </i>
    <i name="pawpsdc">   5518.96070046 </i>
    <i name="pawaedc">  -5404.95331869 </i>
    <i name="eentropy">     -0.00078405 </i>
    <i name="bandstr">   -675.74193316 </i>
    <i name="atom">   4724.74487735 </i>
    <i name="e_fr_energy">    -39.34243625 </i>
    <i name="e_wo_entrp">    -39.34165220 </i>
    <i name="e_0_energy">    -39.34204422 </i>
   </energy>
  </scstep>
  <structure>
   <crystal>
    <varray name="basis" >
     <v>       3.37894624       0.00000000       0.00000000 </v>
     <v>       1.68947312       2.92625328       0.00000000 </v>
     <v>       0.00000000       0.00000000      20.00000000 </v>
    </varray>
    <i name="volume">    197.75304998 </i>
    <varray name="rec_basis" >
     <v>       0.29595025      -0.17086696       0.00000000 </v>
     <v>       0.00000000       0.34173392       0.00000000 </v>
     <v>       0.00000000       0.00000000       0.05000000 </v>
    </varray>
   </crystal>
   <varray name="positions" >
    <v>       0.00000000       0.00000000       0.50143489 </v>
    <v>       0.33333333       0.33333333       0.82358326 </v>
    <v>       0.33333333       0.33333333       0.42661184 </v>
    <v>       0.33333333       0.33333333       0.57631815 </v>
    <v>       0.00000000       0.00000000       0.73003903 </v>
    <v>       0.00000000       0.00000000       0.91701283 </v>
   </varray>
  </structure>
  <varray name="forces" >
   <v>      -0.00000000      -0.00000000       0.00309953 </v>
   <v>       0.00000000       0.00000000      -0.00243836 </v>
   <v>      -0.00000000       0.00000000       0.00536284 </v>
   <v>       0.00000000      -0.00000000       0.00515015 </v>
   <v>       0.00000000       0.00000000      -0.00559800 </v>
   <v>      -0.00000000       0.00000000      -0.00557617 </v>
  </varray>
  <varray name="stress" >
   <v>     -25.51294856      -0.00000000      -0.00000000 </v>
   <v>       0.00000000     -25.51294856       0.00000000 </v>
   <v>       0.00000000       0.00000000      -1.67186719 </v>
  </varray>
  <energy>
   <i name="e_fr_energy">    -41.85118053 </i>
   <i name="e_wo_entrp">    -41.85039648 </i>
   <i name="e_0_energy">    -41.85078851 </i>
  </energy>
  <time name="totalsc">    0.91    0.92</time>
 </calculation>
 <calculation>
  <scstep>
   <time name="dav">    0.09    0.09</time>
   <time name="total">    0.12    0.12</time>
   <energy>
    <i name="alphaZ">     84.73417088 </i>
    <i name="ewald">   3547.97088437 </i>
    <i name="hartreedc">  -7935.86097914 </i>
    <i name="XCdc">    100.80342402 </i>
    <i name="pawpsdc">   5519.02379459 </i>
    <i name="pawaedc">  -5405.01615357 </i>
    <i name="eentropy">     -0.00078364 </i>
    <i name="bandstr">   -675.74100429 </i>
    <i name="atom">   4724.74487735 </i>
    <i name="e_fr_energy">    -39.34176943 </i>
    <i name="e_wo_entrp">    -39.34098579 </i>
    <i name="e_0_energy">    -39.34137761 </i>
   </energy>
  </scstep>
  <scstep>
   <time name="dav">    0.09    0.09</time>
   <time name="total">    0.13    0.13</time>
   <energy>
    <i name="e_fr_energy">    -39.34187960 </i>
    <i name="e_wo_entrp">    -39.34109568 </i>
    <i name="e_0_energy">    -39.34148764 </i>
   </energy>
  </scstep>
  <scstep>
   <time name="dav">    0.10    0.10</time>
   <time name="total">    0.14    0.14</time>
   <energy>
    <i name="e_fr_energy">    -39.34187749 </i>
    <i name="e_wo_entrp">    -39.34109386 </i>
    <i name="e_0_energy">    -39.34148568 </i>
   </energy>
  </scstep>
  <scstep>
   <time name="dav">    0.10    0.10</time>
   <time name="total">    0.12    0.12</time>
   <energy>
    <i name="alphaZ">     84.73417088 </i>
    <i name="ewald">   3547.97088437 </i>
    <i name="hartreedc">  -7935.85736614 </i>
    <i name="XCdc">    100.80330636 </i>
    <i name="pawpsdc">   5519.20656222 </i>
    <i name="pawaedc">  -5405.19898478 </i>
    <i name="eentropy">     -0.00078375 </i>
    <i name="bandstr">   -675.74454337 </i>
    <i name="atom">   4724.74487735 </i>
    <i name="e_fr_energy">    -39.34187686 </i>
    <i name="e_wo_entrp">    -39.34109311 </i>
    <i name="e_0_energy">    -39.34148499 </i>
   </energy>
  </scstep>
  <structure>
   <crystal>
    <varray name="basis" >
     <v>       3.37894624       0.00000000       0.00000000 </v>
     <v>       1.68947312       2.92625328       0.00000000 </v>
     <v>       0.00000000       0.00000000      20.00000000 </v>
    </varray>
    <i name="volume">    197.75304998 </i>
    <varray name="rec_basis" >
     <v>       0.29595025      -0.17086696       0.00000000 </v>
     <v>       0.00000000       0.34173392       0.00000000 </v>
     <v>       0.00000000       0.00000000       0.05000000 </v>
    </varray>
   </crystal>
   <varray name="positions" >
    <v>       0.00000000       0.00000000       0.50149744 </v>
    <v>       0.33333333       0.33333333       0.82351795 </v>
    <v>       0.33333333       0.33333333       0.42668413 </v>
    <v>       0.33333333       0.33333333       0.57638460 </v>
    <v>       0.00000000       0.00000000       0.72996844 </v>
    <v>       0.00000000       0.00000000       0.91694743 </v>
   </varray>
  </structure>
  <varray name="forces" >
   <v>       0.00000000       0.00000000       0.00670446 </v>
   <v>      -0.00000000      -0.00000000      -0.00391581 </v>
   <v>      -0.00000000       0.00000000       0.00029900 </v>
   <v>      -0.00000000       0.00000000       0.00239291 </v>
   <v>       0.00000000       0.00000000       0.00025274 </v>
   <v>      -0.00000000       0.00000000      -0.00573331 </v>
  </varray>
  <varray name="stress" >
   <v>     -25.51608740      -0.00000000       0.00000000 </v>
   <v>      -0.00000000     -25.51608740       0.00000000 </v>
   <v>       0.00000000       0.00000000      -1.61662096 </v>
  </varray>
  <energy>
   <i name="e_fr_energy">    -41.85119621 </i>
   <i name="e_wo_entrp">    -41.85041246 </i>
   <i name="e_0_energy">    -41.85080434 </i>
  </energy>
  <time name="totalsc">    0.78    0.79</time>
 </calculation>
 <calculation>
  <scstep>
   <time name="dav">    0.09    0.09</time>
   <time name="total">    0.12    0.12</time>
   <energy>
    <i name="alphaZ">     84.73417088 </i>
    <i name="ewald">   3551.13813995 </i>
    <i name="hartreedc">  -7939.02101775 </i>
    <i name="XCdc">    100.80433156 </i>
    <i name="pawpsdc">   5519.26431404 </i>
    <i name="pawaedc">  -5405.25678580 </i>
    <i name="eentropy">     -0.00078214 </i>
    <i name="bandstr">   -675.74879332 </i>
    <i name="atom">   4724.74487735 </i>
    <i name="e_fr_energy">    -39.34154523 </i>
    <i name="e_wo_entrp">    -39.34076309 </i>
    <i name="e_0_energy">    -39.34115416 </i>
   </energy>
  </scstep>
  <scstep>
   <time name="dav">    0.09    0.09</time>
   <time name="total">    0.13    0.13</time>
   <energy>
    <i name="e_fr_energy">    -39.34157898 </i>
    <i name="e_wo_entrp">    -39.34079683 </i>
    <i name="e_0_energy">    -39.34118790 </i>
   </energy>
  </scstep>
  <scstep>
   <time name="dav">    0.10    0.10</time>
   <time name="total">    0.11    0.11</time>
   <energy>
    <i name="alphaZ">     84.73417088 </i>
    <i name="ewald">   3551.13813995 </i>
    <i name="hartreedc">  -7939.02086229 </i>
    <i name="XCdc">    100.80430309 </i>
    <i name="pawpsdc">   5519.42935815 </i>
    <i name="pawaedc">  -5405.42181660 </i>
    <i name="eentropy">     -0.00078244 </i>
    <i name="bandstr">   -675.74896650 </i>
    <i name="atom">   4724.74487735 </i>
    <i name="e_fr_energy">    -39.34157840 </i>
    <i name="e_wo_entrp">    -39.34079596 </i>
    <i name="e_0_energy">    -39.34118718 </i>
   </energy>
  </scstep>
  <structure>
   <crystal>
    <varray name="basis" >
     <v>       3.37894624       0.00000000       0.00000000 </v>
     <v>       1.68947312       2.92625328       0.00000000 </v>
     <v>       0.00000000       0.00000000      20.00000000 </v>
    </varray>
    <i name="volume">    197.75304998 </i>
    <varray name="rec_basis" >
     <v>       0.29595025      -0.17086696       0.00000000 </v>
     <v>       0.00000000       0.34173392       0.00000000 </v>
     <v>       0.00000000       0.00000000       0.05000000 </v>
    </varray>
   </crystal>
   <varray name="positions" >
    <v>       0.00000000       0.00000000       0.50153659 </v>
    <v>       0.33333333       0.33333333       0.82348337 </v>
    <v>       0.33333333       0.33333333       0.42671499 </v>
    <v>       0.33333333       0.33333333       0.57641721 </v>
    <v>       0.00000000       0.00000000       0.72993932 </v>
    <v>       0.00000000       0.00000000       0.91690851 </v>
   </varray>
  </structure>
  <varray name="forces" >
   <v>       0.00000000       0.00000000       0.00296410 </v>
   <v>      -0.00000000      -0.00000000      -0.00210231 </v>
   <v>       0.00000000       0.00000000       0.00267453 </v>
   <v>       0.00000000       0.00000000       0.00364406 </v>
   <v>      -0.00000000      -0.00000000       0.00151796 </v>
   <v>       0.00000000       0.00000000      -0.00869834 </v>
  </varray>
  <varray name="stress" >
   <v>     -25.49412426       0.00000000       0.00000000 </v>
   <v>      -0.00000000     -25.49412426       0.00000000 </v>
   <v>      -0.00000000      -0.00000000      -1.56099264 </v>
  </varray>
  <energy>
   <i name="e_fr_energy">    -41.85120987 </i>
   <i name="e_wo_entrp">    -41.85042743 </i>
   <i name="e_0_energy">    -41.85081865 </i>
  </energy>
  <time name="totalsc">    0.63    0.64</time>
 </calculation>
 <calculation>
  <scstep>
   <time name="dav">    0.09    0.09</time>
   <time name="total">    0.12    0.12</time>
   <energy>
    <i name="alphaZ">     84.73417088 </i>
    <i name="ewald">   3547.86599054 </i>
    <i name="hartreedc">  -7935.75439566 </i>
    <i name="XCdc">    100.80367738 </i>
    <i name="pawpsdc">   5519.49132548 </i>
    <i name="pawaedc">  -5405.48366382 </i>
    <i name="eentropy">     -0.00078140 </i>
    <i name="bandstr">   -675.74304622 </i>
    <i name="atom">   4724.74487735 </i>
    <i name="e_fr_energy">    -39.34184548 </i>
    <i name="e_wo_entrp">    -39.34106409 </i>
    <i name="e_0_energy">    -39.34145478 </i>
   </energy>
  </scstep>
  <scstep>
   <time name="dav">    0.10    0.10</time>
   <time name="total">    0.13    0.14</time>
   <energy>
    <i name="e_fr_energy">    -39.34188268 </i>
    <i name="e_wo_entrp">    -39.34109969 </i>
    <i name="e_0_energy">    -39.34149118 </i>
   </energy>
  </scstep>
  <scstep>
   <time name="dav">    0.10    0.10</time>
   <time name="total">    0.12    0.12</time>
   <energy>
    <i name="alphaZ">     84.73417088 </i>
    <i name="ewald">   3547.86599054 </i>
    <i name="hartreedc">  -7935.75657929 </i>
    <i name="XCdc">    100.80364845 </i>
    <i name="pawpsdc">   5519.50262251 </i>
    <i name="pawaedc">  -5405.49519669 </i>
    <i name="eentropy">     -0.00078221 </i>
    <i name="bandstr">   -675.74063336 </i>
    <i name="atom">   4724.74487735 </i>
    <i name="e_fr_energy">    -39.34188182 </i>
    <i name="e_wo_entrp">    -39.34109961 </i>
    <i name="e_0_energy">    -39.34149072 </i>
   </energy>
  </scstep>
  <structure>
   <crystal>
    <varray name="basis" >
     <v>       3.37894624       0.00000000       0.00000000 </v>
     <v>       1.68947312       2.92625328       0.00000000 </v>
     <v>       0.00000000       0.00000000      20.00000000 </v>
    </varray>
    <i name="volume">    197.75304998 </i>
    <varray name="rec_basis" >
     <v>       0.29595025      -0.17086696       0.00000000 </v>
     <v>       0.00000000       0.34173392       0.00000000 </v>
     <v>       0.00000000       0.00000000       0.05000000 </v>
    </varray>
   </crystal>
   <varray name="positions" >
    <v>       0.00000000       0.00000000       0.50150031 </v>
    <v>       0.33333333       0.33333333       0.82352121 </v>
    <v>       0.33333333       0.33333333       0.42667530 </v>
    <v>       0.33333333       0.33333333       0.57638075 </v>
    <v>       0.00000000       0.00000000       0.72997928 </v>
    <v>       0.00000000       0.00000000       0.91694316 </v>
   </varray>
  </structure>
  <varray name="forces" >
   <v>      -0.00000000       0.00000000       0.00118331 </v>
   <v>       0.00000000      -0.00000000      -0.00387484 </v>
   <v>      -0.00000000       0.00000000       0.00501897 </v>
   <v>      -0.00000000      -0.00000000       0.00488259 </v>
   <v>      -0.00000000      -0.00000000      -0.00293888 </v>
   <v>       0.00000000       0.00000000      -0.00427116 </v>
  </varray>
  <varray name="stress" >
   <v>     -25.50295954       0.00000000       0.00000000 </v>
   <v>      -0.00000000     -25.50295954      -0.00000000 </v>
   <v>      -0.00000000       0.00000000      -1.59916987 </v>
  </varray>
  <energy>
   <i name="e_fr_energy">    -41.85119593 </i>
   <i name="e_wo_entrp">    -41.85041371 </i>
   <i name="e_0_energy">    -41.85080482 </i>
  </energy>
  <time name="totalsc">    0.65    0.65</time>
 </calculation>
 <calculation>
  <scstep>
   <time name="dav">    0.09    0.09</time>
   <time name="total">    0.12    0.12</time>
   <energy>
    <i name="alphaZ">     84.73417088 </i>
    <i name="ewald">   3553.52534269 </i>
    <i name="hartreedc">  -7941.40534191 </i>
    <i name="XCdc">    100.80537190 </i>
    <i name="pawpsdc">   5519.46469491 </i>
    <i name="pawaedc">  -5405.45742181 </i>
    <i name="eentropy">     -0.00078156 </i>
    <i name="bandstr">   -675.75216126 </i>
    <i name="atom">   4724.74487735 </i>
    <i name="e_fr_energy">    -39.34124880 </i>
    <i name="e_wo_entrp">    -39.34046724 </i>
    <i name="e_0_energy">    -39.34085802 </i>
   </energy>
  </scstep>
  <scstep>
   <time name="dav">    0.10    0.10</time>
   <time name="total">    0.13    0.13</time>
   <energy>
    <i name="e_fr_energy">    -39.34135708 </i>
    <i name="e_wo_entrp">    -39.34057706 </i>
    <i name="e_0_energy">    -39.34096707 </i>
   </energy>
  </scstep>
  <scstep>
   <time name="dav">    0.10    0.10</time>
   <time name="total">    0.14    0.14</time>
   <energy>
    <i name="e_fr_energy">    -39.34135488 </i>
    <i name="e_wo_entrp">    -39.34057392 </i>
    <i name="e_0_energy">    -39.34096440 </i>
   </energy>
  </scstep>
  <scstep>
   <time name="dav">    0.10    0.10</time>
   <time name="total">    0.12    0.12</time>
   <energy>
    <i name="alphaZ">     84.73417088 </i>
    <i name="ewald">   3553.52534269 </i>
    <i name="hartreedc">  -7941.40884370 </i>
    <i name="XCdc">    100.80540696 </i>
    <i name="pawpsdc">   5519.72068247 </i>
    <i name="pawaedc">  -5405.71307082 </i>
    <i name="eentropy">     -0.00078017 </i>
    <i name="bandstr">   -675.74914009 </i>
    <i name="atom">   4724.74487735 </i>
    <i name="e_fr_energy">    -39.34135445 </i>
    <i name="e_wo_entrp">    -39.34057427 </i>
    <i name="e_0_energy">    -39.34096436 </i>
   </energy>
  </scstep>
  <structure>
   <crystal>
    <varray name="basis" >
     <v>       3.37894624       0.00000000       0.00000000 </v>
     <v>       1.68947312       2.92625328       0.00000000 </v>
     <v>       0.00000000       0.00000000      20.00000000 </v>
    </varray>
    <i name="volume">    197.75304998 </i>
    <varray name="rec_basis" >
     <v>       0.29595025      -0.17086696       0.00000000 </v>
     <v>       0.00000000       0.34173392       0.00000000 </v>
     <v>       0.00000000       0.00000000       0.05000000 </v>
    </varray>
   </crystal>
   <varray name="positions" >
    <v>       0.00000000       0.00000000       0.50156004 </v>
    <v>       0.33333333       0.33333333       0.82345313 </v>
    <v>       0.33333333       0.33333333       0.42673955 </v>
    <v>       0.33333333       0.33333333       0.57644436 </v>
    <v>       0.00000000       0.00000000       0.72992456 </v>
    <v>       0.00000000       0.00000000       0.91687836 </v>
   </varray>
  </structure>
  <varray name="forces" >
   <v>      -0.00000000      -0.00000000       0.00454810 </v>
   <v>       0.00000000       0.00000000       0.00113368 </v>
   <v>      -0.00000000       0.00000000       0.00353088 </v>
   <v>       0.00000000       0.00000000       0.00295627 </v>
   <v>      -0.00000000      -0.00000000      -0.00519393 </v>
   <v>       0.00000000       0.00000000      -0.00697500 </v>
  </varray>
  <varray name="stress" >
   <v>     -25.48930998       0.00000000      -0.00000000 </v>
   <v>      -0.00000000     -25.48930998       0.00000000 </v>
   <v>       0.00000000      -0.00000000      -1.54822919 </v>
  </varray>
  <energy>
   <i name="e_fr_energy">    -41.85122105 </i>
   <i name="e_wo_entrp">    -41.85044088 </i>
   <i name="e_0_energy">    -41.85083097 </i>
  </energy>
  <time name="totalsc">    0.79    0.79</time>
 </calculation>
 <calculation>
  <scstep>
   <time name="dav">    0.09    0.09</time>
   <time name="total">    0.12    0.12</time>
   <energy>
    <i name="alphaZ">     84.73417088 </i>
    <i name="ewald">   3548.58593872 </i>
    <i name="hartreedc">  -7936.47498793 </i>
    <i name="XCdc">    100.80368081 </i>
    <i name="pawpsdc">   5519.74574390 </i>
    <i name="pawaedc">  -5405.73843530 </i>
    <i name="eentropy">     -0.00078208 </i>
    <i name="bandstr">   -675.74194201 </i>
    <i name="atom">   4724.74487735 </i>
    <i name="e_fr_energy">    -39.34173566 </i>
    <i name="e_wo_entrp">    -39.34095358 </i>
    <i name="e_0_energy">    -39.34134462 </i>
   </energy>
  </scstep>
  <scstep>
   <time name="dav">    0.10    0.10</time>
   <time name="total">    0.13    0.13</time>
   <energy>
    <i name="e_fr_energy">    -39.34181767 </i>
    <i name="e_wo_entrp">    -39.34103515 </i>
    <i name="e_0_energy">    -39.34142641 </i>
   </energy>
  </scstep>
  <scstep>
   <time name="dav">    0.10    0.10</time>
   <time name="total">    0.14    0.14</time>
   <energy>
    <i name="e_fr_energy">    -39.34181593 </i>
    <i name="e_wo_entrp">    -39.34103375 </i>
    <i name="e_0_energy">    -39.34142484 </i>
   </energy>
  </scstep>
  <scstep>
   <time name="dav">    0.08    0.08</time>
   <time name="total">    0.10    0.10</time>
   <energy>
    <i name="alphaZ">     84.73417088 </i>
    <i name="ewald">   3548.58593872 </i>
    <i name="hartreedc">  -7936.47597413 </i>
    <i name="XCdc">    100.80371444 </i>
    <i name="pawpsdc">   5519.51411252 </i>
    <i name="pawaedc">  -5405.50689459 </i>
    <i name="eentropy">     -0.00078247 </i>
    <i name="bandstr">   -675.74097827 </i>
    <i name="atom">   4724.74487735 </i>
    <i name="e_fr_energy">    -39.34181554 </i>
    <i name="e_wo_entrp">    -39.34103308 </i>
    <i name="e_0_energy">    -39.34142431 </i>
   </energy>
  </scstep>
  <structure>
   <crystal>
    <varray name="basis" >
     <v>       3.37894624       0.00000000       0.00000000 </v>
     <v>       1.68947312       2.92625328       0.00000000 </v>
     <v>       0.00000000       0.00000000      20.00000000 </v>
    </varray>
    <i name="volume">    197.75304998 </i>
    <varray name="rec_basis" >
     <v>       0.29595025      -0.17086696       0.00000000 </v>
     <v>       0.00000000       0.34173392       0.00000000 </v>
     <v>       0.00000000       0.00000000       0.05000000 </v>
    </varray>
   </crystal>
   <varray name="positions" >
    <v>       0.00000000       0.00000000       0.50150672 </v>
    <v>       0.33333333       0.33333333       0.82351170 </v>
    <v>       0.33333333       0.33333333       0.42668468 </v>
    <v>       0.33333333       0.33333333       0.57638999 </v>
    <v>       0.00000000       0.00000000       0.72997122 </v>
    <v>       0.00000000       0.00000000       0.91693569 </v>
   </varray>
  </structure>
  <varray name="forces" >
   <v>      -0.00000000      -0.00000000       0.00190061 </v>
   <v>      -0.00000000      -0.00000000      -0.00245920 </v>
   <v>       0.00000000       0.00000000       0.00387247 </v>
   <v>      -0.00000000      -0.00000000       0.00379586 </v>
   <v>       0.00000000       0.00000000      -0.00264671 </v>
   <v>       0.00000000       0.00000000      -0.00446304 </v>
  </varray>
  <varray name="stress" >
   <v>     -25.49495288       0.00000000       0.00000000 </v>
   <v>       0.00000000     -25.49495288      -0.00000000 </v>
   <v>      -0.00000000       0.00000000      -1.57252332 </v>
  </varray>
  <energy>
   <i name="e_fr_energy">    -41.85119933 </i>
   <i name="e_wo_entrp">    -41.85041686 </i>
   <i name="e_0_energy">    -41.85080810 </i>
  </energy>
  <time name="totalsc">    0.78    0.78</time>
 </calculation>
 <calculation>
  <scstep>
   <time name="dav">    0.09    0.09</time>
   <time name="total">    0.12    0.12</time>
   <energy>
    <i name="alphaZ">     84.73417088 </i>
    <i name="ewald">   3547.81100181 </i>
    <i name="hartreedc">  -7935.70228918 </i>
    <i name="XCdc">    100.80371091 </i>
    <i name="pawpsdc">   5519.48100770 </i>
    <i name="pawaedc">  -5405.47359818 </i>
    <i name="eentropy">     -0.00078201 </i>
    <i name="bandstr">   -675.73997993 </i>
    <i name="atom">   4724.74487735 </i>
    <i name="e_fr_energy">    -39.34188065 </i>
    <i name="e_wo_entrp">    -39.34109864 </i>
    <i name="e_0_energy">    -39.34148964 </i>
   </energy>
  </scstep>
  <scstep>
   <time name="dav">    0.09    0.09</time>
   <time name="total">    0.12    0.12</time>
   <energy>
    <i name="e_fr_energy">    -39.34188311 </i>
    <i name="e_wo_entrp">    -39.34110077 </i>
    <i name="e_0_energy">    -39.34149194 </i>
   </energy>
  </scstep>
  <scstep>
   <time name="dav">    0.06    0.06</time>
   <time name="total">    0.08    0.08</time>
   <energy>
    <i name="alphaZ">     84.73417088 </i>
    <i name="ewald">   3547.81100181 </i>
    <i name="hartreedc">  -7935.70173102 </i>
    <i name="XCdc">    100.80371410 </i>
    <i name="pawpsdc">   5519.46536105 </i>
    <i name="pawaedc">  -5405.45802030 </i>
    <i name="eentropy">     -0.00078214 </i>
    <i name="bandstr">   -675.74047481 </i>
    <i name="atom">   4724.74487735 </i>
    <i name="e_fr_energy">    -39.34188308 </i>
    <i name="e_wo_entrp">    -39.34110094 </i>
    <i name="e_0_energy">    -39.34149201 </i>
   </energy>
  </scstep>
  <structure>
   <crystal>
    <varray name="basis" >
     <v>       3.37894624       0.00000000       0.00000000 </v>
     <v>       1.68947312       2.92625328       0.00000000 </v>
     <v>       0.00000000       0.00000000      20.00000000 </v>
    </varray>
    <i name="volume">    197.75304998 </i>
    <varray name="rec_basis" >
     <v>       0.29595025      -0.17086696       0.00000000 </v>
     <v>       0.00000000       0.34173392       0.00000000 </v>
     <v>       0.00000000       0.00000000       0.05000000 </v>
    </varray>
   </crystal>
   <varray name="positions" >
    <v>       0.00000000       0.00000000       0.50149414 </v>
    <v>       0.33333333       0.33333333       0.82352012 </v>
    <v>       0.33333333       0.33333333       0.42667849 </v>
    <v>       0.33333333       0.33333333       0.57638410 </v>
    <v>       0.00000000       0.00000000       0.72998001 </v>
    <v>       0.00000000       0.00000000       0.91694314 </v>
   </varray>
  </structure>
  <varray name="forces" >
   <v>       0.00000000       0.00000000       0.00597115 </v>
   <v>      -0.00000000      -0.00000000      -0.00319367 </v>
   <v>       0.00000000      -0.00000000       0.00228280 </v>
   <v>      -0.00000000      -0.00000000       0.00238874 </v>
   <v>       0.00000000      -0.00000000      -0.00320061 </v>
   <v>       0.00000000       0.00000000      -0.00424842 </v>
  </varray>
  <varray name="stress" >
   <v>     -25.49779318      -0.00000000       0.00000000 </v>
   <v>       0.00000000     -25.49779318      -0.00000000 </v>
   <v>       0.00000000       0.00000000      -1.58634741 </v>
  </varray>
  <energy>
   <i name="e_fr_energy">    -41.85119582 </i>
   <i name="e_wo_entrp">    -41.85041369 </i>
   <i name="e_0_energy">    -41.85080476 </i>
  </energy>
  <time name="totalsc">    0.60    0.60</time>
 </calculation>
 <calculation>
  <scstep>
   <time name="dav">    0.09    0.09</time>
   <time name="total">    0.12    0.12</time>
   <energy>
    <i name="alphaZ">     84.73417088 </i>
    <i name="ewald">   3547.27616564 </i>
    <i name="hartreedc">  -7935.16620294 </i>
    <i name="XCdc">    100.80353347 </i>
    <i name="pawpsdc">   5519.44116605 </i>
    <i name="pawaedc">  -5405.43387587 </i>
    <i name="eentropy">     -0.00078233 </i>
    <i name="bandstr">   -675.74098675 </i>
    <i name="atom">   4724.74487735 </i>
    <i name="e_fr_energy">    -39.34193450 </i>
    <i name="e_wo_entrp">    -39.34115217 </i>
    <i name="e_0_energy">    -39.34154334 </i>
   </energy>
  </scstep>
  <scstep>
   <time name="dav">    0.09    0.09</time>
   <time name="total">    0.11    0.11</time>
   <energy>
    <i name="alphaZ">     84.73417088 </i>
    <i name="ewald">   3547.27616564 </i>
    <i name="hartreedc">  -7935.16809538 </i>
    <i name="XCdc">    100.80355402 </i>
    <i name="pawpsdc">   5519.42181383 </i>
    <i name="pawaedc">  -5405.41441461 </i>
    <i name="eentropy">     -0.00078201 </i>
    <i name="bandstr">   -675.73922503 </i>
    <i name="atom">   4724.74487735 </i>
    <i name="e_fr_energy">    -39.34193531 </i>
    <i name="e_wo_entrp">    -39.34115330 </i>
    <i name="e_0_energy">    -39.34154431 </i>
   </energy>
  </scstep>
  <structure>
   <crystal>
    <varray name="basis" >
     <v>       3.37894624       0.00000000       0.00000000 </v>
     <v>       1.68947312       2.92625328       0.00000000 </v>
     <v>       0.00000000       0.00000000      20.00000000 </v>
    </varray>
    <i name="volume">    197.75304998 </i>
    <varray name="rec_basis" >
     <v>       0.29595025      -0.17086696       0.00000000 </v>
     <v>       0.00000000       0.34173392       0.00000000 </v>
     <v>       0.00000000       0.00000000       0.05000000 </v>
    </varray>
   </crystal>
   <varray name="positions" >
    <v>       0.00000000       0.00000000       0.50148879 </v>
    <v>       0.33333333       0.33333333       0.82352565 </v>
    <v>       0.33333333       0.33333333       0.42667181 </v>
    <v>       0.33333333       0.33333333       0.57637773 </v>
    <v>       0.00000000       0.00000000       0.72998597 </v>
    <v>       0.00000000       0.00000000       0.91695004 </v>
   </varray>
  </structure>
  <varray name="forces" >
   <v>      -0.00000000      -0.00000000       0.00577979 </v>
   <v>       0.00000000      -0.00000000      -0.00316413 </v>
   <v>       0.00000000       0.00000000       0.00277534 </v>
   <v>      -0.00000000       0.00000000       0.00302429 </v>
   <v>      -0.00000000       0.00000000      -0.00363922 </v>
   <v>      -0.00000000      -0.00000000      -0.00477607 </v>
  </varray>
  <varray name="stress" >
   <v>     -25.50498548       0.00000000      -0.00000000 </v>
   <v>       0.00000000     -25.50498548       0.00000000 </v>
   <v>       0.00000000       0.00000000      -1.60363184 </v>
  </varray>
  <energy>
   <i name="e_fr_energy">    -41.85119326 </i>
   <i name="e_wo_entrp">    -41.85041125 </i>
   <i name="e_0_energy">    -41.85080226 </i>
  </energy>
  <time name="totalsc">    0.51    0.52</time>
 </calculation>
 <calculation>
  <scstep>
   <time name="dav">    0.09    0.09</time>
   <time name="total">    0.12    0.12</time>
   <energy>
    <i name="alphaZ">     84.73417088 </i>
    <i name="ewald">   3553.70646488 </i>
    <i name="hartreedc">  -7941.58635349 </i>
    <i name="XCdc">    100.80583029 </i>
    <i name="pawpsdc">   5519.41402319 </i>
    <i name="pawaedc">  -5405.40666116 </i>
    <i name="eentropy">     -0.00078191 </i>
    <i name="bandstr">   -675.75277042 </i>
    <i name="atom">   4724.74487735 </i>
    <i name="e_fr_energy">    -39.34120039 </i>
    <i name="e_wo_entrp">    -39.34041848 </i>
    <i name="e_0_energy">    -39.34080944 </i>
   </energy>
  </scstep>
  <scstep>
   <time name="dav">    0.10    0.10</time>
   <time name="total">    0.13    0.13</time>
   <energy>
    <i name="e_fr_energy">    -39.34133194 </i>
    <i name="e_wo_entrp">    -39.34055153 </i>
    <i name="e_0_energy">    -39.34094174 </i>
   </energy>
  </scstep>
  <scstep>
   <time name="dav">    0.10    0.10</time>
   <time name="total">    0.14    0.14</time>
   <energy>
    <i name="e_fr_energy">    -39.34132911 </i>
    <i name="e_wo_entrp">    -39.34054786 </i>
    <i name="e_0_energy">    -39.34093849 </i>
   </energy>
  </scstep>
  <scstep>
   <time name="dav">    0.10    0.10</time>
   <time name="total">    0.12    0.12</time>
   <energy>
    <i name="alphaZ">     84.73417088 </i>
    <i name="ewald">   3553.70646488 </i>
    <i name="hartreedc">  -7941.58893539 </i>
    <i name="XCdc">    100.80583012 </i>
    <i name="pawpsdc">   5519.78503188 </i>
    <i name="pawaedc">  -5405.77749239 </i>
    <i name="eentropy">     -0.00078064 </i>
    <i name="bandstr">   -675.75049519 </i>
    <i name="atom">   4724.74487735 </i>
    <i name="e_fr_energy">    -39.34132850 </i>
    <i name="e_wo_entrp">    -39.34054786 </i>
    <i name="e_0_energy">    -39.34093818 </i>
   </energy>
  </scstep>
  <structure>
   <crystal>
    <varray name="basis" >
     <v>       3.37894624       0.00000000       0.00000000 </v>
     <v>       1.68947312       2.92625328       0.00000000 </v>
     <v>       0.00000000       0.00000000      20.00000000 </v>
    </varray>
    <i name="volume">    197.75304998 </i>
    <varray name="rec_basis" >
     <v>       0.29595025      -0.17086696       0.00000000 </v>
     <v>       0.00000000       0.34173392       0.00000000 </v>
     <v>       0.00000000       0.00000000       0.05000000 </v>
    </varray>
   </crystal>
   <varray name="positions" >
    <v>       0.00000000       0.00000000       0.50156004 </v>
    <v>       0.33333333       0.33333333       0.82345563 </v>
    <v>       0.33333333       0.33333333       0.42674598 </v>
    <v>       0.33333333       0.33333333       0.57644523 </v>
    <v>       0.00000000       0.00000000       0.72991968 </v>
    <v>       0.00000000       0.00000000       0.91687344 </v>
   </varray>
  </structure>
  <varray name="forces" >
   <v>       0.00000000       0.00000000       0.00657627 </v>
   <v>       0.00000000      -0.00000000      -0.00223522 </v>
   <v>       0.00000000       0.00000000       0.00135459 </v>
   <v>      -0.00000000      -0.00000000       0.00279427 </v>
   <v>      -0.00000000      -0.00000000      -0.00334977 </v>
   <v>       0.00000000      -0.00000000      -0.00514014 </v>
  </varray>
  <varray name="stress" >
   <v>     -25.48103109      -0.00000000       0.00000000 </v>
   <v>      -0.00000000     -25.48103109       0.00000000 </v>
   <v>       0.00000000       0.00000000      -1.52307608 </v>
  </varray>
  <energy>
   <i name="e_fr_energy">    -41.85122268 </i>
   <i name="e_wo_entrp">    -41.85044203 </i>
   <i name="e_0_energy">    -41.85083236 </i>
  </energy>
  <time name="totalsc">    0.79    0.80</time>
 </calculation>
 <calculation>
  <scstep>
   <time name="dav">    0.09    0.09</time>
   <time name="total">    0.12    0.12</time>
   <energy>
    <i name="alphaZ">     84.73417088 </i>
    <i name="ewald">   3552.00777006 </i>
    <i name="hartreedc">  -7939.89133403 </i>
    <i name="XCdc">    100.80502930 </i>
    <i name="pawpsdc">   5519.83400830 </i>
    <i name="pawaedc">  -5405.82679822 </i>
    <i name="eentropy">     -0.00078059 </i>
    <i name="bandstr">   -675.74842021 </i>
    <i name="atom">   4724.74487735 </i>
    <i name="e_fr_energy">    -39.34147716 </i>
    <i name="e_wo_entrp">    -39.34069657 </i>
    <i name="e_0_energy">    -39.34108686 </i>
   </energy>
  </scstep>
  <scstep>
   <time name="dav">    0.10    0.10</time>
   <time name="total">    0.14    0.14</time>
   <energy>
    <i name="e_fr_energy">    -39.34148640 </i>
    <i name="e_wo_entrp">    -39.34070524 </i>
    <i name="e_0_energy">    -39.34109582 </i>
   </energy>
  </scstep>
  <scstep>
   <time name="dav">    0.08    0.08</time>
   <time name="total">    0.09    0.09</time>
   <energy>
    <i name="alphaZ">     84.73417088 </i>
    <i name="ewald">   3552.00777006 </i>
    <i name="hartreedc">  -7939.89310874 </i>
    <i name="XCdc">    100.80501516 </i>
    <i name="pawpsdc">   5519.78897538 </i>
    <i name="pawaedc">  -5405.78173438 </i>
    <i name="eentropy">     -0.00078118 </i>
    <i name="bandstr">   -675.74667076 </i>
    <i name="atom">   4724.74487735 </i>
    <i name="e_fr_energy">    -39.34148623 </i>
    <i name="e_wo_entrp">    -39.34070505 </i>
    <i name="e_0_energy">    -39.34109564 </i>
   </energy>
  </scstep>
  <structure>
   <crystal>
    <varray name="basis" >
     <v>       3.37894624       0.00000000       0.00000000 </v>
     <v>       1.68947312       2.92625328       0.00000000 </v>
     <v>       0.00000000       0.00000000      20.00000000 </v>
    </varray>
    <i name="volume">    197.75304998 </i>
    <varray name="rec_basis" >
     <v>       0.29595025      -0.17086696       0.00000000 </v>
     <v>       0.00000000       0.34173392       0.00000000 </v>
     <v>       0.00000000       0.00000000       0.05000000 </v>
    </varray>
   </crystal>
   <varray name="positions" >
    <v>       0.00000000       0.00000000       0.50154698 </v>
    <v>       0.33333333       0.33333333       0.82347703 </v>
    <v>       0.33333333       0.33333333       0.42672129 </v>
    <v>       0.33333333       0.33333333       0.57642551 </v>
    <v>       0.00000000       0.00000000       0.72993752 </v>
    <v>       0.00000000       0.00000000       0.91689167 </v>
   </varray>
  </structure>
  <varray name="forces" >
   <v>      -0.00000000       0.00000000       0.00070674 </v>
   <v>       0.00000000      -0.00000000      -0.00356983 </v>
   <v>      -0.00000000      -0.00000000       0.00465053 </v>
   <v>      -0.00000000       0.00000000       0.00436035 </v>
   <v>      -0.00000000      -0.00000000      -0.00019345 </v>
   <v>       0.00000000       0.00000000      -0.00595433 </v>
  </varray>
  <varray name="stress" >
   <v>     -25.47612376      -0.00000000      -0.00000000 </v>
   <v>       0.00000000     -25.47612376       0.00000000 </v>
   <v>       0.00000000       0.00000000      -1.51010639 </v>
  </varray>
  <energy>
   <i name="e_fr_energy">    -41.85121446 </i>
   <i name="e_wo_entrp">    -41.85043328 </i>
   <i name="e_0_energy">    -41.85082387 </i>
  </energy>
  <time name="totalsc">    0.63    0.64</time>
 </calculation>
 <calculation>
  <scstep>
   <time name="dav">    0.09    0.09</time>
   <time name="total">    0.13    0.13</time>
   <energy>
    <i name="alphaZ">     84.73417088 </i>
    <i name="ewald">   3553.56267886 </i>
    <i name="hartreedc">  -7941.44214526 </i>
    <i name="XCdc">    100.80592910 </i>
    <i name="pawpsdc">   5519.77314230 </i>
    <i name="pawaedc">  -5405.76589441 </i>
    <i name="eentropy">     -0.00078047 </i>
    <i name="bandstr">   -675.75330500 </i>
    <i name="atom">   4724.74487735 </i>
    <i name="e_fr_energy">    -39.34132665 </i>
    <i name="e_wo_entrp">    -39.34054618 </i>
    <i name="e_0_energy">    -39.34093641 </i>
   </energy>
  </scstep>
  <scstep>
   <time name="dav">    0.10    0.10</time>
   <time name="total">    0.13    0.13</time>
   <energy>
    <i name="e_fr_energy">    -39.34133349 </i>
    <i name="e_wo_entrp">    -39.34055316 </i>
    <i name="e_0_energy">    -39.34094332 </i>
   </energy>
  </scstep>
  <scstep>
   <time name="dav">    0.07    0.07</time>
   <time name="total">    0.09    0.09</time>
   <energy>
    <i name="alphaZ">     84.73417088 </i>
    <i name="ewald">   3553.56267886 </i>
    <i name="hartreedc">  -7941.44229312 </i>
    <i name="XCdc">    100.80593954 </i>
    <i name="pawpsdc">   5519.90458625 </i>
    <i name="pawaedc">  -5405.89736785 </i>
    <i name="eentropy">     -0.00078050 </i>
    <i name="bandstr">   -675.75314477 </i>
    <i name="atom">   4724.74487735 </i>
    <i name="e_fr_energy">    -39.34133337 </i>
    <i name="e_wo_entrp">    -39.34055287 </i>
    <i name="e_0_energy">    -39.34094312 </i>
   </energy>
  </scstep>
  <structure>
   <crystal>
    <varray name="basis" >
     <v>       3.37894624       0.00000000       0.00000000 </v>
     <v>       1.68947312       2.92625328       0.00000000 </v>
     <v>       0.00000000       0.00000000      20.00000000 </v>
    </varray>
    <i name="volume">    197.75304998 </i>
    <varray name="rec_basis" >
     <v>       0.29595025      -0.17086696       0.00000000 </v>
     <v>       0.00000000       0.34173392       0.00000000 </v>
     <v>       0.00000000       0.00000000       0.05000000 </v>
    </varray>
   </crystal>
   <varray name="positions" >
    <v>       0.00000000       0.00000000       0.50156091 </v>
    <v>       0.33333333       0.33333333       0.82346025 </v>
    <v>       0.33333333       0.33333333       0.42674002 </v>
    <v>       0.33333333       0.33333333       0.57644318 </v>
    <v>       0.00000000       0.00000000       0.72992563 </v>
    <v>       0.00000000       0.00000000       0.91687001 </v>
   </varray>
  </structure>
  <varray name="forces" >
   <v>      -0.00000000      -0.00000000       0.00330983 </v>
   <v>       0.00000000       0.00000000      -0.00331008 </v>
   <v>      -0.00000000       0.00000000       0.00386590 </v>
   <v>      -0.00000000      -0.00000000       0.00376620 </v>
   <v>       0.00000000       0.00000000      -0.00439019 </v>
   <v>       0.00000000       0.00000000      -0.00324166 </v>
  </varray>
  <varray name="stress" >
   <v>     -25.45584281      -0.00000000       0.00000000 </v>
   <v>       0.00000000     -25.45584281       0.00000000 </v>
   <v>       0.00000000       0.00000000      -1.47759837 </v>
  </varray>
  <energy>
   <i name="e_fr_energy">    -41.85122185 </i>
   <i name="e_wo_entrp">    -41.85044135 </i>
   <i name="e_0_energy">    -41.85083160 </i>
  </energy>
  <time name="totalsc">    0.62    0.62</time>
 </calculation>
 <calculation>
  <scstep>
   <time name="dav">    0.09    0.09</time>
   <time name="total">    0.13    0.13</time>
   <energy>
    <i name="alphaZ">     84.73417088 </i>
    <i name="ewald">   3553.76459252 </i>
    <i name="hartreedc">  -7941.64602230 </i>
    <i name="XCdc">    100.80597020 </i>
    <i name="pawpsdc">   5519.92690188 </i>
    <i name="pawaedc">  -5405.91961733 </i>
    <i name="eentropy">     -0.00078049 </i>
    <i name="bandstr">   -675.75140658 </i>
    <i name="atom">   4724.74487735 </i>
    <i name="e_fr_energy">    -39.34131387 </i>
    <i name="e_wo_entrp">    -39.34053339 </i>
    <i name="e_0_energy">    -39.34092363 </i>
   </energy>
  </scstep>
  <scstep>
   <time name="dav">    0.07    0.07</time>
   <time name="total">    0.09    0.09</time>
   <energy>
    <i name="alphaZ">     84.73417088 </i>
    <i name="ewald">   3553.76459252 </i>
    <i name="hartreedc">  -7941.64444183 </i>
    <i name="XCdc">    100.80592590 </i>
    <i name="pawpsdc">   5519.93069922 </i>
    <i name="pawaedc">  -5405.92352371 </i>
    <i name="eentropy">     -0.00078054 </i>
    <i name="bandstr">   -675.75283378 </i>
    <i name="atom">   4724.74487735 </i>
    <i name="e_fr_energy">    -39.34131400 </i>
    <i name="e_wo_entrp">    -39.34053346 </i>
    <i name="e_0_energy">    -39.34092373 </i>
   </energy>
  </scstep>
  <structure>
   <crystal>
    <varray name="basis" >
     <v>       3.37894624       0.00000000       0.00000000 </v>
     <v>       1.68947312       2.92625328       0.00000000 </v>
     <v>       0.00000000       0.00000000      20.00000000 </v>
    </varray>
    <i name="volume">    197.75304998 </i>
    <varray name="rec_basis" >
     <v>       0.29595025      -0.17086696       0.00000000 </v>
     <v>       0.00000000       0.34173392       0.00000000 </v>
     <v>       0.00000000       0.00000000       0.05000000 </v>
    </varray>
   </crystal>
   <varray name="positions" >
    <v>       0.00000000       0.00000000       0.50156272 </v>
    <v>       0.33333333       0.33333333       0.82345799 </v>
    <v>       0.33333333       0.33333333       0.42674289 </v>
    <v>       0.33333333       0.33333333       0.57644600 </v>
    <v>       0.00000000       0.00000000       0.72992269 </v>
    <v>       0.00000000       0.00000000       0.91686771 </v>
   </varray>
  </structure>
  <varray name="forces" >
   <v>      -0.00000000      -0.00000000       0.00352744 </v>
   <v>      -0.00000000      -0.00000000      -0.00295643 </v>
   <v>       0.00000000       0.00000000       0.00349290 </v>
   <v>      -0.00000000      -0.00000000       0.00312545 </v>
   <v>      -0.00000000      -0.00000000      -0.00400144 </v>
   <v>      -0.00000000       0.00000000      -0.00318791 </v>
  </varray>
  <varray name="stress" >
   <v>     -25.45742660       0.00000000      -0.00000000 </v>
   <v>      -0.00000000     -25.45742660       0.00000000 </v>
   <v>       0.00000000      -0.00000000      -1.47511135 </v>
  </varray>
  <energy>
   <i name="e_fr_energy">    -41.85122298 </i>
   <i name="e_wo_entrp">    -41.85044245 </i>
   <i name="e_0_energy">    -41.85083271 </i>
  </energy>
  <time name="totalsc">    0.48    0.49</time>
 </calculation>
 <calculation>
  <scstep>
   <time name="dav">    0.09    0.09</time>
   <time name="total">    0.12    0.12</time>
   <energy>
    <i name="alphaZ">     84.73417088 </i>
    <i name="ewald">   3555.53094661 </i>
    <i name="hartreedc">  -7943.40493426 </i>
    <i name="XCdc">    100.80695413 </i>
    <i name="pawpsdc">   5519.93458674 </i>
    <i name="pawaedc">  -5405.92739329 </i>
    <i name="eentropy">     -0.00078135 </i>
    <i name="bandstr">   -675.75955726 </i>
    <i name="atom">   4724.74487735 </i>
    <i name="e_fr_energy">    -39.34113044 </i>
    <i name="e_wo_entrp">    -39.34034909 </i>
    <i name="e_0_energy">    -39.34073977 </i>
   </energy>
  </scstep>
  <scstep>
   <time name="dav">    0.10    0.10</time>
   <time name="total">    0.13    0.14</time>
   <energy>
    <i name="e_fr_energy">    -39.34113844 </i>
    <i name="e_wo_entrp">    -39.34035787 </i>
    <i name="e_0_energy">    -39.34074815 </i>
   </energy>
  </scstep>
  <scstep>
   <time name="dav">    0.07    0.07</time>
   <time name="total">    0.09    0.09</time>
   <energy>
    <i name="alphaZ">     84.73417088 </i>
    <i name="ewald">   3555.53094661 </i>
    <i name="hartreedc">  -7943.40585170 </i>
    <i name="XCdc">    100.80697633 </i>
    <i name="pawpsdc">   5520.09289153 </i>
    <i name="pawaedc">  -5406.08574819 </i>
    <i name="eentropy">     -0.00078089 </i>
    <i name="bandstr">   -675.75862020 </i>
    <i name="atom">   4724.74487735 </i>
    <i name="e_fr_energy">    -39.34113828 </i>
    <i name="e_wo_entrp">    -39.34035739 </i>
    <i name="e_0_energy">    -39.34074784 </i>
   </energy>
  </scstep>
  <structure>
   <crystal>
    <varray name="basis" >
     <v>       3.37894624       0.00000000       0.00000000 </v>
     <v>       1.68947312       2.92625328       0.00000000 </v>
     <v>       0.00000000       0.00000000      20.00000000 </v>
    </varray>
    <i name="volume">    197.75304998 </i>
    <varray name="rec_basis" >
     <v>       0.29595025      -0.17086696       0.00000000 </v>
     <v>       0.00000000       0.34173392       0.00000000 </v>
     <v>       0.00000000       0.00000000       0.05000000 </v>
    </varray>
   </crystal>
   <varray name="positions" >
    <v>       0.00000000       0.00000000       0.50158113 </v>
    <v>       0.33333333       0.33333333       0.82344335 </v>
    <v>       0.33333333       0.33333333       0.42676659 </v>
    <v>       0.33333333       0.33333333       0.57646229 </v>
    <v>       0.00000000       0.00000000       0.72990284 </v>
    <v>       0.00000000       0.00000000       0.91684381 </v>
   </varray>
  </structure>
  <varray name="forces" >
   <v>       0.00000000       0.00000000       0.00436714 </v>
   <v>      -0.00000000      -0.00000000      -0.00648502 </v>
   <v>      -0.00000000      -0.00000000       0.00109206 </v>
   <v>       0.00000000       0.00000000       0.00339692 </v>
   <v>       0.00000000       0.00000000      -0.00205289 </v>
   <v>      -0.00000000      -0.00000000      -0.00031821 </v>
  </varray>
  <varray name="stress" >
   <v>     -25.44021437      -0.00000000      -0.00000000 </v>
   <v>      -0.00000000     -25.44021437      -0.00000000 </v>
   <v>      -0.00000000       0.00000000      -1.41760766 </v>
  </varray>
  <energy>
   <i name="e_fr_energy">    -41.85123064 </i>
   <i name="e_wo_entrp">    -41.85044975 </i>
   <i name="e_0_energy">    -41.85084020 </i>
  </energy>
  <time name="totalsc">    0.62    0.62</time>
 </calculation>
 <calculation>
  <scstep>
   <time name="dav">    0.09    0.09</time>
   <time name="total">    0.12    0.12</time>
   <energy>
    <i name="alphaZ">     84.73417088 </i>
    <i name="ewald">   3555.90209911 </i>
    <i name="hartreedc">  -7943.77845063 </i>
    <i name="XCdc">    100.80707975 </i>
    <i name="pawpsdc">   5520.14957213 </i>
    <i name="pawaedc">  -5406.14238561 </i>
    <i name="eentropy">     -0.00078064 </i>
    <i name="bandstr">   -675.75728786 </i>
    <i name="atom">   4724.74487735 </i>
    <i name="e_fr_energy">    -39.34110552 </i>
    <i name="e_wo_entrp">    -39.34032488 </i>
    <i name="e_0_energy">    -39.34071520 </i>
   </energy>
  </scstep>
  <scstep>
   <time name="dav">    0.10    0.10</time>
   <time name="total">    0.11    0.12</time>
   <energy>
    <i name="alphaZ">     84.73417088 </i>
    <i name="ewald">   3555.90209911 </i>
    <i name="hartreedc">  -7943.77635689 </i>
    <i name="XCdc">    100.80703033 </i>
    <i name="pawpsdc">   5520.18384609 </i>
    <i name="pawaedc">  -5406.17682260 </i>
    <i name="eentropy">     -0.00078097 </i>
    <i name="bandstr">   -675.75916934 </i>
    <i name="atom">   4724.74487735 </i>
    <i name="e_fr_energy">    -39.34110605 </i>
    <i name="e_wo_entrp">    -39.34032509 </i>
    <i name="e_0_energy">    -39.34071557 </i>
   </energy>
  </scstep>
  <structure>
   <crystal>
    <varray name="basis" >
     <v>       3.37894624       0.00000000       0.00000000 </v>
     <v>       1.68947312       2.92625328       0.00000000 </v>
     <v>       0.00000000       0.00000000      20.00000000 </v>
    </varray>
    <i name="volume">    197.75304998 </i>
    <varray name="rec_basis" >
     <v>       0.29595025      -0.17086696       0.00000000 </v>
     <v>       0.00000000       0.34173392       0.00000000 </v>
     <v>       0.00000000       0.00000000       0.05000000 </v>
    </varray>
   </crystal>
   <varray name="positions" >
    <v>       0.00000000       0.00000000       0.50158541 </v>
    <v>       0.33333333       0.33333333       0.82343817 </v>
    <v>       0.33333333       0.33333333       0.42677029 </v>
    <v>       0.33333333       0.33333333       0.57646590 </v>
    <v>       0.00000000       0.00000000       0.72989990 </v>
    <v>       0.00000000       0.00000000       0.91684033 </v>
   </varray>
  </structure>
  <varray name="forces" >
   <v>      -0.00000000      -0.00000000       0.00339561 </v>
   <v>      -0.00000000       0.00000000      -0.00498917 </v>
   <v>       0.00000000      -0.00000000       0.00130340 </v>
   <v>       0.00000000       0.00000000       0.00325908 </v>
   <v>      -0.00000000       0.00000000      -0.00233827 </v>
   <v>       0.00000000       0.00000000      -0.00063066 </v>
  </varray>
  <varray name="stress" >
   <v>     -25.43757332       0.00000000      -0.00000000 </v>
   <v>       0.00000000     -25.43757332       0.00000000 </v>
   <v>       0.00000000       0.00000000      -1.40418266 </v>
  </varray>
  <energy>
   <i name="e_fr_energy">    -41.85123216 </i>
   <i name="e_wo_entrp">    -41.85045119 </i>
   <i name="e_0_energy">    -41.85084168 </i>
  </energy>
  <time name="totalsc">    0.51    0.51</time>
 </calculation>
 <calculation>
  <scstep>
   <time name="dav">    0.09    0.09</time>
   <time name="total">    0.13    0.13</time>
   <energy>
    <i name="alphaZ">     84.73417088 </i>
    <i name="ewald">   3558.68225825 </i>
    <i name="hartreedc">  -7946.55345252 </i>
    <i name="XCdc">    100.80785560 </i>
    <i name="pawpsdc">   5520.19100091 </i>
    <i name="pawaedc">  -5406.18395929 </i>
    <i name="eentropy">     -0.00078102 </i>
    <i name="bandstr">   -675.76279120 </i>
    <i name="atom">   4724.74487735 </i>
    <i name="e_fr_energy">    -39.34082104 </i>
    <i name="e_wo_entrp">    -39.34004003 </i>
    <i name="e_0_energy">    -39.34043054 </i>
   </energy>
  </scstep>
  <scstep>
   <time name="dav">    0.10    0.10</time>
   <time name="total">    0.13    0.13</time>
   <energy>
    <i name="e_fr_energy">    -39.34084614 </i>
    <i name="e_wo_entrp">    -39.34006596 </i>
    <i name="e_0_energy">    -39.34045605 </i>
   </energy>
  </scstep>
  <scstep>
   <time name="dav">    0.11    0.11</time>
   <time name="total">    0.12    0.12</time>
   <energy>
    <i name="alphaZ">     84.73417088 </i>
    <i name="ewald">   3558.68225825 </i>
    <i name="hartreedc">  -7946.55256733 </i>
    <i name="XCdc">    100.80784334 </i>
    <i name="pawpsdc">   5520.30511466 </i>
    <i name="pawaedc">  -5406.29804028 </i>
    <i name="eentropy">     -0.00078061 </i>
    <i name="bandstr">   -675.76372187 </i>
    <i name="atom">   4724.74487735 </i>
    <i name="e_fr_energy">    -39.34084563 </i>
    <i name="e_wo_entrp">    -39.34006502 </i>
    <i name="e_0_energy">    -39.34045533 </i>
   </energy>
  </scstep>
  <structure>
   <crystal>
    <varray name="basis" >
     <v>       3.37894624       0.00000000       0.00000000 </v>
     <v>       1.68947312       2.92625328       0.00000000 </v>
     <v>       0.00000000       0.00000000      20.00000000 </v>
    </varray>
    <i name="volume">    197.75304998 </i>
    <varray name="rec_basis" >
     <v>       0.29595025      -0.17086696       0.00000000 </v>
     <v>       0.00000000       0.34173392       0.00000000 </v>
     <v>       0.00000000       0.00000000       0.05000000 </v>
    </varray>
   </crystal>
   <varray name="positions" >
    <v>       0.00000000       0.00000000       0.50161551 </v>
    <v>       0.33333333       0.33333333       0.82340667 </v>
    <v>       0.33333333       0.33333333       0.42680310 </v>
    <v>       0.33333333       0.33333333       0.57649634 </v>
    <v>      -0.00000000       0.00000000       0.72986982 </v>
    <v>      -0.00000000       0.00000000       0.91680856 </v>
   </varray>
  </structure>
  <varray name="forces" >
   <v>      -0.00000000      -0.00000000       0.00510012 </v>
   <v>       0.00000000      -0.00000000      -0.00425934 </v>
   <v>      -0.00000000      -0.00000000       0.00033101 </v>
   <v>      -0.00000000      -0.00000000       0.00292633 </v>
   <v>       0.00000000      -0.00000000      -0.00007877 </v>
   <v>       0.00000000       0.00000000      -0.00401935 </v>
  </varray>
  <varray name="stress" >
   <v>     -25.46819629       0.00000000       0.00000000 </v>
   <v>      -0.00000000     -25.46819629       0.00000000 </v>
   <v>       0.00000000       0.00000000      -1.40429291 </v>
  </varray>
  <energy>
   <i name="e_fr_energy">    -41.85124493 </i>
   <i name="e_wo_entrp">    -41.85046432 </i>
   <i name="e_0_energy">    -41.85085462 </i>
  </energy>
  <time name="totalsc">    0.66    0.66</time>
 </calculation>
 <calculation>
  <scstep>
   <time name="dav">    0.09    0.09</time>
   <time name="total">    0.12    0.12</time>
   <energy>
    <i name="alphaZ">     84.73417088 </i>
    <i name="ewald">   3559.54838308 </i>
    <i name="hartreedc">  -7947.42098619 </i>
    <i name="XCdc">    100.80800216 </i>
    <i name="pawpsdc">   5520.35978126 </i>
    <i name="pawaedc">  -5406.35262668 </i>
    <i name="eentropy">     -0.00078033 </i>
    <i name="bandstr">   -675.76158404 </i>
    <i name="atom">   4724.74487735 </i>
    <i name="e_fr_energy">    -39.34076251 </i>
    <i name="e_wo_entrp">    -39.33998218 </i>
    <i name="e_0_energy">    -39.34037235 </i>
   </energy>
  </scstep>
  <scstep>
   <time name="dav">    0.09    0.09</time>
   <time name="total">    0.12    0.12</time>
   <energy>
    <i name="e_fr_energy">    -39.34076498 </i>
    <i name="e_wo_entrp">    -39.33998432 </i>
    <i name="e_0_energy">    -39.34037465 </i>
   </energy>
  </scstep>
  <scstep>
   <time name="dav">    0.06    0.06</time>
   <time name="total">    0.08    0.08</time>
   <energy>
    <i name="alphaZ">     84.73417088 </i>
    <i name="ewald">   3559.54838308 </i>
    <i name="hartreedc">  -7947.41903238 </i>
    <i name="XCdc">    100.80794458 </i>
    <i name="pawpsdc">   5520.39027103 </i>
    <i name="pawaedc">  -5406.38323357 </i>
    <i name="eentropy">     -0.00078060 </i>
    <i name="bandstr">   -675.76336534 </i>
    <i name="atom">   4724.74487735 </i>
    <i name="e_fr_energy">    -39.34076496 </i>
    <i name="e_wo_entrp">    -39.33998437 </i>
    <i name="e_0_energy">    -39.34037466 </i>
   </energy>
  </scstep>
  <structure>
   <crystal>
    <varray name="basis" >
     <v>       3.37894624       0.00000000       0.00000000 </v>
     <v>       1.68947312       2.92625328       0.00000000 </v>
     <v>       0.00000000       0.00000000      20.00000000 </v>
    </varray>
    <i name="volume">    197.75304998 </i>
    <varray name="rec_basis" >
     <v>       0.29595025      -0.17086696       0.00000000 </v>
     <v>       0.00000000       0.34173392       0.00000000 </v>
     <v>       0.00000000       0.00000000       0.05000000 </v>
    </varray>
   </crystal>
   <varray name="positions" >
    <v>      -0.00000000       0.00000000       0.50162605 </v>
    <v>       0.33333333       0.33333333       0.82339693 </v>
    <v>       0.33333333       0.33333333       0.42681259 </v>
    <v>       0.33333333       0.33333333       0.57650560 </v>
    <v>      -0.00000000       0.00000000       0.72985966 </v>
    <v>      -0.00000000       0.00000000       0.91679917 </v>
   </varray>
  </structure>
  <varray name="forces" >
   <v>       0.00000000       0.00000000       0.00421959 </v>
   <v>      -0.00000000      -0.00000000      -0.00421868 </v>
   <v>       0.00000000       0.00000000       0.00062949 </v>
   <v>       0.00000000       0.00000000       0.00290283 </v>
   <v>      -0.00000000      -0.00000000       0.00045376 </v>
   <v>      -0.00000000      -0.00000000      -0.00398699 </v>
  </varray>
  <varray name="stress" >
   <v>     -25.46839727       0.00000000      -0.00000000 </v>
   <v>       0.00000000     -25.46839727      -0.00000000 </v>
   <v>      -0.00000000      -0.00000000      -1.39944273 </v>
  </varray>
  <energy>
   <i name="e_fr_energy">    -41.85124817 </i>
   <i name="e_wo_entrp">    -41.85046758 </i>
   <i name="e_0_energy">    -41.85085787 </i>
  </energy>
  <time name="totalsc">    0.60    0.60</time>
 </calculation>
 <calculation>
  <scstep>
   <time name="dav">    0.09    0.09</time>
   <time name="total">    0.12    0.13</time>
   <energy>
    <i name="alphaZ">     84.73417088 </i>
    <i name="ewald">   3561.66759009 </i>
    <i name="hartreedc">  -7949.53451471 </i>
    <i name="XCdc">    100.80876478 </i>
    <i name="pawpsdc">   5520.42925310 </i>
    <i name="pawaedc">  -5406.42223537 </i>
    <i name="eentropy">     -0.00077970 </i>
    <i name="bandstr">   -675.76767310 </i>
    <i name="atom">   4724.74487735 </i>
    <i name="e_fr_energy">    -39.34054667 </i>
    <i name="e_wo_entrp">    -39.33976697 </i>
    <i name="e_0_energy">    -39.34015682 </i>
   </energy>
  </scstep>
  <scstep>
   <time name="dav">    0.09    0.09</time>
   <time name="total">    0.13    0.13</time>
   <energy>
    <i name="e_fr_energy">    -39.34056065 </i>
    <i name="e_wo_entrp">    -39.33978136 </i>
    <i name="e_0_energy">    -39.34017101 </i>
   </energy>
  </scstep>
  <scstep>
   <time name="dav">    0.08    0.08</time>
   <time name="total">    0.10    0.10</time>
   <energy>
    <i name="alphaZ">     84.73417088 </i>
    <i name="ewald">   3561.66759009 </i>
    <i name="hartreedc">  -7949.53463260 </i>
    <i name="XCdc">    100.80877453 </i>
    <i name="pawpsdc">   5520.56831631 </i>
    <i name="pawaedc">  -5406.56129543 </i>
    <i name="eentropy">     -0.00077955 </i>
    <i name="bandstr">   -675.76758201 </i>
    <i name="atom">   4724.74487735 </i>
    <i name="e_fr_energy">    -39.34056043 </i>
    <i name="e_wo_entrp">    -39.33978088 </i>
    <i name="e_0_energy">    -39.34017066 </i>
   </energy>
  </scstep>
  <structure>
   <crystal>
    <varray name="basis" >
     <v>       3.37894624       0.00000000       0.00000000 </v>
     <v>       1.68947312       2.92625328       0.00000000 </v>
     <v>       0.00000000       0.00000000      20.00000000 </v>
    </varray>
    <i name="volume">    197.75304998 </i>
    <varray name="rec_basis" >
     <v>       0.29595025      -0.17086696       0.00000000 </v>
     <v>       0.00000000       0.34173392       0.00000000 </v>
     <v>       0.00000000       0.00000000       0.05000000 </v>
    </varray>
   </crystal>
   <varray name="positions" >
    <v>      -0.00000000       0.00000000       0.50164780 </v>
    <v>       0.33333333       0.33333333       0.82337263 </v>
    <v>       0.33333333       0.33333333       0.42683628 </v>
    <v>       0.33333333       0.33333333       0.57652952 </v>
    <v>      -0.00000000       0.00000000       0.72984119 </v>
    <v>      -0.00000000       0.00000000       0.91677258 </v>
   </varray>
  </structure>
  <varray name="forces" >
   <v>       0.00000000       0.00000000       0.00467851 </v>
   <v>       0.00000000       0.00000000      -0.00351209 </v>
   <v>      -0.00000000      -0.00000000      -0.00003788 </v>
   <v>       0.00000000       0.00000000       0.00146895 </v>
   <v>       0.00000000       0.00000000      -0.00018329 </v>
   <v>      -0.00000000      -0.00000000      -0.00241420 </v>
  </varray>
  <varray name="stress" >
   <v>     -25.45428624      -0.00000000       0.00000000 </v>
   <v>       0.00000000     -25.45428624       0.00000000 </v>
   <v>      -0.00000000       0.00000000      -1.36084371 </v>
  </varray>
  <energy>
   <i name="e_fr_energy">    -41.85125527 </i>
   <i name="e_wo_entrp">    -41.85047572 </i>
   <i name="e_0_energy">    -41.85086549 </i>
  </energy>
  <time name="totalsc">    0.63    0.64</time>
 </calculation>
 <calculation>
  <scstep>
   <time name="dav">    0.09    0.09</time>
   <time name="total">    0.12    0.12</time>
   <energy>
    <i name="alphaZ">     84.73417088 </i>
    <i name="ewald">   3569.88229506 </i>
    <i name="hartreedc">  -7957.73994150 </i>
    <i name="XCdc">    100.81136518 </i>
    <i name="pawpsdc">   5520.60330277 </i>
    <i name="pawaedc">  -5406.59619044 </i>
    <i name="eentropy">     -0.00077840 </i>
    <i name="bandstr">   -675.77867057 </i>
    <i name="atom">   4724.74487735 </i>
    <i name="e_fr_energy">    -39.33956966 </i>
    <i name="e_wo_entrp">    -39.33879126 </i>
    <i name="e_0_energy">    -39.33918046 </i>
   </energy>
  </scstep>
  <scstep>
   <time name="dav">    0.09    0.09</time>
   <time name="total">    0.13    0.13</time>
   <energy>
    <i name="e_fr_energy">    -39.33979738 </i>
    <i name="e_wo_entrp">    -39.33902022 </i>
    <i name="e_0_energy">    -39.33940880 </i>
   </energy>
  </scstep>
  <scstep>
   <time name="dav">    0.10    0.10</time>
   <time name="total">    0.14    0.14</time>
   <energy>
    <i name="e_fr_energy">    -39.33979290 </i>
    <i name="e_wo_entrp">    -39.33901498 </i>
    <i name="e_0_energy">    -39.33940394 </i>
   </energy>
  </scstep>
  <scstep>
   <time name="dav">    0.11    0.11</time>
   <time name="total">    0.15    0.15</time>
   <energy>
    <i name="e_fr_energy">    -39.33979148 </i>
    <i name="e_wo_entrp">    -39.33901423 </i>
    <i name="e_0_energy">    -39.33940285 </i>
   </energy>
  </scstep>
  <scstep>
   <time name="dav">    0.08    0.08</time>
   <time name="total">    0.10    0.10</time>
   <energy>
    <i name="alphaZ">     84.73417088 </i>
    <i name="ewald">   3569.88229506 </i>
    <i name="hartreedc">  -7957.74056410 </i>
    <i name="XCdc">    100.81111421 </i>
    <i name="pawpsdc">   5521.14228703 </i>
    <i name="pawaedc">  -5407.13545522 </i>
    <i name="eentropy">     -0.00077803 </i>
    <i name="bandstr">   -675.77773863 </i>
    <i name="atom">   4724.74487735 </i>
    <i name="e_fr_energy">    -39.33979145 </i>
    <i name="e_wo_entrp">    -39.33901343 </i>
    <i name="e_0_energy">    -39.33940244 </i>
   </energy>
  </scstep>
  <structure>
   <crystal>
    <varray name="basis" >
     <v>       3.37894624       0.00000000       0.00000000 </v>
     <v>       1.68947312       2.92625328       0.00000000 </v>
     <v>       0.00000000       0.00000000      20.00000000 </v>
    </varray>
    <i name="volume">    197.75304998 </i>
    <varray name="rec_basis" >
     <v>       0.29595025      -0.17086696       0.00000000 </v>
     <v>       0.00000000       0.34173392       0.00000000 </v>
     <v>       0.00000000       0.00000000       0.05000000 </v>
    </varray>
   </crystal>
   <varray name="positions" >
    <v>      -0.00000000      -0.00000000       0.50174096 </v>
    <v>       0.33333333       0.33333333       0.82327643 </v>
    <v>       0.33333333       0.33333333       0.42692595 </v>
    <v>       0.33333333       0.33333333       0.57661487 </v>
    <v>      -0.00000000       0.00000000       0.72976139 </v>
    <v>      -0.00000000      -0.00000000       0.91668039 </v>
   </varray>
  </structure>
  <varray name="forces" >
   <v>      -0.00000000       0.00000000       0.00050798 </v>
   <v>      -0.00000000      -0.00000000       0.00265841 </v>
   <v>       0.00000000       0.00000000       0.00088782 </v>
   <v>      -0.00000000      -0.00000000       0.00356131 </v>
   <v>      -0.00000000      -0.00000000      -0.00465246 </v>
   <v>      -0.00000000       0.00000000      -0.00296307 </v>
  </varray>
  <varray name="stress" >
   <v>     -25.37181488      -0.00000000       0.00000000 </v>
   <v>       0.00000000     -25.37181488       0.00000000 </v>
   <v>       0.00000000       0.00000000      -1.11196651 </v>
  </varray>
  <energy>
   <i name="e_fr_energy">    -41.85128193 </i>
   <i name="e_wo_entrp">    -41.85050391 </i>
   <i name="e_0_energy">    -41.85089292 </i>
  </energy>
  <time name="totalsc">    0.91    0.93</time>
 </calculation>
 <calculation>
  <scstep>
   <time name="dav">    0.09    0.09</time>
   <time name="total">    0.12    0.12</time>
   <energy>
    <i name="alphaZ">     84.73417088 </i>
    <i name="ewald">   3567.47637849 </i>
    <i name="hartreedc">  -7955.34689918 </i>
    <i name="XCdc">    100.81021847 </i>
    <i name="pawpsdc">   5521.20503635 </i>
    <i name="pawaedc">  -5407.19793286 </i>
    <i name="eentropy">     -0.00077641 </i>
    <i name="bandstr">   -675.76506532 </i>
    <i name="atom">   4724.74487735 </i>
    <i name="e_fr_energy">    -39.33999223 </i>
    <i name="e_wo_entrp">    -39.33921582 </i>
    <i name="e_0_energy">    -39.33960403 </i>
   </energy>
  </scstep>
  <scstep>
   <time name="dav">    0.09    0.09</time>
   <time name="total">    0.13    0.13</time>
   <energy>
    <i name="e_fr_energy">    -39.34001225 </i>
    <i name="e_wo_entrp">    -39.33923349 </i>
    <i name="e_0_energy">    -39.33962287 </i>
   </energy>
  </scstep>
  <scstep>
   <time name="dav">    0.10    0.10</time>
   <time name="total">    0.12    0.12</time>
   <energy>
    <i name="alphaZ">     84.73417088 </i>
    <i name="ewald">   3567.47637849 </i>
    <i name="hartreedc">  -7955.34394107 </i>
    <i name="XCdc">    100.81014537 </i>
    <i name="pawpsdc">   5521.07742586 </i>
    <i name="pawaedc">  -5407.07053122 </i>
    <i name="eentropy">     -0.00077769 </i>
    <i name="bandstr">   -675.76775972 </i>
    <i name="atom">   4724.74487735 </i>
    <i name="e_fr_energy">    -39.34001175 </i>
    <i name="e_wo_entrp">    -39.33923406 </i>
    <i name="e_0_energy">    -39.33962291 </i>
   </energy>
  </scstep>
  <structure>
   <crystal>
    <varray name="basis" >
     <v>       3.37894624       0.00000000       0.00000000 </v>
     <v>       1.68947312       2.92625328       0.00000000 </v>
     <v>       0.00000000       0.00000000      20.00000000 </v>
    </varray>
    <i name="volume">    197.75304998 </i>
    <varray name="rec_basis" >
     <v>       0.29595025      -0.17086696       0.00000000 </v>
     <v>       0.00000000       0.34173392       0.00000000 </v>
     <v>       0.00000000       0.00000000       0.05000000 </v>
    </varray>
   </crystal>
   <varray name="positions" >
    <v>      -0.00000000      -0.00000000       0.50171679 </v>
    <v>       0.33333333       0.33333333       0.82330747 </v>
    <v>       0.33333333       0.33333333       0.42689700 </v>
    <v>       0.33333333       0.33333333       0.57659169 </v>
    <v>      -0.00000000       0.00000000       0.72978247 </v>
    <v>      -0.00000000      -0.00000000       0.91670458 </v>
   </varray>
  </structure>
  <varray name="forces" >
   <v>      -0.00000000      -0.00000000       0.00005387 </v>
   <v>       0.00000000      -0.00000000      -0.00144142 </v>
   <v>      -0.00000000      -0.00000000       0.00360557 </v>
   <v>       0.00000000       0.00000000       0.00430870 </v>
   <v>      -0.00000000       0.00000000      -0.00375607 </v>
   <v>       0.00000000       0.00000000      -0.00277065 </v>
  </varray>
  <varray name="stress" >
   <v>     -25.39758940       0.00000000      -0.00000000 </v>
   <v>      -0.00000000     -25.39758940       0.00000000 </v>
   <v>      -0.00000000       0.00000000      -1.19681027 </v>
  </varray>
  <energy>
   <i name="e_fr_energy">    -41.85127636 </i>
   <i name="e_wo_entrp">    -41.85049867 </i>
   <i name="e_0_energy">    -41.85088751 </i>
  </energy>
  <time name="totalsc">    0.64    0.65</time>
 </calculation>
 <calculation>
  <scstep>
   <time name="dav">    0.09    0.09</time>
   <time name="total">    0.12    0.12</time>
   <energy>
    <i name="alphaZ">     84.73417088 </i>
    <i name="ewald">   3568.02319648 </i>
    <i name="hartreedc">  -7955.88657975 </i>
    <i name="XCdc">    100.81027066 </i>
    <i name="pawpsdc">   5521.03801749 </i>
    <i name="pawaedc">  -5407.03128817 </i>
    <i name="eentropy">     -0.00077833 </i>
    <i name="bandstr">   -675.77184479 </i>
    <i name="atom">   4724.74487735 </i>
    <i name="e_fr_energy">    -39.33995818 </i>
    <i name="e_wo_entrp">    -39.33917985 </i>
    <i name="e_0_energy">    -39.33956902 </i>
   </energy>
  </scstep>
  <scstep>
   <time name="dav">    0.10    0.10</time>
   <time name="total">    0.14    0.14</time>
   <energy>
    <i name="e_fr_energy">    -39.33995914 </i>
    <i name="e_wo_entrp">    -39.33918151 </i>
    <i name="e_0_energy">    -39.33957033 </i>
   </energy>
  </scstep>
  <scstep>
   <time name="dav">    0.06    0.06</time>
   <time name="total">    0.08    0.08</time>
   <energy>
    <i name="alphaZ">     84.73417088 </i>
    <i name="ewald">   3568.02319648 </i>
    <i name="hartreedc">  -7955.88616877 </i>
    <i name="XCdc">    100.81030916 </i>
    <i name="pawpsdc">   5521.00967727 </i>
    <i name="pawaedc">  -5407.00283219 </i>
    <i name="eentropy">     -0.00077832 </i>
    <i name="bandstr">   -675.77241098 </i>
    <i name="atom">   4724.74487735 </i>
    <i name="e_fr_energy">    -39.33995912 </i>
    <i name="e_wo_entrp">    -39.33918081 </i>
    <i name="e_0_energy">    -39.33956996 </i>
   </energy>
  </scstep>
  <structure>
   <crystal>
    <varray name="basis" >
     <v>       3.37894624       0.00000000       0.00000000 </v>
     <v>       1.68947312       2.92625328       0.00000000 </v>
     <v>       0.00000000       0.00000000      20.00000000 </v>
    </varray>
    <i name="volume">    197.75304998 </i>
    <varray name="rec_basis" >
     <v>       0.29595025      -0.17086696       0.00000000 </v>
     <v>       0.00000000       0.34173392       0.00000000 </v>
     <v>       0.00000000       0.00000000       0.05000000 </v>
    </varray>
   </crystal>
   <varray name="positions" >
    <v>      -0.00000000      -0.00000000       0.50172225 </v>
    <v>       0.33333333       0.33333333       0.82330112 </v>
    <v>       0.33333333       0.33333333       0.42690366 </v>
    <v>       0.33333333       0.33333333       0.57659808 </v>
    <v>      -0.00000000       0.00000000       0.72977667 </v>
    <v>      -0.00000000      -0.00000000       0.91669821 </v>
   </varray>
  </structure>
  <varray name="forces" >
   <v>      -0.00000000       0.00000000       0.00081518 </v>
   <v>      -0.00000000      -0.00000000      -0.00137776 </v>
   <v>       0.00000000      -0.00000000       0.00244428 </v>
   <v>      -0.00000000       0.00000000       0.00369502 </v>
   <v>       0.00000000       0.00000000      -0.00339506 </v>
   <v>      -0.00000000       0.00000000      -0.00218166 </v>
  </varray>
  <varray name="stress" >
   <v>     -25.38362661      -0.00000000      -0.00000000 </v>
   <v>       0.00000000     -25.38362661       0.00000000 </v>
   <v>      -0.00000000       0.00000000      -1.16308616 </v>
  </varray>
  <energy>
   <i name="e_fr_energy">    -41.85127794 </i>
   <i name="e_wo_entrp">    -41.85049963 </i>
   <i name="e_0_energy">    -41.85088879 </i>
  </energy>
  <time name="totalsc">    0.61    0.62</time>
 </calculation>
 <calculation>
  <scstep>
   <time name="dav">    0.09    0.09</time>
   <time name="total">    0.12    0.13</time>
   <energy>
    <i name="alphaZ">     84.73417088 </i>
    <i name="ewald">   3569.74458164 </i>
    <i name="hartreedc">  -7957.61199319 </i>
    <i name="XCdc">    100.81029428 </i>
    <i name="pawpsdc">   5521.00945630 </i>
    <i name="pawaedc">  -5407.00247651 </i>
    <i name="eentropy">     -0.00077716 </i>
    <i name="bandstr">   -675.76791717 </i>
    <i name="atom">   4724.74487735 </i>
    <i name="e_fr_energy">    -39.33978359 </i>
    <i name="e_wo_entrp">    -39.33900643 </i>
    <i name="e_0_energy">    -39.33939501 </i>
   </energy>
  </scstep>
  <scstep>
   <time name="dav">    0.09    0.09</time>
   <time name="total">    0.13    0.13</time>
   <energy>
    <i name="e_fr_energy">    -39.33979476 </i>
    <i name="e_wo_entrp">    -39.33901745 </i>
    <i name="e_0_energy">    -39.33940610 </i>
   </energy>
  </scstep>
  <scstep>
   <time name="dav">    0.07    0.07</time>
   <time name="total">    0.09    0.09</time>
   <energy>
    <i name="alphaZ">     84.73417088 </i>
    <i name="ewald">   3569.74458164 </i>
    <i name="hartreedc">  -7957.60897537 </i>
    <i name="XCdc">    100.81024330 </i>
    <i name="pawpsdc">   5520.94187751 </i>
    <i name="pawaedc">  -5406.93480457 </i>
    <i name="eentropy">     -0.00077745 </i>
    <i name="bandstr">   -675.77098779 </i>
    <i name="atom">   4724.74487735 </i>
    <i name="e_fr_energy">    -39.33979450 </i>
    <i name="e_wo_entrp">    -39.33901705 </i>
    <i name="e_0_energy">    -39.33940578 </i>
   </energy>
  </scstep>
  <structure>
   <crystal>
    <varray name="basis" >
     <v>       3.37894624       0.00000000       0.00000000 </v>
     <v>       1.68947312       2.92625328       0.00000000 </v>
     <v>       0.00000000       0.00000000      20.00000000 </v>
    </varray>
    <i name="volume">    197.75304998 </i>
    <varray name="rec_basis" >
     <v>       0.29595025      -0.17086696       0.00000000 </v>
     <v>       0.00000000       0.34173392       0.00000000 </v>
     <v>       0.00000000       0.00000000       0.05000000 </v>
    </varray>
   </crystal>
   <varray name="positions" >
    <v>      -0.00000000      -0.00000000       0.50174395 </v>
    <v>       0.33333333       0.33333333       0.82328106 </v>
    <v>       0.33333333       0.33333333       0.42692071 </v>
    <v>       0.33333333       0.33333333       0.57662064 </v>
    <v>      -0.00000000       0.00000000       0.72975467 </v>
    <v>      -0.00000000      -0.00000000       0.91667897 </v>
   </varray>
  </structure>
  <varray name="forces" >
   <v>      -0.00000000      -0.00000000      -0.00055304 </v>
   <v>      -0.00000000       0.00000000      -0.00125229 </v>
   <v>       0.00000000       0.00000000       0.00318069 </v>
   <v>       0.00000000      -0.00000000       0.00196469 </v>
   <v>       0.00000000       0.00000000      -0.00168416 </v>
   <v>      -0.00000000      -0.00000000      -0.00165589 </v>
  </varray>
  <varray name="stress" >
   <v>     -25.40419570       0.00000000      -0.00000000 </v>
   <v>      -0.00000000     -25.40419570       0.00000000 </v>
   <v>      -0.00000000       0.00000000      -1.19413876 </v>
  </varray>
  <energy>
   <i name="e_fr_energy">    -41.85128266 </i>
   <i name="e_wo_entrp">    -41.85050521 </i>
   <i name="e_0_energy">    -41.85089393 </i>
  </energy>
  <time name="totalsc">    0.61    0.62</time>
 </calculation>
 <calculation>
  <scstep>
   <time name="dav">    0.09    0.09</time>
   <time name="total">    0.12    0.12</time>
   <energy>
    <i name="alphaZ">     84.73417088 </i>
    <i name="ewald">   3572.53735585 </i>
    <i name="hartreedc">  -7960.40015690 </i>
    <i name="XCdc">    100.81091774 </i>
    <i name="pawpsdc">   5520.94278710 </i>
    <i name="pawaedc">  -5406.93567000 </i>
    <i name="eentropy">     -0.00077744 </i>
    <i name="bandstr">   -675.77301011 </i>
    <i name="atom">   4724.74487735 </i>
    <i name="e_fr_energy">    -39.33950552 </i>
    <i name="e_wo_entrp">    -39.33872808 </i>
    <i name="e_0_energy">    -39.33911680 </i>
   </energy>
  </scstep>
  <scstep>
   <time name="dav">    0.09    0.09</time>
   <time name="total">    0.13    0.13</time>
   <energy>
    <i name="e_fr_energy">    -39.33953156 </i>
    <i name="e_wo_entrp">    -39.33875465 </i>
    <i name="e_0_energy">    -39.33914311 </i>
   </energy>
  </scstep>
  <scstep>
   <time name="dav">    0.10    0.10</time>
   <time name="total">    0.12    0.12</time>
   <energy>
    <i name="alphaZ">     84.73417088 </i>
    <i name="ewald">   3572.53735585 </i>
    <i name="hartreedc">  -7960.39879280 </i>
    <i name="XCdc">    100.81090124 </i>
    <i name="pawpsdc">   5520.99768439 </i>
    <i name="pawaedc">  -5406.99049635 </i>
    <i name="eentropy">     -0.00077720 </i>
    <i name="bandstr">   -675.77445442 </i>
    <i name="atom">   4724.74487735 </i>
    <i name="e_fr_energy">    -39.33953106 </i>
    <i name="e_wo_entrp">    -39.33875386 </i>
    <i name="e_0_energy">    -39.33914246 </i>
   </energy>
  </scstep>
  <structure>
   <crystal>
    <varray name="basis" >
     <v>       3.37894624       0.00000000       0.00000000 </v>
     <v>       1.68947312       2.92625328       0.00000000 </v>
     <v>       0.00000000       0.00000000      20.00000000 </v>
    </varray>
    <i name="volume">    197.75304998 </i>
    <varray name="rec_basis" >
     <v>       0.29595025      -0.17086696       0.00000000 </v>
     <v>       0.00000000       0.34173392       0.00000000 </v>
     <v>       0.00000000       0.00000000       0.05000000 </v>
    </varray>
   </crystal>
   <varray name="positions" >
    <v>      -0.00000000      -0.00000000       0.50177484 </v>
    <v>       0.33333333       0.33333333       0.82324853 </v>
    <v>       0.33333333       0.33333333       0.42695279 </v>
    <v>       0.33333333       0.33333333       0.57665150 </v>
    <v>      -0.00000000       0.00000000       0.72972423 </v>
    <v>      -0.00000000      -0.00000000       0.91664811 </v>
   </varray>
  </structure>
  <varray name="forces" >
   <v>      -0.00000000      -0.00000000      -0.00025387 </v>
   <v>      -0.00000000       0.00000000       0.00065795 </v>
   <v>       0.00000000       0.00000000       0.00314841 </v>
   <v>      -0.00000000      -0.00000000       0.00254523 </v>
   <v>       0.00000000       0.00000000      -0.00605617 </v>
   <v>      -0.00000000      -0.00000000      -0.00004154 </v>
  </varray>
  <varray name="stress" >
   <v>     -25.40697470       0.00000000       0.00000000 </v>
   <v>      -0.00000000     -25.40697470      -0.00000000 </v>
   <v>      -0.00000000       0.00000000      -1.17932962 </v>
  </varray>
  <energy>
   <i name="e_fr_energy">    -41.85129123 </i>
   <i name="e_wo_entrp">    -41.85051403 </i>
   <i name="e_0_energy">    -41.85090263 </i>
  </energy>
  <time name="totalsc">    0.64    0.65</time>
 </calculation>
 <calculation>
  <scstep>
   <time name="dav">    0.09    0.09</time>
   <time name="total">    0.13    0.13</time>
   <energy>
    <i name="alphaZ">     84.73417088 </i>
    <i name="ewald">   3572.36901611 </i>
    <i name="hartreedc">  -7960.23261482 </i>
    <i name="XCdc">    100.81089638 </i>
    <i name="pawpsdc">   5521.03813690 </i>
    <i name="pawaedc">  -5407.03087617 </i>
    <i name="eentropy">     -0.00077690 </i>
    <i name="bandstr">   -675.77237621 </i>
    <i name="atom">   4724.74487735 </i>
    <i name="e_fr_energy">    -39.33954649 </i>
    <i name="e_wo_entrp">    -39.33876959 </i>
    <i name="e_0_energy">    -39.33915804 </i>
   </energy>
  </scstep>
  <scstep>
   <time name="dav">    0.08    0.08</time>
   <time name="total">    0.10    0.10</time>
   <energy>
    <i name="alphaZ">     84.73417088 </i>
    <i name="ewald">   3572.36901611 </i>
    <i name="hartreedc">  -7960.23204214 </i>
    <i name="XCdc">    100.81084054 </i>
    <i name="pawpsdc">   5521.06134740 </i>
    <i name="pawaedc">  -5407.05420953 </i>
    <i name="eentropy">     -0.00077732 </i>
    <i name="bandstr">   -675.77276987 </i>
    <i name="atom">   4724.74487735 </i>
    <i name="e_fr_energy">    -39.33954659 </i>
    <i name="e_wo_entrp">    -39.33876927 </i>
    <i name="e_0_energy">    -39.33915793 </i>
   </energy>
  </scstep>
  <structure>
   <crystal>
    <varray name="basis" >
     <v>       3.37894624       0.00000000       0.00000000 </v>
     <v>       1.68947312       2.92625328       0.00000000 </v>
     <v>       0.00000000       0.00000000      20.00000000 </v>
    </varray>
    <i name="volume">    197.75304998 </i>
    <varray name="rec_basis" >
     <v>       0.29595025      -0.17086696       0.00000000 </v>
     <v>       0.00000000       0.34173392       0.00000000 </v>
     <v>       0.00000000       0.00000000       0.05000000 </v>
    </varray>
   </crystal>
   <varray name="positions" >
    <v>      -0.00000000      -0.00000000       0.50177282 </v>
    <v>       0.33333333       0.33333333       0.82325047 </v>
    <v>       0.33333333       0.33333333       0.42695081 </v>
    <v>       0.33333333       0.33333333       0.57664945 </v>
    <v>      -0.00000000       0.00000000       0.72972666 </v>
    <v>      -0.00000000      -0.00000000       0.91664979 </v>
   </varray>
  </structure>
  <varray name="forces" >
   <v>       0.00000000      -0.00000000      -0.00088226 </v>
   <v>      -0.00000000      -0.00000000       0.00050393 </v>
   <v>       0.00000000      -0.00000000       0.00408392 </v>
   <v>      -0.00000000       0.00000000       0.00328855 </v>
   <v>      -0.00000000       0.00000000      -0.00660642 </v>
   <v>       0.00000000       0.00000000      -0.00038772 </v>
  </varray>
  <varray name="stress" >
   <v>     -25.40080746       0.00000000       0.00000000 </v>
   <v>      -0.00000000     -25.40080746       0.00000000 </v>
   <v>      -0.00000000      -0.00000000      -1.16993026 </v>
  </varray>
  <energy>
   <i name="e_fr_energy">    -41.85129047 </i>
   <i name="e_wo_entrp">    -41.85051314 </i>
   <i name="e_0_energy">    -41.85090181 </i>
  </energy>
  <time name="totalsc">    0.50    0.51</time>
 </calculation>
 <calculation>
  <scstep>
   <time name="dav">    0.09    0.09</time>
   <time name="total">    0.12    0.12</time>
   <energy>
    <i name="alphaZ">     84.73417088 </i>
    <i name="ewald">   3571.48124639 </i>
    <i name="hartreedc">  -7959.34911459 </i>
    <i name="XCdc">    100.81047076 </i>
    <i name="pawpsdc">   5521.07564145 </i>
    <i name="pawaedc">  -5407.06840186 </i>
    <i name="eentropy">     -0.00077738 </i>
    <i name="bandstr">   -675.76774407 </i>
    <i name="atom">   4724.74487735 </i>
    <i name="e_fr_energy">    -39.33963107 </i>
    <i name="e_wo_entrp">    -39.33885369 </i>
    <i name="e_0_energy">    -39.33924238 </i>
   </energy>
  </scstep>
  <scstep>
   <time name="dav">    0.10    0.10</time>
   <time name="total">    0.14    0.14</time>
   <energy>
    <i name="e_fr_energy">    -39.33963346 </i>
    <i name="e_wo_entrp">    -39.33885537 </i>
    <i name="e_0_energy">    -39.33924441 </i>
   </energy>
  </scstep>
  <scstep>
   <time name="dav">    0.06    0.06</time>
   <time name="total">    0.08    0.08</time>
   <energy>
    <i name="alphaZ">     84.73417088 </i>
    <i name="ewald">   3571.48124639 </i>
    <i name="hartreedc">  -7959.34842167 </i>
    <i name="XCdc">    100.81045249 </i>
    <i name="pawpsdc">   5521.01036462 </i>
    <i name="pawaedc">  -5407.00318051 </i>
    <i name="eentropy">     -0.00077773 </i>
    <i name="bandstr">   -675.76836521 </i>
    <i name="atom">   4724.74487735 </i>
    <i name="e_fr_energy">    -39.33963339 </i>
    <i name="e_wo_entrp">    -39.33885566 </i>
    <i name="e_0_energy">    -39.33924453 </i>
   </energy>
  </scstep>
  <structure>
   <crystal>
    <varray name="basis" >
     <v>       3.37894624       0.00000000       0.00000000 </v>
     <v>       1.68947312       2.92625328       0.00000000 </v>
     <v>       0.00000000       0.00000000      20.00000000 </v>
    </varray>
    <i name="volume">    197.75304998 </i>
    <varray name="rec_basis" >
     <v>       0.29595025      -0.17086696       0.00000000 </v>
     <v>       0.00000000       0.34173392       0.00000000 </v>
     <v>       0.00000000       0.00000000       0.05000000 </v>
    </varray>
   </crystal>
   <varray name="positions" >
    <v>      -0.00000000      -0.00000000       0.50176515 </v>
    <v>       0.33333333       0.33333333       0.82326131 </v>
    <v>       0.33333333       0.33333333       0.42694025 </v>
    <v>       0.33333333       0.33333333       0.57663865 </v>
    <v>      -0.00000000       0.00000000       0.72973351 </v>
    <v>      -0.00000000      -0.00000000       0.91666113 </v>
   </varray>
  </structure>
  <varray name="forces" >
   <v>      -0.00000000      -0.00000000      -0.00190844 </v>
   <v>      -0.00000000       0.00000000      -0.00021827 </v>
   <v>      -0.00000000      -0.00000000       0.00494748 </v>
   <v>       0.00000000      -0.00000000       0.00418186 </v>
   <v>       0.00000000       0.00000000      -0.00591349 </v>
   <v>      -0.00000000      -0.00000000      -0.00108914 </v>
  </varray>
  <varray name="stress" >
   <v>     -25.41554975       0.00000000      -0.00000000 </v>
   <v>       0.00000000     -25.41554975       0.00000000 </v>
   <v>      -0.00000000       0.00000000      -1.21054138 </v>
  </varray>
  <energy>
   <i name="e_fr_energy">    -41.85128799 </i>
   <i name="e_wo_entrp">    -41.85051027 </i>
   <i name="e_0_energy">    -41.85089913 </i>
  </energy>
  <time name="totalsc">    0.61    0.62</time>
 </calculation>
 <calculation>
  <scstep>
   <time name="dav">    0.09    0.09</time>
   <time name="total">    0.12    0.12</time>
   <energy>
    <i name="alphaZ">     84.73417088 </i>
    <i name="ewald">   3570.84452152 </i>
    <i name="hartreedc">  -7958.71858587 </i>
    <i name="XCdc">    100.80938564 </i>
    <i name="pawpsdc">   5521.00208697 </i>
    <i name="pawaedc">  -5406.99496995 </i>
    <i name="eentropy">     -0.00077934 </i>
    <i name="bandstr">   -675.76040839 </i>
    <i name="atom">   4724.74487735 </i>
    <i name="e_fr_energy">    -39.33970120 </i>
    <i name="e_wo_entrp">    -39.33892186 </i>
    <i name="e_0_energy">    -39.33931153 </i>
   </energy>
  </scstep>
  <scstep>
   <time name="dav">    0.10    0.10</time>
   <time name="total">    0.14    0.14</time>
   <energy>
    <i name="e_fr_energy">    -39.33970207 </i>
    <i name="e_wo_entrp">    -39.33892280 </i>
    <i name="e_0_energy">    -39.33931244 </i>
   </energy>
  </scstep>
  <scstep>
   <time name="dav">    0.06    0.06</time>
   <time name="total">    0.08    0.08</time>
   <energy>
    <i name="alphaZ">     84.73417088 </i>
    <i name="ewald">   3570.84452152 </i>
    <i name="hartreedc">  -7958.71653122 </i>
    <i name="XCdc">    100.80937094 </i>
    <i name="pawpsdc">   5520.77563478 </i>
    <i name="pawaedc">  -5406.76836986 </i>
    <i name="eentropy">     -0.00077950 </i>
    <i name="bandstr">   -675.76259688 </i>
    <i name="atom">   4724.74487735 </i>
    <i name="e_fr_energy">    -39.33970200 </i>
    <i name="e_wo_entrp">    -39.33892249 </i>
    <i name="e_0_energy">    -39.33931225 </i>
   </energy>
  </scstep>
  <structure>
   <crystal>
    <varray name="basis" >
     <v>       3.37894624       0.00000000       0.00000000 </v>
     <v>       1.68947312       2.92625328       0.00000000 </v>
     <v>       0.00000000       0.00000000      20.00000000 </v>
    </varray>
    <i name="volume">    197.75304998 </i>
    <varray name="rec_basis" >
     <v>       0.29595025      -0.17086696       0.00000000 </v>
     <v>       0.00000000       0.34173392       0.00000000 </v>
     <v>       0.00000000       0.00000000       0.05000000 </v>
    </varray>
   </crystal>
   <varray name="positions" >
    <v>      -0.00000000      -0.00000000       0.50176488 </v>
    <v>       0.33333333       0.33333333       0.82326909 </v>
    <v>       0.33333333       0.33333333       0.42693123 </v>
    <v>       0.33333333       0.33333333       0.57663143 </v>
    <v>      -0.00000000       0.00000000       0.72972983 </v>
    <v>      -0.00000000      -0.00000000       0.91667354 </v>
   </varray>
  </structure>
  <varray name="forces" >
   <v>       0.00000000       0.00000000      -0.00564165 </v>
   <v>      -0.00000000      -0.00000000      -0.00173299 </v>
   <v>       0.00000000       0.00000000       0.00693022 </v>
   <v>       0.00000000      -0.00000000       0.00616037 </v>
   <v>       0.00000000      -0.00000000      -0.00275725 </v>
   <v>      -0.00000000      -0.00000000      -0.00295870 </v>
  </varray>
  <varray name="stress" >
   <v>     -25.44466398      -0.00000000      -0.00000000 </v>
   <v>      -0.00000000     -25.44466398       0.00000000 </v>
   <v>      -0.00000000      -0.00000000      -1.27967509 </v>
  </varray>
  <energy>
   <i name="e_fr_energy">    -41.85128572 </i>
   <i name="e_wo_entrp">    -41.85050621 </i>
   <i name="e_0_energy">    -41.85089596 </i>
  </energy>
  <time name="totalsc">    0.61    0.62</time>
 </calculation>
 <calculation>
  <scstep>
   <time name="dav">    0.10    0.10</time>
   <time name="total">    0.13    0.13</time>
   <energy>
    <i name="alphaZ">     84.73417088 </i>
    <i name="ewald">   3571.81515160 </i>
    <i name="hartreedc">  -7959.68111863 </i>
    <i name="XCdc">    100.81021480 </i>
    <i name="pawpsdc">   5520.71657226 </i>
    <i name="pawaedc">  -5406.70921418 </i>
    <i name="eentropy">     -0.00077950 </i>
    <i name="bandstr">   -675.76946223 </i>
    <i name="atom">   4724.74487735 </i>
    <i name="e_fr_energy">    -39.33958765 </i>
    <i name="e_wo_entrp">    -39.33880815 </i>
    <i name="e_0_energy">    -39.33919790 </i>
   </energy>
  </scstep>
  <scstep>
   <time name="dav">    0.11    0.11</time>
   <time name="total">    0.14    0.14</time>
   <energy>
    <i name="e_fr_energy">    -39.33959042 </i>
    <i name="e_wo_entrp">    -39.33881144 </i>
    <i name="e_0_energy">    -39.33920093 </i>
   </energy>
  </scstep>
  <scstep>
   <time name="dav">    0.07    0.07</time>
   <time name="total">    0.09    0.09</time>
   <energy>
    <i name="alphaZ">     84.73417088 </i>
    <i name="ewald">   3571.81515160 </i>
    <i name="hartreedc">  -7959.68254841 </i>
    <i name="XCdc">    100.81027082 </i>
    <i name="pawpsdc">   5520.82907857 </i>
    <i name="pawaedc">  -5406.82168782 </i>
    <i name="eentropy">     -0.00077880 </i>
    <i name="bandstr">   -675.76812458 </i>
    <i name="atom">   4724.74487735 </i>
    <i name="e_fr_energy">    -39.33959038 </i>
    <i name="e_wo_entrp">    -39.33881158 </i>
    <i name="e_0_energy">    -39.33920098 </i>
   </energy>
  </scstep>
  <structure>
   <crystal>
    <varray name="basis" >
     <v>       3.37894624       0.00000000       0.00000000 </v>
     <v>       1.68947312       2.92625328       0.00000000 </v>
     <v>       0.00000000       0.00000000      20.00000000 </v>
    </varray>
    <i name="volume">    197.75304998 </i>
    <varray name="rec_basis" >
     <v>       0.29595025      -0.17086696       0.00000000 </v>
     <v>       0.00000000       0.34173392       0.00000000 </v>
     <v>       0.00000000       0.00000000       0.05000000 </v>
    </varray>
   </crystal>
   <varray name="positions" >
    <v>      -0.00000000      -0.00000000       0.50176275 </v>
    <v>       0.33333333       0.33333333       0.82325981 </v>
    <v>       0.33333333       0.33333333       0.42695319 </v>
    <v>       0.33333333       0.33333333       0.57664931 </v>
    <v>      -0.00000000       0.00000000       0.72971832 </v>
    <v>      -0.00000000      -0.00000000       0.91665663 </v>
   </varray>
  </structure>
  <varray name="forces" >
   <v>      -0.00000000      -0.00000000       0.00547815 </v>
   <v>       0.00000000       0.00000000      -0.00381298 </v>
   <v>       0.00000000       0.00000000       0.00020083 </v>
   <v>      -0.00000000      -0.00000000       0.00048310 </v>
   <v>      -0.00000000      -0.00000000      -0.00195715 </v>
   <v>       0.00000000       0.00000000      -0.00039196 </v>
  </varray>
  <varray name="stress" >
   <v>     -25.42177747      -0.00000000      -0.00000000 </v>
   <v>      -0.00000000     -25.42177747       0.00000000 </v>
   <v>       0.00000000       0.00000000      -1.23412207 </v>
  </varray>
  <energy>
   <i name="e_fr_energy">    -41.85129019 </i>
   <i name="e_wo_entrp">    -41.85051138 </i>
   <i name="e_0_energy">    -41.85090078 </i>
  </energy>
  <time name="totalsc">    0.63    0.63</time>
 </calculation>
 <calculation>
  <scstep>
   <time name="dav">    0.09    0.09</time>
   <time name="total">    0.13    0.13</time>
   <energy>
    <i name="alphaZ">     84.73417088 </i>
    <i name="ewald">   3572.00805561 </i>
    <i name="hartreedc">  -7959.87893833 </i>
    <i name="XCdc">    100.81001360 </i>
    <i name="pawpsdc">   5520.85254783 </i>
    <i name="pawaedc">  -5406.84510995 </i>
    <i name="eentropy">     -0.00077892 </i>
    <i name="bandstr">   -675.76442197 </i>
    <i name="atom">   4724.74487735 </i>
    <i name="e_fr_energy">    -39.33958390 </i>
    <i name="e_wo_entrp">    -39.33880498 </i>
    <i name="e_0_energy">    -39.33919444 </i>
   </energy>
  </scstep>
  <scstep>
   <time name="dav">    0.10    0.10</time>
   <time name="total">    0.12    0.12</time>
   <energy>
    <i name="alphaZ">     84.73417088 </i>
    <i name="ewald">   3572.00805561 </i>
    <i name="hartreedc">  -7959.87712845 </i>
    <i name="XCdc">    100.80995016 </i>
    <i name="pawpsdc">   5520.82279159 </i>
    <i name="pawaedc">  -5406.81546636 </i>
    <i name="eentropy">     -0.00077886 </i>
    <i name="bandstr">   -675.76605641 </i>
    <i name="atom">   4724.74487735 </i>
    <i name="e_fr_energy">    -39.33958449 </i>
    <i name="e_wo_entrp">    -39.33880563 </i>
    <i name="e_0_energy">    -39.33919506 </i>
   </energy>
  </scstep>
  <structure>
   <crystal>
    <varray name="basis" >
     <v>       3.37894624       0.00000000       0.00000000 </v>
     <v>       1.68947312       2.92625328       0.00000000 </v>
     <v>       0.00000000       0.00000000      20.00000000 </v>
    </varray>
    <i name="volume">    197.75304998 </i>
    <varray name="rec_basis" >
     <v>       0.29595025      -0.17086696       0.00000000 </v>
     <v>       0.00000000       0.34173392       0.00000000 </v>
     <v>       0.00000000       0.00000000       0.05000000 </v>
    </varray>
   </crystal>
   <varray name="positions" >
    <v>      -0.00000000      -0.00000000       0.50176877 </v>
    <v>       0.33333333       0.33333333       0.82325479 </v>
    <v>       0.33333333       0.33333333       0.42695204 </v>
    <v>       0.33333333       0.33333333       0.57664927 </v>
    <v>      -0.00000000       0.00000000       0.72971638 </v>
    <v>      -0.00000000      -0.00000000       0.91665874 </v>
   </varray>
  </structure>
  <varray name="forces" >
   <v>      -0.00000000      -0.00000000       0.00132834 </v>
   <v>      -0.00000000       0.00000000      -0.00104695 </v>
   <v>       0.00000000       0.00000000       0.00238820 </v>
   <v>      -0.00000000      -0.00000000       0.00192232 </v>
   <v>       0.00000000       0.00000000      -0.00230043 </v>
   <v>      -0.00000000      -0.00000000      -0.00229148 </v>
  </varray>
  <varray name="stress" >
   <v>     -25.43174827      -0.00000000      -0.00000000 </v>
   <v>      -0.00000000     -25.43174827      -0.00000000 </v>
   <v>       0.00000000       0.00000000      -1.25198414 </v>
  </varray>
  <energy>
   <i name="e_fr_energy">    -41.85129084 </i>
   <i name="e_wo_entrp">    -41.85051197 </i>
   <i name="e_0_energy">    -41.85090140 </i>
  </energy>
  <time name="totalsc">    0.51    0.52</time>
 </calculation>
 <calculation>
  <scstep>
   <time name="dav">    0.09    0.09</time>
   <time name="total">    0.12    0.12</time>
   <energy>
    <i name="alphaZ">     84.73417088 </i>
    <i name="ewald">   3572.69246867 </i>
    <i name="hartreedc">  -7960.56163923 </i>
    <i name="XCdc">    100.81016957 </i>
    <i name="pawpsdc">   5520.82749587 </i>
    <i name="pawaedc">  -5406.82010345 </i>
    <i name="eentropy">     -0.00077924 </i>
    <i name="bandstr">   -675.76617474 </i>
    <i name="atom">   4724.74487735 </i>
    <i name="e_fr_energy">    -39.33951433 </i>
    <i name="e_wo_entrp">    -39.33873509 </i>
    <i name="e_0_energy">    -39.33912471 </i>
   </energy>
  </scstep>
  <scstep>
   <time name="dav">    0.09    0.09</time>
   <time name="total">    0.13    0.13</time>
   <energy>
    <i name="e_fr_energy">    -39.33951563 </i>
    <i name="e_wo_entrp">    -39.33873674 </i>
    <i name="e_0_energy">    -39.33912618 </i>
   </energy>
  </scstep>
  <scstep>
   <time name="dav">    0.06    0.06</time>
   <time name="total">    0.08    0.08</time>
   <energy>
    <i name="alphaZ">     84.73417088 </i>
    <i name="ewald">   3572.69246867 </i>
    <i name="hartreedc">  -7960.56108616 </i>
    <i name="XCdc">    100.81016782 </i>
    <i name="pawpsdc">   5520.84487462 </i>
    <i name="pawaedc">  -5406.83746273 </i>
    <i name="eentropy">     -0.00077903 </i>
    <i name="bandstr">   -675.76674701 </i>
    <i name="atom">   4724.74487735 </i>
    <i name="e_fr_energy">    -39.33951560 </i>
    <i name="e_wo_entrp">    -39.33873657 </i>
    <i name="e_0_energy">    -39.33912608 </i>
   </energy>
  </scstep>
  <structure>
   <crystal>
    <varray name="basis" >
     <v>       3.37894624       0.00000000       0.00000000 </v>
     <v>       1.68947312       2.92625328       0.00000000 </v>
     <v>       0.00000000       0.00000000      20.00000000 </v>
    </varray>
    <i name="volume">    197.75304998 </i>
    <varray name="rec_basis" >
     <v>       0.29595025      -0.17086696       0.00000000 </v>
     <v>       0.00000000       0.34173392       0.00000000 </v>
     <v>       0.00000000       0.00000000       0.05000000 </v>
    </varray>
   </crystal>
   <varray name="positions" >
    <v>      -0.00000000      -0.00000000       0.50177647 </v>
    <v>       0.33333333       0.33333333       0.82324893 </v>
    <v>       0.33333333       0.33333333       0.42696103 </v>
    <v>       0.33333333       0.33333333       0.57665670 </v>
    <v>      -0.00000000       0.00000000       0.72970679 </v>
    <v>      -0.00000000      -0.00000000       0.91665008 </v>
   </varray>
  </structure>
  <varray name="forces" >
   <v>      -0.00000000      -0.00000000       0.00195280 </v>
   <v>       0.00000000       0.00000000      -0.00292684 </v>
   <v>       0.00000000       0.00000000       0.00161260 </v>
   <v>      -0.00000000      -0.00000000       0.00178098 </v>
   <v>      -0.00000000      -0.00000000      -0.00109939 </v>
   <v>      -0.00000000      -0.00000000      -0.00132016 </v>
  </varray>
  <varray name="stress" >
   <v>     -25.43342339      -0.00000000      -0.00000000 </v>
   <v>      -0.00000000     -25.43342339       0.00000000 </v>
   <v>       0.00000000       0.00000000      -1.24727385 </v>
  </varray>
  <energy>
   <i name="e_fr_energy">    -41.85129268 </i>
   <i name="e_wo_entrp">    -41.85051366 </i>
   <i name="e_0_energy">    -41.85090317 </i>
  </energy>
  <time name="totalsc">    0.60    0.61</time>
 </calculation>
 <calculation>
  <scstep>
   <time name="dav">    0.09    0.09</time>
   <time name="total">    0.12    0.12</time>
   <energy>
    <i name="alphaZ">     84.73417088 </i>
    <i name="ewald">   3573.07003356 </i>
    <i name="hartreedc">  -7960.93888215 </i>
    <i name="XCdc">    100.81024398 </i>
    <i name="pawpsdc">   5520.86142835 </i>
    <i name="pawaedc">  -5406.85399407 </i>
    <i name="eentropy">     -0.00077877 </i>
    <i name="bandstr">   -675.76658112 </i>
    <i name="atom">   4724.74487735 </i>
    <i name="e_fr_energy">    -39.33948199 </i>
    <i name="e_wo_entrp">    -39.33870322 </i>
    <i name="e_0_energy">    -39.33909261 </i>
   </energy>
  </scstep>
  <scstep>
   <time name="dav">    0.09    0.09</time>
   <time name="total">    0.11    0.11</time>
   <energy>
    <i name="alphaZ">     84.73417088 </i>
    <i name="ewald">   3573.07003356 </i>
    <i name="hartreedc">  -7960.93839094 </i>
    <i name="XCdc">    100.81024746 </i>
    <i name="pawpsdc">   5520.87454683 </i>
    <i name="pawaedc">  -5406.86712581 </i>
    <i name="eentropy">     -0.00077885 </i>
    <i name="bandstr">   -675.76706307 </i>
    <i name="atom">   4724.74487735 </i>
    <i name="e_fr_energy">    -39.33948258 </i>
    <i name="e_wo_entrp">    -39.33870373 </i>
    <i name="e_0_energy">    -39.33909316 </i>
   </energy>
  </scstep>
  <structure>
   <crystal>
    <varray name="basis" >
     <v>       3.37894624       0.00000000       0.00000000 </v>
     <v>       1.68947312       2.92625328       0.00000000 </v>
     <v>       0.00000000       0.00000000      20.00000000 </v>
    </varray>
    <i name="volume">    197.75304998 </i>
    <varray name="rec_basis" >
     <v>       0.29595025      -0.17086696       0.00000000 </v>
     <v>       0.00000000       0.34173392       0.00000000 </v>
     <v>       0.00000000       0.00000000       0.05000000 </v>
    </varray>
   </crystal>
   <varray name="positions" >
    <v>      -0.00000000      -0.00000000       0.50177987 </v>
    <v>       0.33333333       0.33333333       0.82324283 </v>
    <v>       0.33333333       0.33333333       0.42696523 </v>
    <v>       0.33333333       0.33333333       0.57666118 </v>
    <v>      -0.00000000       0.00000000       0.72970405 </v>
    <v>      -0.00000000      -0.00000000       0.91664684 </v>
   </varray>
  </structure>
  <varray name="forces" >
   <v>      -0.00000000      -0.00000000       0.00208395 </v>
   <v>       0.00000000       0.00000000      -0.00091688 </v>
   <v>      -0.00000000      -0.00000000       0.00118659 </v>
   <v>      -0.00000000      -0.00000000       0.00110665 </v>
   <v>      -0.00000000      -0.00000000      -0.00168192 </v>
   <v>      -0.00000000      -0.00000000      -0.00177840 </v>
  </varray>
  <varray name="stress" >
   <v>     -25.43301329       0.00000000       0.00000000 </v>
   <v>       0.00000000     -25.43301329       0.00000000 </v>
   <v>      -0.00000000       0.00000000      -1.24400848 </v>
  </varray>
  <energy>
   <i name="e_fr_energy">    -41.85129362 </i>
   <i name="e_wo_entrp">    -41.85051477 </i>
   <i name="e_0_energy">    -41.85090420 </i>
  </energy>
  <time name="totalsc">    0.50    0.51</time>
 </calculation>
 <calculation>
  <scstep>
   <time name="dav">    0.09    0.09</time>
   <time name="total">    0.12    0.12</time>
   <energy>
    <i name="alphaZ">     84.73417088 </i>
    <i name="ewald">   3576.38372817 </i>
    <i name="hartreedc">  -7964.24983966 </i>
    <i name="XCdc">    100.81100298 </i>
    <i name="pawpsdc">   5520.87828138 </i>
    <i name="pawaedc">  -5406.87085557 </i>
    <i name="eentropy">     -0.00077899 </i>
    <i name="bandstr">   -675.76971572 </i>
    <i name="atom">   4724.74487735 </i>
    <i name="e_fr_energy">    -39.33912919 </i>
    <i name="e_wo_entrp">    -39.33835020 </i>
    <i name="e_0_energy">    -39.33873969 </i>
   </energy>
  </scstep>
  <scstep>
   <time name="dav">    0.09    0.09</time>
   <time name="total">    0.13    0.13</time>
   <energy>
    <i name="e_fr_energy">    -39.33916662 </i>
    <i name="e_wo_entrp">    -39.33838842 </i>
    <i name="e_0_energy">    -39.33877752 </i>
   </energy>
  </scstep>
  <scstep>
   <time name="dav">    0.10    0.10</time>
   <time name="total">    0.12    0.12</time>
   <energy>
    <i name="alphaZ">     84.73417088 </i>
    <i name="ewald">   3576.38372817 </i>
    <i name="hartreedc">  -7964.24783517 </i>
    <i name="XCdc">    100.81097467 </i>
    <i name="pawpsdc">   5520.94181094 </i>
    <i name="pawaedc">  -5406.93431195 </i>
    <i name="eentropy">     -0.00077866 </i>
    <i name="bandstr">   -675.77180203 </i>
    <i name="atom">   4724.74487735 </i>
    <i name="e_fr_energy">    -39.33916581 </i>
    <i name="e_wo_entrp">    -39.33838715 </i>
    <i name="e_0_energy">    -39.33877648 </i>
   </energy>
  </scstep>
  <structure>
   <crystal>
    <varray name="basis" >
     <v>       3.37894624       0.00000000       0.00000000 </v>
     <v>       1.68947312       2.92625328       0.00000000 </v>
     <v>       0.00000000       0.00000000      20.00000000 </v>
    </varray>
    <i name="volume">    197.75304998 </i>
    <varray name="rec_basis" >
     <v>       0.29595025      -0.17086696       0.00000000 </v>
     <v>       0.00000000       0.34173392       0.00000000 </v>
     <v>       0.00000000       0.00000000       0.05000000 </v>
    </varray>
   </crystal>
   <varray name="positions" >
    <v>      -0.00000000      -0.00000000       0.50181921 </v>
    <v>       0.33333333       0.33333333       0.82320571 </v>
    <v>       0.33333333       0.33333333       0.42700189 </v>
    <v>       0.33333333       0.33333333       0.57669619 </v>
    <v>      -0.00000000       0.00000000       0.72966670 </v>
    <v>      -0.00000000      -0.00000000       0.91661030 </v>
   </varray>
  </structure>
  <varray name="forces" >
   <v>       0.00000000       0.00000000      -0.00009800 </v>
   <v>      -0.00000000      -0.00000000      -0.00109047 </v>
   <v>       0.00000000       0.00000000       0.00059476 </v>
   <v>       0.00000000       0.00000000       0.00055841 </v>
   <v>      -0.00000000      -0.00000000       0.00041669 </v>
   <v>       0.00000000      -0.00000000      -0.00038138 </v>
  </varray>
  <varray name="stress" >
   <v>     -25.42417609       0.00000000       0.00000000 </v>
   <v>      -0.00000000     -25.42417609       0.00000000 </v>
   <v>       0.00000000      -0.00000000      -1.20493096 </v>
  </varray>
  <energy>
   <i name="e_fr_energy">    -41.85129916 </i>
   <i name="e_wo_entrp">    -41.85052050 </i>
   <i name="e_0_energy">    -41.85090983 </i>
  </energy>
  <time name="totalsc">    0.64    0.65</time>
 </calculation>
 <calculation>
  <scstep>
   <time name="dav">    0.09    0.09</time>
   <time name="total">    0.13    0.13</time>
   <energy>
    <i name="alphaZ">     84.73417088 </i>
    <i name="ewald">   3577.02442728 </i>
    <i name="hartreedc">  -7964.88975118 </i>
    <i name="XCdc">    100.81122614 </i>
    <i name="pawpsdc">   5520.99172999 </i>
    <i name="pawaedc">  -5406.98414544 </i>
    <i name="eentropy">     -0.00077812 </i>
    <i name="bandstr">   -675.77085954 </i>
    <i name="atom">   4724.74487735 </i>
    <i name="e_fr_energy">    -39.33910264 </i>
    <i name="e_wo_entrp">    -39.33832451 </i>
    <i name="e_0_energy">    -39.33871357 </i>
   </energy>
  </scstep>
  <scstep>
   <time name="dav">    0.09    0.09</time>
   <time name="total">    0.13    0.13</time>
   <energy>
    <i name="e_fr_energy">    -39.33910387 </i>
    <i name="e_wo_entrp">    -39.33832533 </i>
    <i name="e_0_energy">    -39.33871460 </i>
   </energy>
  </scstep>
  <scstep>
   <time name="dav">    0.06    0.06</time>
   <time name="total">    0.08    0.08</time>
   <energy>
    <i name="alphaZ">     84.73417088 </i>
    <i name="ewald">   3577.02442728 </i>
    <i name="hartreedc">  -7964.88908577 </i>
    <i name="XCdc">    100.81118588 </i>
    <i name="pawpsdc">   5521.05007774 </i>
    <i name="pawaedc">  -5407.04260315 </i>
    <i name="eentropy">     -0.00077847 </i>
    <i name="bandstr">   -675.77137560 </i>
    <i name="atom">   4724.74487735 </i>
    <i name="e_fr_energy">    -39.33910387 </i>
    <i name="e_wo_entrp">    -39.33832540 </i>
    <i name="e_0_energy">    -39.33871463 </i>
   </energy>
  </scstep>
  <structure>
   <crystal>
    <varray name="basis" >
     <v>       3.37894624       0.00000000       0.00000000 </v>
     <v>       1.68947312       2.92625328       0.00000000 </v>
     <v>       0.00000000       0.00000000      20.00000000 </v>
    </varray>
    <i name="volume">    197.75304998 </i>
    <varray name="rec_basis" >
     <v>       0.29595025      -0.17086696       0.00000000 </v>
     <v>       0.00000000       0.34173392       0.00000000 </v>
     <v>       0.00000000       0.00000000       0.05000000 </v>
    </varray>
   </crystal>
   <varray name="positions" >
    <v>      -0.00000000      -0.00000000       0.50182568 </v>
    <v>       0.33333333       0.33333333       0.82319784 </v>
    <v>       0.33333333       0.33333333       0.42700915 </v>
    <v>       0.33333333       0.33333333       0.57670303 </v>
    <v>      -0.00000000       0.00000000       0.72966137 </v>
    <v>      -0.00000000      -0.00000000       0.91660294 </v>
   </varray>
  </structure>
  <varray name="forces" >
   <v>      -0.00000000      -0.00000000      -0.00002110 </v>
   <v>       0.00000000       0.00000000      -0.00065151 </v>
   <v>       0.00000000       0.00000000       0.00070076 </v>
   <v>      -0.00000000      -0.00000000       0.00045069 </v>
   <v>      -0.00000000      -0.00000000      -0.00009027 </v>
   <v>      -0.00000000      -0.00000000      -0.00038857 </v>
  </varray>
  <varray name="stress" >
   <v>     -25.41808411      -0.00000000      -0.00000000 </v>
   <v>       0.00000000     -25.41808411       0.00000000 </v>
   <v>       0.00000000       0.00000000      -1.18999121 </v>
  </varray>
  <energy>
   <i name="e_fr_energy">    -41.85129947 </i>
   <i name="e_wo_entrp">    -41.85052100 </i>
   <i name="e_0_energy">    -41.85091024 </i>
  </energy>
  <time name="totalsc">    0.61    0.62</time>
 </calculation>
 <calculation>
  <scstep>
   <time name="dav">    0.09    0.09</time>
   <time name="total">    0.12    0.13</time>
   <energy>
    <i name="alphaZ">     84.73417088 </i>
    <i name="ewald">   3578.47624981 </i>
    <i name="hartreedc">  -7966.34015915 </i>
    <i name="XCdc">    100.81165804 </i>
    <i name="pawpsdc">   5521.09859242 </i>
    <i name="pawaedc">  -5407.09113094 </i>
    <i name="eentropy">     -0.00077850 </i>
    <i name="bandstr">   -675.77243830 </i>
    <i name="atom">   4724.74487735 </i>
    <i name="e_fr_energy">    -39.33895838 </i>
    <i name="e_wo_entrp">    -39.33817987 </i>
    <i name="e_0_energy">    -39.33856913 </i>
   </energy>
  </scstep>
  <scstep>
   <time name="dav">    0.09    0.09</time>
   <time name="total">    0.13    0.13</time>
   <energy>
    <i name="e_fr_energy">    -39.33896508 </i>
    <i name="e_wo_entrp">    -39.33818712 </i>
    <i name="e_0_energy">    -39.33857610 </i>
   </energy>
  </scstep>
  <scstep>
   <time name="dav">    0.08    0.08</time>
   <time name="total">    0.10    0.10</time>
   <energy>
    <i name="alphaZ">     84.73417088 </i>
    <i name="ewald">   3578.47624981 </i>
    <i name="hartreedc">  -7966.33992952 </i>
    <i name="XCdc">    100.81167418 </i>
    <i name="pawpsdc">   5521.16198789 </i>
    <i name="pawaedc">  -5407.15452856 </i>
    <i name="eentropy">     -0.00077815 </i>
    <i name="bandstr">   -675.77268888 </i>
    <i name="atom">   4724.74487735 </i>
    <i name="e_fr_energy">    -39.33896500 </i>
    <i name="e_wo_entrp">    -39.33818684 </i>
    <i name="e_0_energy">    -39.33857592 </i>
   </energy>
  </scstep>
  <structure>
   <crystal>
    <varray name="basis" >
     <v>       3.37894624       0.00000000       0.00000000 </v>
     <v>       1.68947312       2.92625328       0.00000000 </v>
     <v>       0.00000000       0.00000000      20.00000000 </v>
    </varray>
    <i name="volume">    197.75304998 </i>
    <varray name="rec_basis" >
     <v>       0.29595025      -0.17086696       0.00000000 </v>
     <v>       0.00000000       0.34173392       0.00000000 </v>
     <v>       0.00000000       0.00000000       0.05000000 </v>
    </varray>
   </crystal>
   <varray name="positions" >
    <v>      -0.00000000      -0.00000000       0.50184034 </v>
    <v>       0.33333333       0.33333333       0.82318062 </v>
    <v>       0.33333333       0.33333333       0.42702672 </v>
    <v>       0.33333333       0.33333333       0.57671866 </v>
    <v>      -0.00000000       0.00000000       0.72964695 </v>
    <v>      -0.00000000      -0.00000000       0.91658672 </v>
   </varray>
  </structure>
  <varray name="forces" >
   <v>      -0.00000000      -0.00000000       0.00176607 </v>
   <v>       0.00000000       0.00000000       0.00121946 </v>
   <v>       0.00000000      -0.00000000       0.00049463 </v>
   <v>      -0.00000000      -0.00000000       0.00216869 </v>
   <v>       0.00000000       0.00000000      -0.00130542 </v>
   <v>      -0.00000000       0.00000000      -0.00434343 </v>
  </varray>
  <varray name="stress" >
   <v>     -25.42499190       0.00000000       0.00000000 </v>
   <v>       0.00000000     -25.42499190      -0.00000000 </v>
   <v>      -0.00000000       0.00000000      -1.23018962 </v>
  </varray>
  <energy>
   <i name="e_fr_energy">    -41.85130214 </i>
   <i name="e_wo_entrp">    -41.85052399 </i>
   <i name="e_0_energy">    -41.85091306 </i>
  </energy>
  <time name="totalsc">    0.62    0.62</time>
 </calculation>
 <calculation>
  <scstep>
   <time name="dav">    0.09    0.09</time>
   <time name="total">    0.13    0.13</time>
   <energy>
    <i name="alphaZ">     84.73417088 </i>
    <i name="ewald">   3578.66355385 </i>
    <i name="hartreedc">  -7966.52863763 </i>
    <i name="XCdc">    100.81173025 </i>
    <i name="pawpsdc">   5521.18821815 </i>
    <i name="pawaedc">  -5407.18071452 </i>
    <i name="eentropy">     -0.00077785 </i>
    <i name="bandstr">   -675.77136698 </i>
    <i name="atom">   4724.74487735 </i>
    <i name="e_fr_energy">    -39.33894649 </i>
    <i name="e_wo_entrp">    -39.33816865 </i>
    <i name="e_0_energy">    -39.33855757 </i>
   </energy>
  </scstep>
  <scstep>
   <time name="dav">    0.07    0.07</time>
   <time name="total">    0.08    0.09</time>
   <energy>
    <i name="alphaZ">     84.73417088 </i>
    <i name="ewald">   3578.66355385 </i>
    <i name="hartreedc">  -7966.52762450 </i>
    <i name="XCdc">    100.81169801 </i>
    <i name="pawpsdc">   5521.20544157 </i>
    <i name="pawaedc">  -5407.19803680 </i>
    <i name="eentropy">     -0.00077812 </i>
    <i name="bandstr">   -675.77224884 </i>
    <i name="atom">   4724.74487735 </i>
    <i name="e_fr_energy">    -39.33894659 </i>
    <i name="e_wo_entrp">    -39.33816847 </i>
    <i name="e_0_energy">    -39.33855753 </i>
   </energy>
  </scstep>
  <structure>
   <crystal>
    <varray name="basis" >
     <v>       3.37894624       0.00000000       0.00000000 </v>
     <v>       1.68947312       2.92625328       0.00000000 </v>
     <v>       0.00000000       0.00000000      20.00000000 </v>
    </varray>
    <i name="volume">    197.75304998 </i>
    <varray name="rec_basis" >
     <v>       0.29595025      -0.17086696       0.00000000 </v>
     <v>       0.00000000       0.34173392       0.00000000 </v>
     <v>       0.00000000       0.00000000       0.05000000 </v>
    </varray>
   </crystal>
   <varray name="positions" >
    <v>      -0.00000000      -0.00000000       0.50184243 </v>
    <v>       0.33333333       0.33333333       0.82317860 </v>
    <v>       0.33333333       0.33333333       0.42702880 </v>
    <v>       0.33333333       0.33333333       0.57672077 </v>
    <v>      -0.00000000       0.00000000       0.72964498 </v>
    <v>      -0.00000000      -0.00000000       0.91658441 </v>
   </varray>
  </structure>
  <varray name="forces" >
   <v>       0.00000000       0.00000000       0.00125879 </v>
   <v>      -0.00000000      -0.00000000       0.00175543 </v>
   <v>      -0.00000000      -0.00000000       0.00046048 </v>
   <v>       0.00000000       0.00000000       0.00190343 </v>
   <v>       0.00000000       0.00000000      -0.00119590 </v>
   <v>      -0.00000000      -0.00000000      -0.00418222 </v>
  </varray>
  <varray name="stress" >
   <v>     -25.42168265      -0.00000000      -0.00000000 </v>
   <v>       0.00000000     -25.42168265       0.00000000 </v>
   <v>       0.00000000       0.00000000      -1.22089317 </v>
  </varray>
  <energy>
   <i name="e_fr_energy">    -41.85130250 </i>
   <i name="e_wo_entrp">    -41.85052439 </i>
   <i name="e_0_energy">    -41.85091344 </i>
  </energy>
  <time name="totalsc">    0.48    0.49</time>
 </calculation>
 <calculation>
  <scstep>
   <time name="dav">    0.09    0.09</time>
   <time name="total">    0.12    0.12</time>
   <energy>
    <i name="alphaZ">     84.73417088 </i>
    <i name="ewald">   3577.32553553 </i>
    <i name="hartreedc">  -7965.19158397 </i>
    <i name="XCdc">    100.81132032 </i>
    <i name="pawpsdc">   5521.20934054 </i>
    <i name="pawaedc">  -5407.20192016 </i>
    <i name="eentropy">     -0.00077811 </i>
    <i name="bandstr">   -675.77003011 </i>
    <i name="atom">   4724.74487735 </i>
    <i name="e_fr_energy">    -39.33906773 </i>
    <i name="e_wo_entrp">    -39.33828962 </i>
    <i name="e_0_energy">    -39.33867867 </i>
   </energy>
  </scstep>
  <scstep>
   <time name="dav">    0.09    0.09</time>
   <time name="total">    0.13    0.13</time>
   <energy>
    <i name="e_fr_energy">    -39.33907379 </i>
    <i name="e_wo_entrp">    -39.33829548 </i>
    <i name="e_0_energy">    -39.33868463 </i>
   </energy>
  </scstep>
  <scstep>
   <time name="dav">    0.07    0.07</time>
   <time name="total">    0.09    0.09</time>
   <energy>
    <i name="alphaZ">     84.73417088 </i>
    <i name="ewald">   3577.32553553 </i>
    <i name="hartreedc">  -7965.19278783 </i>
    <i name="XCdc">    100.81132829 </i>
    <i name="pawpsdc">   5521.18318274 </i>
    <i name="pawaedc">  -5407.17578089 </i>
    <i name="eentropy">     -0.00077819 </i>
    <i name="bandstr">   -675.76882154 </i>
    <i name="atom">   4724.74487735 </i>
    <i name="e_fr_energy">    -39.33907365 </i>
    <i name="e_wo_entrp">    -39.33829546 </i>
    <i name="e_0_energy">    -39.33868455 </i>
   </energy>
  </scstep>
  <structure>
   <crystal>
    <varray name="basis" >
     <v>       3.37894624       0.00000000       0.00000000 </v>
     <v>       1.68947312       2.92625328       0.00000000 </v>
     <v>       0.00000000       0.00000000      20.00000000 </v>
    </varray>
    <i name="volume">    197.75304998 </i>
    <varray name="rec_basis" >
     <v>       0.29595025      -0.17086696       0.00000000 </v>
     <v>       0.00000000       0.34173392       0.00000000 </v>
     <v>       0.00000000       0.00000000       0.05000000 </v>
    </varray>
   </crystal>
   <varray name="positions" >
    <v>      -0.00000000      -0.00000000       0.50182753 </v>
    <v>       0.33333333       0.33333333       0.82319432 </v>
    <v>       0.33333333       0.33333333       0.42701384 </v>
    <v>       0.33333333       0.33333333       0.57670644 </v>
    <v>      -0.00000000       0.00000000       0.72965861 </v>
    <v>      -0.00000000      -0.00000000       0.91659926 </v>
   </varray>
  </structure>
  <varray name="forces" >
   <v>       0.00000000      -0.00000000       0.00064213 </v>
   <v>      -0.00000000       0.00000000      -0.00050883 </v>
   <v>       0.00000000      -0.00000000       0.00031147 </v>
   <v>      -0.00000000      -0.00000000       0.00034895 </v>
   <v>       0.00000000      -0.00000000      -0.00032543 </v>
   <v>       0.00000000       0.00000000      -0.00046828 </v>
  </varray>
  <varray name="stress" >
   <v>     -25.41816235      -0.00000000      -0.00000000 </v>
   <v>       0.00000000     -25.41816235       0.00000000 </v>
   <v>      -0.00000000       0.00000000      -1.18673530 </v>
  </varray>
  <energy>
   <i name="e_fr_energy">    -41.85129973 </i>
   <i name="e_wo_entrp">    -41.85052154 </i>
   <i name="e_0_energy">    -41.85091063 </i>
  </energy>
  <time name="totalsc">    0.61    0.62</time>
 </calculation>
 <calculation>
  <scstep>
   <time name="dav">    0.09    0.09</time>
   <time name="total">    0.12    0.12</time>
   <energy>
    <i name="alphaZ">     84.73417088 </i>
    <i name="ewald">   3577.47310799 </i>
    <i name="hartreedc">  -7965.33907668 </i>
    <i name="XCdc">    100.81141026 </i>
    <i name="pawpsdc">   5521.16966243 </i>
    <i name="pawaedc">  -5407.16229371 </i>
    <i name="eentropy">     -0.00077841 </i>
    <i name="bandstr">   -675.77013906 </i>
    <i name="atom">   4724.74487735 </i>
    <i name="e_fr_energy">    -39.33905895 </i>
    <i name="e_wo_entrp">    -39.33828054 </i>
    <i name="e_0_energy">    -39.33866975 </i>
   </energy>
  </scstep>
  <scstep>
   <time name="dav">    0.06    0.06</time>
   <time name="total">    0.08    0.08</time>
   <energy>
    <i name="alphaZ">     84.73417088 </i>
    <i name="ewald">   3577.47310799 </i>
    <i name="hartreedc">  -7965.33948262 </i>
    <i name="XCdc">    100.81143488 </i>
    <i name="pawpsdc">   5521.16924984 </i>
    <i name="pawaedc">  -5407.16183505 </i>
    <i name="eentropy">     -0.00077823 </i>
    <i name="bandstr">   -675.76980405 </i>
    <i name="atom">   4724.74487735 </i>
    <i name="e_fr_energy">    -39.33905901 </i>
    <i name="e_wo_entrp">    -39.33828078 </i>
    <i name="e_0_energy">    -39.33866990 </i>
   </energy>
  </scstep>
  <structure>
   <crystal>
    <varray name="basis" >
     <v>       3.37894624       0.00000000       0.00000000 </v>
     <v>       1.68947312       2.92625328       0.00000000 </v>
     <v>       0.00000000       0.00000000      20.00000000 </v>
    </varray>
    <i name="volume">    197.75304998 </i>
    <varray name="rec_basis" >
     <v>       0.29595025      -0.17086696       0.00000000 </v>
     <v>       0.00000000       0.34173392       0.00000000 </v>
     <v>       0.00000000       0.00000000       0.05000000 </v>
    </varray>
   </crystal>
   <varray name="positions" >
    <v>      -0.00000000      -0.00000000       0.50182898 </v>
    <v>       0.33333333       0.33333333       0.82319294 </v>
    <v>       0.33333333       0.33333333       0.42701594 </v>
    <v>       0.33333333       0.33333333       0.57670779 </v>
    <v>      -0.00000000       0.00000000       0.72965687 </v>
    <v>      -0.00000000      -0.00000000       0.91659748 </v>
   </varray>
  </structure>
  <varray name="forces" >
   <v>      -0.00000000       0.00000000       0.00227003 </v>
   <v>      -0.00000000      -0.00000000       0.00087763 </v>
   <v>       0.00000000       0.00000000       0.00076624 </v>
   <v>       0.00000000       0.00000000       0.00129988 </v>
   <v>       0.00000000       0.00000000      -0.00101529 </v>
   <v>       0.00000000      -0.00000000      -0.00419849 </v>
  </varray>
  <varray name="stress" >
   <v>     -25.43051006      -0.00000000      -0.00000000 </v>
   <v>      -0.00000000     -25.43051006      -0.00000000 </v>
   <v>       0.00000000       0.00000000      -1.26054339 </v>
  </varray>
  <energy>
   <i name="e_fr_energy">    -41.85129999 </i>
   <i name="e_wo_entrp">    -41.85052176 </i>
   <i name="e_0_energy">    -41.85091087 </i>
  </energy>
  <time name="totalsc">    0.48    0.49</time>
 </calculation>
 <calculation>
  <scstep>
   <time name="dav">    0.09    0.09</time>
   <time name="total">    0.13    0.13</time>
   <energy>
    <i name="alphaZ">     84.73417088 </i>
    <i name="ewald">   3577.37891652 </i>
    <i name="hartreedc">  -7965.24536254 </i>
    <i name="XCdc">    100.81131278 </i>
    <i name="pawpsdc">   5521.17030633 </i>
    <i name="pawaedc">  -5407.16292409 </i>
    <i name="eentropy">     -0.00077830 </i>
    <i name="bandstr">   -675.76958998 </i>
    <i name="atom">   4724.74487735 </i>
    <i name="e_fr_energy">    -39.33907105 </i>
    <i name="e_wo_entrp">    -39.33829275 </i>
    <i name="e_0_energy">    -39.33868190 </i>
   </energy>
  </scstep>
  <scstep>
   <time name="dav">    0.06    0.06</time>
   <time name="total">    0.08    0.08</time>
   <energy>
    <i name="alphaZ">     84.73417088 </i>
    <i name="ewald">   3577.37891652 </i>
    <i name="hartreedc">  -7965.24569396 </i>
    <i name="XCdc">    100.81131114 </i>
    <i name="pawpsdc">   5521.15959914 </i>
    <i name="pawaedc">  -5407.15219279 </i>
    <i name="eentropy">     -0.00077823 </i>
    <i name="bandstr">   -675.76928111 </i>
    <i name="atom">   4724.74487735 </i>
    <i name="e_fr_energy">    -39.33907106 </i>
    <i name="e_wo_entrp">    -39.33829282 </i>
    <i name="e_0_energy">    -39.33868194 </i>
   </energy>
  </scstep>
  <structure>
   <crystal>
    <varray name="basis" >
     <v>       3.37894624       0.00000000       0.00000000 </v>
     <v>       1.68947312       2.92625328       0.00000000 </v>
     <v>       0.00000000       0.00000000      20.00000000 </v>
    </varray>
    <i name="volume">    197.75304998 </i>
    <varray name="rec_basis" >
     <v>       0.29595025      -0.17086696       0.00000000 </v>
     <v>       0.00000000       0.34173392       0.00000000 </v>
     <v>       0.00000000       0.00000000       0.05000000 </v>
    </varray>
   </crystal>
   <varray name="positions" >
    <v>      -0.00000000      -0.00000000       0.50182834 </v>
    <v>       0.33333333       0.33333333       0.82319282 </v>
    <v>       0.33333333       0.33333333       0.42701414 </v>
    <v>       0.33333333       0.33333333       0.57670678 </v>
    <v>      -0.00000000       0.00000000       0.72965830 </v>
    <v>      -0.00000000      -0.00000000       0.91659962 </v>
   </varray>
  </structure>
  <varray name="forces" >
   <v>      -0.00000000      -0.00000000       0.00091549 </v>
   <v>       0.00000000       0.00000000       0.00039188 </v>
   <v>      -0.00000000       0.00000000       0.00086416 </v>
   <v>      -0.00000000      -0.00000000       0.00093938 </v>
   <v>       0.00000000      -0.00000000      -0.00255694 </v>
   <v>      -0.00000000      -0.00000000      -0.00055396 </v>
  </varray>
  <varray name="stress" >
   <v>     -25.42182964      -0.00000000       0.00000000 </v>
   <v>       0.00000000     -25.42182964       0.00000000 </v>
   <v>      -0.00000000       0.00000000      -1.21304646 </v>
  </varray>
  <energy>
   <i name="e_fr_energy">    -41.85129972 </i>
   <i name="e_wo_entrp">    -41.85052149 </i>
   <i name="e_0_energy">    -41.85091060 </i>
  </energy>
  <time name="totalsc">    0.47    0.48</time>
 </calculation>
 <calculation>
  <scstep>
   <time name="dav">    0.06    0.06</time>
   <time name="total">    0.09    0.09</time>
   <energy>
    <i name="alphaZ">     84.73417088 </i>
    <i name="ewald">   3577.38044304 </i>
    <i name="hartreedc">  -7965.24698624 </i>
    <i name="XCdc">    100.81132640 </i>
    <i name="pawpsdc">   5521.15468348 </i>
    <i name="pawaedc">  -5407.14728264 </i>
    <i name="eentropy">     -0.00077825 </i>
    <i name="bandstr">   -675.76952483 </i>
    <i name="atom">   4724.74487735 </i>
    <i name="e_fr_energy">    -39.33907081 </i>
    <i name="e_wo_entrp">    -39.33829256 </i>
    <i name="e_0_energy">    -39.33868168 </i>
   </energy>
  </scstep>
  <scstep>
   <time name="dav">    0.06    0.06</time>
   <time name="total">    0.08    0.08</time>
   <energy>
    <i name="alphaZ">     84.73417088 </i>
    <i name="ewald">   3577.38044304 </i>
    <i name="hartreedc">  -7965.24714610 </i>
    <i name="XCdc">    100.81133081 </i>
    <i name="pawpsdc">   5521.15246739 </i>
    <i name="pawaedc">  -5407.14505319 </i>
    <i name="eentropy">     -0.00077821 </i>
    <i name="bandstr">   -675.76938278 </i>
    <i name="atom">   4724.74487735 </i>
    <i name="e_fr_energy">    -39.33907081 </i>
    <i name="e_wo_entrp">    -39.33829260 </i>
    <i name="e_0_energy">    -39.33868171 </i>
   </energy>
  </scstep>
  <structure>
   <crystal>
    <varray name="basis" >
     <v>       3.37894624       0.00000000       0.00000000 </v>
     <v>       1.68947312       2.92625328       0.00000000 </v>
     <v>       0.00000000       0.00000000      20.00000000 </v>
    </varray>
    <i name="volume">    197.75304998 </i>
    <varray name="rec_basis" >
     <v>       0.29595025      -0.17086696       0.00000000 </v>
     <v>       0.00000000       0.34173392       0.00000000 </v>
     <v>       0.00000000       0.00000000       0.05000000 </v>
    </varray>
   </crystal>
   <varray name="positions" >
    <v>      -0.00000000      -0.00000000       0.50182832 </v>
    <v>       0.33333333       0.33333333       0.82319281 </v>
    <v>       0.33333333       0.33333333       0.42701410 </v>
    <v>       0.33333333       0.33333333       0.57670673 </v>
    <v>      -0.00000000       0.00000000       0.72965853 </v>
    <v>      -0.00000000      -0.00000000       0.91659951 </v>
   </varray>
  </structure>
  <varray name="forces" >
   <v>      -0.00000000      -0.00000000       0.00088753 </v>
   <v>      -0.00000000      -0.00000000       0.00052238 </v>
   <v>       0.00000000       0.00000000       0.00074189 </v>
   <v>      -0.00000000      -0.00000000       0.00088308 </v>
   <v>       0.00000000      -0.00000000      -0.00261471 </v>
   <v>       0.00000000       0.00000000      -0.00042017 </v>
  </varray>
  <varray name="stress" >
   <v>     -25.42006527       0.00000000       0.00000000 </v>
   <v>       0.00000000     -25.42006527      -0.00000000 </v>
   <v>      -0.00000000      -0.00000000      -1.21131810 </v>
  </varray>
  <energy>
   <i name="e_fr_energy">    -41.85129971 </i>
   <i name="e_wo_entrp">    -41.85052149 </i>
   <i name="e_0_energy">    -41.85091060 </i>
  </energy>
  <time name="totalsc">    0.44    0.45</time>
 </calculation>
 <calculation>
  <scstep>
   <time name="dav">    0.09    0.09</time>
   <time name="total">    0.12    0.12</time>
   <energy>
    <i name="alphaZ">     84.73417088 </i>
    <i name="ewald">   3577.34095775 </i>
    <i name="hartreedc">  -7965.20744372 </i>
    <i name="XCdc">    100.81135177 </i>
    <i name="pawpsdc">   5521.14973634 </i>
    <i name="pawaedc">  -5407.14232455 </i>
    <i name="eentropy">     -0.00077802 </i>
    <i name="bandstr">   -675.76962074 </i>
    <i name="atom">   4724.74487735 </i>
    <i name="e_fr_energy">    -39.33907293 </i>
    <i name="e_wo_entrp">    -39.33829491 </i>
    <i name="e_0_energy">    -39.33868392 </i>
   </energy>
  </scstep>
  <scstep>
   <time name="dav">    0.06    0.06</time>
   <time name="total">    0.08    0.08</time>
   <energy>
    <i name="alphaZ">     84.73417088 </i>
    <i name="ewald">   3577.34095775 </i>
    <i name="hartreedc">  -7965.20773626 </i>
    <i name="XCdc">    100.81135568 </i>
    <i name="pawpsdc">   5521.15866784 </i>
    <i name="pawaedc">  -5407.15124596 </i>
    <i name="eentropy">     -0.00077808 </i>
    <i name="bandstr">   -675.76934216 </i>
    <i name="atom">   4724.74487735 </i>
    <i name="e_fr_energy">    -39.33907296 </i>
    <i name="e_wo_entrp">    -39.33829487 </i>
    <i name="e_0_energy">    -39.33868391 </i>
   </energy>
  </scstep>
  <structure>
   <crystal>
    <varray name="basis" >
     <v>       3.37894624       0.00000000       0.00000000 </v>
     <v>       1.68947312       2.92625328       0.00000000 </v>
     <v>       0.00000000       0.00000000      20.00000000 </v>
    </varray>
    <i name="volume">    197.75304998 </i>
    <varray name="rec_basis" >
     <v>       0.29595025      -0.17086696       0.00000000 </v>
     <v>       0.00000000       0.34173392       0.00000000 </v>
     <v>       0.00000000       0.00000000       0.05000000 </v>
    </varray>
   </crystal>
   <varray name="positions" >
    <v>      -0.00000000      -0.00000000       0.50182840 </v>
    <v>       0.33333333       0.33333333       0.82319398 </v>
    <v>       0.33333333       0.33333333       0.42701303 </v>
    <v>       0.33333333       0.33333333       0.57670624 </v>
    <v>      -0.00000000       0.00000000       0.72965926 </v>
    <v>      -0.00000000      -0.00000000       0.91659908 </v>
   </varray>
  </structure>
  <varray name="forces" >
   <v>       0.00000000       0.00000000       0.00012294 </v>
   <v>      -0.00000000      -0.00000000      -0.00054955 </v>
   <v>       0.00000000       0.00000000       0.00074893 </v>
   <v>       0.00000000       0.00000000       0.00064698 </v>
   <v>       0.00000000      -0.00000000      -0.00058367 </v>
   <v>       0.00000000       0.00000000      -0.00038563 </v>
  </varray>
  <varray name="stress" >
   <v>     -25.41771126       0.00000000      -0.00000000 </v>
   <v>       0.00000000     -25.41771126       0.00000000 </v>
   <v>      -0.00000000       0.00000000      -1.18568497 </v>
  </varray>
  <energy>
   <i name="e_fr_energy">    -41.85129970 </i>
   <i name="e_wo_entrp">    -41.85052161 </i>
   <i name="e_0_energy">    -41.85091065 </i>
  </energy>
  <time name="totalsc">    0.47    0.48</time>
 </calculation>
 <calculation>
  <scstep>
   <time name="dav">    0.08    0.08</time>
   <time name="total">    0.11    0.12</time>
   <energy>
    <i name="alphaZ">     84.73417088 </i>
    <i name="ewald">   3577.33855504 </i>
    <i name="hartreedc">  -7965.20439778 </i>
    <i name="XCdc">    100.81144988 </i>
    <i name="pawpsdc">   5521.15718561 </i>
    <i name="pawaedc">  -5407.14977349 </i>
    <i name="eentropy">     -0.00077765 </i>
    <i name="bandstr">   -675.77036076 </i>
    <i name="atom">   4724.74487735 </i>
    <i name="e_fr_energy">    -39.33907091 </i>
    <i name="e_wo_entrp">    -39.33829326 </i>
    <i name="e_0_energy">    -39.33868209 </i>
   </energy>
  </scstep>
  <scstep>
   <time name="dav">    0.06    0.06</time>
   <time name="total">    0.08    0.08</time>
   <energy>
    <i name="alphaZ">     84.73417088 </i>
    <i name="ewald">   3577.33855504 </i>
    <i name="hartreedc">  -7965.20472158 </i>
    <i name="XCdc">    100.81145555 </i>
    <i name="pawpsdc">   5521.17308128 </i>
    <i name="pawaedc">  -5407.16565876 </i>
    <i name="eentropy">     -0.00077774 </i>
    <i name="bandstr">   -675.77005295 </i>
    <i name="atom">   4724.74487735 </i>
    <i name="e_fr_energy">    -39.33907094 </i>
    <i name="e_wo_entrp">    -39.33829320 </i>
    <i name="e_0_energy">    -39.33868207 </i>
   </energy>
  </scstep>
  <structure>
   <crystal>
    <varray name="basis" >
     <v>       3.37894624       0.00000000       0.00000000 </v>
     <v>       1.68947312       2.92625328       0.00000000 </v>
     <v>       0.00000000       0.00000000      20.00000000 </v>
    </varray>
    <i name="volume">    197.75304998 </i>
    <varray name="rec_basis" >
     <v>       0.29595025      -0.17086696       0.00000000 </v>
     <v>       0.00000000       0.34173392       0.00000000 </v>
     <v>       0.00000000       0.00000000       0.05000000 </v>
    </varray>
   </crystal>
   <varray name="positions" >
    <v>      -0.00000000      -0.00000000       0.50182812 </v>
    <v>       0.33333333       0.33333333       0.82319438 </v>
    <v>       0.33333333       0.33333333       0.42701243 </v>
    <v>       0.33333333       0.33333333       0.57670650 </v>
    <v>      -0.00000000       0.00000000       0.72966080 </v>
    <v>      -0.00000000      -0.00000000       0.91659777 </v>
   </varray>
  </structure>
  <varray name="forces" >
   <v>       0.00000000       0.00000000       0.00116273 </v>
   <v>      -0.00000000      -0.00000000       0.00028305 </v>
   <v>      -0.00000000      -0.00000000       0.00190172 </v>
   <v>       0.00000000       0.00000000       0.00112325 </v>
   <v>       0.00000000       0.00000000      -0.00018445 </v>
   <v>       0.00000000      -0.00000000      -0.00428631 </v>
  </varray>
  <varray name="stress" >
   <v>     -25.42415766      -0.00000000      -0.00000000 </v>
   <v>       0.00000000     -25.42415766       0.00000000 </v>
   <v>       0.00000000       0.00000000      -1.22791598 </v>
  </varray>
  <energy>
   <i name="e_fr_energy">    -41.85129981 </i>
   <i name="e_wo_entrp">    -41.85052207 </i>
   <i name="e_0_energy">    -41.85091094 </i>
  </energy>
  <time name="totalsc">    0.46    0.47</time>
 </calculation>
 <calculation>
  <scstep>
   <time name="dav">    0.07    0.07</time>
   <time name="total">    0.10    0.10</time>
   <energy>
    <i name="alphaZ">     84.73417088 </i>
    <i name="ewald">   3577.31737284 </i>
    <i name="hartreedc">  -7965.18321288 </i>
    <i name="XCdc">    100.81148263 </i>
    <i name="pawpsdc">   5521.17418554 </i>
    <i name="pawaedc">  -5407.16677727 </i>
    <i name="eentropy">     -0.00077767 </i>
    <i name="bandstr">   -675.77039403 </i>
    <i name="atom">   4724.74487735 </i>
    <i name="e_fr_energy">    -39.33907261 </i>
    <i name="e_wo_entrp">    -39.33829494 </i>
    <i name="e_0_energy">    -39.33868378 </i>
   </energy>
  </scstep>
  <scstep>
   <time name="dav">    0.06    0.06</time>
   <time name="total">    0.08    0.08</time>
   <energy>
    <i name="alphaZ">     84.73417088 </i>
    <i name="ewald">   3577.31737284 </i>
    <i name="hartreedc">  -7965.18326518 </i>
    <i name="XCdc">    100.81148020 </i>
    <i name="pawpsdc">   5521.17860483 </i>
    <i name="pawaedc">  -5407.17120696 </i>
    <i name="eentropy">     -0.00077774 </i>
    <i name="bandstr">   -675.77032885 </i>
    <i name="atom">   4724.74487735 </i>
    <i name="e_fr_energy">    -39.33907263 </i>
    <i name="e_wo_entrp">    -39.33829488 </i>
    <i name="e_0_energy">    -39.33868376 </i>
   </energy>
  </scstep>
  <structure>
   <crystal>
    <varray name="basis" >
     <v>       3.37894624       0.00000000       0.00000000 </v>
     <v>       1.68947312       2.92625328       0.00000000 </v>
     <v>       0.00000000       0.00000000      20.00000000 </v>
    </varray>
    <i name="volume">    197.75304998 </i>
    <varray name="rec_basis" >
     <v>       0.29595025      -0.17086696       0.00000000 </v>
     <v>       0.00000000       0.34173392       0.00000000 </v>
     <v>       0.00000000       0.00000000       0.05000000 </v>
    </varray>
   </crystal>
   <varray name="positions" >
    <v>      -0.00000000      -0.00000000       0.50182768 </v>
    <v>       0.33333333       0.33333333       0.82319466 </v>
    <v>       0.33333333       0.33333333       0.42701222 </v>
    <v>       0.33333333       0.33333333       0.57670623 </v>
    <v>      -0.00000000       0.00000000       0.72966145 </v>
    <v>      -0.00000000      -0.00000000       0.91659777 </v>
   </varray>
  </structure>
  <varray name="forces" >
   <v>      -0.00000000      -0.00000000       0.00140573 </v>
   <v>      -0.00000000       0.00000000       0.00021311 </v>
   <v>       0.00000000       0.00000000       0.00170387 </v>
   <v>       0.00000000      -0.00000000       0.00135711 </v>
   <v>       0.00000000       0.00000000      -0.00033427 </v>
   <v>      -0.00000000      -0.00000000      -0.00434555 </v>
  </varray>
  <varray name="stress" >
   <v>     -25.42251369      -0.00000000       0.00000000 </v>
   <v>      -0.00000000     -25.42251369       0.00000000 </v>
   <v>      -0.00000000       0.00000000      -1.22387818 </v>
  </varray>
  <energy>
   <i name="e_fr_energy">    -41.85129981 </i>
   <i name="e_wo_entrp">    -41.85052207 </i>
   <i name="e_0_energy">    -41.85091094 </i>
  </energy>
  <time name="totalsc">    0.45    0.46</time>
 </calculation>
 <calculation>
  <scstep>
   <time name="dav">    0.06    0.06</time>
   <time name="total">    0.09    0.09</time>
   <energy>
    <i name="alphaZ">     84.73417088 </i>
    <i name="ewald">   3577.31373974 </i>
    <i name="hartreedc">  -7965.17981386 </i>
    <i name="XCdc">    100.81148048 </i>
    <i name="pawpsdc">   5521.18128289 </i>
    <i name="pawaedc">  -5407.17389130 </i>
    <i name="eentropy">     -0.00077768 </i>
    <i name="bandstr">   -675.77014141 </i>
    <i name="atom">   4724.74487735 </i>
    <i name="e_fr_energy">    -39.33907290 </i>
    <i name="e_wo_entrp">    -39.33829522 </i>
    <i name="e_0_energy">    -39.33868406 </i>
   </energy>
  </scstep>
  <scstep>
   <time name="dav">    0.06    0.06</time>
   <time name="total">    0.08    0.08</time>
   <energy>
    <i name="alphaZ">     84.73417088 </i>
    <i name="ewald">   3577.31373974 </i>
    <i name="hartreedc">  -7965.17961596 </i>
    <i name="XCdc">    100.81147442 </i>
    <i name="pawpsdc">   5521.18236416 </i>
    <i name="pawaedc">  -5407.17499279 </i>
    <i name="eentropy">     -0.00077776 </i>
    <i name="bandstr">   -675.77031294 </i>
    <i name="atom">   4724.74487735 </i>
    <i name="e_fr_energy">    -39.33907291 </i>
    <i name="e_wo_entrp">    -39.33829515 </i>
    <i name="e_0_energy">    -39.33868403 </i>
   </energy>
  </scstep>
  <structure>
   <crystal>
    <varray name="basis" >
     <v>       3.37894624       0.00000000       0.00000000 </v>
     <v>       1.68947312       2.92625328       0.00000000 </v>
     <v>       0.00000000       0.00000000      20.00000000 </v>
    </varray>
    <i name="volume">    197.75304998 </i>
    <varray name="rec_basis" >
     <v>       0.29595025      -0.17086696       0.00000000 </v>
     <v>       0.00000000       0.34173392       0.00000000 </v>
     <v>       0.00000000       0.00000000       0.05000000 </v>
    </varray>
   </crystal>
   <varray name="positions" >
    <v>      -0.00000000      -0.00000000       0.50182767 </v>
    <v>       0.33333333       0.33333333       0.82319469 </v>
    <v>       0.33333333       0.33333333       0.42701207 </v>
    <v>       0.33333333       0.33333333       0.57670624 </v>
    <v>      -0.00000000       0.00000000       0.72966160 </v>
    <v>      -0.00000000      -0.00000000       0.91659774 </v>
   </varray>
  </structure>
  <varray name="forces" >
   <v>      -0.00000000      -0.00000000       0.00117055 </v>
   <v>       0.00000000       0.00000000       0.00041498 </v>
   <v>       0.00000000       0.00000000       0.00170513 </v>
   <v>      -0.00000000      -0.00000000       0.00125330 </v>
   <v>      -0.00000000       0.00000000      -0.00025171 </v>
   <v>      -0.00000000      -0.00000000      -0.00429226 </v>
  </varray>
  <varray name="stress" >
   <v>     -25.42254479       0.00000000       0.00000000 </v>
   <v>       0.00000000     -25.42254479       0.00000000 </v>
   <v>      -0.00000000      -0.00000000      -1.22333223 </v>
  </varray>
  <energy>
   <i name="e_fr_energy">    -41.85129983 </i>
   <i name="e_wo_entrp">    -41.85052207 </i>
   <i name="e_0_energy">    -41.85091095 </i>
  </energy>
  <time name="totalsc">    0.45    0.45</time>
 </calculation>
 <calculation>
  <scstep>
   <time name="dav">    0.09    0.09</time>
   <time name="total">    0.12    0.12</time>
   <energy>
    <i name="alphaZ">     84.73417088 </i>
    <i name="ewald">   3577.28197265 </i>
    <i name="hartreedc">  -7965.14913329 </i>
    <i name="XCdc">    100.81134752 </i>
    <i name="pawpsdc">   5521.18324163 </i>
    <i name="pawaedc">  -5407.17586301 </i>
    <i name="eentropy">     -0.00077791 </i>
    <i name="bandstr">   -675.76891227 </i>
    <i name="atom">   4724.74487735 </i>
    <i name="e_fr_energy">    -39.33907645 </i>
    <i name="e_wo_entrp">    -39.33829853 </i>
    <i name="e_0_energy">    -39.33868749 </i>
   </energy>
  </scstep>
  <scstep>
   <time name="dav">    0.06    0.06</time>
   <time name="total">    0.08    0.08</time>
   <energy>
    <i name="alphaZ">     84.73417088 </i>
    <i name="ewald">   3577.28197265 </i>
    <i name="hartreedc">  -7965.14849335 </i>
    <i name="XCdc">    100.81133641 </i>
    <i name="pawpsdc">   5521.16118559 </i>
    <i name="pawaedc">  -5407.15382359 </i>
    <i name="eentropy">     -0.00077787 </i>
    <i name="bandstr">   -675.76952453 </i>
    <i name="atom">   4724.74487735 </i>
    <i name="e_fr_energy">    -39.33907645 </i>
    <i name="e_wo_entrp">    -39.33829858 </i>
    <i name="e_0_energy">    -39.33868752 </i>
   </energy>
  </scstep>
  <structure>
   <crystal>
    <varray name="basis" >
     <v>       3.37894624       0.00000000       0.00000000 </v>
     <v>       1.68947312       2.92625328       0.00000000 </v>
     <v>       0.00000000       0.00000000      20.00000000 </v>
    </varray>
    <i name="volume">    197.75304998 </i>
    <varray name="rec_basis" >
     <v>       0.29595025      -0.17086696       0.00000000 </v>
     <v>       0.00000000       0.34173392       0.00000000 </v>
     <v>       0.00000000       0.00000000       0.05000000 </v>
    </varray>
   </crystal>
   <varray name="positions" >
    <v>      -0.00000000      -0.00000000       0.50182641 </v>
    <v>       0.33333333       0.33333333       0.82319430 </v>
    <v>       0.33333333       0.33333333       0.42701278 </v>
    <v>       0.33333333       0.33333333       0.57670717 </v>
    <v>      -0.00000000       0.00000000       0.72966042 </v>
    <v>      -0.00000000      -0.00000000       0.91659892 </v>
   </varray>
  </structure>
  <varray name="forces" >
   <v>       0.00000000       0.00000000       0.00143742 </v>
   <v>      -0.00000000      -0.00000000      -0.00010412 </v>
   <v>      -0.00000000       0.00000000       0.00004752 </v>
   <v>       0.00000000       0.00000000      -0.00041828 </v>
   <v>      -0.00000000      -0.00000000      -0.00075397 </v>
   <v>      -0.00000000      -0.00000000      -0.00020858 </v>
  </varray>
  <varray name="stress" >
   <v>     -25.41596538      -0.00000000       0.00000000 </v>
   <v>       0.00000000     -25.41596538       0.00000000 </v>
   <v>      -0.00000000       0.00000000      -1.18315077 </v>
  </varray>
  <energy>
   <i name="e_fr_energy">    -41.85129970 </i>
   <i name="e_wo_entrp">    -41.85052183 </i>
   <i name="e_0_energy">    -41.85091077 </i>
  </energy>
  <time name="totalsc">    0.48    0.48</time>
 </calculation>
 <calculation>
  <scstep>
   <time name="dav">    0.09    0.09</time>
   <time name="total">    0.12    0.12</time>
   <energy>
    <i name="alphaZ">     84.73417088 </i>
    <i name="ewald">   3577.29384775 </i>
    <i name="hartreedc">  -7965.15978805 </i>
    <i name="XCdc">    100.81143680 </i>
    <i name="pawpsdc">   5521.15589652 </i>
    <i name="pawaedc">  -5407.14850895 </i>
    <i name="eentropy">     -0.00077808 </i>
    <i name="bandstr">   -675.77022840 </i>
    <i name="atom">   4724.74487735 </i>
    <i name="e_fr_energy">    -39.33907419 </i>
    <i name="e_wo_entrp">    -39.33829611 </i>
    <i name="e_0_energy">    -39.33868515 </i>
   </energy>
  </scstep>
  <scstep>
   <time name="dav">    0.06    0.06</time>
   <time name="total">    0.08    0.08</time>
   <energy>
    <i name="alphaZ">     84.73417088 </i>
    <i name="ewald">   3577.29384775 </i>
    <i name="hartreedc">  -7965.15992583 </i>
    <i name="XCdc">    100.81144220 </i>
    <i name="pawpsdc">   5521.16169303 </i>
    <i name="pawaedc">  -5407.15429357 </i>
    <i name="eentropy">     -0.00077807 </i>
    <i name="bandstr">   -675.77010797 </i>
    <i name="atom">   4724.74487735 </i>
    <i name="e_fr_energy">    -39.33907425 </i>
    <i name="e_wo_entrp">    -39.33829617 </i>
    <i name="e_0_energy">    -39.33868521 </i>
   </energy>
  </scstep>
  <structure>
   <crystal>
    <varray name="basis" >
     <v>       3.37894624       0.00000000       0.00000000 </v>
     <v>       1.68947312       2.92625328       0.00000000 </v>
     <v>       0.00000000       0.00000000      20.00000000 </v>
    </varray>
    <i name="volume">    197.75304998 </i>
    <varray name="rec_basis" >
     <v>       0.29595025      -0.17086696       0.00000000 </v>
     <v>       0.00000000       0.34173392       0.00000000 </v>
     <v>       0.00000000       0.00000000       0.05000000 </v>
    </varray>
   </crystal>
   <varray name="positions" >
    <v>      -0.00000000      -0.00000000       0.50182793 </v>
    <v>       0.33333333       0.33333333       0.82319590 </v>
    <v>       0.33333333       0.33333333       0.42701256 </v>
    <v>       0.33333333       0.33333333       0.57670551 </v>
    <v>      -0.00000000       0.00000000       0.72965992 </v>
    <v>      -0.00000000      -0.00000000       0.91659817 </v>
   </varray>
  </structure>
  <varray name="forces" >
   <v>       0.00000000       0.00000000       0.00073733 </v>
   <v>      -0.00000000      -0.00000000      -0.00055994 </v>
   <v>       0.00000000       0.00000000       0.00150456 </v>
   <v>      -0.00000000       0.00000000       0.00192358 </v>
   <v>       0.00000000       0.00000000       0.00058055 </v>
   <v>       0.00000000      -0.00000000      -0.00418608 </v>
  </varray>
  <varray name="stress" >
   <v>     -25.42480092       0.00000000       0.00000000 </v>
   <v>       0.00000000     -25.42480092       0.00000000 </v>
   <v>      -0.00000000       0.00000000      -1.22804209 </v>
  </varray>
  <energy>
   <i name="e_fr_energy">    -41.85129976 </i>
   <i name="e_wo_entrp">    -41.85052169 </i>
   <i name="e_0_energy">    -41.85091073 </i>
  </energy>
  <time name="totalsc">    0.47    0.48</time>
 </calculation>
 <calculation>
  <scstep>
   <time name="dav">    0.09    0.09</time>
   <time name="total">    0.12    0.12</time>
   <energy>
    <i name="alphaZ">     84.73417088 </i>
    <i name="ewald">   3577.40555897 </i>
    <i name="hartreedc">  -7965.27195715 </i>
    <i name="XCdc">    100.81141017 </i>
    <i name="pawpsdc">   5521.16621788 </i>
    <i name="pawaedc">  -5407.15882599 </i>
    <i name="eentropy">     -0.00077810 </i>
    <i name="bandstr">   -675.76973942 </i>
    <i name="atom">   4724.74487735 </i>
    <i name="e_fr_energy">    -39.33906542 </i>
    <i name="e_wo_entrp">    -39.33828732 </i>
    <i name="e_0_energy">    -39.33867637 </i>
   </energy>
  </scstep>
  <scstep>
   <time name="dav">    0.06    0.06</time>
   <time name="total">    0.08    0.08</time>
   <energy>
    <i name="alphaZ">     84.73417088 </i>
    <i name="ewald">   3577.40555897 </i>
    <i name="hartreedc">  -7965.27166595 </i>
    <i name="XCdc">    100.81140678 </i>
    <i name="pawpsdc">   5521.16096704 </i>
    <i name="pawaedc">  -5407.15357881 </i>
    <i name="eentropy">     -0.00077810 </i>
    <i name="bandstr">   -675.77002363 </i>
    <i name="atom">   4724.74487735 </i>
    <i name="e_fr_energy">    -39.33906548 </i>
    <i name="e_wo_entrp">    -39.33828738 </i>
    <i name="e_0_energy">    -39.33867643 </i>
   </energy>
  </scstep>
  <structure>
   <crystal>
    <varray name="basis" >
     <v>       3.37894624       0.00000000       0.00000000 </v>
     <v>       1.68947312       2.92625328       0.00000000 </v>
     <v>       0.00000000       0.00000000      20.00000000 </v>
    </varray>
    <i name="volume">    197.75304998 </i>
    <varray name="rec_basis" >
     <v>       0.29595025      -0.17086696       0.00000000 </v>
     <v>       0.00000000       0.34173392       0.00000000 </v>
     <v>       0.00000000       0.00000000       0.05000000 </v>
    </varray>
   </crystal>
   <varray name="positions" >
    <v>      -0.00000000      -0.00000000       0.50182986 </v>
    <v>       0.33333333       0.33333333       0.82319409 </v>
    <v>       0.33333333       0.33333333       0.42701315 </v>
    <v>       0.33333333       0.33333333       0.57670648 </v>
    <v>      -0.00000000       0.00000000       0.72965881 </v>
    <v>      -0.00000000      -0.00000000       0.91659760 </v>
   </varray>
  </structure>
  <varray name="forces" >
   <v>      -0.00000000       0.00000000       0.00011300 </v>
   <v>      -0.00000000      -0.00000000       0.00058371 </v>
   <v>       0.00000000       0.00000000       0.00159305 </v>
   <v>      -0.00000000       0.00000000       0.00145352 </v>
   <v>      -0.00000000      -0.00000000       0.00059795 </v>
   <v>       0.00000000       0.00000000      -0.00434124 </v>
  </varray>
  <varray name="stress" >
   <v>     -25.42609293      -0.00000000       0.00000000 </v>
   <v>      -0.00000000     -25.42609293      -0.00000000 </v>
   <v>      -0.00000000       0.00000000      -1.23113218 </v>
  </varray>
  <energy>
   <i name="e_fr_energy">    -41.85129987 </i>
   <i name="e_wo_entrp">    -41.85052177 </i>
   <i name="e_0_energy">    -41.85091082 </i>
  </energy>
  <time name="totalsc">    0.47    0.48</time>
 </calculation>
 <calculation>
  <scstep>
   <time name="dav">    0.07    0.07</time>
   <time name="total">    0.11    0.11</time>
   <energy>
    <i name="alphaZ">     84.73417088 </i>
    <i name="ewald">   3577.41788247 </i>
    <i name="hartreedc">  -7965.28379537 </i>
    <i name="XCdc">    100.81143707 </i>
    <i name="pawpsdc">   5521.16166745 </i>
    <i name="pawaedc">  -5407.15427655 </i>
    <i name="eentropy">     -0.00077821 </i>
    <i name="bandstr">   -675.77024842 </i>
    <i name="atom">   4724.74487735 </i>
    <i name="e_fr_energy">    -39.33906333 </i>
    <i name="e_wo_entrp">    -39.33828512 </i>
    <i name="e_0_energy">    -39.33867422 </i>
   </energy>
  </scstep>
  <scstep>
   <time name="dav">    0.06    0.06</time>
   <time name="total">    0.08    0.08</time>
   <energy>
    <i name="alphaZ">     84.73417088 </i>
    <i name="ewald">   3577.41788247 </i>
    <i name="hartreedc">  -7965.28375939 </i>
    <i name="XCdc">    100.81143869 </i>
    <i name="pawpsdc">   5521.16596391 </i>
    <i name="pawaedc">  -5407.15856893 </i>
    <i name="eentropy">     -0.00077822 </i>
    <i name="bandstr">   -675.77029010 </i>
    <i name="atom">   4724.74487735 </i>
    <i name="e_fr_energy">    -39.33906333 </i>
    <i name="e_wo_entrp">    -39.33828511 </i>
    <i name="e_0_energy">    -39.33867422 </i>
   </energy>
  </scstep>
  <structure>
   <crystal>
    <varray name="basis" >
     <v>       3.37894624       0.00000000       0.00000000 </v>
     <v>       1.68947312       2.92625328       0.00000000 </v>
     <v>       0.00000000       0.00000000      20.00000000 </v>
    </varray>
    <i name="volume">    197.75304998 </i>
    <varray name="rec_basis" >
     <v>       0.29595025      -0.17086696       0.00000000 </v>
     <v>       0.00000000       0.34173392       0.00000000 </v>
     <v>       0.00000000       0.00000000       0.05000000 </v>
    </varray>
   </crystal>
   <varray name="positions" >
    <v>      -0.00000000      -0.00000000       0.50183004 </v>
    <v>       0.33333333       0.33333333       0.82319450 </v>
    <v>       0.33333333       0.33333333       0.42701352 </v>
    <v>       0.33333333       0.33333333       0.57670643 </v>
    <v>      -0.00000000       0.00000000       0.72965838 </v>
    <v>      -0.00000000      -0.00000000       0.91659713 </v>
   </varray>
  </structure>
  <varray name="forces" >
   <v>       0.00000000       0.00000000       0.00067277 </v>
   <v>      -0.00000000      -0.00000000      -0.00005690 </v>
   <v>       0.00000000       0.00000000       0.00194365 </v>
   <v>      -0.00000000       0.00000000       0.00221658 </v>
   <v>       0.00000000       0.00000000      -0.00110097 </v>
   <v>      -0.00000000       0.00000000      -0.00367513 </v>
  </varray>
  <varray name="stress" >
   <v>     -25.42727898       0.00000000      -0.00000000 </v>
   <v>      -0.00000000     -25.42727898       0.00000000 </v>
   <v>       0.00000000       0.00000000      -1.25366403 </v>
  </varray>
  <energy>
   <i name="e_fr_energy">    -41.85129993 </i>
   <i name="e_wo_entrp">    -41.85052171 </i>
   <i name="e_0_energy">    -41.85091082 </i>
  </energy>
  <time name="totalsc">    0.45    0.46</time>
 </calculation>
 <calculation>
  <scstep>
   <time name="dav">    0.07    0.07</time>
   <time name="total">    0.11    0.11</time>
   <energy>
    <i name="alphaZ">     84.73417088 </i>
    <i name="ewald">   3577.38863053 </i>
    <i name="hartreedc">  -7965.25404144 </i>
    <i name="XCdc">    100.81148089 </i>
    <i name="pawpsdc">   5521.16934206 </i>
    <i name="pawaedc">  -5407.16194979 </i>
    <i name="eentropy">     -0.00077814 </i>
    <i name="bandstr">   -675.77079881 </i>
    <i name="atom">   4724.74487735 </i>
    <i name="e_fr_energy">    -39.33906648 </i>
    <i name="e_wo_entrp">    -39.33828834 </i>
    <i name="e_0_energy">    -39.33867741 </i>
   </energy>
  </scstep>
  <scstep>
   <time name="dav">    0.06    0.06</time>
   <time name="total">    0.08    0.08</time>
   <energy>
    <i name="alphaZ">     84.73417088 </i>
    <i name="ewald">   3577.38863053 </i>
    <i name="hartreedc">  -7965.25426256 </i>
    <i name="XCdc">    100.81148120 </i>
    <i name="pawpsdc">   5521.17480521 </i>
    <i name="pawaedc">  -5407.16741065 </i>
    <i name="eentropy">     -0.00077815 </i>
    <i name="bandstr">   -675.77058031 </i>
    <i name="atom">   4724.74487735 </i>
    <i name="e_fr_energy">    -39.33906650 </i>
    <i name="e_wo_entrp">    -39.33828835 </i>
    <i name="e_0_energy">    -39.33867742 </i>
   </energy>
  </scstep>
  <structure>
   <crystal>
    <varray name="basis" >
     <v>       3.37894624       0.00000000       0.00000000 </v>
     <v>       1.68947312       2.92625328       0.00000000 </v>
     <v>       0.00000000       0.00000000      20.00000000 </v>
    </varray>
    <i name="volume">    197.75304998 </i>
    <varray name="rec_basis" >
     <v>       0.29595025      -0.17086696       0.00000000 </v>
     <v>       0.00000000       0.34173392       0.00000000 </v>
     <v>       0.00000000       0.00000000       0.05000000 </v>
    </varray>
   </crystal>
   <varray name="positions" >
    <v>      -0.00000000      -0.00000000       0.50182956 </v>
    <v>       0.33333333       0.33333333       0.82319458 </v>
    <v>       0.33333333       0.33333333       0.42701294 </v>
    <v>       0.33333333       0.33333333       0.57670588 </v>
    <v>      -0.00000000       0.00000000       0.72965969 </v>
    <v>      -0.00000000      -0.00000000       0.91659735 </v>
   </varray>
  </structure>
  <varray name="forces" >
   <v>      -0.00000000      -0.00000000       0.00044850 </v>
   <v>       0.00000000       0.00000000      -0.00010892 </v>
   <v>      -0.00000000      -0.00000000       0.00197513 </v>
   <v>       0.00000000      -0.00000000       0.00203815 </v>
   <v>      -0.00000000       0.00000000       0.00003885 </v>
   <v>      -0.00000000      -0.00000000      -0.00439171 </v>
  </varray>
  <varray name="stress" >
   <v>     -25.42321105      -0.00000000      -0.00000000 </v>
   <v>       0.00000000     -25.42321105       0.00000000 </v>
   <v>       0.00000000       0.00000000      -1.22336779 </v>
  </varray>
  <energy>
   <i name="e_fr_energy">    -41.85129988 </i>
   <i name="e_wo_entrp">    -41.85052173 </i>
   <i name="e_0_energy">    -41.85091081 </i>
  </energy>
  <time name="totalsc">    0.46    0.47</time>
 </calculation>
 <calculation>
  <scstep>
   <time name="dav">    0.09    0.09</time>
   <time name="total">    0.12    0.12</time>
   <energy>
    <i name="alphaZ">     84.73417088 </i>
    <i name="ewald">   3577.73710626 </i>
    <i name="hartreedc">  -7965.60196174 </i>
    <i name="XCdc">    100.81169027 </i>
    <i name="pawpsdc">   5521.17895743 </i>
    <i name="pawaedc">  -5407.17156346 </i>
    <i name="eentropy">     -0.00077770 </i>
    <i name="bandstr">   -675.77151953 </i>
    <i name="atom">   4724.74487735 </i>
    <i name="e_fr_energy">    -39.33902024 </i>
    <i name="e_wo_entrp">    -39.33824254 </i>
    <i name="e_0_energy">    -39.33863139 </i>
   </energy>
  </scstep>
  <scstep>
   <time name="dav">    0.11    0.11</time>
   <time name="total">    0.12    0.13</time>
   <energy>
    <i name="alphaZ">     84.73417088 </i>
    <i name="ewald">   3577.73710626 </i>
    <i name="hartreedc">  -7965.60183165 </i>
    <i name="XCdc">    100.81170634 </i>
    <i name="pawpsdc">   5521.20005898 </i>
    <i name="pawaedc">  -5407.19264951 </i>
    <i name="eentropy">     -0.00077775 </i>
    <i name="bandstr">   -675.77168141 </i>
    <i name="atom">   4724.74487735 </i>
    <i name="e_fr_energy">    -39.33902050 </i>
    <i name="e_wo_entrp">    -39.33824275 </i>
    <i name="e_0_energy">    -39.33863163 </i>
   </energy>
  </scstep>
  <structure>
   <crystal>
    <varray name="basis" >
     <v>       3.37894624       0.00000000       0.00000000 </v>
     <v>       1.68947312       2.92625328       0.00000000 </v>
     <v>       0.00000000       0.00000000      20.00000000 </v>
    </varray>
    <i name="volume">    197.75304998 </i>
    <varray name="rec_basis" >
     <v>       0.29595025      -0.17086696       0.00000000 </v>
     <v>       0.00000000       0.34173392       0.00000000 </v>
     <v>       0.00000000       0.00000000       0.05000000 </v>
    </varray>
   </crystal>
   <varray name="positions" >
    <v>      -0.00000000      -0.00000000       0.50183214 </v>
    <v>       0.33333333       0.33333333       0.82319439 </v>
    <v>       0.33333333       0.33333333       0.42701844 </v>
    <v>       0.33333333       0.33333333       0.57671224 </v>
    <v>      -0.00000000       0.00000000       0.72965381 </v>
    <v>      -0.00000000      -0.00000000       0.91658898 </v>
   </varray>
  </structure>
  <varray name="forces" >
   <v>       0.00000000       0.00000000       0.00210198 </v>
   <v>       0.00000000       0.00000000      -0.00269978 </v>
   <v>      -0.00000000      -0.00000000       0.00090097 </v>
   <v>       0.00000000       0.00000000       0.00186873 </v>
   <v>       0.00000000       0.00000000      -0.00037114 </v>
   <v>       0.00000000      -0.00000000      -0.00180077 </v>
  </varray>
  <varray name="stress" >
   <v>     -25.42309448       0.00000000       0.00000000 </v>
   <v>      -0.00000000     -25.42309448      -0.00000000 </v>
   <v>      -0.00000000       0.00000000      -1.23100886 </v>
  </varray>
  <energy>
   <i name="e_fr_energy">    -41.85130097 </i>
   <i name="e_wo_entrp">    -41.85052322 </i>
   <i name="e_0_energy">    -41.85091209 </i>
  </energy>
  <time name="totalsc">    0.52    0.52</time>
 </calculation>
 <calculation>
  <scstep>
   <time name="dav">    0.09    0.09</time>
   <time name="total">    0.12    0.13</time>
   <energy>
    <i name="alphaZ">     84.73417088 </i>
    <i name="ewald">   3577.99893339 </i>
    <i name="hartreedc">  -7965.86322919 </i>
    <i name="XCdc">    100.81173778 </i>
    <i name="pawpsdc">   5521.20830884 </i>
    <i name="pawaedc">  -5407.20091963 </i>
    <i name="eentropy">     -0.00077734 </i>
    <i name="bandstr">   -675.77209940 </i>
    <i name="atom">   4724.74487735 </i>
    <i name="e_fr_energy">    -39.33899730 </i>
    <i name="e_wo_entrp">    -39.33821997 </i>
    <i name="e_0_energy">    -39.33860864 </i>
   </energy>
  </scstep>
  <scstep>
   <time name="dav">    0.09    0.09</time>
   <time name="total">    0.11    0.11</time>
   <energy>
    <i name="alphaZ">     84.73417088 </i>
    <i name="ewald">   3577.99893339 </i>
    <i name="hartreedc">  -7965.86326407 </i>
    <i name="XCdc">    100.81173702 </i>
    <i name="pawpsdc">   5521.22849986 </i>
    <i name="pawaedc">  -5407.22110196 </i>
    <i name="eentropy">     -0.00077749 </i>
    <i name="bandstr">   -675.77207260 </i>
    <i name="atom">   4724.74487735 </i>
    <i name="e_fr_energy">    -39.33899763 </i>
    <i name="e_wo_entrp">    -39.33822014 </i>
    <i name="e_0_energy">    -39.33860889 </i>
   </energy>
  </scstep>
  <structure>
   <crystal>
    <varray name="basis" >
     <v>       3.37894624       0.00000000       0.00000000 </v>
     <v>       1.68947312       2.92625328       0.00000000 </v>
     <v>       0.00000000       0.00000000      20.00000000 </v>
    </varray>
    <i name="volume">    197.75304998 </i>
    <varray name="rec_basis" >
     <v>       0.29595025      -0.17086696       0.00000000 </v>
     <v>       0.00000000       0.34173392       0.00000000 </v>
     <v>       0.00000000       0.00000000       0.05000000 </v>
    </varray>
   </crystal>
   <varray name="positions" >
    <v>      -0.00000000      -0.00000000       0.50183549 </v>
    <v>       0.33333333       0.33333333       0.82319019 </v>
    <v>       0.33333333       0.33333333       0.42701989 </v>
    <v>       0.33333333       0.33333333       0.57671523 </v>
    <v>      -0.00000000       0.00000000       0.72965291 </v>
    <v>      -0.00000000      -0.00000000       0.91658629 </v>
   </varray>
  </structure>
  <varray name="forces" >
   <v>      -0.00000000      -0.00000000       0.00117107 </v>
   <v>      -0.00000000      -0.00000000      -0.00121549 </v>
   <v>       0.00000000      -0.00000000       0.00138867 </v>
   <v>      -0.00000000       0.00000000       0.00166014 </v>
   <v>      -0.00000000      -0.00000000      -0.00105630 </v>
   <v>       0.00000000       0.00000000      -0.00194809 </v>
  </varray>
  <varray name="stress" >
   <v>     -25.42250495      -0.00000000       0.00000000 </v>
   <v>      -0.00000000     -25.42250495       0.00000000 </v>
   <v>      -0.00000000       0.00000000      -1.22880555 </v>
  </varray>
  <energy>
   <i name="e_fr_energy">    -41.85130158 </i>
   <i name="e_wo_entrp">    -41.85052409 </i>
   <i name="e_0_energy">    -41.85091284 </i>
  </energy>
  <time name="totalsc">    0.50    0.51</time>
 </calculation>
 <calculation>
  <scstep>
   <time name="dav">    0.09    0.09</time>
   <time name="total">    0.12    0.12</time>
   <energy>
    <i name="alphaZ">     84.73417088 </i>
    <i name="ewald">   3579.79258129 </i>
    <i name="hartreedc">  -7967.65036862 </i>
    <i name="XCdc">    100.81273053 </i>
    <i name="pawpsdc">   5521.22893849 </i>
    <i name="pawaedc">  -5407.22155868 </i>
    <i name="eentropy">     -0.00077499 </i>
    <i name="bandstr">   -675.77939820 </i>
    <i name="atom">   4724.74487735 </i>
    <i name="e_fr_energy">    -39.33880194 </i>
    <i name="e_wo_entrp">    -39.33802695 </i>
    <i name="e_0_energy">    -39.33841445 </i>
   </energy>
  </scstep>
  <scstep>
   <time name="dav">    0.10    0.10</time>
   <time name="total">    0.14    0.14</time>
   <energy>
    <i name="e_fr_energy">    -39.33881107 </i>
    <i name="e_wo_entrp">    -39.33803570 </i>
    <i name="e_0_energy">    -39.33842339 </i>
   </energy>
  </scstep>
  <scstep>
   <time name="dav">    0.07    0.07</time>
   <time name="total">    0.09    0.09</time>
   <energy>
    <i name="alphaZ">     84.73417088 </i>
    <i name="ewald">   3579.79258129 </i>
    <i name="hartreedc">  -7967.65083190 </i>
    <i name="XCdc">    100.81271191 </i>
    <i name="pawpsdc">   5521.41790707 </i>
    <i name="pawaedc">  -5407.41056930 </i>
    <i name="eentropy">     -0.00077533 </i>
    <i name="bandstr">   -675.77888288 </i>
    <i name="atom">   4724.74487735 </i>
    <i name="e_fr_energy">    -39.33881090 </i>
    <i name="e_wo_entrp">    -39.33803558 </i>
    <i name="e_0_energy">    -39.33842324 </i>
   </energy>
  </scstep>
  <structure>
   <crystal>
    <varray name="basis" >
     <v>       3.37894624       0.00000000       0.00000000 </v>
     <v>       1.68947312       2.92625328       0.00000000 </v>
     <v>       0.00000000       0.00000000      20.00000000 </v>
    </varray>
    <i name="volume">    197.75304998 </i>
    <varray name="rec_basis" >
     <v>       0.29595025      -0.17086696       0.00000000 </v>
     <v>       0.00000000       0.34173392       0.00000000 </v>
     <v>       0.00000000       0.00000000       0.05000000 </v>
    </varray>
   </crystal>
   <varray name="positions" >
    <v>      -0.00000000      -0.00000000       0.50185246 </v>
    <v>       0.33333333       0.33333333       0.82317113 </v>
    <v>       0.33333333       0.33333333       0.42703812 </v>
    <v>       0.33333333       0.33333333       0.57673794 </v>
    <v>      -0.00000000       0.00000000       0.72964182 </v>
    <v>      -0.00000000      -0.00000000       0.91655853 </v>
   </varray>
  </structure>
  <varray name="forces" >
   <v>      -0.00000000      -0.00000000       0.00295584 </v>
   <v>       0.00000000       0.00000000      -0.00183507 </v>
   <v>       0.00000000       0.00000000       0.00066264 </v>
   <v>       0.00000000       0.00000000      -0.00061700 </v>
   <v>      -0.00000000      -0.00000000      -0.00264009 </v>
   <v>      -0.00000000      -0.00000000       0.00147369 </v>
  </varray>
  <varray name="stress" >
   <v>     -25.39556597       0.00000000      -0.00000000 </v>
   <v>      -0.00000000     -25.39556597       0.00000000 </v>
   <v>      -0.00000000       0.00000000      -1.15978099 </v>
  </varray>
  <energy>
   <i name="e_fr_energy">    -41.85130470 </i>
   <i name="e_wo_entrp">    -41.85052937 </i>
   <i name="e_0_energy">    -41.85091704 </i>
  </energy>
  <time name="totalsc">    0.62    0.63</time>
 </calculation>
 <calculation>
  <scstep>
   <time name="dav">    0.07    0.07</time>
   <time name="total">    0.10    0.10</time>
   <energy>
    <i name="alphaZ">     84.73417088 </i>
    <i name="ewald">   3579.80990870 </i>
    <i name="hartreedc">  -7967.67014975 </i>
    <i name="XCdc">    100.81273282 </i>
    <i name="pawpsdc">   5521.44198804 </i>
    <i name="pawaedc">  -5407.43457911 </i>
    <i name="eentropy">     -0.00077542 </i>
    <i name="bandstr">   -675.77698290 </i>
    <i name="atom">   4724.74487735 </i>
    <i name="e_fr_energy">    -39.33880939 </i>
    <i name="e_wo_entrp">    -39.33803397 </i>
    <i name="e_0_energy">    -39.33842168 </i>
   </energy>
  </scstep>
  <scstep>
   <time name="dav">    0.06    0.06</time>
   <time name="total">    0.08    0.08</time>
   <energy>
    <i name="alphaZ">     84.73417088 </i>
    <i name="ewald">   3579.80990870 </i>
    <i name="hartreedc">  -7967.66807225 </i>
    <i name="XCdc">    100.81266143 </i>
    <i name="pawpsdc">   5521.44894487 </i>
    <i name="pawaedc">  -5407.44169240 </i>
    <i name="eentropy">     -0.00077536 </i>
    <i name="bandstr">   -675.77883263 </i>
    <i name="atom">   4724.74487735 </i>
    <i name="e_fr_energy">    -39.33880942 </i>
    <i name="e_wo_entrp">    -39.33803406 </i>
    <i name="e_0_energy">    -39.33842174 </i>
   </energy>
  </scstep>
  <structure>
   <crystal>
    <varray name="basis" >
     <v>       3.37894624       0.00000000       0.00000000 </v>
     <v>       1.68947312       2.92625328       0.00000000 </v>
     <v>       0.00000000       0.00000000      20.00000000 </v>
    </varray>
    <i name="volume">    197.75304998 </i>
    <varray name="rec_basis" >
     <v>       0.29595025      -0.17086696       0.00000000 </v>
     <v>       0.00000000       0.34173392       0.00000000 </v>
     <v>       0.00000000       0.00000000       0.05000000 </v>
    </varray>
   </crystal>
   <varray name="positions" >
    <v>      -0.00000000      -0.00000000       0.50185267 </v>
    <v>       0.33333333       0.33333333       0.82317092 </v>
    <v>       0.33333333       0.33333333       0.42703827 </v>
    <v>       0.33333333       0.33333333       0.57673795 </v>
    <v>      -0.00000000       0.00000000       0.72964184 </v>
    <v>      -0.00000000      -0.00000000       0.91655834 </v>
   </varray>
  </structure>
  <varray name="forces" >
   <v>      -0.00000000       0.00000000       0.00229079 </v>
   <v>       0.00000000      -0.00000000      -0.00153517 </v>
   <v>       0.00000000       0.00000000       0.00106609 </v>
   <v>       0.00000000      -0.00000000      -0.00020894 </v>
   <v>      -0.00000000       0.00000000      -0.00283726 </v>
   <v>      -0.00000000       0.00000000       0.00122448 </v>
  </varray>
  <varray name="stress" >
   <v>     -25.39206941       0.00000000       0.00000000 </v>
   <v>       0.00000000     -25.39206941       0.00000000 </v>
   <v>       0.00000000       0.00000000      -1.14783233 </v>
  </varray>
  <energy>
   <i name="e_fr_energy">    -41.85130474 </i>
   <i name="e_wo_entrp">    -41.85052938 </i>
   <i name="e_0_energy">    -41.85091706 </i>
  </energy>
  <time name="totalsc">    0.46    0.47</time>
 </calculation>
 <calculation>
  <scstep>
   <time name="dav">    0.09    0.09</time>
   <time name="total">    0.12    0.12</time>
   <energy>
    <i name="alphaZ">     84.73417088 </i>
    <i name="ewald">   3578.67192116 </i>
    <i name="hartreedc">  -7966.53804974 </i>
    <i name="XCdc">    100.81189243 </i>
    <i name="pawpsdc">   5521.46428023 </i>
    <i name="pawaedc">  -5407.45692223 </i>
    <i name="eentropy">     -0.00077752 </i>
    <i name="bandstr">   -675.77032186 </i>
    <i name="atom">   4724.74487735 </i>
    <i name="e_fr_energy">    -39.33892930 </i>
    <i name="e_wo_entrp">    -39.33815177 </i>
    <i name="e_0_energy">    -39.33854054 </i>
   </energy>
  </scstep>
  <scstep>
   <time name="dav">    0.10    0.10</time>
   <time name="total">    0.14    0.14</time>
   <energy>
    <i name="e_fr_energy">    -39.33893258 </i>
    <i name="e_wo_entrp">    -39.33815542 </i>
    <i name="e_0_energy">    -39.33854400 </i>
   </energy>
  </scstep>
  <scstep>
   <time name="dav">    0.07    0.07</time>
   <time name="total">    0.09    0.09</time>
   <energy>
    <i name="alphaZ">     84.73417088 </i>
    <i name="ewald">   3578.67192116 </i>
    <i name="hartreedc">  -7966.53598743 </i>
    <i name="XCdc">    100.81186072 </i>
    <i name="pawpsdc">   5521.30754833 </i>
    <i name="pawaedc">  -5407.30023474 </i>
    <i name="eentropy">     -0.00077734 </i>
    <i name="bandstr">   -675.77231137 </i>
    <i name="atom">   4724.74487735 </i>
    <i name="e_fr_energy">    -39.33893246 </i>
    <i name="e_wo_entrp">    -39.33815511 </i>
    <i name="e_0_energy">    -39.33854379 </i>
   </energy>
  </scstep>
  <structure>
   <crystal>
    <varray name="basis" >
     <v>       3.37894624       0.00000000       0.00000000 </v>
     <v>       1.68947312       2.92625328       0.00000000 </v>
     <v>       0.00000000       0.00000000      20.00000000 </v>
    </varray>
    <i name="volume">    197.75304998 </i>
    <varray name="rec_basis" >
     <v>       0.29595025      -0.17086696       0.00000000 </v>
     <v>       0.00000000       0.34173392       0.00000000 </v>
     <v>       0.00000000       0.00000000       0.05000000 </v>
    </varray>
   </crystal>
   <varray name="positions" >
    <v>      -0.00000000      -0.00000000       0.50184482 </v>
    <v>       0.33333333       0.33333333       0.82318338 </v>
    <v>       0.33333333       0.33333333       0.42702554 </v>
    <v>       0.33333333       0.33333333       0.57672171 </v>
    <v>      -0.00000000       0.00000000       0.72964680 </v>
    <v>      -0.00000000      -0.00000000       0.91657775 </v>
   </varray>
  </structure>
  <varray name="forces" >
   <v>       0.00000000       0.00000000      -0.00052450 </v>
   <v>      -0.00000000      -0.00000000      -0.00195479 </v>
   <v>       0.00000000       0.00000000       0.00262085 </v>
   <v>      -0.00000000       0.00000000       0.00239629 </v>
   <v>       0.00000000       0.00000000      -0.00103018 </v>
   <v>       0.00000000       0.00000000      -0.00150767 </v>
  </varray>
  <varray name="stress" >
   <v>     -25.42295923       0.00000000      -0.00000000 </v>
   <v>       0.00000000     -25.42295923       0.00000000 </v>
   <v>      -0.00000000      -0.00000000      -1.21529694 </v>
  </varray>
  <energy>
   <i name="e_fr_energy">    -41.85130304 </i>
   <i name="e_wo_entrp">    -41.85052570 </i>
   <i name="e_0_energy">    -41.85091437 </i>
  </energy>
  <time name="totalsc">    0.62    0.63</time>
 </calculation>
 <calculation>
  <scstep>
   <time name="dav">    0.09    0.09</time>
   <time name="total">    0.13    0.13</time>
   <energy>
    <i name="alphaZ">     84.73417088 </i>
    <i name="ewald">   3578.84200607 </i>
    <i name="hartreedc">  -7966.70353012 </i>
    <i name="XCdc">    100.81195496 </i>
    <i name="pawpsdc">   5521.29476605 </i>
    <i name="pawaedc">  -5407.28753149 </i>
    <i name="eentropy">     -0.00077711 </i>
    <i name="bandstr">   -675.77485052 </i>
    <i name="atom">   4724.74487735 </i>
    <i name="e_fr_energy">    -39.33891393 </i>
    <i name="e_wo_entrp">    -39.33813682 </i>
    <i name="e_0_energy">    -39.33852538 </i>
   </energy>
  </scstep>
  <scstep>
   <time name="dav">    0.07    0.07</time>
   <time name="total">    0.09    0.09</time>
   <energy>
    <i name="alphaZ">     84.73417088 </i>
    <i name="ewald">   3578.84200607 </i>
    <i name="hartreedc">  -7966.70512031 </i>
    <i name="XCdc">    100.81202264 </i>
    <i name="pawpsdc">   5521.30690218 </i>
    <i name="pawaedc">  -5407.29953831 </i>
    <i name="eentropy">     -0.00077716 </i>
    <i name="bandstr">   -675.77345735 </i>
    <i name="atom">   4724.74487735 </i>
    <i name="e_fr_energy">    -39.33891402 </i>
    <i name="e_wo_entrp">    -39.33813685 </i>
    <i name="e_0_energy">    -39.33852544 </i>
   </energy>
  </scstep>
  <structure>
   <crystal>
    <varray name="basis" >
     <v>       3.37894624       0.00000000       0.00000000 </v>
     <v>       1.68947312       2.92625328       0.00000000 </v>
     <v>       0.00000000       0.00000000      20.00000000 </v>
    </varray>
    <i name="volume">    197.75304998 </i>
    <varray name="rec_basis" >
     <v>       0.29595025      -0.17086696       0.00000000 </v>
     <v>       0.00000000       0.34173392       0.00000000 </v>
     <v>       0.00000000       0.00000000       0.05000000 </v>
    </varray>
   </crystal>
   <varray name="positions" >
    <v>      -0.00000000      -0.00000000       0.50184466 </v>
    <v>       0.33333333       0.33333333       0.82318101 </v>
    <v>       0.33333333       0.33333333       0.42702870 </v>
    <v>       0.33333333       0.33333333       0.57672492 </v>
    <v>      -0.00000000       0.00000000       0.72964553 </v>
    <v>      -0.00000000      -0.00000000       0.91657517 </v>
   </varray>
  </structure>
  <varray name="forces" >
   <v>      -0.00000000      -0.00000000       0.00125036 </v>
   <v>       0.00000000       0.00000000      -0.00133845 </v>
   <v>      -0.00000000       0.00000000       0.00112613 </v>
   <v>      -0.00000000      -0.00000000       0.00101557 </v>
   <v>      -0.00000000      -0.00000000      -0.00108135 </v>
   <v>       0.00000000       0.00000000      -0.00097226 </v>
  </varray>
  <varray name="stress" >
   <v>     -25.42106451       0.00000000      -0.00000000 </v>
   <v>      -0.00000000     -25.42106451       0.00000000 </v>
   <v>       0.00000000      -0.00000000      -1.21598836 </v>
  </varray>
  <energy>
   <i name="e_fr_energy">    -41.85130340 </i>
   <i name="e_wo_entrp">    -41.85052624 </i>
   <i name="e_0_energy">    -41.85091482 </i>
  </energy>
  <time name="totalsc">    0.49    0.49</time>
 </calculation>
 <calculation>
  <scstep>
   <time name="dav">    0.09    0.09</time>
   <time name="total">    0.12    0.12</time>
   <energy>
    <i name="alphaZ">     84.73417088 </i>
    <i name="ewald">   3579.06122755 </i>
    <i name="hartreedc">  -7966.92254499 </i>
    <i name="XCdc">    100.81204740 </i>
    <i name="pawpsdc">   5521.30569601 </i>
    <i name="pawaedc">  -5407.29839563 </i>
    <i name="eentropy">     -0.00077715 </i>
    <i name="bandstr">   -675.77519224 </i>
    <i name="atom">   4724.74487735 </i>
    <i name="e_fr_energy">    -39.33889082 </i>
    <i name="e_wo_entrp">    -39.33811367 </i>
    <i name="e_0_energy">    -39.33850224 </i>
   </energy>
  </scstep>
  <scstep>
   <time name="dav">    0.09    0.09</time>
   <time name="total">    0.11    0.11</time>
   <energy>
    <i name="alphaZ">     84.73417088 </i>
    <i name="ewald">   3579.06122755 </i>
    <i name="hartreedc">  -7966.92367487 </i>
    <i name="XCdc">    100.81208097 </i>
    <i name="pawpsdc">   5521.30904430 </i>
    <i name="pawaedc">  -5407.30165864 </i>
    <i name="eentropy">     -0.00077715 </i>
    <i name="bandstr">   -675.77418133 </i>
    <i name="atom">   4724.74487735 </i>
    <i name="e_fr_energy">    -39.33889094 </i>
    <i name="e_wo_entrp">    -39.33811380 </i>
    <i name="e_0_energy">    -39.33850237 </i>
   </energy>
  </scstep>
  <structure>
   <crystal>
    <varray name="basis" >
     <v>       3.37894624       0.00000000       0.00000000 </v>
     <v>       1.68947312       2.92625328       0.00000000 </v>
     <v>       0.00000000       0.00000000      20.00000000 </v>
    </varray>
    <i name="volume">    197.75304998 </i>
    <varray name="rec_basis" >
     <v>       0.29595025      -0.17086696       0.00000000 </v>
     <v>       0.00000000       0.34173392       0.00000000 </v>
     <v>       0.00000000       0.00000000       0.05000000 </v>
    </varray>
   </crystal>
   <varray name="positions" >
    <v>      -0.00000000      -0.00000000       0.50184728 </v>
    <v>       0.33333333       0.33333333       0.82317946 </v>
    <v>       0.33333333       0.33333333       0.42703153 </v>
    <v>       0.33333333       0.33333333       0.57672744 </v>
    <v>      -0.00000000       0.00000000       0.72964216 </v>
    <v>      -0.00000000      -0.00000000       0.91657213 </v>
   </varray>
  </structure>
  <varray name="forces" >
   <v>      -0.00000000       0.00000000       0.00133494 </v>
   <v>      -0.00000000       0.00000000      -0.00213466 </v>
   <v>       0.00000000       0.00000000       0.00098843 </v>
   <v>      -0.00000000      -0.00000000       0.00092984 </v>
   <v>       0.00000000      -0.00000000      -0.00056662 </v>
   <v>       0.00000000      -0.00000000      -0.00055194 </v>
  </varray>
  <varray name="stress" >
   <v>     -25.41959204      -0.00000000      -0.00000000 </v>
   <v>      -0.00000000     -25.41959204       0.00000000 </v>
   <v>       0.00000000      -0.00000000      -1.20958095 </v>
  </varray>
  <energy>
   <i name="e_fr_energy">    -41.85130380 </i>
   <i name="e_wo_entrp">    -41.85052665 </i>
   <i name="e_0_energy">    -41.85091523 </i>
  </energy>
  <time name="totalsc">    0.50    0.51</time>
 </calculation>
 <calculation>
  <scstep>
   <time name="dav">    0.08    0.08</time>
   <time name="total">    0.11    0.11</time>
   <energy>
    <i name="alphaZ">     84.73417088 </i>
    <i name="ewald">   3578.99260695 </i>
    <i name="hartreedc">  -7966.85468498 </i>
    <i name="XCdc">    100.81199265 </i>
    <i name="pawpsdc">   5521.31139869 </i>
    <i name="pawaedc">  -5407.30405341 </i>
    <i name="eentropy">     -0.00077721 </i>
    <i name="bandstr">   -675.77443272 </i>
    <i name="atom">   4724.74487735 </i>
    <i name="e_fr_energy">    -39.33890180 </i>
    <i name="e_wo_entrp">    -39.33812459 </i>
    <i name="e_0_energy">    -39.33851320 </i>
   </energy>
  </scstep>
  <scstep>
   <time name="dav">    0.06    0.06</time>
   <time name="total">    0.08    0.08</time>
   <energy>
    <i name="alphaZ">     84.73417088 </i>
    <i name="ewald">   3578.99260695 </i>
    <i name="hartreedc">  -7966.85494582 </i>
    <i name="XCdc">    100.81198750 </i>
    <i name="pawpsdc">   5521.30780506 </i>
    <i name="pawaedc">  -5407.30045354 </i>
    <i name="eentropy">     -0.00077728 </i>
    <i name="bandstr">   -675.77417291 </i>
    <i name="atom">   4724.74487735 </i>
    <i name="e_fr_energy">    -39.33890181 </i>
    <i name="e_wo_entrp">    -39.33812453 </i>
    <i name="e_0_energy">    -39.33851317 </i>
   </energy>
  </scstep>
  <structure>
   <crystal>
    <varray name="basis" >
     <v>       3.37894624       0.00000000       0.00000000 </v>
     <v>       1.68947312       2.92625328       0.00000000 </v>
     <v>       0.00000000       0.00000000      20.00000000 </v>
    </varray>
    <i name="volume">    197.75304998 </i>
    <varray name="rec_basis" >
     <v>       0.29595025      -0.17086696       0.00000000 </v>
     <v>       0.00000000       0.34173392       0.00000000 </v>
     <v>       0.00000000       0.00000000       0.05000000 </v>
    </varray>
   </crystal>
   <varray name="positions" >
    <v>      -0.00000000      -0.00000000       0.50184750 </v>
    <v>       0.33333333       0.33333333       0.82317917 </v>
    <v>       0.33333333       0.33333333       0.42702971 </v>
    <v>       0.33333333       0.33333333       0.57672566 </v>
    <v>      -0.00000000       0.00000000       0.72964369 </v>
    <v>      -0.00000000      -0.00000000       0.91657427 </v>
   </varray>
  </structure>
  <varray name="forces" >
   <v>      -0.00000000      -0.00000000       0.00000903 </v>
   <v>       0.00000000       0.00000000      -0.00142514 </v>
   <v>      -0.00000000       0.00000000       0.00214323 </v>
   <v>      -0.00000000      -0.00000000       0.00212444 </v>
   <v>      -0.00000000      -0.00000000      -0.00129632 </v>
   <v>      -0.00000000      -0.00000000      -0.00155525 </v>
  </varray>
  <varray name="stress" >
   <v>     -25.41735585       0.00000000      -0.00000000 </v>
   <v>       0.00000000     -25.41735585       0.00000000 </v>
   <v>      -0.00000000       0.00000000      -1.20508718 </v>
  </varray>
  <energy>
   <i name="e_fr_energy">    -41.85130361 </i>
   <i name="e_wo_entrp">    -41.85052633 </i>
   <i name="e_0_energy">    -41.85091497 </i>
  </energy>
  <time name="totalsc">    0.47    0.47</time>
 </calculation>
 <calculation>
  <scstep>
   <time name="dav">    0.06    0.06</time>
   <time name="total">    0.09    0.09</time>
   <energy>
    <i name="alphaZ">     84.73417088 </i>
    <i name="ewald">   3578.97622028 </i>
    <i name="hartreedc">  -7966.83840743 </i>
    <i name="XCdc">    100.81201720 </i>
    <i name="pawpsdc">   5521.30519779 </i>
    <i name="pawaedc">  -5407.29784291 </i>
    <i name="eentropy">     -0.00077720 </i>
    <i name="bandstr">   -675.77435900 </i>
    <i name="atom">   4724.74487735 </i>
    <i name="e_fr_energy">    -39.33890304 </i>
    <i name="e_wo_entrp">    -39.33812585 </i>
    <i name="e_0_energy">    -39.33851444 </i>
   </energy>
  </scstep>
  <scstep>
   <time name="dav">    0.06    0.06</time>
   <time name="total">    0.08    0.08</time>
   <energy>
    <i name="alphaZ">     84.73417088 </i>
    <i name="ewald">   3578.97622028 </i>
    <i name="hartreedc">  -7966.83855184 </i>
    <i name="XCdc">    100.81202010 </i>
    <i name="pawpsdc">   5521.30725858 </i>
    <i name="pawaedc">  -5407.29989853 </i>
    <i name="eentropy">     -0.00077723 </i>
    <i name="bandstr">   -675.77422263 </i>
    <i name="atom">   4724.74487735 </i>
    <i name="e_fr_energy">    -39.33890305 </i>
    <i name="e_wo_entrp">    -39.33812582 </i>
    <i name="e_0_energy">    -39.33851444 </i>
   </energy>
  </scstep>
  <structure>
   <crystal>
    <varray name="basis" >
     <v>       3.37894624       0.00000000       0.00000000 </v>
     <v>       1.68947312       2.92625328       0.00000000 </v>
     <v>       0.00000000       0.00000000      20.00000000 </v>
    </varray>
    <i name="volume">    197.75304998 </i>
    <varray name="rec_basis" >
     <v>       0.29595025      -0.17086696       0.00000000 </v>
     <v>       0.00000000       0.34173392       0.00000000 </v>
     <v>       0.00000000       0.00000000       0.05000000 </v>
    </varray>
   </crystal>
   <varray name="positions" >
    <v>      -0.00000000      -0.00000000       0.50184717 </v>
    <v>       0.33333333       0.33333333       0.82317936 </v>
    <v>       0.33333333       0.33333333       0.42702945 </v>
    <v>       0.33333333       0.33333333       0.57672546 </v>
    <v>      -0.00000000       0.00000000       0.72964434 </v>
    <v>      -0.00000000      -0.00000000       0.91657421 </v>
   </varray>
  </structure>
  <varray name="forces" >
   <v>      -0.00000000      -0.00000000       0.00049994 </v>
   <v>       0.00000000       0.00000000      -0.00176068 </v>
   <v>      -0.00000000      -0.00000000       0.00214633 </v>
   <v>      -0.00000000      -0.00000000       0.00207853 </v>
   <v>      -0.00000000      -0.00000000      -0.00152421 </v>
   <v>       0.00000000       0.00000000      -0.00143991 </v>
  </varray>
  <varray name="stress" >
   <v>     -25.41572068       0.00000000       0.00000000 </v>
   <v>       0.00000000     -25.41572068       0.00000000 </v>
   <v>      -0.00000000      -0.00000000      -1.20278016 </v>
  </varray>
  <energy>
   <i name="e_fr_energy">    -41.85130357 </i>
   <i name="e_wo_entrp">    -41.85052635 </i>
   <i name="e_0_energy">    -41.85091496 </i>
  </energy>
  <time name="totalsc">    0.44    0.45</time>
 </calculation>
 <calculation>
  <scstep>
   <time name="dav">    0.09    0.09</time>
   <time name="total">    0.12    0.12</time>
   <energy>
    <i name="alphaZ">     84.73417088 </i>
    <i name="ewald">   3578.92126202 </i>
    <i name="hartreedc">  -7966.78349603 </i>
    <i name="XCdc">    100.81204920 </i>
    <i name="pawpsdc">   5521.30734682 </i>
    <i name="pawaedc">  -5407.29998624 </i>
    <i name="eentropy">     -0.00077712 </i>
    <i name="bandstr">   -675.77434998 </i>
    <i name="atom">   4724.74487735 </i>
    <i name="e_fr_energy">    -39.33890311 </i>
    <i name="e_wo_entrp">    -39.33812599 </i>
    <i name="e_0_energy">    -39.33851455 </i>
   </energy>
  </scstep>
  <scstep>
   <time name="dav">    0.06    0.06</time>
   <time name="total">    0.08    0.08</time>
   <energy>
    <i name="alphaZ">     84.73417088 </i>
    <i name="ewald">   3578.92126202 </i>
    <i name="hartreedc">  -7966.78358001 </i>
    <i name="XCdc">    100.81205463 </i>
    <i name="pawpsdc">   5521.31317736 </i>
    <i name="pawaedc">  -5407.30581567 </i>
    <i name="eentropy">     -0.00077710 </i>
    <i name="bandstr">   -675.77427264 </i>
    <i name="atom">   4724.74487735 </i>
    <i name="e_fr_energy">    -39.33890318 </i>
    <i name="e_wo_entrp">    -39.33812608 </i>
    <i name="e_0_energy">    -39.33851463 </i>
   </energy>
  </scstep>
  <structure>
   <crystal>
    <varray name="basis" >
     <v>       3.37894624       0.00000000       0.00000000 </v>
     <v>       1.68947312       2.92625328       0.00000000 </v>
     <v>       0.00000000       0.00000000      20.00000000 </v>
    </varray>
    <i name="volume">    197.75304998 </i>
    <varray name="rec_basis" >
     <v>       0.29595025      -0.17086696       0.00000000 </v>
     <v>       0.00000000       0.34173392       0.00000000 </v>
     <v>       0.00000000       0.00000000       0.05000000 </v>
    </varray>
   </crystal>
   <varray name="positions" >
    <v>      -0.00000000      -0.00000000       0.50184522 </v>
    <v>       0.33333333       0.33333333       0.82318113 </v>
    <v>       0.33333333       0.33333333       0.42703015 </v>
    <v>       0.33333333       0.33333333       0.57672635 </v>
    <v>      -0.00000000       0.00000000       0.72964390 </v>
    <v>      -0.00000000      -0.00000000       0.91657324 </v>
   </varray>
  </structure>
  <varray name="forces" >
   <v>       0.00000000       0.00000000       0.00211471 </v>
   <v>       0.00000000       0.00000000      -0.00292504 </v>
   <v>      -0.00000000       0.00000000       0.00124137 </v>
   <v>       0.00000000       0.00000000       0.00104370 </v>
   <v>      -0.00000000      -0.00000000      -0.00082778 </v>
   <v>      -0.00000000      -0.00000000      -0.00064695 </v>
  </varray>
  <varray name="stress" >
   <v>     -25.41549412       0.00000000       0.00000000 </v>
   <v>       0.00000000     -25.41549412       0.00000000 </v>
   <v>       0.00000000       0.00000000      -1.20421176 </v>
  </varray>
  <energy>
   <i name="e_fr_energy">    -41.85130354 </i>
   <i name="e_wo_entrp">    -41.85052645 </i>
   <i name="e_0_energy">    -41.85091499 </i>
  </energy>
  <time name="totalsc">    0.47    0.48</time>
 </calculation>
 <calculation>
  <scstep>
   <time name="dav">    0.09    0.09</time>
   <time name="total">    0.12    0.12</time>
   <energy>
    <i name="alphaZ">     84.73417088 </i>
    <i name="ewald">   3579.14894104 </i>
    <i name="hartreedc">  -7967.01069699 </i>
    <i name="XCdc">    100.81214477 </i>
    <i name="pawpsdc">   5521.31454838 </i>
    <i name="pawaedc">  -5407.30719526 </i>
    <i name="eentropy">     -0.00077702 </i>
    <i name="bandstr">   -675.77489395 </i>
    <i name="atom">   4724.74487735 </i>
    <i name="e_fr_energy">    -39.33888080 </i>
    <i name="e_wo_entrp">    -39.33810377 </i>
    <i name="e_0_energy">    -39.33849228 </i>
   </energy>
  </scstep>
  <scstep>
   <time name="dav">    0.09    0.09</time>
   <time name="total">    0.11    0.11</time>
   <energy>
    <i name="alphaZ">     84.73417088 </i>
    <i name="ewald">   3579.14894104 </i>
    <i name="hartreedc">  -7967.01065611 </i>
    <i name="XCdc">    100.81215591 </i>
    <i name="pawpsdc">   5521.32500809 </i>
    <i name="pawaedc">  -5407.31764420 </i>
    <i name="eentropy">     -0.00077690 </i>
    <i name="bandstr">   -675.77495705 </i>
    <i name="atom">   4724.74487735 </i>
    <i name="e_fr_energy">    -39.33888100 </i>
    <i name="e_wo_entrp">    -39.33810410 </i>
    <i name="e_0_energy">    -39.33849255 </i>
   </energy>
  </scstep>
  <structure>
   <crystal>
    <varray name="basis" >
     <v>       3.37894624       0.00000000       0.00000000 </v>
     <v>       1.68947312       2.92625328       0.00000000 </v>
     <v>       0.00000000       0.00000000      20.00000000 </v>
    </varray>
    <i name="volume">    197.75304998 </i>
    <varray name="rec_basis" >
     <v>       0.29595025      -0.17086696       0.00000000 </v>
     <v>       0.00000000       0.34173392       0.00000000 </v>
     <v>       0.00000000       0.00000000       0.05000000 </v>
    </varray>
   </crystal>
   <varray name="positions" >
    <v>      -0.00000000      -0.00000000       0.50184584 </v>
    <v>       0.33333333       0.33333333       0.82317754 </v>
    <v>       0.33333333       0.33333333       0.42703390 </v>
    <v>       0.33333333       0.33333333       0.57672998 </v>
    <v>      -0.00000000       0.00000000       0.72964198 </v>
    <v>      -0.00000000      -0.00000000       0.91657076 </v>
   </varray>
  </structure>
  <varray name="forces" >
   <v>       0.00000000       0.00000000       0.00318545 </v>
   <v>      -0.00000000      -0.00000000      -0.00157877 </v>
   <v>      -0.00000000       0.00000000       0.00012807 </v>
   <v>       0.00000000       0.00000000       0.00007137 </v>
   <v>      -0.00000000       0.00000000      -0.00106032 </v>
   <v>       0.00000000      -0.00000000      -0.00074580 </v>
  </varray>
  <varray name="stress" >
   <v>     -25.41461868      -0.00000000      -0.00000000 </v>
   <v>      -0.00000000     -25.41461868      -0.00000000 </v>
   <v>       0.00000000      -0.00000000      -1.20012574 </v>
  </varray>
  <energy>
   <i name="e_fr_energy">    -41.85130394 </i>
   <i name="e_wo_entrp">    -41.85052703 </i>
   <i name="e_0_energy">    -41.85091548 </i>
  </energy>
  <time name="totalsc">    0.51    0.51</time>
 </calculation>
 <calculation>
  <scstep>
   <time name="dav">    0.09    0.09</time>
   <time name="total">    0.12    0.12</time>
   <energy>
    <i name="alphaZ">     84.73417088 </i>
    <i name="ewald">   3579.28818899 </i>
    <i name="hartreedc">  -7967.14978472 </i>
    <i name="XCdc">    100.81217516 </i>
    <i name="pawpsdc">   5521.32774643 </i>
    <i name="pawaedc">  -5407.32039158 </i>
    <i name="eentropy">     -0.00077686 </i>
    <i name="bandstr">   -675.77507101 </i>
    <i name="atom">   4724.74487735 </i>
    <i name="e_fr_energy">    -39.33886536 </i>
    <i name="e_wo_entrp">    -39.33808850 </i>
    <i name="e_0_energy">    -39.33847693 </i>
   </energy>
  </scstep>
  <scstep>
   <time name="dav">    0.07    0.07</time>
   <time name="total">    0.08    0.08</time>
   <energy>
    <i name="alphaZ">     84.73417088 </i>
    <i name="ewald">   3579.28818899 </i>
    <i name="hartreedc">  -7967.14971945 </i>
    <i name="XCdc">    100.81217255 </i>
    <i name="pawpsdc">   5521.33090080 </i>
    <i name="pawaedc">  -5407.32353990 </i>
    <i name="eentropy">     -0.00077684 </i>
    <i name="bandstr">   -675.77513981 </i>
    <i name="atom">   4724.74487735 </i>
    <i name="e_fr_energy">    -39.33886543 </i>
    <i name="e_wo_entrp">    -39.33808859 </i>
    <i name="e_0_energy">    -39.33847701 </i>
   </energy>
  </scstep>
  <structure>
   <crystal>
    <varray name="basis" >
     <v>       3.37894624       0.00000000       0.00000000 </v>
     <v>       1.68947312       2.92625328       0.00000000 </v>
     <v>       0.00000000       0.00000000      20.00000000 </v>
    </varray>
    <i name="volume">    197.75304998 </i>
    <varray name="rec_basis" >
     <v>       0.29595025      -0.17086696       0.00000000 </v>
     <v>       0.00000000       0.34173392       0.00000000 </v>
     <v>       0.00000000       0.00000000       0.05000000 </v>
    </varray>
   </crystal>
   <varray name="positions" >
    <v>      -0.00000000      -0.00000000       0.50184831 </v>
    <v>       0.33333333       0.33333333       0.82317723 </v>
    <v>       0.33333333       0.33333333       0.42703510 </v>
    <v>       0.33333333       0.33333333       0.57673136 </v>
    <v>      -0.00000000       0.00000000       0.72963962 </v>
    <v>      -0.00000000      -0.00000000       0.91656838 </v>
   </varray>
  </structure>
  <varray name="forces" >
   <v>      -0.00000000      -0.00000000       0.00239525 </v>
   <v>       0.00000000       0.00000000      -0.00258893 </v>
   <v>      -0.00000000      -0.00000000       0.00043197 </v>
   <v>      -0.00000000      -0.00000000       0.00023031 </v>
   <v>       0.00000000       0.00000000      -0.00038339 </v>
   <v>      -0.00000000       0.00000000      -0.00008521 </v>
  </varray>
  <varray name="stress" >
   <v>     -25.41505390       0.00000000       0.00000000 </v>
   <v>       0.00000000     -25.41505390      -0.00000000 </v>
   <v>      -0.00000000       0.00000000      -1.19899422 </v>
  </varray>
  <energy>
   <i name="e_fr_energy">    -41.85130418 </i>
   <i name="e_wo_entrp">    -41.85052733 </i>
   <i name="e_0_energy">    -41.85091575 </i>
  </energy>
  <time name="totalsc">    0.48    0.48</time>
 </calculation>
 <calculation>
  <scstep>
   <time name="dav">    0.09    0.09</time>
   <time name="total">    0.13    0.13</time>
   <energy>
    <i name="alphaZ">     84.73417088 </i>
    <i name="ewald">   3580.20709613 </i>
    <i name="hartreedc">  -7968.06799262 </i>
    <i name="XCdc">    100.81235643 </i>
    <i name="pawpsdc">   5521.33286741 </i>
    <i name="pawaedc">  -5407.32551231 </i>
    <i name="eentropy">     -0.00077688 </i>
    <i name="bandstr">   -675.77586233 </i>
    <i name="atom">   4724.74487735 </i>
    <i name="e_fr_energy">    -39.33877595 </i>
    <i name="e_wo_entrp">    -39.33799907 </i>
    <i name="e_0_energy">    -39.33838751 </i>
   </energy>
  </scstep>
  <scstep>
   <time name="dav">    0.10    0.10</time>
   <time name="total">    0.14    0.14</time>
   <energy>
    <i name="e_fr_energy">    -39.33877893 </i>
    <i name="e_wo_entrp">    -39.33800228 </i>
    <i name="e_0_energy">    -39.33839060 </i>
   </energy>
  </scstep>
  <scstep>
   <time name="dav">    0.07    0.07</time>
   <time name="total">    0.09    0.09</time>
   <energy>
    <i name="alphaZ">     84.73417088 </i>
    <i name="ewald">   3580.20709613 </i>
    <i name="hartreedc">  -7968.06736217 </i>
    <i name="XCdc">    100.81234608 </i>
    <i name="pawpsdc">   5521.34773192 </i>
    <i name="pawaedc">  -5407.34035237 </i>
    <i name="eentropy">     -0.00077677 </i>
    <i name="bandstr">   -675.77650990 </i>
    <i name="atom">   4724.74487735 </i>
    <i name="e_fr_energy">    -39.33877886 </i>
    <i name="e_wo_entrp">    -39.33800209 </i>
    <i name="e_0_energy">    -39.33839048 </i>
   </energy>
  </scstep>
  <structure>
   <crystal>
    <varray name="basis" >
     <v>       3.37894624       0.00000000       0.00000000 </v>
     <v>       1.68947312       2.92625328       0.00000000 </v>
     <v>       0.00000000       0.00000000      20.00000000 </v>
    </varray>
    <i name="volume">    197.75304998 </i>
    <varray name="rec_basis" >
     <v>       0.29595025      -0.17086696       0.00000000 </v>
     <v>       0.00000000       0.34173392       0.00000000 </v>
     <v>       0.00000000       0.00000000       0.05000000 </v>
    </varray>
   </crystal>
   <varray name="positions" >
    <v>      -0.00000000      -0.00000000       0.50185862 </v>
    <v>       0.33333333       0.33333333       0.82316597 </v>
    <v>       0.33333333       0.33333333       0.42704540 </v>
    <v>       0.33333333       0.33333333       0.57674147 </v>
    <v>      -0.00000000       0.00000000       0.72962973 </v>
    <v>      -0.00000000      -0.00000000       0.91655882 </v>
   </varray>
  </structure>
  <varray name="forces" >
   <v>      -0.00000000      -0.00000000       0.00240137 </v>
   <v>      -0.00000000      -0.00000000      -0.00214786 </v>
   <v>       0.00000000       0.00000000       0.00020624 </v>
   <v>      -0.00000000       0.00000000       0.00002442 </v>
   <v>      -0.00000000      -0.00000000      -0.00026469 </v>
   <v>      -0.00000000      -0.00000000      -0.00021949 </v>
  </varray>
  <varray name="stress" >
   <v>     -25.41449774      -0.00000000       0.00000000 </v>
   <v>       0.00000000     -25.41449774      -0.00000000 </v>
   <v>      -0.00000000       0.00000000      -1.18919703 </v>
  </varray>
  <energy>
   <i name="e_fr_energy">    -41.85130557 </i>
   <i name="e_wo_entrp">    -41.85052880 </i>
   <i name="e_0_energy">    -41.85091719 </i>
  </energy>
  <time name="totalsc">    0.62    0.63</time>
 </calculation>
 <calculation>
  <scstep>
   <time name="dav">    0.09    0.09</time>
   <time name="total">    0.12    0.12</time>
   <energy>
    <i name="alphaZ">     84.73417088 </i>
    <i name="ewald">   3583.23193126 </i>
    <i name="hartreedc">  -7971.09039446 </i>
    <i name="XCdc">    100.81303095 </i>
    <i name="pawpsdc">   5521.36106089 </i>
    <i name="pawaedc">  -5407.35366098 </i>
    <i name="eentropy">     -0.00077660 </i>
    <i name="bandstr">   -675.77870258 </i>
    <i name="atom">   4724.74487735 </i>
    <i name="e_fr_energy">    -39.33846328 </i>
    <i name="e_wo_entrp">    -39.33768668 </i>
    <i name="e_0_energy">    -39.33807498 </i>
   </energy>
  </scstep>
  <scstep>
   <time name="dav">    0.09    0.09</time>
   <time name="total">    0.13    0.13</time>
   <energy>
    <i name="e_fr_energy">    -39.33849679 </i>
    <i name="e_wo_entrp">    -39.33772059 </i>
    <i name="e_0_energy">    -39.33810869 </i>
   </energy>
  </scstep>
  <scstep>
   <time name="dav">    0.10    0.10</time>
   <time name="total">    0.11    0.12</time>
   <energy>
    <i name="alphaZ">     84.73417088 </i>
    <i name="ewald">   3583.23193126 </i>
    <i name="hartreedc">  -7971.08843981 </i>
    <i name="XCdc">    100.81300294 </i>
    <i name="pawpsdc">   5521.42898266 </i>
    <i name="pawaedc">  -5407.42155065 </i>
    <i name="eentropy">     -0.00077652 </i>
    <i name="bandstr">   -675.78069426 </i>
    <i name="atom">   4724.74487735 </i>
    <i name="e_fr_energy">    -39.33849615 </i>
    <i name="e_wo_entrp">    -39.33771963 </i>
    <i name="e_0_energy">    -39.33810789 </i>
   </energy>
  </scstep>
  <structure>
   <crystal>
    <varray name="basis" >
     <v>       3.37894624       0.00000000       0.00000000 </v>
     <v>       1.68947312       2.92625328       0.00000000 </v>
     <v>       0.00000000       0.00000000      20.00000000 </v>
    </varray>
    <i name="volume">    197.75304998 </i>
    <varray name="rec_basis" >
     <v>       0.29595025      -0.17086696       0.00000000 </v>
     <v>       0.00000000       0.34173392       0.00000000 </v>
     <v>       0.00000000       0.00000000       0.05000000 </v>
    </varray>
   </crystal>
   <varray name="positions" >
    <v>      -0.00000000      -0.00000000       0.50189621 </v>
    <v>       0.33333333       0.33333333       0.82312935 </v>
    <v>       0.33333333       0.33333333       0.42707597 </v>
    <v>       0.33333333       0.33333333       0.57677114 </v>
    <v>       0.00000000       0.00000000       0.72959950 </v>
    <v>      -0.00000000      -0.00000000       0.91652782 </v>
   </varray>
  </structure>
  <varray name="forces" >
   <v>      -0.00000000      -0.00000000      -0.00175859 </v>
   <v>      -0.00000000      -0.00000000       0.00092415 </v>
   <v>      -0.00000000       0.00000000       0.00104455 </v>
   <v>       0.00000000       0.00000000       0.00073799 </v>
   <v>       0.00000000       0.00000000      -0.00106900 </v>
   <v>       0.00000000      -0.00000000       0.00012090 </v>
  </varray>
  <varray name="stress" >
   <v>     -25.38118512      -0.00000000      -0.00000000 </v>
   <v>       0.00000000     -25.38118512       0.00000000 </v>
   <v>      -0.00000000       0.00000000      -1.14723264 </v>
  </varray>
  <energy>
   <i name="e_fr_energy">    -41.85130802 </i>
   <i name="e_wo_entrp">    -41.85053150 </i>
   <i name="e_0_energy">    -41.85091976 </i>
  </energy>
  <time name="totalsc">    0.63    0.64</time>
 </calculation>
 <calculation>
  <scstep>
   <time name="dav">    0.09    0.09</time>
   <time name="total">    0.12    0.12</time>
   <energy>
    <i name="alphaZ">     84.73417088 </i>
    <i name="ewald">   3581.98095761 </i>
    <i name="hartreedc">  -7969.84157855 </i>
    <i name="XCdc">    100.81265614 </i>
    <i name="pawpsdc">   5521.47364461 </i>
    <i name="pawaedc">  -5407.46614019 </i>
    <i name="eentropy">     -0.00077656 </i>
    <i name="bandstr">   -675.77641900 </i>
    <i name="atom">   4724.74487735 </i>
    <i name="e_fr_energy">    -39.33860772 </i>
    <i name="e_wo_entrp">    -39.33783116 </i>
    <i name="e_0_energy">    -39.33821944 </i>
   </energy>
  </scstep>
  <scstep>
   <time name="dav">    0.10    0.10</time>
   <time name="total">    0.13    0.13</time>
   <energy>
    <i name="e_fr_energy">    -39.33861378 </i>
    <i name="e_wo_entrp">    -39.33783671 </i>
    <i name="e_0_energy">    -39.33822525 </i>
   </energy>
  </scstep>
  <scstep>
   <time name="dav">    0.07    0.07</time>
   <time name="total">    0.09    0.09</time>
   <energy>
    <i name="alphaZ">     84.73417088 </i>
    <i name="ewald">   3581.98095761 </i>
    <i name="hartreedc">  -7969.84279694 </i>
    <i name="XCdc">    100.81264607 </i>
    <i name="pawpsdc">   5521.46023052 </i>
    <i name="pawaedc">  -5407.45278968 </i>
    <i name="eentropy">     -0.00077662 </i>
    <i name="bandstr">   -675.77513282 </i>
    <i name="atom">   4724.74487735 </i>
    <i name="e_fr_energy">    -39.33861362 </i>
    <i name="e_wo_entrp">    -39.33783701 </i>
    <i name="e_0_energy">    -39.33822531 </i>
   </energy>
  </scstep>
  <structure>
   <crystal>
    <varray name="basis" >
     <v>       3.37894624       0.00000000       0.00000000 </v>
     <v>       1.68947312       2.92625328       0.00000000 </v>
     <v>       0.00000000       0.00000000      20.00000000 </v>
    </varray>
    <i name="volume">    197.75304998 </i>
    <varray name="rec_basis" >
     <v>       0.29595025      -0.17086696       0.00000000 </v>
     <v>       0.00000000       0.34173392       0.00000000 </v>
     <v>       0.00000000       0.00000000       0.05000000 </v>
    </varray>
   </crystal>
   <varray name="positions" >
    <v>      -0.00000000      -0.00000000       0.50188001 </v>
    <v>       0.33333333       0.33333333       0.82314425 </v>
    <v>       0.33333333       0.33333333       0.42706435 </v>
    <v>       0.33333333       0.33333333       0.57675930 </v>
    <v>      -0.00000000       0.00000000       0.72961088 </v>
    <v>      -0.00000000      -0.00000000       0.91654120 </v>
   </varray>
  </structure>
  <varray name="forces" >
   <v>       0.00000000       0.00000000       0.00026893 </v>
   <v>      -0.00000000      -0.00000000      -0.00025445 </v>
   <v>       0.00000000       0.00000000       0.00110467 </v>
   <v>       0.00000000       0.00000000       0.00060931 </v>
   <v>      -0.00000000       0.00000000      -0.00119150 </v>
   <v>       0.00000000      -0.00000000      -0.00053696 </v>
  </varray>
  <varray name="stress" >
   <v>     -25.38905868       0.00000000      -0.00000000 </v>
   <v>       0.00000000     -25.38905868       0.00000000 </v>
   <v>       0.00000000       0.00000000      -1.17688486 </v>
  </varray>
  <energy>
   <i name="e_fr_energy">    -41.85130723 </i>
   <i name="e_wo_entrp">    -41.85053061 </i>
   <i name="e_0_energy">    -41.85091892 </i>
  </energy>
  <time name="totalsc">    0.62    0.62</time>
 </calculation>
 <calculation>
  <scstep>
   <time name="dav">    0.09    0.09</time>
   <time name="total">    0.12    0.12</time>
   <energy>
    <i name="alphaZ">     84.73417088 </i>
    <i name="ewald">   3582.32324986 </i>
    <i name="hartreedc">  -7970.18341971 </i>
    <i name="XCdc">    100.81269561 </i>
    <i name="pawpsdc">   5521.45320440 </i>
    <i name="pawaedc">  -5407.44586942 </i>
    <i name="eentropy">     -0.00077719 </i>
    <i name="bandstr">   -675.77671023 </i>
    <i name="atom">   4724.74487735 </i>
    <i name="e_fr_energy">    -39.33857846 </i>
    <i name="e_wo_entrp">    -39.33780127 </i>
    <i name="e_0_energy">    -39.33818987 </i>
   </energy>
  </scstep>
  <scstep>
   <time name="dav">    0.10    0.10</time>
   <time name="total">    0.12    0.12</time>
   <energy>
    <i name="alphaZ">     84.73417088 </i>
    <i name="ewald">   3582.32324986 </i>
    <i name="hartreedc">  -7970.18417454 </i>
    <i name="XCdc">    100.81273554 </i>
    <i name="pawpsdc">   5521.44249118 </i>
    <i name="pawaedc">  -5407.43505645 </i>
    <i name="eentropy">     -0.00077676 </i>
    <i name="bandstr">   -675.77609586 </i>
    <i name="atom">   4724.74487735 </i>
    <i name="e_fr_energy">    -39.33857880 </i>
    <i name="e_wo_entrp">    -39.33780204 </i>
    <i name="e_0_energy">    -39.33819042 </i>
   </energy>
  </scstep>
  <structure>
   <crystal>
    <varray name="basis" >
     <v>       3.37894624       0.00000000       0.00000000 </v>
     <v>       1.68947312       2.92625328       0.00000000 </v>
     <v>       0.00000000       0.00000000      20.00000000 </v>
    </varray>
    <i name="volume">    197.75304998 </i>
    <varray name="rec_basis" >
     <v>       0.29595025      -0.17086696       0.00000000 </v>
     <v>       0.00000000       0.34173392       0.00000000 </v>
     <v>       0.00000000       0.00000000       0.05000000 </v>
    </varray>
   </crystal>
   <varray name="positions" >
    <v>      -0.00000000      -0.00000000       0.50188319 </v>
    <v>       0.33333333       0.33333333       0.82314095 </v>
    <v>       0.33333333       0.33333333       0.42706958 </v>
    <v>       0.33333333       0.33333333       0.57676349 </v>
    <v>      -0.00000000       0.00000000       0.72960553 </v>
    <v>      -0.00000000      -0.00000000       0.91653727 </v>
   </varray>
  </structure>
  <varray name="forces" >
   <v>       0.00000000       0.00000000       0.00116894 </v>
   <v>      -0.00000000      -0.00000000      -0.00069660 </v>
   <v>       0.00000000       0.00000000      -0.00014283 </v>
   <v>       0.00000000       0.00000000       0.00008610 </v>
   <v>      -0.00000000      -0.00000000      -0.00032545 </v>
   <v>       0.00000000       0.00000000      -0.00009016 </v>
  </varray>
  <varray name="stress" >
   <v>     -25.38872244      -0.00000000      -0.00000000 </v>
   <v>      -0.00000000     -25.38872244      -0.00000000 </v>
   <v>       0.00000000       0.00000000      -1.17632050 </v>
  </varray>
  <energy>
   <i name="e_fr_energy">    -41.85130750 </i>
   <i name="e_wo_entrp">    -41.85053074 </i>
   <i name="e_0_energy">    -41.85091912 </i>
  </energy>
  <time name="totalsc">    0.51    0.52</time>
 </calculation>
 <calculation>
  <scstep>
   <time name="dav">    0.09    0.09</time>
   <time name="total">    0.12    0.12</time>
   <energy>
    <i name="alphaZ">     84.73417088 </i>
    <i name="ewald">   3582.96825468 </i>
    <i name="hartreedc">  -7970.82871719 </i>
    <i name="XCdc">    100.81278409 </i>
    <i name="pawpsdc">   5521.44653754 </i>
    <i name="pawaedc">  -5407.43914419 </i>
    <i name="eentropy">     -0.00077681 </i>
    <i name="bandstr">   -675.77650365 </i>
    <i name="atom">   4724.74487735 </i>
    <i name="e_fr_energy">    -39.33851729 </i>
    <i name="e_wo_entrp">    -39.33774049 </i>
    <i name="e_0_energy">    -39.33812889 </i>
   </energy>
  </scstep>
  <scstep>
   <time name="dav">    0.09    0.09</time>
   <time name="total">    0.13    0.13</time>
   <energy>
    <i name="e_fr_energy">    -39.33851892 </i>
    <i name="e_wo_entrp">    -39.33774228 </i>
    <i name="e_0_energy">    -39.33813060 </i>
   </energy>
  </scstep>
  <scstep>
   <time name="dav">    0.06    0.06</time>
   <time name="total">    0.08    0.08</time>
   <energy>
    <i name="alphaZ">     84.73417088 </i>
    <i name="ewald">   3582.96825468 </i>
    <i name="hartreedc">  -7970.82841962 </i>
    <i name="XCdc">    100.81277785 </i>
    <i name="pawpsdc">   5521.45007283 </i>
    <i name="pawaedc">  -5407.44263827 </i>
    <i name="eentropy">     -0.00077676 </i>
    <i name="bandstr">   -675.77683783 </i>
    <i name="atom">   4724.74487735 </i>
    <i name="e_fr_energy">    -39.33851889 </i>
    <i name="e_wo_entrp">    -39.33774213 </i>
    <i name="e_0_energy">    -39.33813051 </i>
   </energy>
  </scstep>
  <structure>
   <crystal>
    <varray name="basis" >
     <v>       3.37894624       0.00000000       0.00000000 </v>
     <v>       1.68947312       2.92625328       0.00000000 </v>
     <v>       0.00000000       0.00000000      20.00000000 </v>
    </varray>
    <i name="volume">    197.75304998 </i>
    <varray name="rec_basis" >
     <v>       0.29595025      -0.17086696       0.00000000 </v>
     <v>       0.00000000       0.34173392       0.00000000 </v>
     <v>       0.00000000       0.00000000       0.05000000 </v>
    </varray>
   </crystal>
   <varray name="positions" >
    <v>      -0.00000000      -0.00000000       0.50189189 </v>
    <v>       0.33333333       0.33333333       0.82313295 </v>
    <v>       0.33333333       0.33333333       0.42707532 </v>
    <v>       0.33333333       0.33333333       0.57677012 </v>
    <v>      -0.00000000       0.00000000       0.72959891 </v>
    <v>      -0.00000000      -0.00000000       0.91653082 </v>
   </varray>
  </structure>
  <varray name="forces" >
   <v>      -0.00000000      -0.00000000      -0.00023144 </v>
   <v>      -0.00000000      -0.00000000      -0.00016609 </v>
   <v>       0.00000000       0.00000000       0.00059756 </v>
   <v>       0.00000000       0.00000000       0.00030400 </v>
   <v>      -0.00000000       0.00000000      -0.00028777 </v>
   <v>       0.00000000      -0.00000000      -0.00021627 </v>
  </varray>
  <varray name="stress" >
   <v>     -25.38749378       0.00000000       0.00000000 </v>
   <v>      -0.00000000     -25.38749378       0.00000000 </v>
   <v>      -0.00000000       0.00000000      -1.16783761 </v>
  </varray>
  <energy>
   <i name="e_fr_energy">    -41.85130785 </i>
   <i name="e_wo_entrp">    -41.85053109 </i>
   <i name="e_0_energy">    -41.85091947 </i>
  </energy>
  <time name="totalsc">    0.60    0.61</time>
 </calculation>
 <calculation>
  <scstep>
   <time name="dav">    0.09    0.09</time>
   <time name="total">    0.12    0.12</time>
   <energy>
    <i name="alphaZ">     84.73417088 </i>
    <i name="ewald">   3583.25194187 </i>
    <i name="hartreedc">  -7971.11263702 </i>
    <i name="XCdc">    100.81284285 </i>
    <i name="pawpsdc">   5521.45763713 </i>
    <i name="pawaedc">  -5407.45017039 </i>
    <i name="eentropy">     -0.00077677 </i>
    <i name="bandstr">   -675.77637727 </i>
    <i name="atom">   4724.74487735 </i>
    <i name="e_fr_energy">    -39.33849139 </i>
    <i name="e_wo_entrp">    -39.33771461 </i>
    <i name="e_0_energy">    -39.33810300 </i>
   </energy>
  </scstep>
  <scstep>
   <time name="dav">    0.09    0.09</time>
   <time name="total">    0.11    0.11</time>
   <energy>
    <i name="alphaZ">     84.73417088 </i>
    <i name="ewald">   3583.25194187 </i>
    <i name="hartreedc">  -7971.11204585 </i>
    <i name="XCdc">    100.81283741 </i>
    <i name="pawpsdc">   5521.46090688 </i>
    <i name="pawaedc">  -5407.45346884 </i>
    <i name="eentropy">     -0.00077681 </i>
    <i name="bandstr">   -675.77693452 </i>
    <i name="atom">   4724.74487735 </i>
    <i name="e_fr_energy">    -39.33849164 </i>
    <i name="e_wo_entrp">    -39.33771483 </i>
    <i name="e_0_energy">    -39.33810324 </i>
   </energy>
  </scstep>
  <structure>
   <crystal>
    <varray name="basis" >
     <v>       3.37894624       0.00000000       0.00000000 </v>
     <v>       1.68947312       2.92625328       0.00000000 </v>
     <v>       0.00000000       0.00000000      20.00000000 </v>
    </varray>
    <i name="volume">    197.75304998 </i>
    <varray name="rec_basis" >
     <v>       0.29595025      -0.17086696       0.00000000 </v>
     <v>       0.00000000       0.34173392       0.00000000 </v>
     <v>       0.00000000       0.00000000       0.05000000 </v>
    </varray>
   </crystal>
   <varray name="positions" >
    <v>      -0.00000000      -0.00000000       0.50189467 </v>
    <v>       0.33333333       0.33333333       0.82312945 </v>
    <v>       0.33333333       0.33333333       0.42707897 </v>
    <v>       0.33333333       0.33333333       0.57677333 </v>
    <v>       0.00000000       0.00000000       0.72959567 </v>
    <v>      -0.00000000      -0.00000000       0.91652792 </v>
   </varray>
  </structure>
  <varray name="forces" >
   <v>      -0.00000000      -0.00000000      -0.00015737 </v>
   <v>       0.00000000       0.00000000       0.00033946 </v>
   <v>       0.00000000       0.00000000       0.00024641 </v>
   <v>      -0.00000000      -0.00000000      -0.00000471 </v>
   <v>       0.00000000       0.00000000      -0.00015808 </v>
   <v>      -0.00000000      -0.00000000      -0.00026572 </v>
  </varray>
  <varray name="stress" >
   <v>     -25.38578008       0.00000000       0.00000000 </v>
   <v>      -0.00000000     -25.38578008       0.00000000 </v>
   <v>      -0.00000000       0.00000000      -1.16264384 </v>
  </varray>
  <energy>
   <i name="e_fr_energy">    -41.85130795 </i>
   <i name="e_wo_entrp">    -41.85053114 </i>
   <i name="e_0_energy">    -41.85091955 </i>
  </energy>
  <time name="totalsc">    0.50    0.51</time>
 </calculation>
 <calculation>
  <scstep>
   <time name="dav">    0.06    0.06</time>
   <time name="total">    0.09    0.09</time>
   <energy>
    <i name="alphaZ">     84.73417088 </i>
    <i name="ewald">   3583.27776988 </i>
    <i name="hartreedc">  -7971.13799577 </i>
    <i name="XCdc">    100.81286257 </i>
    <i name="pawpsdc">   5521.46455547 </i>
    <i name="pawaedc">  -5407.45710666 </i>
    <i name="eentropy">     -0.00077681 </i>
    <i name="bandstr">   -675.77684530 </i>
    <i name="atom">   4724.74487735 </i>
    <i name="e_fr_energy">    -39.33848839 </i>
    <i name="e_wo_entrp">    -39.33771158 </i>
    <i name="e_0_energy">    -39.33809999 </i>
   </energy>
  </scstep>
  <scstep>
   <time name="dav">    0.06    0.06</time>
   <time name="total">    0.08    0.08</time>
   <energy>
    <i name="alphaZ">     84.73417088 </i>
    <i name="ewald">   3583.27776988 </i>
    <i name="hartreedc">  -7971.13824392 </i>
    <i name="XCdc">    100.81286243 </i>
    <i name="pawpsdc">   5521.47232973 </i>
    <i name="pawaedc">  -5407.46487262 </i>
    <i name="eentropy">     -0.00077679 </i>
    <i name="bandstr">   -675.77660532 </i>
    <i name="atom">   4724.74487735 </i>
    <i name="e_fr_energy">    -39.33848839 </i>
    <i name="e_wo_entrp">    -39.33771160 </i>
    <i name="e_0_energy">    -39.33810000 </i>
   </energy>
  </scstep>
  <structure>
   <crystal>
    <varray name="basis" >
     <v>       3.37894624       0.00000000       0.00000000 </v>
     <v>       1.68947312       2.92625328       0.00000000 </v>
     <v>       0.00000000       0.00000000      20.00000000 </v>
    </varray>
    <i name="volume">    197.75304998 </i>
    <varray name="rec_basis" >
     <v>       0.29595025      -0.17086696       0.00000000 </v>
     <v>       0.00000000       0.34173392       0.00000000 </v>
     <v>       0.00000000       0.00000000       0.05000000 </v>
    </varray>
   </crystal>
   <varray name="positions" >
    <v>      -0.00000000      -0.00000000       0.50189496 </v>
    <v>       0.33333333       0.33333333       0.82312952 </v>
    <v>       0.33333333       0.33333333       0.42707940 </v>
    <v>       0.33333333       0.33333333       0.57677352 </v>
    <v>       0.00000000       0.00000000       0.72959522 </v>
    <v>      -0.00000000      -0.00000000       0.91652738 </v>
   </varray>
  </structure>
  <varray name="forces" >
   <v>      -0.00000000      -0.00000000      -0.00030248 </v>
   <v>       0.00000000       0.00000000      -0.00020492 </v>
   <v>      -0.00000000      -0.00000000       0.00024552 </v>
   <v>       0.00000000       0.00000000       0.00021820 </v>
   <v>      -0.00000000      -0.00000000       0.00005683 </v>
   <v>      -0.00000000      -0.00000000      -0.00001315 </v>
  </varray>
  <varray name="stress" >
   <v>     -25.38637615      -0.00000000       0.00000000 </v>
   <v>      -0.00000000     -25.38637615       0.00000000 </v>
   <v>      -0.00000000       0.00000000      -1.16421605 </v>
  </varray>
  <energy>
   <i name="e_fr_energy">    -41.85130796 </i>
   <i name="e_wo_entrp">    -41.85053116 </i>
   <i name="e_0_energy">    -41.85091956 </i>
  </energy>
  <time name="totalsc">    0.44    0.45</time>
 </calculation>
 <calculation>
  <scstep>
   <time name="dav">    0.07    0.07</time>
   <time name="total">    0.11    0.11</time>
   <energy>
    <i name="alphaZ">     84.73417088 </i>
    <i name="ewald">   3583.25362286 </i>
    <i name="hartreedc">  -7971.11403062 </i>
    <i name="XCdc">    100.81286950 </i>
    <i name="pawpsdc">   5521.48393983 </i>
    <i name="pawaedc">  -5407.47650404 </i>
    <i name="eentropy">     -0.00077683 </i>
    <i name="bandstr">   -675.77665927 </i>
    <i name="atom">   4724.74487735 </i>
    <i name="e_fr_energy">    -39.33849034 </i>
    <i name="e_wo_entrp">    -39.33771351 </i>
    <i name="e_0_energy">    -39.33810193 </i>
   </energy>
  </scstep>
  <scstep>
   <time name="dav">    0.06    0.06</time>
   <time name="total">    0.08    0.08</time>
   <energy>
    <i name="alphaZ">     84.73417088 </i>
    <i name="ewald">   3583.25362286 </i>
    <i name="hartreedc">  -7971.11436485 </i>
    <i name="XCdc">    100.81287666 </i>
    <i name="pawpsdc">   5521.48581807 </i>
    <i name="pawaedc">  -5407.47836710 </i>
    <i name="eentropy">     -0.00077680 </i>
    <i name="bandstr">   -675.77634743 </i>
    <i name="atom">   4724.74487735 </i>
    <i name="e_fr_energy">    -39.33849035 </i>
    <i name="e_wo_entrp">    -39.33771355 </i>
    <i name="e_0_energy">    -39.33810195 </i>
   </energy>
  </scstep>
  <structure>
   <crystal>
    <varray name="basis" >
     <v>       3.37894624       0.00000000       0.00000000 </v>
     <v>       1.68947312       2.92625328       0.00000000 </v>
     <v>       0.00000000       0.00000000      20.00000000 </v>
    </varray>
    <i name="volume">    197.75304998 </i>
    <varray name="rec_basis" >
     <v>       0.29595025      -0.17086696       0.00000000 </v>
     <v>       0.00000000       0.34173392       0.00000000 </v>
     <v>       0.00000000       0.00000000       0.05000000 </v>
    </varray>
   </crystal>
   <varray name="positions" >
    <v>      -0.00000000      -0.00000000       0.50189427 </v>
    <v>       0.33333333       0.33333333       0.82312977 </v>
    <v>       0.33333333       0.33333333       0.42707947 </v>
    <v>       0.33333333       0.33333333       0.57677341 </v>
    <v>       0.00000000       0.00000000       0.72959554 </v>
    <v>      -0.00000000      -0.00000000       0.91652754 </v>
   </varray>
  </structure>
  <varray name="forces" >
   <v>       0.00000000       0.00000000       0.00072246 </v>
   <v>      -0.00000000      -0.00000000      -0.00057558 </v>
   <v>       0.00000000      -0.00000000       0.00013863 </v>
   <v>       0.00000000       0.00000000       0.00019900 </v>
   <v>       0.00000000       0.00000000      -0.00023831 </v>
   <v>       0.00000000       0.00000000      -0.00024620 </v>
  </varray>
  <varray name="stress" >
   <v>     -25.38626924       0.00000000      -0.00000000 </v>
   <v>       0.00000000     -25.38626924       0.00000000 </v>
   <v>      -0.00000000       0.00000000      -1.16301545 </v>
  </varray>
  <energy>
   <i name="e_fr_energy">    -41.85130796 </i>
   <i name="e_wo_entrp">    -41.85053116 </i>
   <i name="e_0_energy">    -41.85091956 </i>
  </energy>
  <time name="totalsc">    0.45    0.46</time>
 </calculation>
 <calculation>
  <scstep>
   <time name="dav">    0.09    0.09</time>
   <time name="total">    0.12    0.12</time>
   <energy>
    <i name="alphaZ">     84.73417088 </i>
    <i name="ewald">   3583.45046422 </i>
    <i name="hartreedc">  -7971.31100641 </i>
    <i name="XCdc">    100.81292543 </i>
    <i name="pawpsdc">   5521.48684413 </i>
    <i name="pawaedc">  -5407.47940051 </i>
    <i name="eentropy">     -0.00077679 </i>
    <i name="bandstr">   -675.77656954 </i>
    <i name="atom">   4724.74487735 </i>
    <i name="e_fr_energy">    -39.33847125 </i>
    <i name="e_wo_entrp">    -39.33769446 </i>
    <i name="e_0_energy">    -39.33808285 </i>
   </energy>
  </scstep>
  <scstep>
   <time name="dav">    0.07    0.07</time>
   <time name="total">    0.09    0.09</time>
   <energy>
    <i name="alphaZ">     84.73417088 </i>
    <i name="ewald">   3583.45046422 </i>
    <i name="hartreedc">  -7971.31099736 </i>
    <i name="XCdc">    100.81293194 </i>
    <i name="pawpsdc">   5521.49165118 </i>
    <i name="pawaedc">  -5407.48420326 </i>
    <i name="eentropy">     -0.00077672 </i>
    <i name="bandstr">   -675.77658959 </i>
    <i name="atom">   4724.74487735 </i>
    <i name="e_fr_energy">    -39.33847137 </i>
    <i name="e_wo_entrp">    -39.33769464 </i>
    <i name="e_0_energy">    -39.33808300 </i>
   </energy>
  </scstep>
  <structure>
   <crystal>
    <varray name="basis" >
     <v>       3.37894624       0.00000000       0.00000000 </v>
     <v>       1.68947312       2.92625328       0.00000000 </v>
     <v>       0.00000000       0.00000000      20.00000000 </v>
    </varray>
    <i name="volume">    197.75304998 </i>
    <varray name="rec_basis" >
     <v>       0.29595025      -0.17086696       0.00000000 </v>
     <v>       0.00000000       0.34173392       0.00000000 </v>
     <v>       0.00000000       0.00000000       0.05000000 </v>
    </varray>
   </crystal>
   <varray name="positions" >
    <v>      -0.00000000      -0.00000000       0.50189648 </v>
    <v>       0.33333333       0.33333333       0.82312744 </v>
    <v>       0.33333333       0.33333333       0.42708166 </v>
    <v>       0.33333333       0.33333333       0.57677554 </v>
    <v>       0.00000000       0.00000000       0.72959348 </v>
    <v>      -0.00000000      -0.00000000       0.91652540 </v>
   </varray>
  </structure>
  <varray name="forces" >
   <v>      -0.00000000      -0.00000000       0.00025784 </v>
   <v>      -0.00000000      -0.00000000       0.00018165 </v>
   <v>      -0.00000000       0.00000000      -0.00019796 </v>
   <v>       0.00000000       0.00000000      -0.00029963 </v>
   <v>       0.00000000       0.00000000       0.00004683 </v>
   <v>      -0.00000000      -0.00000000       0.00001127 </v>
  </varray>
  <varray name="stress" >
   <v>     -25.38605020      -0.00000000      -0.00000000 </v>
   <v>       0.00000000     -25.38605020       0.00000000 </v>
   <v>       0.00000000       0.00000000      -1.16235921 </v>
  </varray>
  <energy>
   <i name="e_fr_energy">    -41.85130801 </i>
   <i name="e_wo_entrp">    -41.85053128 </i>
   <i name="e_0_energy">    -41.85091964 </i>
  </energy>
  <time name="totalsc">    0.48    0.48</time>
 </calculation>
 <calculation>
  <scstep>
   <time name="dav">    0.09    0.09</time>
   <time name="total">    0.13    0.13</time>
   <energy>
    <i name="alphaZ">     84.73417088 </i>
    <i name="ewald">   3583.36094935 </i>
    <i name="hartreedc">  -7971.22144433 </i>
    <i name="XCdc">    100.81290632 </i>
    <i name="pawpsdc">   5521.49436054 </i>
    <i name="pawaedc">  -5407.48692069 </i>
    <i name="eentropy">     -0.00077676 </i>
    <i name="bandstr">   -675.77660291 </i>
    <i name="atom">   4724.74487735 </i>
    <i name="e_fr_energy">    -39.33848025 </i>
    <i name="e_wo_entrp">    -39.33770349 </i>
    <i name="e_0_energy">    -39.33809187 </i>
   </energy>
  </scstep>
  <scstep>
   <time name="dav">    0.06    0.06</time>
   <time name="total">    0.08    0.08</time>
   <energy>
    <i name="alphaZ">     84.73417088 </i>
    <i name="ewald">   3583.36094935 </i>
    <i name="hartreedc">  -7971.22171500 </i>
    <i name="XCdc">    100.81290062 </i>
    <i name="pawpsdc">   5521.49682080 </i>
    <i name="pawaedc">  -5407.48938391 </i>
    <i name="eentropy">     -0.00077677 </i>
    <i name="bandstr">   -675.77632359 </i>
    <i name="atom">   4724.74487735 </i>
    <i name="e_fr_energy">    -39.33848027 </i>
    <i name="e_wo_entrp">    -39.33770350 </i>
    <i name="e_0_energy">    -39.33809189 </i>
   </energy>
  </scstep>
  <structure>
   <crystal>
    <varray name="basis" >
     <v>       3.37894624       0.00000000       0.00000000 </v>
     <v>       1.68947312       2.92625328       0.00000000 </v>
     <v>       0.00000000       0.00000000      20.00000000 </v>
    </varray>
    <i name="volume">    197.75304998 </i>
    <varray name="rec_basis" >
     <v>       0.29595025      -0.17086696       0.00000000 </v>
     <v>       0.00000000       0.34173392       0.00000000 </v>
     <v>       0.00000000       0.00000000       0.05000000 </v>
    </varray>
   </crystal>
   <varray name="positions" >
    <v>      -0.00000000      -0.00000000       0.50189565 </v>
    <v>       0.33333333       0.33333333       0.82312852 </v>
    <v>       0.33333333       0.33333333       0.42708053 </v>
    <v>       0.33333333       0.33333333       0.57677437 </v>
    <v>       0.00000000       0.00000000       0.72959451 </v>
    <v>      -0.00000000      -0.00000000       0.91652643 </v>
   </varray>
  </structure>
  <varray name="forces" >
   <v>       0.00000000       0.00000000       0.00023277 </v>
   <v>      -0.00000000      -0.00000000      -0.00063232 </v>
   <v>      -0.00000000      -0.00000000       0.00051888 </v>
   <v>       0.00000000       0.00000000       0.00043149 </v>
   <v>       0.00000000       0.00000000      -0.00025817 </v>
   <v>      -0.00000000      -0.00000000      -0.00029266 </v>
  </varray>
  <varray name="stress" >
   <v>     -25.38540918       0.00000000      -0.00000000 </v>
   <v>       0.00000000     -25.38540918       0.00000000 </v>
   <v>      -0.00000000       0.00000000      -1.15987974 </v>
  </varray>
  <energy>
   <i name="e_fr_energy">    -41.85130799 </i>
   <i name="e_wo_entrp">    -41.85053121 </i>
   <i name="e_0_energy">    -41.85091960 </i>
  </energy>
  <time name="totalsc">    0.47    0.48</time>
 </calculation>
 <calculation>
  <scstep>
   <time name="dav">    0.09    0.09</time>
   <time name="total">    0.12    0.12</time>
   <energy>
    <i name="alphaZ">     84.73417088 </i>
    <i name="ewald">   3583.49313408 </i>
    <i name="hartreedc">  -7971.35371494 </i>
    <i name="XCdc">    100.81296193 </i>
    <i name="pawpsdc">   5521.49791635 </i>
    <i name="pawaedc">  -5407.49048061 </i>
    <i name="eentropy">     -0.00077682 </i>
    <i name="bandstr">   -675.77655551 </i>
    <i name="atom">   4724.74487735 </i>
    <i name="e_fr_energy">    -39.33846729 </i>
    <i name="e_wo_entrp">    -39.33769047 </i>
    <i name="e_0_energy">    -39.33807888 </i>
   </energy>
  </scstep>
  <scstep>
   <time name="dav">    0.06    0.06</time>
   <time name="total">    0.08    0.08</time>
   <energy>
    <i name="alphaZ">     84.73417088 </i>
    <i name="ewald">   3583.49313408 </i>
    <i name="hartreedc">  -7971.35372565 </i>
    <i name="XCdc">    100.81296984 </i>
    <i name="pawpsdc">   5521.50369910 </i>
    <i name="pawaedc">  -5407.49626145 </i>
    <i name="eentropy">     -0.00077677 </i>
    <i name="bandstr">   -675.77655471 </i>
    <i name="atom">   4724.74487735 </i>
    <i name="e_fr_energy">    -39.33846734 </i>
    <i name="e_wo_entrp">    -39.33769057 </i>
    <i name="e_0_energy">    -39.33807896 </i>
   </energy>
  </scstep>
  <structure>
   <crystal>
    <varray name="basis" >
     <v>       3.37894624       0.00000000       0.00000000 </v>
     <v>       1.68947312       2.92625328       0.00000000 </v>
     <v>       0.00000000       0.00000000      20.00000000 </v>
    </varray>
    <i name="volume">    197.75304998 </i>
    <varray name="rec_basis" >
     <v>       0.29595025      -0.17086696       0.00000000 </v>
     <v>       0.00000000       0.34173392       0.00000000 </v>
     <v>       0.00000000       0.00000000       0.05000000 </v>
    </varray>
   </crystal>
   <varray name="positions" >
    <v>      -0.00000000      -0.00000000       0.50189705 </v>
    <v>       0.33333333       0.33333333       0.82312711 </v>
    <v>       0.33333333       0.33333333       0.42708218 </v>
    <v>       0.33333333       0.33333333       0.57677560 </v>
    <v>       0.00000000       0.00000000       0.72959314 </v>
    <v>      -0.00000000      -0.00000000       0.91652492 </v>
   </varray>
  </structure>
  <varray name="forces" >
   <v>       0.00000000       0.00000000       0.00002740 </v>
   <v>      -0.00000000      -0.00000000       0.00009953 </v>
   <v>      -0.00000000      -0.00000000      -0.00015240 </v>
   <v>       0.00000000       0.00000000      -0.00006113 </v>
   <v>      -0.00000000       0.00000000       0.00004310 </v>
   <v>       0.00000000       0.00000000       0.00004350 </v>
  </varray>
  <varray name="stress" >
   <v>     -25.38492577      -0.00000000      -0.00000000 </v>
   <v>      -0.00000000     -25.38492577      -0.00000000 </v>
   <v>      -0.00000000      -0.00000000      -1.15946384 </v>
  </varray>
  <energy>
   <i name="e_fr_energy">    -41.85130802 </i>
   <i name="e_wo_entrp">    -41.85053125 </i>
   <i name="e_0_energy">    -41.85091964 </i>
  </energy>
  <time name="totalsc">    0.47    0.48</time>
 </calculation>
 <calculation>
  <scstep>
   <time name="dav">    0.06    0.06</time>
   <time name="total">    0.09    0.10</time>
   <energy>
    <i name="alphaZ">     84.73417088 </i>
    <i name="ewald">   3583.47871589 </i>
    <i name="hartreedc">  -7971.33932553 </i>
    <i name="XCdc">    100.81295020 </i>
    <i name="pawpsdc">   5521.50649702 </i>
    <i name="pawaedc">  -5407.49906673 </i>
    <i name="eentropy">     -0.00077676 </i>
    <i name="bandstr">   -675.77651111 </i>
    <i name="atom">   4724.74487735 </i>
    <i name="e_fr_energy">    -39.33846879 </i>
    <i name="e_wo_entrp">    -39.33769204 </i>
    <i name="e_0_energy">    -39.33808041 </i>
   </energy>
  </scstep>
  <scstep>
   <time name="dav">    0.06    0.06</time>
   <time name="total">    0.08    0.08</time>
   <energy>
    <i name="alphaZ">     84.73417088 </i>
    <i name="ewald">   3583.47871589 </i>
    <i name="hartreedc">  -7971.33945575 </i>
    <i name="XCdc">    100.81294573 </i>
    <i name="pawpsdc">   5521.50993945 </i>
    <i name="pawaedc">  -5407.50251299 </i>
    <i name="eentropy">     -0.00077675 </i>
    <i name="bandstr">   -675.77637262 </i>
    <i name="atom">   4724.74487735 </i>
    <i name="e_fr_energy">    -39.33846879 </i>
    <i name="e_wo_entrp">    -39.33769205 </i>
    <i name="e_0_energy">    -39.33808042 </i>
   </energy>
  </scstep>
  <structure>
   <crystal>
    <varray name="basis" >
     <v>       3.37894624       0.00000000       0.00000000 </v>
     <v>       1.68947312       2.92625328       0.00000000 </v>
     <v>       0.00000000       0.00000000      20.00000000 </v>
    </varray>
    <i name="volume">    197.75304998 </i>
    <varray name="rec_basis" >
     <v>       0.29595025      -0.17086696       0.00000000 </v>
     <v>       0.00000000       0.34173392       0.00000000 </v>
     <v>       0.00000000       0.00000000       0.05000000 </v>
    </varray>
   </crystal>
   <varray name="positions" >
    <v>      -0.00000000      -0.00000000       0.50189699 </v>
    <v>       0.33333333       0.33333333       0.82312724 </v>
    <v>       0.33333333       0.33333333       0.42708187 </v>
    <v>       0.33333333       0.33333333       0.57677551 </v>
    <v>       0.00000000       0.00000000       0.72959330 </v>
    <v>      -0.00000000      -0.00000000       0.91652508 </v>
   </varray>
  </structure>
  <varray name="forces" >
   <v>      -0.00000000      -0.00000000       0.00007941 </v>
   <v>       0.00000000      -0.00000000      -0.00039875 </v>
   <v>      -0.00000000      -0.00000000       0.00041534 </v>
   <v>       0.00000000       0.00000000       0.00017030 </v>
   <v>       0.00000000       0.00000000      -0.00013168 </v>
   <v>      -0.00000000      -0.00000000      -0.00013462 </v>
  </varray>
  <varray name="stress" >
   <v>     -25.38520399      -0.00000000      -0.00000000 </v>
   <v>       0.00000000     -25.38520399      -0.00000000 </v>
   <v>      -0.00000000       0.00000000      -1.15848035 </v>
  </varray>
  <energy>
   <i name="e_fr_energy">    -41.85130803 </i>
   <i name="e_wo_entrp">    -41.85053128 </i>
   <i name="e_0_energy">    -41.85091965 </i>
  </energy>
  <time name="totalsc">    0.45    0.45</time>
 </calculation>
 <calculation>
  <scstep>
   <time name="dav">    0.06    0.06</time>
   <time name="total">    0.10    0.10</time>
   <energy>
    <i name="alphaZ">     84.73417088 </i>
    <i name="ewald">   3583.49214224 </i>
    <i name="hartreedc">  -7971.35284887 </i>
    <i name="XCdc">    100.81295542 </i>
    <i name="pawpsdc">   5521.51043552 </i>
    <i name="pawaedc">  -5407.50300976 </i>
    <i name="eentropy">     -0.00077678 </i>
    <i name="bandstr">   -675.77641358 </i>
    <i name="atom">   4724.74487735 </i>
    <i name="e_fr_energy">    -39.33846758 </i>
    <i name="e_wo_entrp">    -39.33769080 </i>
    <i name="e_0_energy">    -39.33807919 </i>
   </energy>
  </scstep>
  <scstep>
   <time name="dav">    0.06    0.06</time>
   <time name="total">    0.08    0.08</time>
   <energy>
    <i name="alphaZ">     84.73417088 </i>
    <i name="ewald">   3583.49214224 </i>
    <i name="hartreedc">  -7971.35284663 </i>
    <i name="XCdc">    100.81295765 </i>
    <i name="pawpsdc">   5521.51041486 </i>
    <i name="pawaedc">  -5407.50298676 </i>
    <i name="eentropy">     -0.00077679 </i>
    <i name="bandstr">   -675.77642038 </i>
    <i name="atom">   4724.74487735 </i>
    <i name="e_fr_energy">    -39.33846758 </i>
    <i name="e_wo_entrp">    -39.33769079 </i>
    <i name="e_0_energy">    -39.33807919 </i>
   </energy>
  </scstep>
  <structure>
   <crystal>
    <varray name="basis" >
     <v>       3.37894624       0.00000000       0.00000000 </v>
     <v>       1.68947312       2.92625328       0.00000000 </v>
     <v>       0.00000000       0.00000000      20.00000000 </v>
    </varray>
    <i name="volume">    197.75304998 </i>
    <varray name="rec_basis" >
     <v>       0.29595025      -0.17086696       0.00000000 </v>
     <v>       0.00000000       0.34173392       0.00000000 </v>
     <v>       0.00000000       0.00000000       0.05000000 </v>
    </varray>
   </crystal>
   <varray name="positions" >
    <v>      -0.00000000      -0.00000000       0.50189714 </v>
    <v>       0.33333333       0.33333333       0.82312709 </v>
    <v>       0.33333333       0.33333333       0.42708206 </v>
    <v>       0.33333333       0.33333333       0.57677556 </v>
    <v>       0.00000000       0.00000000       0.72959318 </v>
    <v>      -0.00000000      -0.00000000       0.91652496 </v>
   </varray>
  </structure>
  <varray name="forces" >
   <v>      -0.00000000      -0.00000000      -0.00009191 </v>
   <v>       0.00000000      -0.00000000      -0.00008767 </v>
   <v>       0.00000000       0.00000000       0.00013845 </v>
   <v>      -0.00000000      -0.00000000       0.00020621 </v>
   <v>       0.00000000       0.00000000      -0.00007940 </v>
   <v>      -0.00000000      -0.00000000      -0.00008568 </v>
  </varray>
  <varray name="stress" >
   <v>     -25.38472383       0.00000000      -0.00000000 </v>
   <v>      -0.00000000     -25.38472383       0.00000000 </v>
   <v>       0.00000000       0.00000000      -1.15841345 </v>
  </varray>
  <energy>
   <i name="e_fr_energy">    -41.85130803 </i>
   <i name="e_wo_entrp">    -41.85053124 </i>
   <i name="e_0_energy">    -41.85091964 </i>
  </energy>
  <time name="totalsc">    0.44    0.45</time>
 </calculation>
 <calculation>
  <scstep>
   <time name="dav">    0.06    0.06</time>
   <time name="total">    0.10    0.10</time>
   <energy>
    <i name="alphaZ">     84.73417088 </i>
    <i name="ewald">   3583.49132826 </i>
    <i name="hartreedc">  -7971.35208302 </i>
    <i name="XCdc">    100.81295515 </i>
    <i name="pawpsdc">   5521.51109487 </i>
    <i name="pawaedc">  -5407.50366737 </i>
    <i name="eentropy">     -0.00077678 </i>
    <i name="bandstr">   -675.77636689 </i>
    <i name="atom">   4724.74487735 </i>
    <i name="e_fr_energy">    -39.33846755 </i>
    <i name="e_wo_entrp">    -39.33769077 </i>
    <i name="e_0_energy">    -39.33807916 </i>
   </energy>
  </scstep>
  <scstep>
   <time name="dav">    0.06    0.06</time>
   <time name="total">    0.08    0.08</time>
   <energy>
    <i name="alphaZ">     84.73417088 </i>
    <i name="ewald">   3583.49132826 </i>
    <i name="hartreedc">  -7971.35212326 </i>
    <i name="XCdc">    100.81295528 </i>
    <i name="pawpsdc">   5521.51126391 </i>
    <i name="pawaedc">  -5407.50383677 </i>
    <i name="eentropy">     -0.00077678 </i>
    <i name="bandstr">   -675.77632643 </i>
    <i name="atom">   4724.74487735 </i>
    <i name="e_fr_energy">    -39.33846755 </i>
    <i name="e_wo_entrp">    -39.33769077 </i>
    <i name="e_0_energy">    -39.33807916 </i>
   </energy>
  </scstep>
  <structure>
   <crystal>
    <varray name="basis" >
     <v>       3.37894624       0.00000000       0.00000000 </v>
     <v>       1.68947312       2.92625328       0.00000000 </v>
     <v>       0.00000000       0.00000000      20.00000000 </v>
    </varray>
    <i name="volume">    197.75304998 </i>
    <varray name="rec_basis" >
     <v>       0.29595025      -0.17086696       0.00000000 </v>
     <v>       0.00000000       0.34173392       0.00000000 </v>
     <v>       0.00000000       0.00000000       0.05000000 </v>
    </varray>
   </crystal>
   <varray name="positions" >
    <v>      -0.00000000      -0.00000000       0.50189710 </v>
    <v>       0.33333333       0.33333333       0.82312711 </v>
    <v>       0.33333333       0.33333333       0.42708207 </v>
    <v>       0.33333333       0.33333333       0.57677562 </v>
    <v>       0.00000000       0.00000000       0.72959317 </v>
    <v>      -0.00000000      -0.00000000       0.91652494 </v>
   </varray>
  </structure>
  <varray name="forces" >
   <v>       0.00000000       0.00000000       0.00012829 </v>
   <v>       0.00000000      -0.00000000      -0.00028489 </v>
   <v>      -0.00000000       0.00000000       0.00018355 </v>
   <v>       0.00000000       0.00000000       0.00016385 </v>
   <v>      -0.00000000      -0.00000000      -0.00009163 </v>
   <v>      -0.00000000      -0.00000000      -0.00009917 </v>
  </varray>
  <varray name="stress" >
   <v>     -25.38498713       0.00000000      -0.00000000 </v>
   <v>       0.00000000     -25.38498713       0.00000000 </v>
   <v>      -0.00000000      -0.00000000      -1.15838763 </v>
  </varray>
  <energy>
   <i name="e_fr_energy">    -41.85130803 </i>
   <i name="e_wo_entrp">    -41.85053125 </i>
   <i name="e_0_energy">    -41.85091964 </i>
  </energy>
  <time name="totalsc">    0.44    0.45</time>
 </calculation>
 <calculation>
  <scstep>
   <time name="dav">    0.06    0.06</time>
   <time name="total">    0.09    0.09</time>
   <energy>
    <i name="alphaZ">     84.73417088 </i>
    <i name="ewald">   3583.50476801 </i>
    <i name="hartreedc">  -7971.36576323 </i>
    <i name="XCdc">    100.81293622 </i>
    <i name="pawpsdc">   5521.51121726 </i>
    <i name="pawaedc">  -5407.50379129 </i>
    <i name="eentropy">     -0.00077670 </i>
    <i name="bandstr">   -675.77610444 </i>
    <i name="atom">   4724.74487735 </i>
    <i name="e_fr_energy">    -39.33846594 </i>
    <i name="e_wo_entrp">    -39.33768924 </i>
    <i name="e_0_energy">    -39.33807759 </i>
   </energy>
  </scstep>
  <scstep>
   <time name="dav">    0.06    0.06</time>
   <time name="total">    0.08    0.08</time>
   <energy>
    <i name="alphaZ">     84.73417088 </i>
    <i name="ewald">   3583.50476801 </i>
    <i name="hartreedc">  -7971.36571574 </i>
    <i name="XCdc">    100.81293524 </i>
    <i name="pawpsdc">   5521.50955082 </i>
    <i name="pawaedc">  -5407.50212433 </i>
    <i name="eentropy">     -0.00077670 </i>
    <i name="bandstr">   -675.77615147 </i>
    <i name="atom">   4724.74487735 </i>
    <i name="e_fr_energy">    -39.33846594 </i>
    <i name="e_wo_entrp">    -39.33768924 </i>
    <i name="e_0_energy">    -39.33807759 </i>
   </energy>
  </scstep>
  <structure>
   <crystal>
    <varray name="basis" >
     <v>       3.37894624       0.00000000       0.00000000 </v>
     <v>       1.68947312       2.92625328       0.00000000 </v>
     <v>       0.00000000       0.00000000      20.00000000 </v>
    </varray>
    <i name="volume">    197.75304998 </i>
    <varray name="rec_basis" >
     <v>       0.29595025      -0.17086696       0.00000000 </v>
     <v>       0.00000000       0.34173392       0.00000000 </v>
     <v>       0.00000000       0.00000000       0.05000000 </v>
    </varray>
   </crystal>
   <varray name="positions" >
    <v>      -0.00000000      -0.00000000       0.50189722 </v>
    <v>       0.33333333       0.33333333       0.82312689 </v>
    <v>       0.33333333       0.33333333       0.42708212 </v>
    <v>       0.33333333       0.33333333       0.57677612 </v>
    <v>       0.00000000       0.00000000       0.72959295 </v>
    <v>      -0.00000000      -0.00000000       0.91652469 </v>
   </varray>
  </structure>
  <varray name="forces" >
   <v>       0.00000000       0.00000000       0.00006353 </v>
   <v>      -0.00000000       0.00000000      -0.00001425 </v>
   <v>      -0.00000000      -0.00000000       0.00022044 </v>
   <v>       0.00000000       0.00000000      -0.00019348 </v>
   <v>      -0.00000000      -0.00000000      -0.00004051 </v>
   <v>      -0.00000000      -0.00000000      -0.00003573 </v>
  </varray>
  <varray name="stress" >
   <v>     -25.38581652       0.00000000       0.00000000 </v>
   <v>       0.00000000     -25.38581652       0.00000000 </v>
   <v>       0.00000000      -0.00000000      -1.16033142 </v>
  </varray>
  <energy>
   <i name="e_fr_energy">    -41.85130803 </i>
   <i name="e_wo_entrp">    -41.85053134 </i>
   <i name="e_0_energy">    -41.85091968 </i>
  </energy>
  <time name="totalsc">    0.44    0.45</time>
 </calculation>
 <calculation>
  <scstep>
   <time name="dav">    0.06    0.06</time>
   <time name="total">    0.10    0.10</time>
   <energy>
    <i name="alphaZ">     84.73417088 </i>
    <i name="ewald">   3583.50925677 </i>
    <i name="hartreedc">  -7971.37002166 </i>
    <i name="XCdc">    100.81295195 </i>
    <i name="pawpsdc">   5521.50847225 </i>
    <i name="pawaedc">  -5407.50104603 </i>
    <i name="eentropy">     -0.00077676 </i>
    <i name="bandstr">   -675.77635027 </i>
    <i name="atom">   4724.74487735 </i>
    <i name="e_fr_energy">    -39.33846552 </i>
    <i name="e_wo_entrp">    -39.33768876 </i>
    <i name="e_0_energy">    -39.33807714 </i>
   </energy>
  </scstep>
  <scstep>
   <time name="dav">    0.06    0.06</time>
   <time name="total">    0.08    0.08</time>
   <energy>
    <i name="alphaZ">     84.73417088 </i>
    <i name="ewald">   3583.50925677 </i>
    <i name="hartreedc">  -7971.37004977 </i>
    <i name="XCdc">    100.81295450 </i>
    <i name="pawpsdc">   5521.50760939 </i>
    <i name="pawaedc">  -5407.50017580 </i>
    <i name="eentropy">     -0.00077677 </i>
    <i name="bandstr">   -675.77633207 </i>
    <i name="atom">   4724.74487735 </i>
    <i name="e_fr_energy">    -39.33846552 </i>
    <i name="e_wo_entrp">    -39.33768875 </i>
    <i name="e_0_energy">    -39.33807713 </i>
   </energy>
  </scstep>
  <structure>
   <crystal>
    <varray name="basis" >
     <v>       3.37894624       0.00000000       0.00000000 </v>
     <v>       1.68947312       2.92625328       0.00000000 </v>
     <v>       0.00000000       0.00000000      20.00000000 </v>
    </varray>
    <i name="volume">    197.75304998 </i>
    <varray name="rec_basis" >
     <v>       0.29595025      -0.17086696       0.00000000 </v>
     <v>       0.00000000       0.34173392       0.00000000 </v>
     <v>       0.00000000       0.00000000       0.05000000 </v>
    </varray>
   </crystal>
   <varray name="positions" >
    <v>      -0.00000000      -0.00000000       0.50189731 </v>
    <v>       0.33333333       0.33333333       0.82312697 </v>
    <v>       0.33333333       0.33333333       0.42708226 </v>
    <v>       0.33333333       0.33333333       0.57677593 </v>
    <v>       0.00000000       0.00000000       0.72959290 </v>
    <v>      -0.00000000      -0.00000000       0.91652464 </v>
   </varray>
  </structure>
  <varray name="forces" >
   <v>       0.00000000       0.00000000       0.00002908 </v>
   <v>      -0.00000000      -0.00000000      -0.00040162 </v>
   <v>      -0.00000000      -0.00000000       0.00015720 </v>
   <v>       0.00000000       0.00000000       0.00026427 </v>
   <v>       0.00000000       0.00000000      -0.00002422 </v>
   <v>      -0.00000000       0.00000000      -0.00002472 </v>
  </varray>
  <varray name="stress" >
   <v>     -25.38495064      -0.00000000       0.00000000 </v>
   <v>       0.00000000     -25.38495064      -0.00000000 </v>
   <v>      -0.00000000      -0.00000000      -1.15887136 </v>
  </varray>
  <energy>
   <i name="e_fr_energy">    -41.85130803 </i>
   <i name="e_wo_entrp">    -41.85053127 </i>
   <i name="e_0_energy">    -41.85091965 </i>
  </energy>
  <time name="totalsc">    0.45    0.46</time>
 </calculation>
 <calculation>
  <scstep>
   <time name="dav">    0.06    0.06</time>
   <time name="total">    0.10    0.10</time>
   <energy>
    <i name="alphaZ">     84.73417088 </i>
    <i name="ewald">   3583.52874915 </i>
    <i name="hartreedc">  -7971.38937783 </i>
    <i name="XCdc">    100.81297951 </i>
    <i name="pawpsdc">   5521.50827149 </i>
    <i name="pawaedc">  -5407.50083752 </i>
    <i name="eentropy">     -0.00077684 </i>
    <i name="bandstr">   -675.77652030 </i>
    <i name="atom">   4724.74487735 </i>
    <i name="e_fr_energy">    -39.33846410 </i>
    <i name="e_wo_entrp">    -39.33768726 </i>
    <i name="e_0_energy">    -39.33807568 </i>
   </energy>
  </scstep>
  <scstep>
   <time name="dav">    0.06    0.06</time>
   <time name="total">    0.08    0.08</time>
   <energy>
    <i name="alphaZ">     84.73417088 </i>
    <i name="ewald">   3583.52874915 </i>
    <i name="hartreedc">  -7971.38940594 </i>
    <i name="XCdc">    100.81298240 </i>
    <i name="pawpsdc">   5521.51033912 </i>
    <i name="pawaedc">  -5407.50290405 </i>
    <i name="eentropy">     -0.00077682 </i>
    <i name="bandstr">   -675.77649619 </i>
    <i name="atom">   4724.74487735 </i>
    <i name="e_fr_energy">    -39.33846411 </i>
    <i name="e_wo_entrp">    -39.33768728 </i>
    <i name="e_0_energy">    -39.33807569 </i>
   </energy>
  </scstep>
  <structure>
   <crystal>
    <varray name="basis" >
     <v>       3.37894624       0.00000000       0.00000000 </v>
     <v>       1.68947312       2.92625328       0.00000000 </v>
     <v>       0.00000000       0.00000000      20.00000000 </v>
    </varray>
    <i name="volume">    197.75304998 </i>
    <varray name="rec_basis" >
     <v>       0.29595025      -0.17086696       0.00000000 </v>
     <v>       0.00000000       0.34173392       0.00000000 </v>
     <v>       0.00000000       0.00000000       0.05000000 </v>
    </varray>
   </crystal>
   <varray name="positions" >
    <v>      -0.00000000      -0.00000000       0.50189737 </v>
    <v>       0.33333333       0.33333333       0.82312662 </v>
    <v>       0.33333333       0.33333333       0.42708265 </v>
    <v>       0.33333333       0.33333333       0.57677591 </v>
    <v>       0.00000000       0.00000000       0.72959285 </v>
    <v>      -0.00000000      -0.00000000       0.91652460 </v>
   </varray>
  </structure>
  <varray name="forces" >
   <v>      -0.00000000       0.00000000       0.00006276 </v>
   <v>       0.00000000      -0.00000000       0.00014265 </v>
   <v>      -0.00000000       0.00000000      -0.00015598 </v>
   <v>      -0.00000000      -0.00000000       0.00022548 </v>
   <v>       0.00000000       0.00000000      -0.00013476 </v>
   <v>       0.00000000      -0.00000000      -0.00014015 </v>
  </varray>
  <varray name="stress" >
   <v>     -25.38423727      -0.00000000       0.00000000 </v>
   <v>       0.00000000     -25.38423727      -0.00000000 </v>
   <v>       0.00000000       0.00000000      -1.15712985 </v>
  </varray>
  <energy>
   <i name="e_fr_energy">    -41.85130804 </i>
   <i name="e_wo_entrp">    -41.85053122 </i>
   <i name="e_0_energy">    -41.85091963 </i>
  </energy>
  <time name="totalsc">    0.44    0.45</time>
 </calculation>
 <calculation>
  <scstep>
   <time name="dav">    0.06    0.06</time>
   <time name="total">    0.09    0.10</time>
   <energy>
    <i name="alphaZ">     84.73417088 </i>
    <i name="ewald">   3583.52497140 </i>
    <i name="hartreedc">  -7971.38578979 </i>
    <i name="XCdc">    100.81296662 </i>
    <i name="pawpsdc">   5521.51222454 </i>
    <i name="pawaedc">  -5407.50479304 </i>
    <i name="eentropy">     -0.00077676 </i>
    <i name="bandstr">   -675.77631518 </i>
    <i name="atom">   4724.74487735 </i>
    <i name="e_fr_energy">    -39.33846397 </i>
    <i name="e_wo_entrp">    -39.33768721 </i>
    <i name="e_0_energy">    -39.33807559 </i>
   </energy>
  </scstep>
  <scstep>
   <time name="dav">    0.06    0.06</time>
   <time name="total">    0.08    0.08</time>
   <energy>
    <i name="alphaZ">     84.73417088 </i>
    <i name="ewald">   3583.52497140 </i>
    <i name="hartreedc">  -7971.38583337 </i>
    <i name="XCdc">    100.81296356 </i>
    <i name="pawpsdc">   5521.51405624 </i>
    <i name="pawaedc">  -5407.50663053 </i>
    <i name="eentropy">     -0.00077675 </i>
    <i name="bandstr">   -675.77626274 </i>
    <i name="atom">   4724.74487735 </i>
    <i name="e_fr_energy">    -39.33846397 </i>
    <i name="e_wo_entrp">    -39.33768722 </i>
    <i name="e_0_energy">    -39.33807560 </i>
   </energy>
  </scstep>
  <structure>
   <crystal>
    <varray name="basis" >
     <v>       3.37894624       0.00000000       0.00000000 </v>
     <v>       1.68947312       2.92625328       0.00000000 </v>
     <v>       0.00000000       0.00000000      20.00000000 </v>
    </varray>
    <i name="volume">    197.75304998 </i>
    <varray name="rec_basis" >
     <v>       0.29595025      -0.17086696       0.00000000 </v>
     <v>       0.00000000       0.34173392       0.00000000 </v>
     <v>       0.00000000       0.00000000       0.05000000 </v>
    </varray>
   </crystal>
   <varray name="positions" >
    <v>      -0.00000000      -0.00000000       0.50189743 </v>
    <v>       0.33333333       0.33333333       0.82312680 </v>
    <v>       0.33333333       0.33333333       0.42708250 </v>
    <v>       0.33333333       0.33333333       0.57677607 </v>
    <v>       0.00000000       0.00000000       0.72959272 </v>
    <v>      -0.00000000      -0.00000000       0.91652447 </v>
   </varray>
  </structure>
  <varray name="forces" >
   <v>      -0.00000000       0.00000000       0.00010913 </v>
   <v>      -0.00000000      -0.00000000      -0.00050022 </v>
   <v>       0.00000000       0.00000000       0.00028163 </v>
   <v>      -0.00000000       0.00000000       0.00010634 </v>
   <v>      -0.00000000      -0.00000000       0.00000428 </v>
   <v>       0.00000000       0.00000000      -0.00000116 </v>
  </varray>
  <varray name="stress" >
   <v>     -25.38508562       0.00000000      -0.00000000 </v>
   <v>       0.00000000     -25.38508562      -0.00000000 </v>
   <v>      -0.00000000       0.00000000      -1.15798358 </v>
  </varray>
  <energy>
   <i name="e_fr_energy">    -41.85130804 </i>
   <i name="e_wo_entrp">    -41.85053129 </i>
   <i name="e_0_energy">    -41.85091966 </i>
  </energy>
  <time name="totalsc">    0.45    0.45</time>
 </calculation>
 <calculation>
  <scstep>
   <time name="dav">    0.06    0.06</time>
   <time name="total">    0.09    0.09</time>
   <energy>
    <i name="alphaZ">     84.73417088 </i>
    <i name="ewald">   3583.53959769 </i>
    <i name="hartreedc">  -7971.40056584 </i>
    <i name="XCdc">    100.81295181 </i>
    <i name="pawpsdc">   5521.51384211 </i>
    <i name="pawaedc">  -5407.50641891 </i>
    <i name="eentropy">     -0.00077671 </i>
    <i name="bandstr">   -675.77614099 </i>
    <i name="atom">   4724.74487735 </i>
    <i name="e_fr_energy">    -39.33846262 </i>
    <i name="e_wo_entrp">    -39.33768591 </i>
    <i name="e_0_energy">    -39.33807426 </i>
   </energy>
  </scstep>
  <scstep>
   <time name="dav">    0.06    0.06</time>
   <time name="total">    0.08    0.08</time>
   <energy>
    <i name="alphaZ">     84.73417088 </i>
    <i name="ewald">   3583.53959769 </i>
    <i name="hartreedc">  -7971.40053862 </i>
    <i name="XCdc">    100.81295192 </i>
    <i name="pawpsdc">   5521.51241091 </i>
    <i name="pawaedc">  -5407.50498531 </i>
    <i name="eentropy">     -0.00077671 </i>
    <i name="bandstr">   -675.77617074 </i>
    <i name="atom">   4724.74487735 </i>
    <i name="e_fr_energy">    -39.33846262 </i>
    <i name="e_wo_entrp">    -39.33768591 </i>
    <i name="e_0_energy">    -39.33807426 </i>
   </energy>
  </scstep>
  <structure>
   <crystal>
    <varray name="basis" >
     <v>       3.37894624       0.00000000       0.00000000 </v>
     <v>       1.68947312       2.92625328       0.00000000 </v>
     <v>       0.00000000       0.00000000      20.00000000 </v>
    </varray>
    <i name="volume">    197.75304998 </i>
    <varray name="rec_basis" >
     <v>       0.29595025      -0.17086696       0.00000000 </v>
     <v>       0.00000000       0.34173392       0.00000000 </v>
     <v>       0.00000000       0.00000000       0.05000000 </v>
    </varray>
   </crystal>
   <varray name="positions" >
    <v>      -0.00000000      -0.00000000       0.50189758 </v>
    <v>       0.33333333       0.33333333       0.82312650 </v>
    <v>       0.33333333       0.33333333       0.42708258 </v>
    <v>       0.33333333       0.33333333       0.57677641 </v>
    <v>       0.00000000       0.00000000       0.72959259 </v>
    <v>      -0.00000000      -0.00000000       0.91652433 </v>
   </varray>
  </structure>
  <varray name="forces" >
   <v>       0.00000000      -0.00000000      -0.00000117 </v>
   <v>       0.00000000       0.00000000       0.00006760 </v>
   <v>      -0.00000000      -0.00000000       0.00017033 </v>
   <v>       0.00000000       0.00000000      -0.00012834 </v>
   <v>       0.00000000      -0.00000000      -0.00005228 </v>
   <v>       0.00000000       0.00000000      -0.00005614 </v>
  </varray>
  <varray name="stress" >
   <v>     -25.38543556      -0.00000000       0.00000000 </v>
   <v>       0.00000000     -25.38543556      -0.00000000 </v>
   <v>       0.00000000      -0.00000000      -1.15942599 </v>
  </varray>
  <energy>
   <i name="e_fr_energy">    -41.85130804 </i>
   <i name="e_wo_entrp">    -41.85053133 </i>
   <i name="e_0_energy">    -41.85091969 </i>
  </energy>
  <time name="totalsc">    0.44    0.45</time>
 </calculation>
 <calculation>
  <scstep>
   <time name="dav">    0.06    0.06</time>
   <time name="total">    0.09    0.09</time>
   <energy>
    <i name="alphaZ">     84.73417088 </i>
    <i name="ewald">   3583.54270899 </i>
    <i name="hartreedc">  -7971.40344907 </i>
    <i name="XCdc">    100.81297145 </i>
    <i name="pawpsdc">   5521.51154598 </i>
    <i name="pawaedc">  -5407.50412058 </i>
    <i name="eentropy">     -0.00077678 </i>
    <i name="bandstr">   -675.77639039 </i>
    <i name="atom">   4724.74487735 </i>
    <i name="e_fr_energy">    -39.33846217 </i>
    <i name="e_wo_entrp">    -39.33768540 </i>
    <i name="e_0_energy">    -39.33807379 </i>
   </energy>
  </scstep>
  <scstep>
   <time name="dav">    0.06    0.06</time>
   <time name="total">    0.08    0.08</time>
   <energy>
    <i name="alphaZ">     84.73417088 </i>
    <i name="ewald">   3583.54270899 </i>
    <i name="hartreedc">  -7971.40347117 </i>
    <i name="XCdc">    100.81297389 </i>
    <i name="pawpsdc">   5521.51131721 </i>
    <i name="pawaedc">  -5407.50388527 </i>
    <i name="eentropy">     -0.00077678 </i>
    <i name="bandstr">   -675.77637727 </i>
    <i name="atom">   4724.74487735 </i>
    <i name="e_fr_energy">    -39.33846218 </i>
    <i name="e_wo_entrp">    -39.33768539 </i>
    <i name="e_0_energy">    -39.33807378 </i>
   </energy>
  </scstep>
  <structure>
   <crystal>
    <varray name="basis" >
     <v>       3.37894624       0.00000000       0.00000000 </v>
     <v>       1.68947312       2.92625328       0.00000000 </v>
     <v>       0.00000000       0.00000000      20.00000000 </v>
    </varray>
    <i name="volume">    197.75304998 </i>
    <varray name="rec_basis" >
     <v>       0.29595025      -0.17086696       0.00000000 </v>
     <v>       0.00000000       0.34173392       0.00000000 </v>
     <v>       0.00000000       0.00000000       0.05000000 </v>
    </varray>
   </crystal>
   <varray name="positions" >
    <v>      -0.00000000      -0.00000000       0.50189758 </v>
    <v>       0.33333333       0.33333333       0.82312662 </v>
    <v>       0.33333333       0.33333333       0.42708277 </v>
    <v>       0.33333333       0.33333333       0.57677625 </v>
    <v>       0.00000000       0.00000000       0.72959252 </v>
    <v>      -0.00000000      -0.00000000       0.91652425 </v>
   </varray>
  </structure>
  <varray name="forces" >
   <v>      -0.00000000      -0.00000000       0.00018807 </v>
   <v>       0.00000000       0.00000000      -0.00046782 </v>
   <v>      -0.00000000      -0.00000000       0.00003591 </v>
   <v>      -0.00000000      -0.00000000       0.00025547 </v>
   <v>      -0.00000000      -0.00000000      -0.00000543 </v>
   <v>       0.00000000       0.00000000      -0.00000620 </v>
  </varray>
  <varray name="stress" >
   <v>     -25.38450594       0.00000000      -0.00000000 </v>
   <v>      -0.00000000     -25.38450594       0.00000000 </v>
   <v>       0.00000000       0.00000000      -1.15777228 </v>
  </varray>
  <energy>
   <i name="e_fr_energy">    -41.85130804 </i>
   <i name="e_wo_entrp">    -41.85053126 </i>
   <i name="e_0_energy">    -41.85091965 </i>
  </energy>
  <time name="totalsc">    0.44    0.45</time>
 </calculation>
 <calculation>
  <scstep>
   <time name="dav">    0.06    0.06</time>
   <time name="total">    0.09    0.09</time>
   <energy>
    <i name="alphaZ">     84.73417088 </i>
    <i name="ewald">   3583.55628675 </i>
    <i name="hartreedc">  -7971.41715363 </i>
    <i name="XCdc">    100.81296679 </i>
    <i name="pawpsdc">   5521.51239298 </i>
    <i name="pawaedc">  -5407.50496082 </i>
    <i name="eentropy">     -0.00077675 </i>
    <i name="bandstr">   -675.77626439 </i>
    <i name="atom">   4724.74487735 </i>
    <i name="e_fr_energy">    -39.33846083 </i>
    <i name="e_wo_entrp">    -39.33768409 </i>
    <i name="e_0_energy">    -39.33807246 </i>
   </energy>
  </scstep>
  <scstep>
   <time name="dav">    0.06    0.06</time>
   <time name="total">    0.08    0.08</time>
   <energy>
    <i name="alphaZ">     84.73417088 </i>
    <i name="ewald">   3583.55628675 </i>
    <i name="hartreedc">  -7971.41714910 </i>
    <i name="XCdc">    100.81296597 </i>
    <i name="pawpsdc">   5521.51305288 </i>
    <i name="pawaedc">  -5407.50562327 </i>
    <i name="eentropy">     -0.00077674 </i>
    <i name="bandstr">   -675.77626556 </i>
    <i name="atom">   4724.74487735 </i>
    <i name="e_fr_energy">    -39.33846083 </i>
    <i name="e_wo_entrp">    -39.33768410 </i>
    <i name="e_0_energy">    -39.33807247 </i>
   </energy>
  </scstep>
  <structure>
   <crystal>
    <varray name="basis" >
     <v>       3.37894624       0.00000000       0.00000000 </v>
     <v>       1.68947312       2.92625328       0.00000000 </v>
     <v>       0.00000000       0.00000000      20.00000000 </v>
    </varray>
    <i name="volume">    197.75304998 </i>
    <varray name="rec_basis" >
     <v>       0.29595025      -0.17086696       0.00000000 </v>
     <v>       0.00000000       0.34173392       0.00000000 </v>
     <v>       0.00000000       0.00000000       0.05000000 </v>
    </varray>
   </crystal>
   <varray name="positions" >
    <v>      -0.00000000      -0.00000000       0.50189781 </v>
    <v>       0.33333333       0.33333333       0.82312645 </v>
    <v>       0.33333333       0.33333333       0.42708281 </v>
    <v>       0.33333333       0.33333333       0.57677648 </v>
    <v>       0.00000000       0.00000000       0.72959236 </v>
    <v>      -0.00000000      -0.00000000       0.91652409 </v>
   </varray>
  </structure>
  <varray name="forces" >
   <v>      -0.00000000      -0.00000000      -0.00010953 </v>
   <v>       0.00000000       0.00000000      -0.00013359 </v>
   <v>      -0.00000000      -0.00000000       0.00016930 </v>
   <v>      -0.00000000      -0.00000000       0.00002299 </v>
   <v>       0.00000000       0.00000000       0.00002729 </v>
   <v>      -0.00000000      -0.00000000       0.00002355 </v>
  </varray>
  <varray name="stress" >
   <v>     -25.38515920      -0.00000000       0.00000000 </v>
   <v>       0.00000000     -25.38515920       0.00000000 </v>
   <v>      -0.00000000      -0.00000000      -1.15845967 </v>
  </varray>
  <energy>
   <i name="e_fr_energy">    -41.85130805 </i>
   <i name="e_wo_entrp">    -41.85053131 </i>
   <i name="e_0_energy">    -41.85091968 </i>
  </energy>
  <time name="totalsc">    0.44    0.45</time>
 </calculation>
 <calculation>
  <scstep>
   <time name="dav">    0.06    0.06</time>
   <time name="total">    0.10    0.10</time>
   <energy>
    <i name="alphaZ">     84.73417088 </i>
    <i name="ewald">   3583.56584161 </i>
    <i name="hartreedc">  -7971.42651969 </i>
    <i name="XCdc">    100.81298497 </i>
    <i name="pawpsdc">   5521.51278125 </i>
    <i name="pawaedc">  -5407.50535415 </i>
    <i name="eentropy">     -0.00077680 </i>
    <i name="bandstr">   -675.77646569 </i>
    <i name="atom">   4724.74487735 </i>
    <i name="e_fr_energy">    -39.33846027 </i>
    <i name="e_wo_entrp">    -39.33768347 </i>
    <i name="e_0_energy">    -39.33807187 </i>
   </energy>
  </scstep>
  <scstep>
   <time name="dav">    0.06    0.06</time>
   <time name="total">    0.08    0.08</time>
   <energy>
    <i name="alphaZ">     84.73417088 </i>
    <i name="ewald">   3583.56584161 </i>
    <i name="hartreedc">  -7971.42654100 </i>
    <i name="XCdc">    100.81298724 </i>
    <i name="pawpsdc">   5521.51317408 </i>
    <i name="pawaedc">  -5407.50574175 </i>
    <i name="eentropy">     -0.00077678 </i>
    <i name="bandstr">   -675.77645191 </i>
    <i name="atom">   4724.74487735 </i>
    <i name="e_fr_energy">    -39.33846027 </i>
    <i name="e_wo_entrp">    -39.33768349 </i>
    <i name="e_0_energy">    -39.33807188 </i>
   </energy>
  </scstep>
  <structure>
   <crystal>
    <varray name="basis" >
     <v>       3.37894624       0.00000000       0.00000000 </v>
     <v>       1.68947312       2.92625328       0.00000000 </v>
     <v>       0.00000000       0.00000000      20.00000000 </v>
    </varray>
    <i name="volume">    197.75304998 </i>
    <varray name="rec_basis" >
     <v>       0.29595025      -0.17086696       0.00000000 </v>
     <v>       0.00000000       0.34173392       0.00000000 </v>
     <v>       0.00000000       0.00000000       0.05000000 </v>
    </varray>
   </crystal>
   <varray name="positions" >
    <v>      -0.00000000      -0.00000000       0.50189756 </v>
    <v>       0.33333333       0.33333333       0.82312611 </v>
    <v>       0.33333333       0.33333333       0.42708321 </v>
    <v>       0.33333333       0.33333333       0.57677655 </v>
    <v>       0.00000000       0.00000000       0.72959243 </v>
    <v>      -0.00000000      -0.00000000       0.91652414 </v>
   </varray>
  </structure>
  <varray name="forces" >
   <v>      -0.00000000      -0.00000000       0.00054814 </v>
   <v>       0.00000000       0.00000000       0.00016567 </v>
   <v>       0.00000000       0.00000000      -0.00029684 </v>
   <v>      -0.00000000      -0.00000000      -0.00006899 </v>
   <v>      -0.00000000      -0.00000000      -0.00017350 </v>
   <v>      -0.00000000      -0.00000000      -0.00017448 </v>
  </varray>
  <varray name="stress" >
   <v>     -25.38420111      -0.00000000       0.00000000 </v>
   <v>      -0.00000000     -25.38420111       0.00000000 </v>
   <v>       0.00000000      -0.00000000      -1.15681210 </v>
  </varray>
  <energy>
   <i name="e_fr_energy">    -41.85130805 </i>
   <i name="e_wo_entrp">    -41.85053127 </i>
   <i name="e_0_energy">    -41.85091966 </i>
  </energy>
  <time name="totalsc">    0.44    0.45</time>
 </calculation>
 <calculation>
  <scstep>
   <time name="dav">    0.06    0.06</time>
   <time name="total">    0.10    0.10</time>
   <energy>
    <i name="alphaZ">     84.73417088 </i>
    <i name="ewald">   3583.56762366 </i>
    <i name="hartreedc">  -7971.42837029 </i>
    <i name="XCdc">    100.81298539 </i>
    <i name="pawpsdc">   5521.51440094 </i>
    <i name="pawaedc">  -5407.50697067 </i>
    <i name="eentropy">     -0.00077676 </i>
    <i name="bandstr">   -675.77640038 </i>
    <i name="atom">   4724.74487735 </i>
    <i name="e_fr_energy">    -39.33845989 </i>
    <i name="e_wo_entrp">    -39.33768313 </i>
    <i name="e_0_energy">    -39.33807151 </i>
   </energy>
  </scstep>
  <scstep>
   <time name="dav">    0.06    0.06</time>
   <time name="total">    0.08    0.08</time>
   <energy>
    <i name="alphaZ">     84.73417088 </i>
    <i name="ewald">   3583.56762366 </i>
    <i name="hartreedc">  -7971.42840268 </i>
    <i name="XCdc">    100.81298422 </i>
    <i name="pawpsdc">   5521.51563365 </i>
    <i name="pawaedc">  -5407.50820621 </i>
    <i name="eentropy">     -0.00077676 </i>
    <i name="bandstr">   -675.77636400 </i>
    <i name="atom">   4724.74487735 </i>
    <i name="e_fr_energy">    -39.33845989 </i>
    <i name="e_wo_entrp">    -39.33768313 </i>
    <i name="e_0_energy">    -39.33807151 </i>
   </energy>
  </scstep>
  <structure>
   <crystal>
    <varray name="basis" >
     <v>       3.37894624       0.00000000       0.00000000 </v>
     <v>       1.68947312       2.92625328       0.00000000 </v>
     <v>       0.00000000       0.00000000      20.00000000 </v>
    </varray>
    <i name="volume">    197.75304998 </i>
    <varray name="rec_basis" >
     <v>       0.29595025      -0.17086696       0.00000000 </v>
     <v>       0.00000000       0.34173392       0.00000000 </v>
     <v>       0.00000000       0.00000000       0.05000000 </v>
    </varray>
   </crystal>
   <varray name="positions" >
    <v>      -0.00000000      -0.00000000       0.50189785 </v>
    <v>       0.33333333       0.33333333       0.82312631 </v>
    <v>       0.33333333       0.33333333       0.42708307 </v>
    <v>       0.33333333       0.33333333       0.57677646 </v>
    <v>       0.00000000       0.00000000       0.72959230 </v>
    <v>      -0.00000000      -0.00000000       0.91652402 </v>
   </varray>
  </structure>
  <varray name="forces" >
   <v>      -0.00000000      -0.00000000      -0.00006391 </v>
   <v>       0.00000000       0.00000000      -0.00047222 </v>
   <v>       0.00000000      -0.00000000       0.00022744 </v>
   <v>      -0.00000000      -0.00000000       0.00026800 </v>
   <v>       0.00000000       0.00000000       0.00002197 </v>
   <v>      -0.00000000      -0.00000000       0.00001872 </v>
  </varray>
  <varray name="stress" >
   <v>     -25.38465447       0.00000000      -0.00000000 </v>
   <v>       0.00000000     -25.38465447      -0.00000000 </v>
   <v>      -0.00000000       0.00000000      -1.15679734 </v>
  </varray>
  <energy>
   <i name="e_fr_energy">    -41.85130805 </i>
   <i name="e_wo_entrp">    -41.85053129 </i>
   <i name="e_0_energy">    -41.85091967 </i>
  </energy>
  <time name="totalsc">    0.45    0.45</time>
 </calculation>
 <calculation>
  <scstep>
   <time name="dav">    0.07    0.07</time>
   <time name="total">    0.10    0.10</time>
   <energy>
    <i name="alphaZ">     84.73417088 </i>
    <i name="ewald">   3583.59209108 </i>
    <i name="hartreedc">  -7971.45300959 </i>
    <i name="XCdc">    100.81297149 </i>
    <i name="pawpsdc">   5521.51652722 </i>
    <i name="pawaedc">  -5407.50910148 </i>
    <i name="eentropy">     -0.00077672 </i>
    <i name="bandstr">   -675.77620829 </i>
    <i name="atom">   4724.74487735 </i>
    <i name="e_fr_energy">    -39.33845806 </i>
    <i name="e_wo_entrp">    -39.33768134 </i>
    <i name="e_0_energy">    -39.33806970 </i>
   </energy>
  </scstep>
  <scstep>
   <time name="dav">    0.06    0.06</time>
   <time name="total">    0.08    0.08</time>
   <energy>
    <i name="alphaZ">     84.73417088 </i>
    <i name="ewald">   3583.59209108 </i>
    <i name="hartreedc">  -7971.45299093 </i>
    <i name="XCdc">    100.81297074 </i>
    <i name="pawpsdc">   5521.51592008 </i>
    <i name="pawaedc">  -5407.50849592 </i>
    <i name="eentropy">     -0.00077671 </i>
    <i name="bandstr">   -675.77622463 </i>
    <i name="atom">   4724.74487735 </i>
    <i name="e_fr_energy">    -39.33845806 </i>
    <i name="e_wo_entrp">    -39.33768135 </i>
    <i name="e_0_energy">    -39.33806971 </i>
   </energy>
  </scstep>
  <structure>
   <crystal>
    <varray name="basis" >
     <v>       3.37894624       0.00000000       0.00000000 </v>
     <v>       1.68947312       2.92625328       0.00000000 </v>
     <v>       0.00000000       0.00000000      20.00000000 </v>
    </varray>
    <i name="volume">    197.75304998 </i>
    <varray name="rec_basis" >
     <v>       0.29595025      -0.17086696       0.00000000 </v>
     <v>       0.00000000       0.34173392       0.00000000 </v>
     <v>       0.00000000       0.00000000       0.05000000 </v>
    </varray>
   </crystal>
   <varray name="positions" >
    <v>      -0.00000000      -0.00000000       0.50189823 </v>
    <v>       0.33333333       0.33333333       0.82312577 </v>
    <v>       0.33333333       0.33333333       0.42708311 </v>
    <v>       0.33333333       0.33333333       0.57677678 </v>
    <v>       0.00000000       0.00000000       0.72959220 </v>
    <v>      -0.00000000      -0.00000000       0.91652391 </v>
   </varray>
  </structure>
  <varray name="forces" >
   <v>      -0.00000000       0.00000000      -0.00020970 </v>
   <v>      -0.00000000       0.00000000       0.00026645 </v>
   <v>       0.00000000       0.00000000       0.00020154 </v>
   <v>      -0.00000000      -0.00000000      -0.00005167 </v>
   <v>       0.00000000      -0.00000000      -0.00009979 </v>
   <v>      -0.00000000      -0.00000000      -0.00010683 </v>
  </varray>
  <varray name="stress" >
   <v>     -25.38504868       0.00000000      -0.00000000 </v>
   <v>      -0.00000000     -25.38504868       0.00000000 </v>
   <v>       0.00000000       0.00000000      -1.15830951 </v>
  </varray>
  <energy>
   <i name="e_fr_energy">    -41.85130805 </i>
   <i name="e_wo_entrp">    -41.85053134 </i>
   <i name="e_0_energy">    -41.85091970 </i>
  </energy>
  <time name="totalsc">    0.45    0.46</time>
 </calculation>
 <calculation>
  <scstep>
   <time name="dav">    0.06    0.06</time>
   <time name="total">    0.09    0.09</time>
   <energy>
    <i name="alphaZ">     84.73417088 </i>
    <i name="ewald">   3583.58742725 </i>
    <i name="hartreedc">  -7971.44816239 </i>
    <i name="XCdc">    100.81298489 </i>
    <i name="pawpsdc">   5521.51507834 </i>
    <i name="pawaedc">  -5407.50765579 </i>
    <i name="eentropy">     -0.00077677 </i>
    <i name="bandstr">   -675.77640173 </i>
    <i name="atom">   4724.74487735 </i>
    <i name="e_fr_energy">    -39.33845796 </i>
    <i name="e_wo_entrp">    -39.33768119 </i>
    <i name="e_0_energy">    -39.33806957 </i>
   </energy>
  </scstep>
  <scstep>
   <time name="dav">    0.06    0.06</time>
   <time name="total">    0.08    0.08</time>
   <energy>
    <i name="alphaZ">     84.73417088 </i>
    <i name="ewald">   3583.58742725 </i>
    <i name="hartreedc">  -7971.44818599 </i>
    <i name="XCdc">    100.81298675 </i>
    <i name="pawpsdc">   5521.51480631 </i>
    <i name="pawaedc">  -5407.50737632 </i>
    <i name="eentropy">     -0.00077677 </i>
    <i name="bandstr">   -675.77638743 </i>
    <i name="atom">   4724.74487735 </i>
    <i name="e_fr_energy">    -39.33845796 </i>
    <i name="e_wo_entrp">    -39.33768119 </i>
    <i name="e_0_energy">    -39.33806958 </i>
   </energy>
  </scstep>
  <structure>
   <crystal>
    <varray name="basis" >
     <v>       3.37894624       0.00000000       0.00000000 </v>
     <v>       1.68947312       2.92625328       0.00000000 </v>
     <v>       0.00000000       0.00000000      20.00000000 </v>
    </varray>
    <i name="volume">    197.75304998 </i>
    <varray name="rec_basis" >
     <v>       0.29595025      -0.17086696       0.00000000 </v>
     <v>       0.00000000       0.34173392       0.00000000 </v>
     <v>       0.00000000       0.00000000       0.05000000 </v>
    </varray>
   </crystal>
   <varray name="positions" >
    <v>      -0.00000000      -0.00000000       0.50189802 </v>
    <v>       0.33333333       0.33333333       0.82312604 </v>
    <v>       0.33333333       0.33333333       0.42708331 </v>
    <v>       0.33333333       0.33333333       0.57677673 </v>
    <v>       0.00000000       0.00000000       0.72959210 </v>
    <v>      -0.00000000      -0.00000000       0.91652380 </v>
   </varray>
  </structure>
  <varray name="forces" >
   <v>      -0.00000000      -0.00000000       0.00043136 </v>
   <v>      -0.00000000      -0.00000000      -0.00056516 </v>
   <v>       0.00000000       0.00000000      -0.00000328 </v>
   <v>       0.00000000      -0.00000000       0.00016047 </v>
   <v>       0.00000000       0.00000000      -0.00001140 </v>
   <v>      -0.00000000       0.00000000      -0.00001200 </v>
  </varray>
  <varray name="stress" >
   <v>     -25.38439713       0.00000000      -0.00000000 </v>
   <v>      -0.00000000     -25.38439713       0.00000000 </v>
   <v>      -0.00000000       0.00000000      -1.15686524 </v>
  </varray>
  <energy>
   <i name="e_fr_energy">    -41.85130805 </i>
   <i name="e_wo_entrp">    -41.85053129 </i>
   <i name="e_0_energy">    -41.85091967 </i>
  </energy>
  <time name="totalsc">    0.44    0.45</time>
 </calculation>
 <calculation>
  <scstep>
   <time name="dav">    0.06    0.06</time>
   <time name="total">    0.10    0.10</time>
   <energy>
    <i name="alphaZ">     84.73417088 </i>
    <i name="ewald">   3583.60542535 </i>
    <i name="hartreedc">  -7971.46615802 </i>
    <i name="XCdc">    100.81299521 </i>
    <i name="pawpsdc">   5521.51578541 </i>
    <i name="pawaedc">  -5407.50835574 </i>
    <i name="eentropy">     -0.00077678 </i>
    <i name="bandstr">   -675.77642009 </i>
    <i name="atom">   4724.74487735 </i>
    <i name="e_fr_energy">    -39.33845643 </i>
    <i name="e_wo_entrp">    -39.33767965 </i>
    <i name="e_0_energy">    -39.33806804 </i>
   </energy>
  </scstep>
  <scstep>
   <time name="dav">    0.06    0.06</time>
   <time name="total">    0.08    0.08</time>
   <energy>
    <i name="alphaZ">     84.73417088 </i>
    <i name="ewald">   3583.60542535 </i>
    <i name="hartreedc">  -7971.46615812 </i>
    <i name="XCdc">    100.81299677 </i>
    <i name="pawpsdc">   5521.51703811 </i>
    <i name="pawaedc">  -5407.50960904 </i>
    <i name="eentropy">     -0.00077677 </i>
    <i name="bandstr">   -675.77642096 </i>
    <i name="atom">   4724.74487735 </i>
    <i name="e_fr_energy">    -39.33845643 </i>
    <i name="e_wo_entrp">    -39.33767966 </i>
    <i name="e_0_energy">    -39.33806805 </i>
   </energy>
  </scstep>
  <structure>
   <crystal>
    <varray name="basis" >
     <v>       3.37894624       0.00000000       0.00000000 </v>
     <v>       1.68947312       2.92625328       0.00000000 </v>
     <v>       0.00000000       0.00000000      20.00000000 </v>
    </varray>
    <i name="volume">    197.75304998 </i>
    <varray name="rec_basis" >
     <v>       0.29595025      -0.17086696       0.00000000 </v>
     <v>       0.00000000       0.34173392       0.00000000 </v>
     <v>       0.00000000       0.00000000       0.05000000 </v>
    </varray>
   </crystal>
   <varray name="positions" >
    <v>      -0.00000000      -0.00000000       0.50189828 </v>
    <v>       0.33333333       0.33333333       0.82312581 </v>
    <v>       0.33333333       0.33333333       0.42708347 </v>
    <v>       0.33333333       0.33333333       0.57677680 </v>
    <v>       0.00000000       0.00000000       0.72959197 </v>
    <v>      -0.00000000      -0.00000000       0.91652367 </v>
   </varray>
  </structure>
  <varray name="forces" >
   <v>       0.00000000       0.00000000      -0.00010569 </v>
   <v>      -0.00000000      -0.00000000       0.00002138 </v>
   <v>       0.00000000       0.00000000      -0.00000772 </v>
   <v>       0.00000000       0.00000000       0.00013497 </v>
   <v>       0.00000000       0.00000000      -0.00002040 </v>
   <v>       0.00000000      -0.00000000      -0.00002254 </v>
  </varray>
  <varray name="stress" >
   <v>     -25.38451880      -0.00000000      -0.00000000 </v>
   <v>      -0.00000000     -25.38451880       0.00000000 </v>
   <v>       0.00000000      -0.00000000      -1.15666892 </v>
  </varray>
  <energy>
   <i name="e_fr_energy">    -41.85130806 </i>
   <i name="e_wo_entrp">    -41.85053129 </i>
   <i name="e_0_energy">    -41.85091967 </i>
  </energy>
  <time name="totalsc">    0.44    0.45</time>
 </calculation>
 <calculation>
  <scstep>
   <time name="dav">    0.06    0.06</time>
   <time name="total">    0.09    0.09</time>
   <energy>
    <i name="alphaZ">     84.73417088 </i>
    <i name="ewald">   3583.60310243 </i>
    <i name="hartreedc">  -7971.46398816 </i>
    <i name="XCdc">    100.81297760 </i>
    <i name="pawpsdc">   5521.51793172 </i>
    <i name="pawaedc">  -5407.51050474 </i>
    <i name="eentropy">     -0.00077671 </i>
    <i name="bandstr">   -675.77624677 </i>
    <i name="atom">   4724.74487735 </i>
    <i name="e_fr_energy">    -39.33845640 </i>
    <i name="e_wo_entrp">    -39.33767969 </i>
    <i name="e_0_energy">    -39.33806805 </i>
   </energy>
  </scstep>
  <scstep>
   <time name="dav">    0.06    0.06</time>
   <time name="total">    0.08    0.08</time>
   <energy>
    <i name="alphaZ">     84.73417088 </i>
    <i name="ewald">   3583.60310243 </i>
    <i name="hartreedc">  -7971.46400944 </i>
    <i name="XCdc">    100.81297555 </i>
    <i name="pawpsdc">   5521.51789287 </i>
    <i name="pawaedc">  -5407.51046959 </i>
    <i name="eentropy">     -0.00077670 </i>
    <i name="bandstr">   -675.77621975 </i>
    <i name="atom">   4724.74487735 </i>
    <i name="e_fr_energy">    -39.33845640 </i>
    <i name="e_wo_entrp">    -39.33767970 </i>
    <i name="e_0_energy">    -39.33806805 </i>
   </energy>
  </scstep>
  <structure>
   <crystal>
    <varray name="basis" >
     <v>       3.37894624       0.00000000       0.00000000 </v>
     <v>       1.68947312       2.92625328       0.00000000 </v>
     <v>       0.00000000       0.00000000      20.00000000 </v>
    </varray>
    <i name="volume">    197.75304998 </i>
    <varray name="rec_basis" >
     <v>       0.29595025      -0.17086696       0.00000000 </v>
     <v>       0.00000000       0.34173392       0.00000000 </v>
     <v>       0.00000000       0.00000000       0.05000000 </v>
    </varray>
   </crystal>
   <varray name="positions" >
    <v>      -0.00000000      -0.00000000       0.50189813 </v>
    <v>       0.33333333       0.33333333       0.82312574 </v>
    <v>       0.33333333       0.33333333       0.42708344 </v>
    <v>       0.33333333       0.33333333       0.57677713 </v>
    <v>       0.00000000       0.00000000       0.72959194 </v>
    <v>      -0.00000000      -0.00000000       0.91652363 </v>
   </varray>
  </structure>
  <varray name="forces" >
   <v>      -0.00000000      -0.00000000       0.00040142 </v>
   <v>      -0.00000000      -0.00000000      -0.00014021 </v>
   <v>       0.00000000       0.00000000       0.00009097 </v>
   <v>      -0.00000000      -0.00000000      -0.00018452 </v>
   <v>       0.00000000       0.00000000      -0.00008251 </v>
   <v>      -0.00000000      -0.00000000      -0.00008515 </v>
  </varray>
  <varray name="stress" >
   <v>     -25.38523504       0.00000000      -0.00000000 </v>
   <v>       0.00000000     -25.38523504       0.00000000 </v>
   <v>      -0.00000000       0.00000000      -1.15787582 </v>
  </varray>
  <energy>
   <i name="e_fr_energy">    -41.85130806 </i>
   <i name="e_wo_entrp">    -41.85053136 </i>
   <i name="e_0_energy">    -41.85091971 </i>
  </energy>
  <time name="totalsc">    0.44    0.45</time>
 </calculation>
 <calculation>
  <scstep>
   <time name="dav">    0.06    0.06</time>
   <time name="total">    0.10    0.10</time>
   <energy>
    <i name="alphaZ">     84.73417088 </i>
    <i name="ewald">   3583.60906147 </i>
    <i name="hartreedc">  -7971.46985219 </i>
    <i name="XCdc">    100.81298742 </i>
    <i name="pawpsdc">   5521.51722718 </i>
    <i name="pawaedc">  -5407.50980345 </i>
    <i name="eentropy">     -0.00077674 </i>
    <i name="bandstr">   -675.77634771 </i>
    <i name="atom">   4724.74487735 </i>
    <i name="e_fr_energy">    -39.33845580 </i>
    <i name="e_wo_entrp">    -39.33767906 </i>
    <i name="e_0_energy">    -39.33806743 </i>
   </energy>
  </scstep>
  <scstep>
   <time name="dav">    0.06    0.06</time>
   <time name="total">    0.08    0.08</time>
   <energy>
    <i name="alphaZ">     84.73417088 </i>
    <i name="ewald">   3583.60906147 </i>
    <i name="hartreedc">  -7971.46985828 </i>
    <i name="XCdc">    100.81298968 </i>
    <i name="pawpsdc">   5521.51646845 </i>
    <i name="pawaedc">  -5407.50903884 </i>
    <i name="eentropy">     -0.00077675 </i>
    <i name="bandstr">   -675.77634977 </i>
    <i name="atom">   4724.74487735 </i>
    <i name="e_fr_energy">    -39.33845581 </i>
    <i name="e_wo_entrp">    -39.33767906 </i>
    <i name="e_0_energy">    -39.33806743 </i>
   </energy>
  </scstep>
  <structure>
   <crystal>
    <varray name="basis" >
     <v>       3.37894624       0.00000000       0.00000000 </v>
     <v>       1.68947312       2.92625328       0.00000000 </v>
     <v>       0.00000000       0.00000000      20.00000000 </v>
    </varray>
    <i name="volume">    197.75304998 </i>
    <varray name="rec_basis" >
     <v>       0.29595025      -0.17086696       0.00000000 </v>
     <v>       0.00000000       0.34173392       0.00000000 </v>
     <v>       0.00000000       0.00000000       0.05000000 </v>
    </varray>
   </crystal>
   <varray name="positions" >
    <v>      -0.00000000      -0.00000000       0.50189828 </v>
    <v>       0.33333333       0.33333333       0.82312580 </v>
    <v>       0.33333333       0.33333333       0.42708353 </v>
    <v>       0.33333333       0.33333333       0.57677699 </v>
    <v>       0.00000000       0.00000000       0.72959186 </v>
    <v>      -0.00000000      -0.00000000       0.91652354 </v>
   </varray>
  </structure>
  <varray name="forces" >
   <v>      -0.00000000      -0.00000000       0.00007078 </v>
   <v>       0.00000000       0.00000000      -0.00035327 </v>
   <v>       0.00000000       0.00000000       0.00007405 </v>
   <v>      -0.00000000      -0.00000000       0.00020741 </v>
   <v>       0.00000000      -0.00000000       0.00000167 </v>
   <v>      -0.00000000      -0.00000000      -0.00000065 </v>
  </varray>
  <varray name="stress" >
   <v>     -25.38456706       0.00000000       0.00000000 </v>
   <v>       0.00000000     -25.38456706      -0.00000000 </v>
   <v>       0.00000000      -0.00000000      -1.15708071 </v>
  </varray>
  <energy>
   <i name="e_fr_energy">    -41.85130806 </i>
   <i name="e_wo_entrp">    -41.85053131 </i>
   <i name="e_0_energy">    -41.85091968 </i>
  </energy>
  <time name="totalsc">    0.45    0.45</time>
 </calculation>
 <calculation>
  <scstep>
   <time name="dav">    0.06    0.06</time>
   <time name="total">    0.09    0.10</time>
   <energy>
    <i name="alphaZ">     84.73417088 </i>
    <i name="ewald">   3583.60715324 </i>
    <i name="hartreedc">  -7971.46797042 </i>
    <i name="XCdc">    100.81298811 </i>
    <i name="pawpsdc">   5521.51710031 </i>
    <i name="pawaedc">  -5407.50967045 </i>
    <i name="eentropy">     -0.00077675 </i>
    <i name="bandstr">   -675.77632827 </i>
    <i name="atom">   4724.74487735 </i>
    <i name="e_fr_energy">    -39.33845600 </i>
    <i name="e_wo_entrp">    -39.33767926 </i>
    <i name="e_0_energy">    -39.33806763 </i>
   </energy>
  </scstep>
  <scstep>
   <time name="dav">    0.06    0.06</time>
   <time name="total">    0.08    0.08</time>
   <energy>
    <i name="alphaZ">     84.73417088 </i>
    <i name="ewald">   3583.60715324 </i>
    <i name="hartreedc">  -7971.46800770 </i>
    <i name="XCdc">    100.81298763 </i>
    <i name="pawpsdc">   5521.51772470 </i>
    <i name="pawaedc">  -5407.51029604 </i>
    <i name="eentropy">     -0.00077675 </i>
    <i name="bandstr">   -675.77628931 </i>
    <i name="atom">   4724.74487735 </i>
    <i name="e_fr_energy">    -39.33845600 </i>
    <i name="e_wo_entrp">    -39.33767926 </i>
    <i name="e_0_energy">    -39.33806763 </i>
   </energy>
  </scstep>
  <structure>
   <crystal>
    <varray name="basis" >
     <v>       3.37894624       0.00000000       0.00000000 </v>
     <v>       1.68947312       2.92625328       0.00000000 </v>
     <v>       0.00000000       0.00000000      20.00000000 </v>
    </varray>
    <i name="volume">    197.75304998 </i>
    <varray name="rec_basis" >
     <v>       0.29595025      -0.17086696       0.00000000 </v>
     <v>       0.00000000       0.34173392       0.00000000 </v>
     <v>       0.00000000       0.00000000       0.05000000 </v>
    </varray>
   </crystal>
   <varray name="positions" >
    <v>      -0.00000000      -0.00000000       0.50189828 </v>
    <v>       0.33333333       0.33333333       0.82312582 </v>
    <v>       0.33333333       0.33333333       0.42708349 </v>
    <v>       0.33333333       0.33333333       0.57677697 </v>
    <v>       0.00000000       0.00000000       0.72959188 </v>
    <v>      -0.00000000      -0.00000000       0.91652357 </v>
   </varray>
  </structure>
  <varray name="forces" >
   <v>      -0.00000000      -0.00000000       0.00015372 </v>
   <v>       0.00000000       0.00000000      -0.00035582 </v>
   <v>       0.00000000       0.00000000       0.00014091 </v>
   <v>      -0.00000000      -0.00000000       0.00016064 </v>
   <v>       0.00000000       0.00000000      -0.00004728 </v>
   <v>      -0.00000000      -0.00000000      -0.00005217 </v>
  </varray>
  <varray name="stress" >
   <v>     -25.38466605      -0.00000000       0.00000000 </v>
   <v>      -0.00000000     -25.38466605      -0.00000000 </v>
   <v>      -0.00000000      -0.00000000      -1.15675820 </v>
  </varray>
  <energy>
   <i name="e_fr_energy">    -41.85130806 </i>
   <i name="e_wo_entrp">    -41.85053131 </i>
   <i name="e_0_energy">    -41.85091968 </i>
  </energy>
  <time name="totalsc">    0.44    0.45</time>
 </calculation>
 <calculation>
  <scstep>
   <time name="dav">    0.06    0.06</time>
   <time name="total">    0.09    0.09</time>
   <energy>
    <i name="alphaZ">     84.73417088 </i>
    <i name="ewald">   3583.60524639 </i>
    <i name="hartreedc">  -7971.46617598 </i>
    <i name="XCdc">    100.81298126 </i>
    <i name="pawpsdc">   5521.51807087 </i>
    <i name="pawaedc">  -5407.51064374 </i>
    <i name="eentropy">     -0.00077673 </i>
    <i name="bandstr">   -675.77620658 </i>
    <i name="atom">   4724.74487735 </i>
    <i name="e_fr_energy">    -39.33845629 </i>
    <i name="e_wo_entrp">    -39.33767955 </i>
    <i name="e_0_energy">    -39.33806792 </i>
   </energy>
  </scstep>
  <scstep>
   <time name="dav">    0.06    0.06</time>
   <time name="total">    0.08    0.08</time>
   <energy>
    <i name="alphaZ">     84.73417088 </i>
    <i name="ewald">   3583.60524639 </i>
    <i name="hartreedc">  -7971.46619676 </i>
    <i name="XCdc">    100.81298079 </i>
    <i name="pawpsdc">   5521.51785739 </i>
    <i name="pawaedc">  -5407.51043111 </i>
    <i name="eentropy">     -0.00077673 </i>
    <i name="bandstr">   -675.77618449 </i>
    <i name="atom">   4724.74487735 </i>
    <i name="e_fr_energy">    -39.33845629 </i>
    <i name="e_wo_entrp">    -39.33767955 </i>
    <i name="e_0_energy">    -39.33806792 </i>
   </energy>
  </scstep>
  <structure>
   <crystal>
    <varray name="basis" >
     <v>       3.37894624       0.00000000       0.00000000 </v>
     <v>       1.68947312       2.92625328       0.00000000 </v>
     <v>       0.00000000       0.00000000      20.00000000 </v>
    </varray>
    <i name="volume">    197.75304998 </i>
    <varray name="rec_basis" >
     <v>       0.29595025      -0.17086696       0.00000000 </v>
     <v>       0.00000000       0.34173392       0.00000000 </v>
     <v>       0.00000000       0.00000000       0.05000000 </v>
    </varray>
   </crystal>
   <varray name="positions" >
    <v>      -0.00000000      -0.00000000       0.50189827 </v>
    <v>       0.33333333       0.33333333       0.82312578 </v>
    <v>       0.33333333       0.33333333       0.42708342 </v>
    <v>       0.33333333       0.33333333       0.57677699 </v>
    <v>       0.00000000       0.00000000       0.72959193 </v>
    <v>      -0.00000000      -0.00000000       0.91652362 </v>
   </varray>
  </structure>
  <varray name="forces" >
   <v>      -0.00000000       0.00000000       0.00016730 </v>
   <v>       0.00000000      -0.00000000      -0.00024156 </v>
   <v>      -0.00000000      -0.00000000       0.00017323 </v>
   <v>       0.00000000       0.00000000       0.00007674 </v>
   <v>      -0.00000000      -0.00000000      -0.00008384 </v>
   <v>       0.00000000       0.00000000      -0.00009187 </v>
  </varray>
  <varray name="stress" >
   <v>     -25.38481815       0.00000000      -0.00000000 </v>
   <v>       0.00000000     -25.38481815       0.00000000 </v>
   <v>      -0.00000000      -0.00000000      -1.15723353 </v>
  </varray>
  <energy>
   <i name="e_fr_energy">    -41.85130806 </i>
   <i name="e_wo_entrp">    -41.85053132 </i>
   <i name="e_0_energy">    -41.85091969 </i>
  </energy>
  <time name="totalsc">    0.44    0.45</time>
 </calculation>
 <calculation>
  <scstep>
   <time name="dav">    0.06    0.06</time>
   <time name="total">    0.10    0.10</time>
   <energy>
    <i name="alphaZ">     84.73417088 </i>
    <i name="ewald">   3583.60727801 </i>
    <i name="hartreedc">  -7971.46830098 </i>
    <i name="XCdc">    100.81297364 </i>
    <i name="pawpsdc">   5521.51747502 </i>
    <i name="pawaedc">  -5407.51004873 </i>
    <i name="eentropy">     -0.00077671 </i>
    <i name="bandstr">   -675.77610468 </i>
    <i name="atom">   4724.74487735 </i>
    <i name="e_fr_energy">    -39.33845619 </i>
    <i name="e_wo_entrp">    -39.33767948 </i>
    <i name="e_0_energy">    -39.33806784 </i>
   </energy>
  </scstep>
  <scstep>
   <time name="dav">    0.06    0.06</time>
   <time name="total">    0.08    0.08</time>
   <energy>
    <i name="alphaZ">     84.73417088 </i>
    <i name="ewald">   3583.60727801 </i>
    <i name="hartreedc">  -7971.46830348 </i>
    <i name="XCdc">    100.81297349 </i>
    <i name="pawpsdc">   5521.51683017 </i>
    <i name="pawaedc">  -5407.50940413 </i>
    <i name="eentropy">     -0.00077670 </i>
    <i name="bandstr">   -675.77610178 </i>
    <i name="atom">   4724.74487735 </i>
    <i name="e_fr_energy">    -39.33845619 </i>
    <i name="e_wo_entrp">    -39.33767949 </i>
    <i name="e_0_energy">    -39.33806784 </i>
   </energy>
  </scstep>
  <structure>
   <crystal>
    <varray name="basis" >
     <v>       3.37894624       0.00000000       0.00000000 </v>
     <v>       1.68947312       2.92625328       0.00000000 </v>
     <v>       0.00000000       0.00000000      20.00000000 </v>
    </varray>
    <i name="volume">    197.75304998 </i>
    <varray name="rec_basis" >
     <v>       0.29595025      -0.17086696       0.00000000 </v>
     <v>       0.00000000       0.34173392       0.00000000 </v>
     <v>       0.00000000       0.00000000       0.05000000 </v>
    </varray>
   </crystal>
   <varray name="positions" >
    <v>      -0.00000000      -0.00000000       0.50189822 </v>
    <v>       0.33333333       0.33333333       0.82312562 </v>
    <v>       0.33333333       0.33333333       0.42708342 </v>
    <v>       0.33333333       0.33333333       0.57677715 </v>
    <v>       0.00000000       0.00000000       0.72959196 </v>
    <v>      -0.00000000      -0.00000000       0.91652364 </v>
   </varray>
  </structure>
  <varray name="forces" >
   <v>      -0.00000000      -0.00000000       0.00026952 </v>
   <v>       0.00000000       0.00000000      -0.00002453 </v>
   <v>      -0.00000000      -0.00000000       0.00011066 </v>
   <v>      -0.00000000      -0.00000000      -0.00007833 </v>
   <v>       0.00000000       0.00000000      -0.00013694 </v>
   <v>      -0.00000000      -0.00000000      -0.00014037 </v>
  </varray>
  <varray name="stress" >
   <v>     -25.38501459      -0.00000000       0.00000000 </v>
   <v>      -0.00000000     -25.38501459       0.00000000 </v>
   <v>      -0.00000000      -0.00000000      -1.15800866 </v>
  </varray>
  <energy>
   <i name="e_fr_energy">    -41.85130806 </i>
   <i name="e_wo_entrp">    -41.85053136 </i>
   <i name="e_0_energy">    -41.85091971 </i>
  </energy>
  <time name="totalsc">    0.44    0.45</time>
 </calculation>
 <calculation>
  <scstep>
   <time name="dav">    0.06    0.06</time>
   <time name="total">    0.09    0.09</time>
   <energy>
    <i name="alphaZ">     84.73417088 </i>
    <i name="ewald">   3583.60911002 </i>
    <i name="hartreedc">  -7971.47016433 </i>
    <i name="XCdc">    100.81296985 </i>
    <i name="pawpsdc">   5521.51604709 </i>
    <i name="pawaedc">  -5407.50861999 </i>
    <i name="eentropy">     -0.00077669 </i>
    <i name="bandstr">   -675.77607007 </i>
    <i name="atom">   4724.74487735 </i>
    <i name="e_fr_energy">    -39.33845589 </i>
    <i name="e_wo_entrp">    -39.33767920 </i>
    <i name="e_0_energy">    -39.33806755 </i>
   </energy>
  </scstep>
  <scstep>
   <time name="dav">    0.06    0.06</time>
   <time name="total">    0.08    0.08</time>
   <energy>
    <i name="alphaZ">     84.73417088 </i>
    <i name="ewald">   3583.60911002 </i>
    <i name="hartreedc">  -7971.47016054 </i>
    <i name="XCdc">    100.81296995 </i>
    <i name="pawpsdc">   5521.51513196 </i>
    <i name="pawaedc">  -5407.50770298 </i>
    <i name="eentropy">     -0.00077669 </i>
    <i name="bandstr">   -675.77607584 </i>
    <i name="atom">   4724.74487735 </i>
    <i name="e_fr_energy">    -39.33845589 </i>
    <i name="e_wo_entrp">    -39.33767920 </i>
    <i name="e_0_energy">    -39.33806755 </i>
   </energy>
  </scstep>
  <structure>
   <crystal>
    <varray name="basis" >
     <v>       3.37894624       0.00000000       0.00000000 </v>
     <v>       1.68947312       2.92625328       0.00000000 </v>
     <v>       0.00000000       0.00000000      20.00000000 </v>
    </varray>
    <i name="volume">    197.75304998 </i>
    <varray name="rec_basis" >
     <v>       0.29595025      -0.17086696       0.00000000 </v>
     <v>       0.00000000       0.34173392       0.00000000 </v>
     <v>       0.00000000       0.00000000       0.05000000 </v>
    </varray>
   </crystal>
   <varray name="positions" >
    <v>      -0.00000000      -0.00000000       0.50189824 </v>
    <v>       0.33333333       0.33333333       0.82312561 </v>
    <v>       0.33333333       0.33333333       0.42708343 </v>
    <v>       0.33333333       0.33333333       0.57677724 </v>
    <v>       0.00000000       0.00000000       0.72959190 </v>
    <v>      -0.00000000      -0.00000000       0.91652358 </v>
   </varray>
  </structure>
  <varray name="forces" >
   <v>       0.00000000       0.00000000       0.00024791 </v>
   <v>      -0.00000000      -0.00000000      -0.00018068 </v>
   <v>      -0.00000000      -0.00000000       0.00013647 </v>
   <v>       0.00000000       0.00000000      -0.00004561 </v>
   <v>      -0.00000000       0.00000000      -0.00007645 </v>
   <v>       0.00000000       0.00000000      -0.00008165 </v>
  </varray>
  <varray name="stress" >
   <v>     -25.38511991      -0.00000000      -0.00000000 </v>
   <v>      -0.00000000     -25.38511991       0.00000000 </v>
   <v>      -0.00000000       0.00000000      -1.15835308 </v>
  </varray>
  <energy>
   <i name="e_fr_energy">    -41.85130806 </i>
   <i name="e_wo_entrp">    -41.85053137 </i>
   <i name="e_0_energy">    -41.85091971 </i>
  </energy>
  <time name="totalsc">    0.86    0.87</time>
 </calculation>
 <calculation>
  <scstep>
   <time name="dav">    0.12    0.12</time>
   <time name="total">    0.21    0.21</time>
   <energy>
    <i name="alphaZ">     84.73417088 </i>
    <i name="ewald">   3583.61032335 </i>
    <i name="hartreedc">  -7971.47136881 </i>
    <i name="XCdc">    100.81296889 </i>
    <i name="pawpsdc">   5521.51431990 </i>
    <i name="pawaedc">  -5407.50689015 </i>
    <i name="eentropy">     -0.00077669 </i>
    <i name="bandstr">   -675.77608062 </i>
    <i name="atom">   4724.74487735 </i>
    <i name="e_fr_energy">    -39.33845590 </i>
    <i name="e_wo_entrp">    -39.33767921 </i>
    <i name="e_0_energy">    -39.33806755 </i>
   </energy>
  </scstep>
  <scstep>
   <time name="dav">    0.11    0.11</time>
   <time name="total">    0.14    0.14</time>
   <energy>
    <i name="alphaZ">     84.73417088 </i>
    <i name="ewald">   3583.61032335 </i>
    <i name="hartreedc">  -7971.47138788 </i>
    <i name="XCdc">    100.81296920 </i>
    <i name="pawpsdc">   5521.51378566 </i>
    <i name="pawaedc">  -5407.50635430 </i>
    <i name="eentropy">     -0.00077669 </i>
    <i name="bandstr">   -675.77606347 </i>
    <i name="atom">   4724.74487735 </i>
    <i name="e_fr_energy">    -39.33845590 </i>
    <i name="e_wo_entrp">    -39.33767921 </i>
    <i name="e_0_energy">    -39.33806756 </i>
   </energy>
  </scstep>
  <structure>
   <crystal>
    <varray name="basis" >
     <v>       3.37894624       0.00000000       0.00000000 </v>
     <v>       1.68947312       2.92625328       0.00000000 </v>
     <v>       0.00000000       0.00000000      20.00000000 </v>
    </varray>
    <i name="volume">    197.75304998 </i>
    <varray name="rec_basis" >
     <v>       0.29595025      -0.17086696       0.00000000 </v>
     <v>       0.00000000       0.34173392       0.00000000 </v>
     <v>       0.00000000       0.00000000       0.05000000 </v>
    </varray>
   </crystal>
   <varray name="positions" >
    <v>      -0.00000000      -0.00000000       0.50189823 </v>
    <v>       0.33333333       0.33333333       0.82312554 </v>
    <v>       0.33333333       0.33333333       0.42708343 </v>
    <v>       0.33333333       0.33333333       0.57677725 </v>
    <v>      -0.00000000       0.00000000       0.72959193 </v>
    <v>      -0.00000000      -0.00000000       0.91652361 </v>
   </varray>
  </structure>
  <varray name="forces" >
   <v>      -0.00000000      -0.00000000       0.00024666 </v>
   <v>       0.00000000       0.00000000      -0.00008645 </v>
   <v>      -0.00000000      -0.00000000       0.00012330 </v>
   <v>      -0.00000000      -0.00000000      -0.00002620 </v>
   <v>       0.00000000       0.00000000      -0.00012590 </v>
   <v>      -0.00000000      -0.00000000      -0.00013141 </v>
  </varray>
  <varray name="stress" >
   <v>     -25.38504041       0.00000000      -0.00000000 </v>
   <v>      -0.00000000     -25.38504041      -0.00000000 </v>
   <v>       0.00000000       0.00000000      -1.15829835 </v>
  </varray>
  <energy>
   <i name="e_fr_energy">    -41.85130806 </i>
   <i name="e_wo_entrp">    -41.85053137 </i>
   <i name="e_0_energy">    -41.85091971 </i>
  </energy>
  <time name="totalsc">    0.62    0.62</time>
 </calculation>
 <calculation>
  <scstep>
   <time name="dav">    0.07    0.07</time>
   <time name="total">    0.10    0.10</time>
   <energy>
    <i name="alphaZ">     84.73417088 </i>
    <i name="ewald">   3583.64301699 </i>
    <i name="hartreedc">  -7971.50389274 </i>
    <i name="XCdc">    100.81299493 </i>
    <i name="pawpsdc">   5521.51336198 </i>
    <i name="pawaedc">  -5407.50593046 </i>
    <i name="eentropy">     -0.00077675 </i>
    <i name="bandstr">   -675.77627520 </i>
    <i name="atom">   4724.74487735 </i>
    <i name="e_fr_energy">    -39.33845301 </i>
    <i name="e_wo_entrp">    -39.33767626 </i>
    <i name="e_0_energy">    -39.33806464 </i>
   </energy>
  </scstep>
  <scstep>
   <time name="dav">    0.06    0.06</time>
   <time name="total">    0.08    0.08</time>
   <energy>
    <i name="alphaZ">     84.73417088 </i>
    <i name="ewald">   3583.64301699 </i>
    <i name="hartreedc">  -7971.50384328 </i>
    <i name="XCdc">    100.81299969 </i>
    <i name="pawpsdc">   5521.51419515 </i>
    <i name="pawaedc">  -5407.50675867 </i>
    <i name="eentropy">     -0.00077676 </i>
    <i name="bandstr">   -675.77633437 </i>
    <i name="atom">   4724.74487735 </i>
    <i name="e_fr_energy">    -39.33845302 </i>
    <i name="e_wo_entrp">    -39.33767626 </i>
    <i name="e_0_energy">    -39.33806464 </i>
   </energy>
  </scstep>
  <structure>
   <crystal>
    <varray name="basis" >
     <v>       3.37894624       0.00000000       0.00000000 </v>
     <v>       1.68947312       2.92625328       0.00000000 </v>
     <v>       0.00000000       0.00000000      20.00000000 </v>
    </varray>
    <i name="volume">    197.75304998 </i>
    <varray name="rec_basis" >
     <v>       0.29595025      -0.17086696       0.00000000 </v>
     <v>       0.00000000       0.34173392       0.00000000 </v>
     <v>       0.00000000       0.00000000       0.05000000 </v>
    </varray>
   </crystal>
   <varray name="positions" >
    <v>      -0.00000000      -0.00000000       0.50189883 </v>
    <v>       0.33333333       0.33333333       0.82312531 </v>
    <v>       0.33333333       0.33333333       0.42708374 </v>
    <v>       0.33333333       0.33333333       0.57677718 </v>
    <v>      -0.00000000       0.00000000       0.72959164 </v>
    <v>      -0.00000000      -0.00000000       0.91652331 </v>
   </varray>
  </structure>
  <varray name="forces" >
   <v>       0.00000000       0.00000000      -0.00034324 </v>
   <v>      -0.00000000      -0.00000000       0.00002946 </v>
   <v>       0.00000000       0.00000000       0.00002462 </v>
   <v>       0.00000000       0.00000000       0.00027351 </v>
   <v>      -0.00000000       0.00000000       0.00000817 </v>
   <v>       0.00000000       0.00000000       0.00000748 </v>
  </varray>
  <varray name="stress" >
   <v>     -25.38475845      -0.00000000      -0.00000000 </v>
   <v>      -0.00000000     -25.38475845       0.00000000 </v>
   <v>      -0.00000000      -0.00000000      -1.15723748 </v>
  </varray>
  <energy>
   <i name="e_fr_energy">    -41.85130806 </i>
   <i name="e_wo_entrp">    -41.85053130 </i>
   <i name="e_0_energy">    -41.85091968 </i>
  </energy>
  <time name="totalsc">    0.45    0.46</time>
 </calculation>
 <calculation>
  <scstep>
   <time name="dav">    0.06    0.06</time>
   <time name="total">    0.09    0.09</time>
   <energy>
    <i name="alphaZ">     84.73417088 </i>
    <i name="ewald">   3583.63438694 </i>
    <i name="hartreedc">  -7971.49530088 </i>
    <i name="XCdc">    100.81298539 </i>
    <i name="pawpsdc">   5521.51579654 </i>
    <i name="pawaedc">  -5407.50836276 </i>
    <i name="eentropy">     -0.00077672 </i>
    <i name="bandstr">   -675.77623027 </i>
    <i name="atom">   4724.74487735 </i>
    <i name="e_fr_energy">    -39.33845353 </i>
    <i name="e_wo_entrp">    -39.33767681 </i>
    <i name="e_0_energy">    -39.33806517 </i>
   </energy>
  </scstep>
  <scstep>
   <time name="dav">    0.06    0.06</time>
   <time name="total">    0.08    0.08</time>
   <energy>
    <i name="alphaZ">     84.73417088 </i>
    <i name="ewald">   3583.63438694 </i>
    <i name="hartreedc">  -7971.49535240 </i>
    <i name="XCdc">    100.81298324 </i>
    <i name="pawpsdc">   5521.51714009 </i>
    <i name="pawaedc">  -5407.50971053 </i>
    <i name="eentropy">     -0.00077670 </i>
    <i name="bandstr">   -675.77617240 </i>
    <i name="atom">   4724.74487735 </i>
    <i name="e_fr_energy">    -39.33845353 </i>
    <i name="e_wo_entrp">    -39.33767683 </i>
    <i name="e_0_energy">    -39.33806518 </i>
   </energy>
  </scstep>
  <structure>
   <crystal>
    <varray name="basis" >
     <v>       3.37894624       0.00000000       0.00000000 </v>
     <v>       1.68947312       2.92625328       0.00000000 </v>
     <v>       0.00000000       0.00000000      20.00000000 </v>
    </varray>
    <i name="volume">    197.75304998 </i>
    <varray name="rec_basis" >
     <v>       0.29595025      -0.17086696       0.00000000 </v>
     <v>       0.00000000       0.34173392       0.00000000 </v>
     <v>       0.00000000       0.00000000       0.05000000 </v>
    </varray>
   </crystal>
   <varray name="positions" >
    <v>      -0.00000000      -0.00000000       0.50189848 </v>
    <v>       0.33333333       0.33333333       0.82312530 </v>
    <v>       0.33333333       0.33333333       0.42708377 </v>
    <v>       0.33333333       0.33333333       0.57677745 </v>
    <v>      -0.00000000       0.00000000       0.72959167 </v>
    <v>      -0.00000000      -0.00000000       0.91652333 </v>
   </varray>
  </structure>
  <varray name="forces" >
   <v>      -0.00000000      -0.00000000       0.00055290 </v>
   <v>      -0.00000000       0.00000000      -0.00017939 </v>
   <v>       0.00000000       0.00000000       0.00001430 </v>
   <v>      -0.00000000      -0.00000000      -0.00014838 </v>
   <v>       0.00000000       0.00000000      -0.00011871 </v>
   <v>      -0.00000000      -0.00000000      -0.00012072 </v>
  </varray>
  <varray name="stress" >
   <v>     -25.38510650      -0.00000000      -0.00000000 </v>
   <v>       0.00000000     -25.38510650       0.00000000 </v>
   <v>      -0.00000000       0.00000000      -1.15761354 </v>
  </varray>
  <energy>
   <i name="e_fr_energy">    -41.85130806 </i>
   <i name="e_wo_entrp">    -41.85053136 </i>
   <i name="e_0_energy">    -41.85091971 </i>
  </energy>
  <time name="totalsc">    0.44    0.45</time>
 </calculation>
 <calculation>
  <scstep>
   <time name="dav">    0.06    0.06</time>
   <time name="total">    0.09    0.09</time>
   <energy>
    <i name="alphaZ">     84.73417088 </i>
    <i name="ewald">   3583.64686434 </i>
    <i name="hartreedc">  -7971.50783312 </i>
    <i name="XCdc">    100.81298130 </i>
    <i name="pawpsdc">   5521.51695694 </i>
    <i name="pawaedc">  -5407.50952906 </i>
    <i name="eentropy">     -0.00077669 </i>
    <i name="bandstr">   -675.77616435 </i>
    <i name="atom">   4724.74487735 </i>
    <i name="e_fr_energy">    -39.33845241 </i>
    <i name="e_wo_entrp">    -39.33767572 </i>
    <i name="e_0_energy">    -39.33806406 </i>
   </energy>
  </scstep>
  <scstep>
   <time name="dav">    0.06    0.06</time>
   <time name="total">    0.08    0.08</time>
   <energy>
    <i name="alphaZ">     84.73417088 </i>
    <i name="ewald">   3583.64686434 </i>
    <i name="hartreedc">  -7971.50783464 </i>
    <i name="XCdc">    100.81298175 </i>
    <i name="pawpsdc">   5521.51674207 </i>
    <i name="pawaedc">  -5407.50931234 </i>
    <i name="eentropy">     -0.00077669 </i>
    <i name="bandstr">   -675.77616514 </i>
    <i name="atom">   4724.74487735 </i>
    <i name="e_fr_energy">    -39.33845241 </i>
    <i name="e_wo_entrp">    -39.33767573 </i>
    <i name="e_0_energy">    -39.33806407 </i>
   </energy>
  </scstep>
  <structure>
   <crystal>
    <varray name="basis" >
     <v>       3.37894624       0.00000000       0.00000000 </v>
     <v>       1.68947312       2.92625328       0.00000000 </v>
     <v>       0.00000000       0.00000000      20.00000000 </v>
    </varray>
    <i name="volume">    197.75304998 </i>
    <varray name="rec_basis" >
     <v>       0.29595025      -0.17086696       0.00000000 </v>
     <v>       0.00000000       0.34173392       0.00000000 </v>
     <v>       0.00000000       0.00000000       0.05000000 </v>
    </varray>
   </crystal>
   <varray name="positions" >
    <v>      -0.00000000      -0.00000000       0.50189874 </v>
    <v>       0.33333333       0.33333333       0.82312517 </v>
    <v>       0.33333333       0.33333333       0.42708380 </v>
    <v>       0.33333333       0.33333333       0.57677754 </v>
    <v>      -0.00000000       0.00000000       0.72959155 </v>
    <v>      -0.00000000      -0.00000000       0.91652321 </v>
   </varray>
  </structure>
  <varray name="forces" >
   <v>       0.00000000       0.00000000      -0.00006571 </v>
   <v>       0.00000000      -0.00000000       0.00001134 </v>
   <v>      -0.00000000       0.00000000       0.00015309 </v>
   <v>       0.00000000       0.00000000      -0.00000733 </v>
   <v>       0.00000000      -0.00000000      -0.00004310 </v>
   <v>       0.00000000       0.00000000      -0.00004829 </v>
  </varray>
  <varray name="stress" >
   <v>     -25.38504251       0.00000000       0.00000000 </v>
   <v>       0.00000000     -25.38504251       0.00000000 </v>
   <v>       0.00000000      -0.00000000      -1.15794803 </v>
  </varray>
  <energy>
   <i name="e_fr_energy">    -41.85130807 </i>
   <i name="e_wo_entrp">    -41.85053138 </i>
   <i name="e_0_energy">    -41.85091972 </i>
  </energy>
  <time name="totalsc">    0.45    0.46</time>
 </calculation>
 <calculation>
  <scstep>
   <time name="dav">    0.06    0.06</time>
   <time name="total">    0.10    0.10</time>
   <energy>
    <i name="alphaZ">     84.73417088 </i>
    <i name="ewald">   3583.65669951 </i>
    <i name="hartreedc">  -7971.51745531 </i>
    <i name="XCdc">    100.81300547 </i>
    <i name="pawpsdc">   5521.51638687 </i>
    <i name="pawaedc">  -5407.50895814 </i>
    <i name="eentropy">     -0.00077676 </i>
    <i name="bandstr">   -675.77640124 </i>
    <i name="atom">   4724.74487735 </i>
    <i name="e_fr_energy">    -39.33845137 </i>
    <i name="e_wo_entrp">    -39.33767461 </i>
    <i name="e_0_energy">    -39.33806299 </i>
   </energy>
  </scstep>
  <scstep>
   <time name="dav">    0.06    0.06</time>
   <time name="total">    0.08    0.08</time>
   <energy>
    <i name="alphaZ">     84.73417088 </i>
    <i name="ewald">   3583.65669951 </i>
    <i name="hartreedc">  -7971.51747659 </i>
    <i name="XCdc">    100.81300826 </i>
    <i name="pawpsdc">   5521.51734145 </i>
    <i name="pawaedc">  -5407.50990752 </i>
    <i name="eentropy">     -0.00077675 </i>
    <i name="bandstr">   -675.77638796 </i>
    <i name="atom">   4724.74487735 </i>
    <i name="e_fr_energy">    -39.33845137 </i>
    <i name="e_wo_entrp">    -39.33767462 </i>
    <i name="e_0_energy">    -39.33806300 </i>
   </energy>
  </scstep>
  <structure>
   <crystal>
    <varray name="basis" >
     <v>       3.37894624       0.00000000       0.00000000 </v>
     <v>       1.68947312       2.92625328       0.00000000 </v>
     <v>       0.00000000       0.00000000      20.00000000 </v>
    </varray>
    <i name="volume">    197.75304998 </i>
    <varray name="rec_basis" >
     <v>       0.29595025      -0.17086696       0.00000000 </v>
     <v>       0.00000000       0.34173392       0.00000000 </v>
     <v>       0.00000000       0.00000000       0.05000000 </v>
    </varray>
   </crystal>
   <varray name="positions" >
    <v>      -0.00000000      -0.00000000       0.50189873 </v>
    <v>       0.33333333       0.33333333       0.82312516 </v>
    <v>       0.33333333       0.33333333       0.42708412 </v>
    <v>       0.33333333       0.33333333       0.57677747 </v>
    <v>      -0.00000000       0.00000000       0.72959144 </v>
    <v>      -0.00000000      -0.00000000       0.91652309 </v>
   </varray>
  </structure>
  <varray name="forces" >
   <v>      -0.00000000      -0.00000000       0.00022382 </v>
   <v>       0.00000000       0.00000000      -0.00018071 </v>
   <v>      -0.00000000      -0.00000000      -0.00012653 </v>
   <v>       0.00000000       0.00000000       0.00014701 </v>
   <v>       0.00000000      -0.00000000      -0.00003328 </v>
   <v>       0.00000000       0.00000000      -0.00003032 </v>
  </varray>
  <varray name="stress" >
   <v>     -25.38418121       0.00000000      -0.00000000 </v>
   <v>       0.00000000     -25.38418121       0.00000000 </v>
   <v>      -0.00000000       0.00000000      -1.15618456 </v>
  </varray>
  <energy>
   <i name="e_fr_energy">    -41.85130807 </i>
   <i name="e_wo_entrp">    -41.85053131 </i>
   <i name="e_0_energy">    -41.85091969 </i>
  </energy>
  <time name="totalsc">    0.44    0.45</time>
 </calculation>
 <calculation>
  <scstep>
   <time name="dav">    0.06    0.06</time>
   <time name="total">    0.10    0.10</time>
   <energy>
    <i name="alphaZ">     84.73417088 </i>
    <i name="ewald">   3583.65879961 </i>
    <i name="hartreedc">  -7971.51969022 </i>
    <i name="XCdc">    100.81299573 </i>
    <i name="pawpsdc">   5521.51895827 </i>
    <i name="pawaedc">  -5407.51152658 </i>
    <i name="eentropy">     -0.00077671 </i>
    <i name="bandstr">   -675.77625950 </i>
    <i name="atom">   4724.74487735 </i>
    <i name="e_fr_energy">    -39.33845118 </i>
    <i name="e_wo_entrp">    -39.33767447 </i>
    <i name="e_0_energy">    -39.33806282 </i>
   </energy>
  </scstep>
  <scstep>
   <time name="dav">    0.06    0.06</time>
   <time name="total">    0.08    0.08</time>
   <energy>
    <i name="alphaZ">     84.73417088 </i>
    <i name="ewald">   3583.65879961 </i>
    <i name="hartreedc">  -7971.51971668 </i>
    <i name="XCdc">    100.81299384 </i>
    <i name="pawpsdc">   5521.52018808 </i>
    <i name="pawaedc">  -5407.51276037 </i>
    <i name="eentropy">     -0.00077670 </i>
    <i name="bandstr">   -675.77622719 </i>
    <i name="atom">   4724.74487735 </i>
    <i name="e_fr_energy">    -39.33845118 </i>
    <i name="e_wo_entrp">    -39.33767448 </i>
    <i name="e_0_energy">    -39.33806283 </i>
   </energy>
  </scstep>
  <structure>
   <crystal>
    <varray name="basis" >
     <v>       3.37894624       0.00000000       0.00000000 </v>
     <v>       1.68947312       2.92625328       0.00000000 </v>
     <v>       0.00000000       0.00000000      20.00000000 </v>
    </varray>
    <i name="volume">    197.75304998 </i>
    <varray name="rec_basis" >
     <v>       0.29595025      -0.17086696       0.00000000 </v>
     <v>       0.00000000       0.34173392       0.00000000 </v>
     <v>       0.00000000       0.00000000       0.05000000 </v>
    </varray>
   </crystal>
   <varray name="positions" >
    <v>      -0.00000000      -0.00000000       0.50189876 </v>
    <v>       0.33333333       0.33333333       0.82312505 </v>
    <v>       0.33333333       0.33333333       0.42708406 </v>
    <v>       0.33333333       0.33333333       0.57677765 </v>
    <v>      -0.00000000       0.00000000       0.72959142 </v>
    <v>      -0.00000000      -0.00000000       0.91652307 </v>
   </varray>
  </structure>
  <varray name="forces" >
   <v>       0.00000000      -0.00000000       0.00019647 </v>
   <v>      -0.00000000      -0.00000000      -0.00005308 </v>
   <v>       0.00000000      -0.00000000       0.00009476 </v>
   <v>       0.00000000       0.00000000      -0.00006901 </v>
   <v>       0.00000000       0.00000000      -0.00008331 </v>
   <v>       0.00000000       0.00000000      -0.00008583 </v>
  </varray>
  <varray name="stress" >
   <v>     -25.38488053       0.00000000       0.00000000 </v>
   <v>      -0.00000000     -25.38488053       0.00000000 </v>
   <v>      -0.00000000      -0.00000000      -1.15671046 </v>
  </varray>
  <energy>
   <i name="e_fr_energy">    -41.85130807 </i>
   <i name="e_wo_entrp">    -41.85053137 </i>
   <i name="e_0_energy">    -41.85091972 </i>
  </energy>
  <time name="totalsc">    0.45    0.45</time>
 </calculation>
 <calculation>
  <scstep>
   <time name="dav">    0.06    0.06</time>
   <time name="total">    0.09    0.10</time>
   <energy>
    <i name="alphaZ">     84.73417088 </i>
    <i name="ewald">   3583.65684631 </i>
    <i name="hartreedc">  -7971.51776660 </i>
    <i name="XCdc">    100.81299160 </i>
    <i name="pawpsdc">   5521.52006381 </i>
    <i name="pawaedc">  -5407.51263822 </i>
    <i name="eentropy">     -0.00077670 </i>
    <i name="bandstr">   -675.77621981 </i>
    <i name="atom">   4724.74487735 </i>
    <i name="e_fr_energy">    -39.33845138 </i>
    <i name="e_wo_entrp">    -39.33767468 </i>
    <i name="e_0_energy">    -39.33806303 </i>
   </energy>
  </scstep>
  <scstep>
   <time name="dav">    0.06    0.06</time>
   <time name="total">    0.08    0.08</time>
   <energy>
    <i name="alphaZ">     84.73417088 </i>
    <i name="ewald">   3583.65684631 </i>
    <i name="hartreedc">  -7971.51779764 </i>
    <i name="XCdc">    100.81299171 </i>
    <i name="pawpsdc">   5521.51954207 </i>
    <i name="pawaedc">  -5407.51211456 </i>
    <i name="eentropy">     -0.00077670 </i>
    <i name="bandstr">   -675.77619079 </i>
    <i name="atom">   4724.74487735 </i>
    <i name="e_fr_energy">    -39.33845138 </i>
    <i name="e_wo_entrp">    -39.33767468 </i>
    <i name="e_0_energy">    -39.33806303 </i>
   </energy>
  </scstep>
  <structure>
   <crystal>
    <varray name="basis" >
     <v>       3.37894624       0.00000000       0.00000000 </v>
     <v>       1.68947312       2.92625328       0.00000000 </v>
     <v>       0.00000000       0.00000000      20.00000000 </v>
    </varray>
    <i name="volume">    197.75304998 </i>
    <varray name="rec_basis" >
     <v>       0.29595025      -0.17086696       0.00000000 </v>
     <v>       0.00000000       0.34173392       0.00000000 </v>
     <v>       0.00000000       0.00000000       0.05000000 </v>
    </varray>
   </crystal>
   <varray name="positions" >
    <v>      -0.00000000      -0.00000000       0.50189874 </v>
    <v>       0.33333333       0.33333333       0.82312507 </v>
    <v>       0.33333333       0.33333333       0.42708403 </v>
    <v>       0.33333333       0.33333333       0.57677763 </v>
    <v>      -0.00000000       0.00000000       0.72959144 </v>
    <v>      -0.00000000      -0.00000000       0.91652309 </v>
   </varray>
  </structure>
  <varray name="forces" >
   <v>      -0.00000000      -0.00000000       0.00024731 </v>
   <v>       0.00000000      -0.00000000      -0.00020089 </v>
   <v>      -0.00000000       0.00000000       0.00011503 </v>
   <v>       0.00000000       0.00000000       0.00003177 </v>
   <v>      -0.00000000      -0.00000000      -0.00009413 </v>
   <v>       0.00000000       0.00000000      -0.00009910 </v>
  </varray>
  <varray name="stress" >
   <v>     -25.38471833       0.00000000       0.00000000 </v>
   <v>       0.00000000     -25.38471833       0.00000000 </v>
   <v>      -0.00000000      -0.00000000      -1.15686750 </v>
  </varray>
  <energy>
   <i name="e_fr_energy">    -41.85130807 </i>
   <i name="e_wo_entrp">    -41.85053137 </i>
   <i name="e_0_energy">    -41.85091972 </i>
  </energy>
  <time name="totalsc">    0.44    0.45</time>
 </calculation>
 <calculation>
  <scstep>
   <time name="dav">    0.06    0.06</time>
   <time name="total">    0.09    0.09</time>
   <energy>
    <i name="alphaZ">     84.73417088 </i>
    <i name="ewald">   3583.65109715 </i>
    <i name="hartreedc">  -7971.51206456 </i>
    <i name="XCdc">    100.81299033 </i>
    <i name="pawpsdc">   5521.51921165 </i>
    <i name="pawaedc">  -5407.51178394 </i>
    <i name="eentropy">     -0.00077671 </i>
    <i name="bandstr">   -675.77617395 </i>
    <i name="atom">   4724.74487735 </i>
    <i name="e_fr_energy">    -39.33845180 </i>
    <i name="e_wo_entrp">    -39.33767509 </i>
    <i name="e_0_energy">    -39.33806345 </i>
   </energy>
  </scstep>
  <scstep>
   <time name="dav">    0.06    0.06</time>
   <time name="total">    0.08    0.08</time>
   <energy>
    <i name="alphaZ">     84.73417088 </i>
    <i name="ewald">   3583.65109715 </i>
    <i name="hartreedc">  -7971.51209944 </i>
    <i name="XCdc">    100.81299046 </i>
    <i name="pawpsdc">   5521.51904136 </i>
    <i name="pawaedc">  -5407.51161261 </i>
    <i name="eentropy">     -0.00077671 </i>
    <i name="bandstr">   -675.77614024 </i>
    <i name="atom">   4724.74487735 </i>
    <i name="e_fr_energy">    -39.33845180 </i>
    <i name="e_wo_entrp">    -39.33767509 </i>
    <i name="e_0_energy">    -39.33806344 </i>
   </energy>
  </scstep>
  <structure>
   <crystal>
    <varray name="basis" >
     <v>       3.37894624       0.00000000       0.00000000 </v>
     <v>       1.68947312       2.92625328       0.00000000 </v>
     <v>       0.00000000       0.00000000      20.00000000 </v>
    </varray>
    <i name="volume">    197.75304998 </i>
    <varray name="rec_basis" >
     <v>       0.29595025      -0.17086696       0.00000000 </v>
     <v>       0.00000000       0.34173392       0.00000000 </v>
     <v>       0.00000000       0.00000000       0.05000000 </v>
    </varray>
   </crystal>
   <varray name="positions" >
    <v>      -0.00000000      -0.00000000       0.50189875 </v>
    <v>       0.33333333       0.33333333       0.82312523 </v>
    <v>       0.33333333       0.33333333       0.42708394 </v>
    <v>       0.33333333       0.33333333       0.57677754 </v>
    <v>       0.00000000       0.00000000       0.72959144 </v>
    <v>      -0.00000000      -0.00000000       0.91652310 </v>
   </varray>
  </structure>
  <varray name="forces" >
   <v>       0.00000000       0.00000000       0.00020573 </v>
   <v>      -0.00000000      -0.00000000      -0.00043182 </v>
   <v>       0.00000000       0.00000000       0.00019072 </v>
   <v>       0.00000000       0.00000000       0.00013244 </v>
   <v>      -0.00000000      -0.00000000      -0.00004496 </v>
   <v>      -0.00000000      -0.00000000      -0.00005211 </v>
  </varray>
  <varray name="stress" >
   <v>     -25.38473864       0.00000000      -0.00000000 </v>
   <v>      -0.00000000     -25.38473864       0.00000000 </v>
   <v>      -0.00000000      -0.00000000      -1.15685746 </v>
  </varray>
  <energy>
   <i name="e_fr_energy">    -41.85130807 </i>
   <i name="e_wo_entrp">    -41.85053136 </i>
   <i name="e_0_energy">    -41.85091971 </i>
  </energy>
  <time name="totalsc">    0.44    0.45</time>
 </calculation>
 <calculation>
  <scstep>
   <time name="dav">    0.06    0.06</time>
   <time name="total">    0.09    0.09</time>
   <energy>
    <i name="alphaZ">     84.73417088 </i>
    <i name="ewald">   3583.65836306 </i>
    <i name="hartreedc">  -7971.51924304 </i>
    <i name="XCdc">    100.81300597 </i>
    <i name="pawpsdc">   5521.51888209 </i>
    <i name="pawaedc">  -5407.51145350 </i>
    <i name="eentropy">     -0.00077676 </i>
    <i name="bandstr">   -675.77627743 </i>
    <i name="atom">   4724.74487735 </i>
    <i name="e_fr_energy">    -39.33845139 </i>
    <i name="e_wo_entrp">    -39.33767462 </i>
    <i name="e_0_energy">    -39.33806301 </i>
   </energy>
  </scstep>
  <scstep>
   <time name="dav">    0.06    0.06</time>
   <time name="total">    0.08    0.08</time>
   <energy>
    <i name="alphaZ">     84.73417088 </i>
    <i name="ewald">   3583.65836306 </i>
    <i name="hartreedc">  -7971.51924674 </i>
    <i name="XCdc">    100.81300804 </i>
    <i name="pawpsdc">   5521.51909739 </i>
    <i name="pawaedc">  -5407.51166589 </i>
    <i name="eentropy">     -0.00077677 </i>
    <i name="bandstr">   -675.77627871 </i>
    <i name="atom">   4724.74487735 </i>
    <i name="e_fr_energy">    -39.33845139 </i>
    <i name="e_wo_entrp">    -39.33767462 </i>
    <i name="e_0_energy">    -39.33806300 </i>
   </energy>
  </scstep>
  <structure>
   <crystal>
    <varray name="basis" >
     <v>       3.37894624       0.00000000       0.00000000 </v>
     <v>       1.68947312       2.92625328       0.00000000 </v>
     <v>       0.00000000       0.00000000      20.00000000 </v>
    </varray>
    <i name="volume">    197.75304998 </i>
    <varray name="rec_basis" >
     <v>       0.29595025      -0.17086696       0.00000000 </v>
     <v>       0.00000000       0.34173392       0.00000000 </v>
     <v>       0.00000000       0.00000000       0.05000000 </v>
    </varray>
   </crystal>
   <varray name="positions" >
    <v>      -0.00000000      -0.00000000       0.50189890 </v>
    <v>       0.33333333       0.33333333       0.82312517 </v>
    <v>       0.33333333       0.33333333       0.42708404 </v>
    <v>       0.33333333       0.33333333       0.57677734 </v>
    <v>       0.00000000       0.00000000       0.72959144 </v>
    <v>      -0.00000000      -0.00000000       0.91652311 </v>
   </varray>
  </structure>
  <varray name="forces" >
   <v>       0.00000000       0.00000000      -0.00007093 </v>
   <v>      -0.00000000      -0.00000000      -0.00017743 </v>
   <v>      -0.00000000      -0.00000000       0.00006961 </v>
   <v>       0.00000000       0.00000000       0.00030099 </v>
   <v>       0.00000000       0.00000000      -0.00005673 </v>
   <v>       0.00000000       0.00000000      -0.00006550 </v>
  </varray>
  <varray name="stress" >
   <v>     -25.38420826       0.00000000      -0.00000000 </v>
   <v>       0.00000000     -25.38420826       0.00000000 </v>
   <v>      -0.00000000      -0.00000000      -1.15572910 </v>
  </varray>
  <energy>
   <i name="e_fr_energy">    -41.85130807 </i>
   <i name="e_wo_entrp">    -41.85053130 </i>
   <i name="e_0_energy">    -41.85091968 </i>
  </energy>
  <time name="totalsc">    0.45    0.46</time>
 </calculation>
 <calculation>
  <scstep>
   <time name="dav">    0.06    0.06</time>
   <time name="total">    0.10    0.10</time>
   <energy>
    <i name="alphaZ">     84.73417088 </i>
    <i name="ewald">   3583.65792279 </i>
    <i name="hartreedc">  -7971.51885839 </i>
    <i name="XCdc">    100.81300605 </i>
    <i name="pawpsdc">   5521.52035516 </i>
    <i name="pawaedc">  -5407.51292496 </i>
    <i name="eentropy">     -0.00077675 </i>
    <i name="bandstr">   -675.77622331 </i>
    <i name="atom">   4724.74487735 </i>
    <i name="e_fr_energy">    -39.33845120 </i>
    <i name="e_wo_entrp">    -39.33767444 </i>
    <i name="e_0_energy">    -39.33806282 </i>
   </energy>
  </scstep>
  <scstep>
   <time name="dav">    0.06    0.06</time>
   <time name="total">    0.08    0.08</time>
   <energy>
    <i name="alphaZ">     84.73417088 </i>
    <i name="ewald">   3583.65792279 </i>
    <i name="hartreedc">  -7971.51885795 </i>
    <i name="XCdc">    100.81300536 </i>
    <i name="pawpsdc">   5521.52140805 </i>
    <i name="pawaedc">  -5407.51398103 </i>
    <i name="eentropy">     -0.00077675 </i>
    <i name="bandstr">   -675.77621989 </i>
    <i name="atom">   4724.74487735 </i>
    <i name="e_fr_energy">    -39.33845120 </i>
    <i name="e_wo_entrp">    -39.33767445 </i>
    <i name="e_0_energy">    -39.33806282 </i>
   </energy>
  </scstep>
  <structure>
   <crystal>
    <varray name="basis" >
     <v>       3.37894624       0.00000000       0.00000000 </v>
     <v>       1.68947312       2.92625328       0.00000000 </v>
     <v>       0.00000000       0.00000000      20.00000000 </v>
    </varray>
    <i name="volume">    197.75304998 </i>
    <varray name="rec_basis" >
     <v>       0.29595025      -0.17086696       0.00000000 </v>
     <v>       0.00000000       0.34173392       0.00000000 </v>
     <v>       0.00000000       0.00000000       0.05000000 </v>
    </varray>
   </crystal>
   <varray name="positions" >
    <v>      -0.00000000      -0.00000000       0.50189882 </v>
    <v>       0.33333333       0.33333333       0.82312520 </v>
    <v>       0.33333333       0.33333333       0.42708409 </v>
    <v>       0.33333333       0.33333333       0.57677746 </v>
    <v>       0.00000000       0.00000000       0.72959138 </v>
    <v>      -0.00000000      -0.00000000       0.91652304 </v>
   </varray>
  </structure>
  <varray name="forces" >
   <v>       0.00000000      -0.00000000       0.00024509 </v>
   <v>      -0.00000000      -0.00000000      -0.00029149 </v>
   <v>      -0.00000000      -0.00000000       0.00004686 </v>
   <v>      -0.00000000      -0.00000000       0.00007065 </v>
   <v>       0.00000000       0.00000000      -0.00003349 </v>
   <v>      -0.00000000      -0.00000000      -0.00003762 </v>
  </varray>
  <varray name="stress" >
   <v>     -25.38447389      -0.00000000       0.00000000 </v>
   <v>       0.00000000     -25.38447389       0.00000000 </v>
   <v>       0.00000000       0.00000000      -1.15599938 </v>
  </varray>
  <energy>
   <i name="e_fr_energy">    -41.85130807 </i>
   <i name="e_wo_entrp">    -41.85053132 </i>
   <i name="e_0_energy">    -41.85091969 </i>
  </energy>
  <time name="totalsc">    0.45    0.46</time>
 </calculation>
 <calculation>
  <scstep>
   <time name="dav">    0.06    0.06</time>
   <time name="total">    0.09    0.10</time>
   <energy>
    <i name="alphaZ">     84.73417088 </i>
    <i name="ewald">   3583.67009035 </i>
    <i name="hartreedc">  -7971.53115733 </i>
    <i name="XCdc">    100.81299007 </i>
    <i name="pawpsdc">   5521.52183339 </i>
    <i name="pawaedc">  -5407.51440796 </i>
    <i name="eentropy">     -0.00077669 </i>
    <i name="bandstr">   -675.77607020 </i>
    <i name="atom">   4724.74487735 </i>
    <i name="e_fr_energy">    -39.33845014 </i>
    <i name="e_wo_entrp">    -39.33767345 </i>
    <i name="e_0_energy">    -39.33806180 </i>
   </energy>
  </scstep>
  <scstep>
   <time name="dav">    0.06    0.06</time>
   <time name="total">    0.08    0.08</time>
   <energy>
    <i name="alphaZ">     84.73417088 </i>
    <i name="ewald">   3583.67009035 </i>
    <i name="hartreedc">  -7971.53114798 </i>
    <i name="XCdc">    100.81298846 </i>
    <i name="pawpsdc">   5521.52175945 </i>
    <i name="pawaedc">  -5407.51433644 </i>
    <i name="eentropy">     -0.00077669 </i>
    <i name="bandstr">   -675.77607551 </i>
    <i name="atom">   4724.74487735 </i>
    <i name="e_fr_energy">    -39.33845014 </i>
    <i name="e_wo_entrp">    -39.33767345 </i>
    <i name="e_0_energy">    -39.33806180 </i>
   </energy>
  </scstep>
  <structure>
   <crystal>
    <varray name="basis" >
     <v>       3.37894624       0.00000000       0.00000000 </v>
     <v>       1.68947312       2.92625328       0.00000000 </v>
     <v>       0.00000000       0.00000000      20.00000000 </v>
    </varray>
    <i name="volume">    197.75304998 </i>
    <varray name="rec_basis" >
     <v>       0.29595025      -0.17086696       0.00000000 </v>
     <v>       0.00000000       0.34173392       0.00000000 </v>
     <v>       0.00000000       0.00000000       0.05000000 </v>
    </varray>
   </crystal>
   <varray name="positions" >
    <v>      -0.00000000      -0.00000000       0.50189916 </v>
    <v>       0.33333333       0.33333333       0.82312502 </v>
    <v>       0.33333333       0.33333333       0.42708397 </v>
    <v>       0.33333333       0.33333333       0.57677766 </v>
    <v>       0.00000000       0.00000000       0.72959127 </v>
    <v>      -0.00000000      -0.00000000       0.91652292 </v>
   </varray>
  </structure>
  <varray name="forces" >
   <v>      -0.00000000      -0.00000000      -0.00032618 </v>
   <v>      -0.00000000      -0.00000000       0.00001471 </v>
   <v>      -0.00000000      -0.00000000       0.00031144 </v>
   <v>       0.00000000       0.00000000       0.00001124 </v>
   <v>       0.00000000       0.00000000      -0.00000201 </v>
   <v>       0.00000000       0.00000000      -0.00000919 </v>
  </varray>
  <varray name="stress" >
   <v>     -25.38503261      -0.00000000       0.00000000 </v>
   <v>       0.00000000     -25.38503261       0.00000000 </v>
   <v>       0.00000000      -0.00000000      -1.15757349 </v>
  </varray>
  <energy>
   <i name="e_fr_energy">    -41.85130807 </i>
   <i name="e_wo_entrp">    -41.85053138 </i>
   <i name="e_0_energy">    -41.85091972 </i>
  </energy>
  <time name="totalsc">    0.44    0.45</time>
 </calculation>
 <calculation>
  <scstep>
   <time name="dav">    0.06    0.06</time>
   <time name="total">    0.09    0.09</time>
   <energy>
    <i name="alphaZ">     84.73417088 </i>
    <i name="ewald">   3583.67161456 </i>
    <i name="hartreedc">  -7971.53242205 </i>
    <i name="XCdc">    100.81301176 </i>
    <i name="pawpsdc">   5521.52050523 </i>
    <i name="pawaedc">  -5407.51308299 </i>
    <i name="eentropy">     -0.00077678 </i>
    <i name="bandstr">   -675.77634791 </i>
    <i name="atom">   4724.74487735 </i>
    <i name="e_fr_energy">    -39.33844995 </i>
    <i name="e_wo_entrp">    -39.33767317 </i>
    <i name="e_0_energy">    -39.33806156 </i>
   </energy>
  </scstep>
  <scstep>
   <time name="dav">    0.06    0.06</time>
   <time name="total">    0.08    0.08</time>
   <energy>
    <i name="alphaZ">     84.73417088 </i>
    <i name="ewald">   3583.67161456 </i>
    <i name="hartreedc">  -7971.53243261 </i>
    <i name="XCdc">    100.81301491 </i>
    <i name="pawpsdc">   5521.52017247 </i>
    <i name="pawaedc">  -5407.51274227 </i>
    <i name="eentropy">     -0.00077679 </i>
    <i name="bandstr">   -675.77634845 </i>
    <i name="atom">   4724.74487735 </i>
    <i name="e_fr_energy">    -39.33844996 </i>
    <i name="e_wo_entrp">    -39.33767317 </i>
    <i name="e_0_energy">    -39.33806156 </i>
   </energy>
  </scstep>
  <structure>
   <crystal>
    <varray name="basis" >
     <v>       3.37894624       0.00000000       0.00000000 </v>
     <v>       1.68947312       2.92625328       0.00000000 </v>
     <v>       0.00000000       0.00000000      20.00000000 </v>
    </varray>
    <i name="volume">    197.75304998 </i>
    <varray name="rec_basis" >
     <v>       0.29595025      -0.17086696       0.00000000 </v>
     <v>       0.00000000       0.34173392       0.00000000 </v>
     <v>       0.00000000       0.00000000       0.05000000 </v>
    </varray>
   </crystal>
   <varray name="positions" >
    <v>      -0.00000000      -0.00000000       0.50189907 </v>
    <v>       0.33333333       0.33333333       0.82312511 </v>
    <v>       0.33333333       0.33333333       0.42708421 </v>
    <v>       0.33333333       0.33333333       0.57677745 </v>
    <v>       0.00000000       0.00000000       0.72959125 </v>
    <v>      -0.00000000      -0.00000000       0.91652291 </v>
   </varray>
  </structure>
  <varray name="forces" >
   <v>      -0.00000000      -0.00000000       0.00012393 </v>
   <v>      -0.00000000      -0.00000000      -0.00036943 </v>
   <v>      -0.00000000       0.00000000      -0.00000549 </v>
   <v>       0.00000000       0.00000000       0.00029435 </v>
   <v>       0.00000000      -0.00000000      -0.00002005 </v>
   <v>      -0.00000000       0.00000000      -0.00002331 </v>
  </varray>
  <varray name="stress" >
   <v>     -25.38401732       0.00000000       0.00000000 </v>
   <v>       0.00000000     -25.38401732       0.00000000 </v>
   <v>       0.00000000      -0.00000000      -1.15539857 </v>
  </varray>
  <energy>
   <i name="e_fr_energy">    -41.85130807 </i>
   <i name="e_wo_entrp">    -41.85053128 </i>
   <i name="e_0_energy">    -41.85091968 </i>
  </energy>
  <time name="totalsc">    0.44    0.45</time>
 </calculation>
 <calculation>
  <scstep>
   <time name="dav">    0.07    0.07</time>
   <time name="total">    0.10    0.10</time>
   <energy>
    <i name="alphaZ">     84.73417088 </i>
    <i name="ewald">   3583.68248581 </i>
    <i name="hartreedc">  -7971.54340762 </i>
    <i name="XCdc">    100.81300952 </i>
    <i name="pawpsdc">   5521.52163336 </i>
    <i name="pawaedc">  -5407.51420297 </i>
    <i name="eentropy">     -0.00077675 </i>
    <i name="bandstr">   -675.77623861 </i>
    <i name="atom">   4724.74487735 </i>
    <i name="e_fr_energy">    -39.33844902 </i>
    <i name="e_wo_entrp">    -39.33767227 </i>
    <i name="e_0_energy">    -39.33806065 </i>
   </energy>
  </scstep>
  <scstep>
   <time name="dav">    0.06    0.06</time>
   <time name="total">    0.08    0.08</time>
   <energy>
    <i name="alphaZ">     84.73417088 </i>
    <i name="ewald">   3583.68248581 </i>
    <i name="hartreedc">  -7971.54337793 </i>
    <i name="XCdc">    100.81300929 </i>
    <i name="pawpsdc">   5521.52305586 </i>
    <i name="pawaedc">  -5407.51562933 </i>
    <i name="eentropy">     -0.00077672 </i>
    <i name="bandstr">   -675.77626424 </i>
    <i name="atom">   4724.74487735 </i>
    <i name="e_fr_energy">    -39.33844903 </i>
    <i name="e_wo_entrp">    -39.33767231 </i>
    <i name="e_0_energy">    -39.33806067 </i>
   </energy>
  </scstep>
  <structure>
   <crystal>
    <varray name="basis" >
     <v>       3.37894624       0.00000000       0.00000000 </v>
     <v>       1.68947312       2.92625328       0.00000000 </v>
     <v>       0.00000000       0.00000000      20.00000000 </v>
    </varray>
    <i name="volume">    197.75304998 </i>
    <varray name="rec_basis" >
     <v>       0.29595025      -0.17086696       0.00000000 </v>
     <v>       0.00000000       0.34173392       0.00000000 </v>
     <v>       0.00000000       0.00000000       0.05000000 </v>
    </varray>
   </crystal>
   <varray name="positions" >
    <v>      -0.00000000      -0.00000000       0.50189884 </v>
    <v>       0.33333333       0.33333333       0.82312466 </v>
    <v>       0.33333333       0.33333333       0.42708448 </v>
    <v>       0.33333333       0.33333333       0.57677791 </v>
    <v>       0.00000000       0.00000000       0.72959124 </v>
    <v>      -0.00000000      -0.00000000       0.91652288 </v>
   </varray>
  </structure>
  <varray name="forces" >
   <v>       0.00000000       0.00000000       0.00051731 </v>
   <v>      -0.00000000      -0.00000000       0.00022313 </v>
   <v>       0.00000000       0.00000000      -0.00022787 </v>
   <v>       0.00000000       0.00000000      -0.00027199 </v>
   <v>       0.00000000       0.00000000      -0.00012030 </v>
   <v>      -0.00000000      -0.00000000      -0.00012028 </v>
  </varray>
  <varray name="stress" >
   <v>     -25.38453851       0.00000000       0.00000000 </v>
   <v>       0.00000000     -25.38453851       0.00000000 </v>
   <v>      -0.00000000      -0.00000000      -1.15623459 </v>
  </varray>
  <energy>
   <i name="e_fr_energy">    -41.85130807 </i>
   <i name="e_wo_entrp">    -41.85053135 </i>
   <i name="e_0_energy">    -41.85091971 </i>
  </energy>
  <time name="totalsc">    0.45    0.46</time>
 </calculation>
 <calculation>
  <scstep>
   <time name="dav">    0.06    0.06</time>
   <time name="total">    0.09    0.10</time>
   <energy>
    <i name="alphaZ">     84.73417088 </i>
    <i name="ewald">   3583.68337684 </i>
    <i name="hartreedc">  -7971.54419515 </i>
    <i name="XCdc">    100.81301426 </i>
    <i name="pawpsdc">   5521.52308570 </i>
    <i name="pawaedc">  -5407.51566092 </i>
    <i name="eentropy">     -0.00077674 </i>
    <i name="bandstr">   -675.77634106 </i>
    <i name="atom">   4724.74487735 </i>
    <i name="e_fr_energy">    -39.33844884 </i>
    <i name="e_wo_entrp">    -39.33767211 </i>
    <i name="e_0_energy">    -39.33806047 </i>
   </energy>
  </scstep>
  <scstep>
   <time name="dav">    0.06    0.06</time>
   <time name="total">    0.08    0.08</time>
   <energy>
    <i name="alphaZ">     84.73417088 </i>
    <i name="ewald">   3583.68337684 </i>
    <i name="hartreedc">  -7971.54421705 </i>
    <i name="XCdc">    100.81301415 </i>
    <i name="pawpsdc">   5521.52308920 </i>
    <i name="pawaedc">  -5407.51566202 </i>
    <i name="eentropy">     -0.00077674 </i>
    <i name="bandstr">   -675.77632145 </i>
    <i name="atom">   4724.74487735 </i>
    <i name="e_fr_energy">    -39.33844884 </i>
    <i name="e_wo_entrp">    -39.33767210 </i>
    <i name="e_0_energy">    -39.33806047 </i>
   </energy>
  </scstep>
  <structure>
   <crystal>
    <varray name="basis" >
     <v>       3.37894624       0.00000000       0.00000000 </v>
     <v>       1.68947312       2.92625328       0.00000000 </v>
     <v>       0.00000000       0.00000000      20.00000000 </v>
    </varray>
    <i name="volume">    197.75304998 </i>
    <varray name="rec_basis" >
     <v>       0.29595025      -0.17086696       0.00000000 </v>
     <v>       0.00000000       0.34173392       0.00000000 </v>
     <v>       0.00000000       0.00000000       0.05000000 </v>
    </varray>
   </crystal>
   <varray name="positions" >
    <v>      -0.00000000      -0.00000000       0.50189913 </v>
    <v>       0.33333333       0.33333333       0.82312489 </v>
    <v>       0.33333333       0.33333333       0.42708435 </v>
    <v>       0.33333333       0.33333333       0.57677767 </v>
    <v>       0.00000000       0.00000000       0.72959115 </v>
    <v>      -0.00000000      -0.00000000       0.91652280 </v>
   </varray>
  </structure>
  <varray name="forces" >
   <v>       0.00000000      -0.00000000      -0.00011373 </v>
   <v>      -0.00000000       0.00000000      -0.00041958 </v>
   <v>       0.00000000       0.00000000       0.00018991 </v>
   <v>       0.00000000      -0.00000000       0.00031527 </v>
   <v>      -0.00000000      -0.00000000       0.00001542 </v>
   <v>       0.00000000       0.00000000       0.00001270 </v>
  </varray>
  <varray name="stress" >
   <v>     -25.38430754       0.00000000       0.00000000 </v>
   <v>      -0.00000000     -25.38430754       0.00000000 </v>
   <v>       0.00000000      -0.00000000      -1.15543904 </v>
  </varray>
  <energy>
   <i name="e_fr_energy">    -41.85130807 </i>
   <i name="e_wo_entrp">    -41.85053133 </i>
   <i name="e_0_energy">    -41.85091970 </i>
  </energy>
  <time name="totalsc">    0.45    0.45</time>
 </calculation>
 <calculation>
  <scstep>
   <time name="dav">    0.07    0.07</time>
   <time name="total">    0.10    0.11</time>
   <energy>
    <i name="alphaZ">     84.73417088 </i>
    <i name="ewald">   3583.70252340 </i>
    <i name="hartreedc">  -7971.56346139 </i>
    <i name="XCdc">    100.81300690 </i>
    <i name="pawpsdc">   5521.52367656 </i>
    <i name="pawaedc">  -5407.51624946 </i>
    <i name="eentropy">     -0.00077672 </i>
    <i name="bandstr">   -675.77621496 </i>
    <i name="atom">   4724.74487735 </i>
    <i name="e_fr_energy">    -39.33844743 </i>
    <i name="e_wo_entrp">    -39.33767071 </i>
    <i name="e_0_energy">    -39.33805907 </i>
   </energy>
  </scstep>
  <scstep>
   <time name="dav">    0.06    0.06</time>
   <time name="total">    0.08    0.08</time>
   <energy>
    <i name="alphaZ">     84.73417088 </i>
    <i name="ewald">   3583.70252340 </i>
    <i name="hartreedc">  -7971.56344715 </i>
    <i name="XCdc">    100.81300652 </i>
    <i name="pawpsdc">   5521.52365331 </i>
    <i name="pawaedc">  -5407.51622840 </i>
    <i name="eentropy">     -0.00077671 </i>
    <i name="bandstr">   -675.77622664 </i>
    <i name="atom">   4724.74487735 </i>
    <i name="e_fr_energy">    -39.33844743 </i>
    <i name="e_wo_entrp">    -39.33767072 </i>
    <i name="e_0_energy">    -39.33805908 </i>
   </energy>
  </scstep>
  <structure>
   <crystal>
    <varray name="basis" >
     <v>       3.37894624       0.00000000       0.00000000 </v>
     <v>       1.68947312       2.92625328       0.00000000 </v>
     <v>       0.00000000       0.00000000      20.00000000 </v>
    </varray>
    <i name="volume">    197.75304998 </i>
    <varray name="rec_basis" >
     <v>       0.29595025      -0.17086696       0.00000000 </v>
     <v>       0.00000000       0.34173392       0.00000000 </v>
     <v>       0.00000000       0.00000000       0.05000000 </v>
    </varray>
   </crystal>
   <varray name="positions" >
    <v>      -0.00000000      -0.00000000       0.50189941 </v>
    <v>       0.33333333       0.33333333       0.82312447 </v>
    <v>       0.33333333       0.33333333       0.42708442 </v>
    <v>       0.33333333       0.33333333       0.57677791 </v>
    <v>       0.00000000       0.00000000       0.72959108 </v>
    <v>      -0.00000000      -0.00000000       0.91652272 </v>
   </varray>
  </structure>
  <varray name="forces" >
   <v>      -0.00000000       0.00000000      -0.00014505 </v>
   <v>       0.00000000       0.00000000       0.00023691 </v>
   <v>       0.00000000      -0.00000000       0.00011719 </v>
   <v>      -0.00000000      -0.00000000      -0.00001662 </v>
   <v>      -0.00000000      -0.00000000      -0.00009272 </v>
   <v>       0.00000000       0.00000000      -0.00009971 </v>
  </varray>
  <varray name="stress" >
   <v>     -25.38467927       0.00000000       0.00000000 </v>
   <v>       0.00000000     -25.38467927       0.00000000 </v>
   <v>      -0.00000000       0.00000000      -1.15633455 </v>
  </varray>
  <energy>
   <i name="e_fr_energy">    -41.85130808 </i>
   <i name="e_wo_entrp">    -41.85053137 </i>
   <i name="e_0_energy">    -41.85091972 </i>
  </energy>
  <time name="totalsc">    0.45    0.46</time>
 </calculation>
 <calculation>
  <scstep>
   <time name="dav">    0.06    0.06</time>
   <time name="total">    0.09    0.09</time>
   <energy>
    <i name="alphaZ">     84.73417088 </i>
    <i name="ewald">   3583.69852110 </i>
    <i name="hartreedc">  -7971.55935337 </i>
    <i name="XCdc">    100.81301352 </i>
    <i name="pawpsdc">   5521.52307642 </i>
    <i name="pawaedc">  -5407.51565317 </i>
    <i name="eentropy">     -0.00077674 </i>
    <i name="bandstr">   -675.77632335 </i>
    <i name="atom">   4724.74487735 </i>
    <i name="e_fr_energy">    -39.33844735 </i>
    <i name="e_wo_entrp">    -39.33767062 </i>
    <i name="e_0_energy">    -39.33805899 </i>
   </energy>
  </scstep>
  <scstep>
   <time name="dav">    0.06    0.06</time>
   <time name="total">    0.08    0.08</time>
   <energy>
    <i name="alphaZ">     84.73417088 </i>
    <i name="ewald">   3583.69852110 </i>
    <i name="hartreedc">  -7971.55936960 </i>
    <i name="XCdc">    100.81301434 </i>
    <i name="pawpsdc">   5521.52290463 </i>
    <i name="pawaedc">  -5407.51547724 </i>
    <i name="eentropy">     -0.00077674 </i>
    <i name="bandstr">   -675.77631207 </i>
    <i name="atom">   4724.74487735 </i>
    <i name="e_fr_energy">    -39.33844736 </i>
    <i name="e_wo_entrp">    -39.33767062 </i>
    <i name="e_0_energy">    -39.33805899 </i>
   </energy>
  </scstep>
  <structure>
   <crystal>
    <varray name="basis" >
     <v>       3.37894624       0.00000000       0.00000000 </v>
     <v>       1.68947312       2.92625328       0.00000000 </v>
     <v>       0.00000000       0.00000000      20.00000000 </v>
    </varray>
    <i name="volume">    197.75304998 </i>
    <varray name="rec_basis" >
     <v>       0.29595025      -0.17086696       0.00000000 </v>
     <v>       0.00000000       0.34173392       0.00000000 </v>
     <v>       0.00000000       0.00000000       0.05000000 </v>
    </varray>
   </crystal>
   <varray name="positions" >
    <v>      -0.00000000      -0.00000000       0.50189925 </v>
    <v>       0.33333333       0.33333333       0.82312467 </v>
    <v>       0.33333333       0.33333333       0.42708454 </v>
    <v>       0.33333333       0.33333333       0.57677791 </v>
    <v>       0.00000000       0.00000000       0.72959100 </v>
    <v>      -0.00000000      -0.00000000       0.91652263 </v>
   </varray>
  </structure>
  <varray name="forces" >
   <v>       0.00000000      -0.00000000       0.00035024 </v>
   <v>      -0.00000000       0.00000000      -0.00040533 </v>
   <v>       0.00000000       0.00000000       0.00000588 </v>
   <v>       0.00000000      -0.00000000       0.00008336 </v>
   <v>       0.00000000      -0.00000000      -0.00001614 </v>
   <v>      -0.00000000       0.00000000      -0.00001802 </v>
  </varray>
  <varray name="stress" >
   <v>     -25.38428757       0.00000000      -0.00000000 </v>
   <v>      -0.00000000     -25.38428757      -0.00000000 </v>
   <v>      -0.00000000       0.00000000      -1.15555918 </v>
  </varray>
  <energy>
   <i name="e_fr_energy">    -41.85130808 </i>
   <i name="e_wo_entrp">    -41.85053134 </i>
   <i name="e_0_energy">    -41.85091971 </i>
  </energy>
  <time name="totalsc">    0.45    0.46</time>
 </calculation>
 <calculation>
  <scstep>
   <time name="dav">    0.06    0.06</time>
   <time name="total">    0.09    0.09</time>
   <energy>
    <i name="alphaZ">     84.73417088 </i>
    <i name="ewald">   3583.71031505 </i>
    <i name="hartreedc">  -7971.57113651 </i>
    <i name="XCdc">    100.81302006 </i>
    <i name="pawpsdc">   5521.52336046 </i>
    <i name="pawaedc">  -5407.51593344 </i>
    <i name="eentropy">     -0.00077674 </i>
    <i name="bandstr">   -675.77634341 </i>
    <i name="atom">   4724.74487735 </i>
    <i name="e_fr_energy">    -39.33844630 </i>
    <i name="e_wo_entrp">    -39.33766956 </i>
    <i name="e_0_energy">    -39.33805793 </i>
   </energy>
  </scstep>
  <scstep>
   <time name="dav">    0.06    0.06</time>
   <time name="total">    0.08    0.08</time>
   <energy>
    <i name="alphaZ">     84.73417088 </i>
    <i name="ewald">   3583.71031505 </i>
    <i name="hartreedc">  -7971.57113451 </i>
    <i name="XCdc">    100.81302119 </i>
    <i name="pawpsdc">   5521.52404885 </i>
    <i name="pawaedc">  -5407.51662159 </i>
    <i name="eentropy">     -0.00077674 </i>
    <i name="bandstr">   -675.77634679 </i>
    <i name="atom">   4724.74487735 </i>
    <i name="e_fr_energy">    -39.33844631 </i>
    <i name="e_wo_entrp">    -39.33766957 </i>
    <i name="e_0_energy">    -39.33805794 </i>
   </energy>
  </scstep>
  <structure>
   <crystal>
    <varray name="basis" >
     <v>       3.37894624       0.00000000       0.00000000 </v>
     <v>       1.68947312       2.92625328       0.00000000 </v>
     <v>       0.00000000       0.00000000      20.00000000 </v>
    </varray>
    <i name="volume">    197.75304998 </i>
    <varray name="rec_basis" >
     <v>       0.29595025      -0.17086696       0.00000000 </v>
     <v>       0.00000000       0.34173392       0.00000000 </v>
     <v>       0.00000000       0.00000000       0.05000000 </v>
    </varray>
   </crystal>
   <varray name="positions" >
    <v>      -0.00000000      -0.00000000       0.50189943 </v>
    <v>       0.33333333       0.33333333       0.82312455 </v>
    <v>       0.33333333       0.33333333       0.42708465 </v>
    <v>       0.33333333       0.33333333       0.57677796 </v>
    <v>       0.00000000       0.00000000       0.72959090 </v>
    <v>      -0.00000000      -0.00000000       0.91652252 </v>
   </varray>
  </structure>
  <varray name="forces" >
   <v>      -0.00000000      -0.00000000      -0.00003353 </v>
   <v>      -0.00000000       0.00000000      -0.00003628 </v>
   <v>       0.00000000       0.00000000       0.00000429 </v>
   <v>      -0.00000000      -0.00000000       0.00009837 </v>
   <v>      -0.00000000      -0.00000000      -0.00001584 </v>
   <v>       0.00000000      -0.00000000      -0.00001702 </v>
  </varray>
  <varray name="stress" >
   <v>     -25.38432532      -0.00000000      -0.00000000 </v>
   <v>       0.00000000     -25.38432532       0.00000000 </v>
   <v>       0.00000000       0.00000000      -1.15542565 </v>
  </varray>
  <energy>
   <i name="e_fr_energy">    -41.85130808 </i>
   <i name="e_wo_entrp">    -41.85053134 </i>
   <i name="e_0_energy">    -41.85091971 </i>
  </energy>
  <time name="totalsc">    0.42    0.42</time>
  <eigenvalues>
   <array>
    <dimension dim="1">band</dimension>
    <dimension dim="2">kpoint</dimension>
    <dimension dim="3">spin</dimension>
    <field>eigene</field>
    <field>occ</field>
    <set>
     <set comment="spin 1">
      <set comment="kpoint 1">
       <r>  -58.5189    1.0000 </r>
       <r>  -57.1299    1.0000 </r>
       <r>  -32.5420    1.0000 </r>
       <r>  -32.5355    1.0000 </r>
       <r>  -32.5355    1.0000 </r>
       <r>  -31.3809    1.0000 </r>
       <r>  -31.1196    1.0000 </r>
       <r>  -31.1196    1.0000 </r>
       <r>  -11.2169    1.0000 </r>
       <r>   -9.8956    1.0000 </r>
       <r>   -9.6202    1.0000 </r>
       <r>   -8.8275    1.0000 </r>
       <r>   -2.8645    1.0000 </r>
       <r>   -1.8061    1.0000 </r>
       <r>   -0.4499    1.0000 </r>
       <r>   -0.4499    1.0000 </r>
       <r>    0.6281    1.0000 </r>
       <r>    0.6412    1.0000 </r>
       <r>    0.6412    1.0000 </r>
       <r>    1.8305    1.0000 </r>
       <r>    2.0632    1.0000 </r>
       <r>    2.0632    1.0000 </r>
       <r>    2.5850    1.0000 </r>
       <r>    2.8618    1.0000 </r>
       <r>    2.8618    1.0000 </r>
       <r>    3.3733    1.0000 </r>
       <r>    4.8323    0.0000 </r>
       <r>    4.8323    0.0000 </r>
       <r>    5.2163    0.0000 </r>
       <r>    5.2163    0.0000 </r>
       <r>    7.0692    0.0000 </r>
       <r>    7.0692    0.0000 </r>
       <r>    7.3179    0.0000 </r>
      </set>
      <set comment="kpoint 2">
       <r>  -58.5181    1.0000 </r>
       <r>  -57.1292    1.0000 </r>
       <r>  -32.5444    1.0000 </r>
       <r>  -32.5403    1.0000 </r>
       <r>  -32.5376    1.0000 </r>
       <r>  -31.3791    1.0000 </r>
       <r>  -31.1282    1.0000 </r>
       <r>  -31.1216    1.0000 </r>
       <r>  -11.1662    1.0000 </r>
       <r>   -9.8638    1.0000 </r>
       <r>   -9.5603    1.0000 </r>
       <r>   -8.7750    1.0000 </r>
       <r>   -2.8042    1.0000 </r>
       <r>   -1.7317    1.0000 </r>
       <r>   -0.5666    1.0000 </r>
       <r>   -0.3950    1.0000 </r>
       <r>    0.3224    1.0000 </r>
       <r>    0.5571    1.0000 </r>
       <r>    0.8160    1.0000 </r>
       <r>    1.8226    1.0000 </r>
       <r>    1.9168    1.0000 </r>
       <r>    2.1250    1.0000 </r>
       <r>    2.5823    1.0000 </r>
       <r>    2.7699    1.0000 </r>
       <r>    2.8430    1.0000 </r>
       <r>    3.2817    1.0000 </r>
       <r>    4.7789    0.0000 </r>
       <r>    4.9338    0.0000 </r>
       <r>    5.1461    0.0000 </r>
       <r>    5.1513    0.0000 </r>
       <r>    6.7267    0.0000 </r>
       <r>    6.8493    0.0000 </r>
       <r>    7.1057    0.0000 </r>
      </set>
      <set comment="kpoint 3">
       <r>  -58.5161    1.0000 </r>
       <r>  -57.1271    1.0000 </r>
       <r>  -32.5695    1.0000 </r>
       <r>  -32.5434    1.0000 </r>
       <r>  -32.5356    1.0000 </r>
       <r>  -31.3739    1.0000 </r>
       <r>  -31.1524    1.0000 </r>
       <r>  -31.1272    1.0000 </r>
       <r>  -11.0199    1.0000 </r>
       <r>   -9.7864    1.0000 </r>
       <r>   -9.3685    1.0000 </r>
       <r>   -8.6196    1.0000 </r>
       <r>   -2.6389    1.0000 </r>
       <r>   -1.5230    1.0000 </r>
       <r>   -0.8607    1.0000 </r>
       <r>   -0.2370    1.0000 </r>
       <r>   -0.0461    1.0000 </r>
       <r>    0.3401    1.0000 </r>
       <r>    0.7943    1.0000 </r>
       <r>    1.4833    1.0000 </r>
       <r>    1.8052    1.0000 </r>
       <r>    2.3034    1.0000 </r>
       <r>    2.5279    1.0000 </r>
       <r>    2.5520    1.0000 </r>
       <r>    2.7021    1.0000 </r>
       <r>    2.9976    1.0000 </r>
       <r>    4.7306    0.0000 </r>
       <r>    4.9602    0.0000 </r>
       <r>    5.0224    0.0000 </r>
       <r>    5.2168    0.0000 </r>
       <r>    5.9645    0.0000 </r>
       <r>    6.1427    0.0000 </r>
       <r>    6.7401    0.0000 </r>
      </set>
      <set comment="kpoint 4">
       <r>  -58.5131    1.0000 </r>
       <r>  -57.1241    1.0000 </r>
       <r>  -32.6063    1.0000 </r>
       <r>  -32.5519    1.0000 </r>
       <r>  -32.5286    1.0000 </r>
       <r>  -31.3662    1.0000 </r>
       <r>  -31.1879    1.0000 </r>
       <r>  -31.1355    1.0000 </r>
       <r>  -10.7956    1.0000 </r>
       <r>   -9.6879    1.0000 </r>
       <r>   -9.0388    1.0000 </r>
       <r>   -8.3680    1.0000 </r>
       <r>   -2.4309    1.0000 </r>
       <r>   -1.2950    1.0000 </r>
       <r>   -1.1404    1.0000 </r>
       <r>   -0.4222    1.0000 </r>
       <r>   -0.0023    1.0000 </r>
       <r>    0.0691    1.0000 </r>
       <r>    0.5604    1.0000 </r>
       <r>    0.8503    1.0000 </r>
       <r>    1.6723    1.0000 </r>
       <r>    2.2085    1.0000 </r>
       <r>    2.3455    1.0000 </r>
       <r>    2.4183    1.0000 </r>
       <r>    2.5759    1.0000 </r>
       <r>    2.6048    1.0000 </r>
       <r>    4.7324    0.0000 </r>
       <r>    4.8181    0.0000 </r>
       <r>    4.8679    0.0000 </r>
       <r>    5.2821    0.0000 </r>
       <r>    5.5535    0.0000 </r>
       <r>    5.8949    0.0000 </r>
       <r>    6.2579    0.0000 </r>
      </set>
      <set comment="kpoint 5">
       <r>  -58.5096    1.0000 </r>
       <r>  -57.1206    1.0000 </r>
       <r>  -32.6482    1.0000 </r>
       <r>  -32.5617    1.0000 </r>
       <r>  -32.5206    1.0000 </r>
       <r>  -31.3574    1.0000 </r>
       <r>  -31.2284    1.0000 </r>
       <r>  -31.1450    1.0000 </r>
       <r>  -10.5229    1.0000 </r>
       <r>   -9.5804    1.0000 </r>
       <r>   -8.5920    1.0000 </r>
       <r>   -8.0371    1.0000 </r>
       <r>   -2.3371    1.0000 </r>
       <r>   -1.4553    1.0000 </r>
       <r>   -1.0406    1.0000 </r>
       <r>   -0.6993    1.0000 </r>
       <r>   -0.2183    1.0000 </r>
       <r>    0.0776    1.0000 </r>
       <r>    0.1455    1.0000 </r>
       <r>    0.3006    1.0000 </r>
       <r>    1.4358    1.0000 </r>
       <r>    1.8823    1.0000 </r>
       <r>    1.9335    1.0000 </r>
       <r>    2.0564    1.0000 </r>
       <r>    2.3841    1.0000 </r>
       <r>    2.9002    1.0000 </r>
       <r>    4.5058    0.0000 </r>
       <r>    4.6587    0.0000 </r>
       <r>    4.9350    0.0000 </r>
       <r>    5.2195    0.0000 </r>
       <r>    5.7553    0.0000 </r>
       <r>    5.9491    0.0000 </r>
       <r>    6.0639    0.0000 </r>
      </set>
      <set comment="kpoint 6">
       <r>  -58.5063    1.0000 </r>
       <r>  -57.1173    1.0000 </r>
       <r>  -32.6880    1.0000 </r>
       <r>  -32.5710    1.0000 </r>
       <r>  -32.5129    1.0000 </r>
       <r>  -31.3489    1.0000 </r>
       <r>  -31.2668    1.0000 </r>
       <r>  -31.1541    1.0000 </r>
       <r>  -10.2438    1.0000 </r>
       <r>   -9.4767    1.0000 </r>
       <r>   -8.0715    1.0000 </r>
       <r>   -7.6611    1.0000 </r>
       <r>   -2.4764    1.0000 </r>
       <r>   -1.5090    1.0000 </r>
       <r>   -1.2809    1.0000 </r>
       <r>   -1.1144    1.0000 </r>
       <r>   -0.5720    1.0000 </r>
       <r>   -0.4525    1.0000 </r>
       <r>   -0.1093    1.0000 </r>
       <r>    0.5953    1.0000 </r>
       <r>    1.2266    1.0000 </r>
       <r>    1.6011    1.0000 </r>
       <r>    1.6412    1.0000 </r>
       <r>    1.8390    1.0000 </r>
       <r>    2.2878    1.0000 </r>
       <r>    3.2106    1.0000 </r>
       <r>    4.3244    0.0000 </r>
       <r>    4.6437    0.0000 </r>
       <r>    4.9488    0.0000 </r>
       <r>    5.4781    0.0000 </r>
       <r>    5.5321    0.0000 </r>
       <r>    6.1744    0.0000 </r>
       <r>    6.4011    0.0000 </r>
      </set>
      <set comment="kpoint 7">
       <r>  -58.5037    1.0000 </r>
       <r>  -57.1147    1.0000 </r>
       <r>  -32.7189    1.0000 </r>
       <r>  -32.5783    1.0000 </r>
       <r>  -32.5069    1.0000 </r>
       <r>  -31.3423    1.0000 </r>
       <r>  -31.2966    1.0000 </r>
       <r>  -31.1612    1.0000 </r>
       <r>  -10.0103    1.0000 </r>
       <r>   -9.3930    1.0000 </r>
       <r>   -7.5597    1.0000 </r>
       <r>   -7.3055    1.0000 </r>
       <r>   -2.6810    1.0000 </r>
       <r>   -1.9308    1.0000 </r>
       <r>   -1.6443    1.0000 </r>
       <r>   -1.4342    1.0000 </r>
       <r>   -1.1243    1.0000 </r>
       <r>   -0.6199    1.0000 </r>
       <r>   -0.0110    1.0000 </r>
       <r>    0.8356    1.0000 </r>
       <r>    1.1136    1.0000 </r>
       <r>    1.3987    1.0000 </r>
       <r>    1.4966    1.0000 </r>
       <r>    1.8476    1.0000 </r>
       <r>    2.3789    1.0000 </r>
       <r>    3.4338    0.9996 </r>
       <r>    4.2069    0.0000 </r>
       <r>    4.6303    0.0000 </r>
       <r>    5.0977    0.0000 </r>
       <r>    5.3206    0.0000 </r>
       <r>    5.8223    0.0000 </r>
       <r>    6.3453    0.0000 </r>
       <r>    6.7291    0.0000 </r>
      </set>
      <set comment="kpoint 8">
       <r>  -58.5023    1.0000 </r>
       <r>  -57.1132    1.0000 </r>
       <r>  -32.7357    1.0000 </r>
       <r>  -32.5823    1.0000 </r>
       <r>  -32.5036    1.0000 </r>
       <r>  -31.3387    1.0000 </r>
       <r>  -31.3129    1.0000 </r>
       <r>  -31.1650    1.0000 </r>
       <r>   -9.8759    1.0000 </r>
       <r>   -9.3458    1.0000 </r>
       <r>   -7.2115    1.0000 </r>
       <r>   -7.0758    1.0000 </r>
       <r>   -2.8201    1.0000 </r>
       <r>   -2.4157    1.0000 </r>
       <r>   -1.8364    1.0000 </r>
       <r>   -1.6667    1.0000 </r>
       <r>   -1.2912    1.0000 </r>
       <r>   -0.7067    1.0000 </r>
       <r>    0.0336    1.0000 </r>
       <r>    0.9687    1.0000 </r>
       <r>    1.0739    1.0000 </r>
       <r>    1.2954    1.0000 </r>
       <r>    1.4302    1.0000 </r>
       <r>    1.9722    1.0000 </r>
       <r>    2.5266    1.0000 </r>
       <r>    3.5375    0.6558 </r>
       <r>    4.1514    0.0000 </r>
       <r>    4.5594    0.0000 </r>
       <r>    5.2800    0.0000 </r>
       <r>    5.3036    0.0000 </r>
       <r>    5.9794    0.0000 </r>
       <r>    6.4278    0.0000 </r>
       <r>    6.9132    0.0000 </r>
      </set>
      <set comment="kpoint 9">
       <r>  -58.5168    1.0000 </r>
       <r>  -57.1278    1.0000 </r>
       <r>  -32.5611    1.0000 </r>
       <r>  -32.5418    1.0000 </r>
       <r>  -32.5371    1.0000 </r>
       <r>  -31.3756    1.0000 </r>
       <r>  -31.1443    1.0000 </r>
       <r>  -31.1257    1.0000 </r>
       <r>  -11.0677    1.0000 </r>
       <r>   -9.8099    1.0000 </r>
       <r>   -9.4337    1.0000 </r>
       <r>   -8.6710    1.0000 </r>
       <r>   -2.6908    1.0000 </r>
       <r>   -1.5894    1.0000 </r>
       <r>   -0.7701    1.0000 </r>
       <r>   -0.2907    1.0000 </r>
       <r>    0.0711    1.0000 </r>
       <r>    0.3757    1.0000 </r>
       <r>    0.8357    1.0000 </r>
       <r>    1.6244    1.0000 </r>
       <r>    1.8309    1.0000 </r>
       <r>    2.2385    1.0000 </r>
       <r>    2.5398    1.0000 </r>
       <r>    2.5725    1.0000 </r>
       <r>    2.8023    1.0000 </r>
       <r>    3.1102    1.0000 </r>
       <r>    4.7057    0.0000 </r>
       <r>    4.9903    0.0000 </r>
       <r>    5.0736    0.0000 </r>
       <r>    5.1589    0.0000 </r>
       <r>    6.2234    0.0000 </r>
       <r>    6.2910    0.0000 </r>
       <r>    6.8059    0.0000 </r>
      </set>
      <set comment="kpoint 10">
       <r>  -58.5142    1.0000 </r>
       <r>  -57.1252    1.0000 </r>
       <r>  -32.5913    1.0000 </r>
       <r>  -32.5497    1.0000 </r>
       <r>  -32.5313    1.0000 </r>
       <r>  -31.3691    1.0000 </r>
       <r>  -31.1734    1.0000 </r>
       <r>  -31.1334    1.0000 </r>
       <r>  -10.8823    1.0000 </r>
       <r>   -9.7241    1.0000 </r>
       <r>   -9.1704    1.0000 </r>
       <r>   -8.4672    1.0000 </r>
       <r>   -2.4989    1.0000 </r>
       <r>   -1.3421    1.0000 </r>
       <r>   -1.0743    1.0000 </r>
       <r>   -0.2530    1.0000 </r>
       <r>   -0.1008    1.0000 </r>
       <r>    0.0816    1.0000 </r>
       <r>    0.7150    1.0000 </r>
       <r>    1.1174    1.0000 </r>
       <r>    1.7872    1.0000 </r>
       <r>    2.1188    1.0000 </r>
       <r>    2.4028    1.0000 </r>
       <r>    2.4765    1.0000 </r>
       <r>    2.6443    1.0000 </r>
       <r>    2.8518    1.0000 </r>
       <r>    4.6979    0.0000 </r>
       <r>    4.7672    0.0000 </r>
       <r>    4.9587    0.0000 </r>
       <r>    5.4901    0.0000 </r>
       <r>    5.5119    0.0000 </r>
       <r>    5.8678    0.0000 </r>
       <r>    6.3027    0.0000 </r>
      </set>
      <set comment="kpoint 11">
       <r>  -58.5110    1.0000 </r>
       <r>  -57.1220    1.0000 </r>
       <r>  -32.6296    1.0000 </r>
       <r>  -32.5599    1.0000 </r>
       <r>  -32.5238    1.0000 </r>
       <r>  -31.3609    1.0000 </r>
       <r>  -31.2104    1.0000 </r>
       <r>  -31.1433    1.0000 </r>
       <r>  -10.6332    1.0000 </r>
       <r>   -9.6225    1.0000 </r>
       <r>   -8.7795    1.0000 </r>
       <r>   -8.1748    1.0000 </r>
       <r>   -2.3318    1.0000 </r>
       <r>   -1.3831    1.0000 </r>
       <r>   -1.0409    1.0000 </r>
       <r>   -0.6003    1.0000 </r>
       <r>   -0.1976    1.0000 </r>
       <r>    0.1490    1.0000 </r>
       <r>    0.3858    1.0000 </r>
       <r>    0.4658    1.0000 </r>
       <r>    1.5312    1.0000 </r>
       <r>    1.7456    1.0000 </r>
       <r>    2.1142    1.0000 </r>
       <r>    2.3395    1.0000 </r>
       <r>    2.5001    1.0000 </r>
       <r>    2.8151    1.0000 </r>
       <r>    4.5304    0.0000 </r>
       <r>    4.7371    0.0000 </r>
       <r>    4.8419    0.0000 </r>
       <r>    5.1216    0.0000 </r>
       <r>    5.7555    0.0000 </r>
       <r>    5.8561    0.0000 </r>
       <r>    5.9497    0.0000 </r>
      </set>
      <set comment="kpoint 12">
       <r>  -58.5076    1.0000 </r>
       <r>  -57.1186    1.0000 </r>
       <r>  -32.6694    1.0000 </r>
       <r>  -32.5706    1.0000 </r>
       <r>  -32.5159    1.0000 </r>
       <r>  -31.3522    1.0000 </r>
       <r>  -31.2488    1.0000 </r>
       <r>  -31.1536    1.0000 </r>
       <r>  -10.3559    1.0000 </r>
       <r>   -9.5169    1.0000 </r>
       <r>   -8.2920    1.0000 </r>
       <r>   -7.8181    1.0000 </r>
       <r>   -2.3638    1.0000 </r>
       <r>   -1.4688    1.0000 </r>
       <r>   -1.1521    1.0000 </r>
       <r>   -0.8354    1.0000 </r>
       <r>   -0.4385    1.0000 </r>
       <r>   -0.2037    1.0000 </r>
       <r>   -0.0233    1.0000 </r>
       <r>    0.3995    1.0000 </r>
       <r>    1.2146    1.0000 </r>
       <r>    1.5130    1.0000 </r>
       <r>    1.8069    1.0000 </r>
       <r>    2.1173    1.0000 </r>
       <r>    2.1910    1.0000 </r>
       <r>    3.0850    1.0000 </r>
       <r>    4.3670    0.0000 </r>
       <r>    4.5965    0.0000 </r>
       <r>    4.8903    0.0000 </r>
       <r>    5.2603    0.0000 </r>
       <r>    5.5499    0.0000 </r>
       <r>    6.0800    0.0000 </r>
       <r>    6.1904    0.0000 </r>
      </set>
      <set comment="kpoint 13">
       <r>  -58.5047    1.0000 </r>
       <r>  -57.1156    1.0000 </r>
       <r>  -32.7038    1.0000 </r>
       <r>  -32.5798    1.0000 </r>
       <r>  -32.5091    1.0000 </r>
       <r>  -31.3447    1.0000 </r>
       <r>  -31.2820    1.0000 </r>
       <r>  -31.1626    1.0000 </r>
       <r>  -10.0976    1.0000 </r>
       <r>   -9.4222    1.0000 </r>
       <r>   -7.7668    1.0000 </r>
       <r>   -7.4449    1.0000 </r>
       <r>   -2.5460    1.0000 </r>
       <r>   -1.5910    1.0000 </r>
       <r>   -1.5256    1.0000 </r>
       <r>   -1.3313    1.0000 </r>
       <r>   -0.8742    1.0000 </r>
       <r>   -0.5603    1.0000 </r>
       <r>   -0.0034    1.0000 </r>
       <r>    0.6043    1.0000 </r>
       <r>    1.0717    1.0000 </r>
       <r>    1.3195    1.0000 </r>
       <r>    1.6889    1.0000 </r>
       <r>    1.8632    1.0000 </r>
       <r>    2.1519    1.0000 </r>
       <r>    3.2860    1.0000 </r>
       <r>    4.2735    0.0000 </r>
       <r>    4.6004    0.0000 </r>
       <r>    4.9256    0.0000 </r>
       <r>    5.4317    0.0000 </r>
       <r>    5.6033    0.0000 </r>
       <r>    6.3231    0.0000 </r>
       <r>    6.4357    0.0000 </r>
      </set>
      <set comment="kpoint 14">
       <r>  -58.5027    1.0000 </r>
       <r>  -57.1136    1.0000 </r>
       <r>  -32.7270    1.0000 </r>
       <r>  -32.5861    1.0000 </r>
       <r>  -32.5044    1.0000 </r>
       <r>  -31.3396    1.0000 </r>
       <r>  -31.3044    1.0000 </r>
       <r>  -31.1687    1.0000 </r>
       <r>   -9.9115    1.0000 </r>
       <r>   -9.3556    1.0000 </r>
       <r>   -7.3184    1.0000 </r>
       <r>   -7.1405    1.0000 </r>
       <r>   -2.7107    1.0000 </r>
       <r>   -2.1740    1.0000 </r>
       <r>   -1.7669    1.0000 </r>
       <r>   -1.6011    1.0000 </r>
       <r>   -1.2274    1.0000 </r>
       <r>   -0.6409    1.0000 </r>
       <r>    0.0584    1.0000 </r>
       <r>    0.7473    1.0000 </r>
       <r>    1.0373    1.0000 </r>
       <r>    1.1974    1.0000 </r>
       <r>    1.5481    1.0000 </r>
       <r>    1.9094    1.0000 </r>
       <r>    2.2674    1.0000 </r>
       <r>    3.3884    1.0000 </r>
       <r>    4.1889    0.0000 </r>
       <r>    4.6021    0.0000 </r>
       <r>    5.1096    0.0000 </r>
       <r>    5.4371    0.0000 </r>
       <r>    5.8843    0.0000 </r>
       <r>    6.3644    0.0000 </r>
       <r>    6.7034    0.0000 </r>
      </set>
      <set comment="kpoint 15">
       <r>  -58.5020    1.0000 </r>
       <r>  -57.1129    1.0000 </r>
       <r>  -32.7352    1.0000 </r>
       <r>  -32.5883    1.0000 </r>
       <r>  -32.5028    1.0000 </r>
       <r>  -31.3378    1.0000 </r>
       <r>  -31.3123    1.0000 </r>
       <r>  -31.1709    1.0000 </r>
       <r>   -9.8433    1.0000 </r>
       <r>   -9.3315    1.0000 </r>
       <r>   -7.1304    1.0000 </r>
       <r>   -7.0186    1.0000 </r>
       <r>   -2.7827    1.0000 </r>
       <r>   -2.4241    1.0000 </r>
       <r>   -1.8678    1.0000 </r>
       <r>   -1.7530    1.0000 </r>
       <r>   -1.2959    1.0000 </r>
       <r>   -0.6669    1.0000 </r>
       <r>    0.0699    1.0000 </r>
       <r>    0.8020    1.0000 </r>
       <r>    1.0380    1.0000 </r>
       <r>    1.1555    1.0000 </r>
       <r>    1.4750    1.0000 </r>
       <r>    1.9937    1.0000 </r>
       <r>    2.3381    1.0000 </r>
       <r>    3.4224    0.9999 </r>
       <r>    4.1378    0.0000 </r>
       <r>    4.5991    0.0000 </r>
       <r>    5.2272    0.0000 </r>
       <r>    5.4673    0.0000 </r>
       <r>    6.0059    0.0000 </r>
       <r>    6.3419    0.0000 </r>
       <r>    6.8397    0.0000 </r>
      </set>
      <set comment="kpoint 16">
       <r>  -58.5115    1.0000 </r>
       <r>  -57.1225    1.0000 </r>
       <r>  -32.6217    1.0000 </r>
       <r>  -32.5607    1.0000 </r>
       <r>  -32.5249    1.0000 </r>
       <r>  -31.3621    1.0000 </r>
       <r>  -31.2027    1.0000 </r>
       <r>  -31.1440    1.0000 </r>
       <r>  -10.6716    1.0000 </r>
       <r>   -9.6373    1.0000 </r>
       <r>   -8.8430    1.0000 </r>
       <r>   -8.2216    1.0000 </r>
       <r>   -2.3337    1.0000 </r>
       <r>   -1.3365    1.0000 </r>
       <r>   -1.0604    1.0000 </r>
       <r>   -0.5188    1.0000 </r>
       <r>   -0.2582    1.0000 </r>
       <r>    0.0800    1.0000 </r>
       <r>    0.5468    1.0000 </r>
       <r>    0.6235    1.0000 </r>
       <r>    1.4564    1.0000 </r>
       <r>    1.7754    1.0000 </r>
       <r>    2.1680    1.0000 </r>
       <r>    2.2714    1.0000 </r>
       <r>    2.7257    1.0000 </r>
       <r>    2.8218    1.0000 </r>
       <r>    4.5073    0.0000 </r>
       <r>    4.6970    0.0000 </r>
       <r>    4.8089    0.0000 </r>
       <r>    5.1388    0.0000 </r>
       <r>    5.6692    0.0000 </r>
       <r>    5.7646    0.0000 </r>
       <r>    5.9327    0.0000 </r>
      </set>
      <set comment="kpoint 17">
       <r>  -58.5083    1.0000 </r>
       <r>  -57.1193    1.0000 </r>
       <r>  -32.6556    1.0000 </r>
       <r>  -32.5740    1.0000 </r>
       <r>  -32.5175    1.0000 </r>
       <r>  -31.3540    1.0000 </r>
       <r>  -31.2354    1.0000 </r>
       <r>  -31.1570    1.0000 </r>
       <r>  -10.4166    1.0000 </r>
       <r>   -9.5381    1.0000 </r>
       <r>   -8.4068    1.0000 </r>
       <r>   -7.9001    1.0000 </r>
       <r>   -2.2814    1.0000 </r>
       <r>   -1.4274    1.0000 </r>
       <r>   -1.0565    1.0000 </r>
       <r>   -0.7761    1.0000 </r>
       <r>   -0.4296    1.0000 </r>
       <r>    0.0772    1.0000 </r>
       <r>    0.2020    1.0000 </r>
       <r>    0.2502    1.0000 </r>
       <r>    0.9376    1.0000 </r>
       <r>    1.6282    1.0000 </r>
       <r>    1.8428    1.0000 </r>
       <r>    1.9832    1.0000 </r>
       <r>    2.4722    1.0000 </r>
       <r>    3.0347    1.0000 </r>
       <r>    4.3211    0.0000 </r>
       <r>    4.5510    0.0000 </r>
       <r>    4.8252    0.0000 </r>
       <r>    5.0324    0.0000 </r>
       <r>    5.5139    0.0000 </r>
       <r>    5.7662    0.0000 </r>
       <r>    6.2210    0.0000 </r>
      </set>
      <set comment="kpoint 18">
       <r>  -58.5053    1.0000 </r>
       <r>  -57.1162    1.0000 </r>
       <r>  -32.6875    1.0000 </r>
       <r>  -32.5869    1.0000 </r>
       <r>  -32.5105    1.0000 </r>
       <r>  -31.3463    1.0000 </r>
       <r>  -31.2661    1.0000 </r>
       <r>  -31.1696    1.0000 </r>
       <r>  -10.1572    1.0000 </r>
       <r>   -9.4404    1.0000 </r>
       <r>   -7.9043    1.0000 </r>
       <r>   -7.5372    1.0000 </r>
       <r>   -2.3862    1.0000 </r>
       <r>   -1.4874    1.0000 </r>
       <r>   -1.3895    1.0000 </r>
       <r>   -1.0658    1.0000 </r>
       <r>   -0.6224    1.0000 </r>
       <r>   -0.4652    1.0000 </r>
       <r>    0.0752    1.0000 </r>
       <r>    0.2940    1.0000 </r>
       <r>    0.7647    1.0000 </r>
       <r>    1.3957    1.0000 </r>
       <r>    1.6731    1.0000 </r>
       <r>    1.7682    1.0000 </r>
       <r>    2.1224    1.0000 </r>
       <r>    3.1596    1.0000 </r>
       <r>    4.3164    0.0000 </r>
       <r>    4.4709    0.0000 </r>
       <r>    4.8235    0.0000 </r>
       <r>    5.2766    0.0000 </r>
       <r>    5.5062    0.0000 </r>
       <r>    5.9144    0.0000 </r>
       <r>    6.3979    0.0000 </r>
      </set>
      <set comment="kpoint 19">
       <r>  -58.5029    1.0000 </r>
       <r>  -57.1139    1.0000 </r>
       <r>  -32.7122    1.0000 </r>
       <r>  -32.5972    1.0000 </r>
       <r>  -32.5050    1.0000 </r>
       <r>  -31.3403    1.0000 </r>
       <r>  -31.2899    1.0000 </r>
       <r>  -31.1796    1.0000 </r>
       <r>   -9.9421    1.0000 </r>
       <r>   -9.3607    1.0000 </r>
       <r>   -7.4169    1.0000 </r>
       <r>   -7.1967    1.0000 </r>
       <r>   -2.5140    1.0000 </r>
       <r>   -1.8119    1.0000 </r>
       <r>   -1.7718    1.0000 </r>
       <r>   -1.4172    1.0000 </r>
       <r>   -1.0614    1.0000 </r>
       <r>   -0.5678    1.0000 </r>
       <r>    0.1411    1.0000 </r>
       <r>    0.3094    1.0000 </r>
       <r>    0.7436    1.0000 </r>
       <r>    1.1994    1.0000 </r>
       <r>    1.6368    1.0000 </r>
       <r>    1.7046    1.0000 </r>
       <r>    1.9090    1.0000 </r>
       <r>    3.2182    1.0000 </r>
       <r>    4.2396    0.0000 </r>
       <r>    4.5941    0.0000 </r>
       <r>    4.9681    0.0000 </r>
       <r>    5.5540    0.0000 </r>
       <r>    5.5957    0.0000 </r>
       <r>    6.0465    0.0000 </r>
       <r>    6.4453    0.0000 </r>
      </set>
      <set comment="kpoint 20">
       <r>  -58.5017    1.0000 </r>
       <r>  -57.1126    1.0000 </r>
       <r>  -32.7256    1.0000 </r>
       <r>  -32.6028    1.0000 </r>
       <r>  -32.5020    1.0000 </r>
       <r>  -31.3370    1.0000 </r>
       <r>  -31.3029    1.0000 </r>
       <r>  -31.1851    1.0000 </r>
       <r>   -9.8190    1.0000 </r>
       <r>   -9.3155    1.0000 </r>
       <r>   -7.0908    1.0000 </r>
       <r>   -6.9788    1.0000 </r>
       <r>   -2.5970    1.0000 </r>
       <r>   -2.1995    1.0000 </r>
       <r>   -1.9739    1.0000 </r>
       <r>   -1.6838    1.0000 </r>
       <r>   -1.2477    1.0000 </r>
       <r>   -0.5521    1.0000 </r>
       <r>    0.1398    1.0000 </r>
       <r>    0.3343    1.0000 </r>
       <r>    0.7651    1.0000 </r>
       <r>    1.0870    1.0000 </r>
       <r>    1.5411    1.0000 </r>
       <r>    1.6878    1.0000 </r>
       <r>    1.9972    1.0000 </r>
       <r>    3.2852    1.0000 </r>
       <r>    4.0677    0.0000 </r>
       <r>    4.7636    0.0000 </r>
       <r>    5.1565    0.0000 </r>
       <r>    5.6360    0.0000 </r>
       <r>    5.7895    0.0000 </r>
       <r>    6.1015    0.0000 </r>
       <r>    6.4343    0.0000 </r>
      </set>
      <set comment="kpoint 21">
       <r>  -58.5055    1.0000 </r>
       <r>  -57.1165    1.0000 </r>
       <r>  -32.6798    1.0000 </r>
       <r>  -32.5914    1.0000 </r>
       <r>  -32.5110    1.0000 </r>
       <r>  -31.3469    1.0000 </r>
       <r>  -31.2586    1.0000 </r>
       <r>  -31.1740    1.0000 </r>
       <r>  -10.1783    1.0000 </r>
       <r>   -9.4465    1.0000 </r>
       <r>   -7.9522    1.0000 </r>
       <r>   -7.5693    1.0000 </r>
       <r>   -2.3129    1.0000 </r>
       <r>   -1.4572    1.0000 </r>
       <r>   -1.3621    1.0000 </r>
       <r>   -0.9018    1.0000 </r>
       <r>   -0.5974    1.0000 </r>
       <r>   -0.2754    1.0000 </r>
       <r>    0.0868    1.0000 </r>
       <r>    0.2019    1.0000 </r>
       <r>    0.5539    1.0000 </r>
       <r>    1.3707    1.0000 </r>
       <r>    1.5522    1.0000 </r>
       <r>    1.7245    1.0000 </r>
       <r>    2.2558    1.0000 </r>
       <r>    3.1196    1.0000 </r>
       <r>    4.2918    0.0000 </r>
       <r>    4.4339    0.0000 </r>
       <r>    4.7925    0.0000 </r>
       <r>    5.1293    0.0000 </r>
       <r>    5.5133    0.0000 </r>
       <r>    5.6919    0.0000 </r>
       <r>    6.4366    0.0000 </r>
      </set>
      <set comment="kpoint 22">
       <r>  -58.5031    1.0000 </r>
       <r>  -57.1140    1.0000 </r>
       <r>  -32.6989    1.0000 </r>
       <r>  -32.6085    1.0000 </r>
       <r>  -32.5054    1.0000 </r>
       <r>  -31.3407    1.0000 </r>
       <r>  -31.2769    1.0000 </r>
       <r>  -31.1907    1.0000 </r>
       <r>   -9.9598    1.0000 </r>
       <r>   -9.3626    1.0000 </r>
       <r>   -7.4749    1.0000 </r>
       <r>   -7.2293    1.0000 </r>
       <r>   -2.3494    1.0000 </r>
       <r>   -1.8443    1.0000 </r>
       <r>   -1.4743    1.0000 </r>
       <r>   -1.1838    1.0000 </r>
       <r>   -0.8411    1.0000 </r>
       <r>   -0.5581    1.0000 </r>
       <r>   -0.0708    1.0000 </r>
       <r>    0.2642    1.0000 </r>
       <r>    0.4551    1.0000 </r>
       <r>    0.9809    1.0000 </r>
       <r>    1.3027    1.0000 </r>
       <r>    1.7431    1.0000 </r>
       <r>    1.9704    1.0000 </r>
       <r>    3.1360    1.0000 </r>
       <r>    4.2633    0.0000 </r>
       <r>    4.5258    0.0000 </r>
       <r>    4.9269    0.0000 </r>
       <r>    5.2872    0.0000 </r>
       <r>    5.6311    0.0000 </r>
       <r>    5.7003    0.0000 </r>
       <r>    6.5208    0.0000 </r>
      </set>
      <set comment="kpoint 23">
       <r>  -58.5014    1.0000 </r>
       <r>  -57.1123    1.0000 </r>
       <r>  -32.7110    1.0000 </r>
       <r>  -32.6209    1.0000 </r>
       <r>  -32.5015    1.0000 </r>
       <r>  -31.3364    1.0000 </r>
       <r>  -31.2884    1.0000 </r>
       <r>  -31.2029    1.0000 </r>
       <r>   -9.8049    1.0000 </r>
       <r>   -9.3028    1.0000 </r>
       <r>   -7.0815    1.0000 </r>
       <r>   -6.9577    1.0000 </r>
       <r>   -2.3499    1.0000 </r>
       <r>   -2.1037    1.0000 </r>
       <r>   -1.8297    1.0000 </r>
       <r>   -1.4597    1.0000 </r>
       <r>   -1.1406    1.0000 </r>
       <r>   -0.4674    1.0000 </r>
       <r>   -0.2112    1.0000 </r>
       <r>    0.1889    1.0000 </r>
       <r>    0.4148    1.0000 </r>
       <r>    0.9055    1.0000 </r>
       <r>    1.1011    1.0000 </r>
       <r>    1.6266    1.0000 </r>
       <r>    1.9928    1.0000 </r>
       <r>    3.2282    1.0000 </r>
       <r>    3.9810    0.0000 </r>
       <r>    4.8408    0.0000 </r>
       <r>    5.1322    0.0000 </r>
       <r>    5.3328    0.0000 </r>
       <r>    5.7310    0.0000 </r>
       <r>    5.8881    0.0000 </r>
       <r>    6.4933    0.0000 </r>
      </set>
      <set comment="kpoint 24">
       <r>  -58.5009    1.0000 </r>
       <r>  -57.1118    1.0000 </r>
       <r>  -32.7151    1.0000 </r>
       <r>  -32.6254    1.0000 </r>
       <r>  -32.5002    1.0000 </r>
       <r>  -31.3349    1.0000 </r>
       <r>  -31.2923    1.0000 </r>
       <r>  -31.2073    1.0000 </r>
       <r>   -9.7487    1.0000 </r>
       <r>   -9.2809    1.0000 </r>
       <r>   -6.9221    1.0000 </r>
       <r>   -6.8507    1.0000 </r>
       <r>   -2.3498    1.0000 </r>
       <r>   -2.1876    1.0000 </r>
       <r>   -1.9887    1.0000 </r>
       <r>   -1.6163    1.0000 </r>
       <r>   -1.2304    1.0000 </r>
       <r>   -0.4106    1.0000 </r>
       <r>   -0.2611    1.0000 </r>
       <r>    0.1234    1.0000 </r>
       <r>    0.4076    1.0000 </r>
       <r>    0.9218    1.0000 </r>
       <r>    1.0269    1.0000 </r>
       <r>    1.5275    1.0000 </r>
       <r>    2.0920    1.0000 </r>
       <r>    3.2988    1.0000 </r>
       <r>    3.8287    0.0000 </r>
       <r>    4.9957    0.0000 </r>
       <r>    5.1849    0.0000 </r>
       <r>    5.3326    0.0000 </r>
       <r>    5.8640    0.0000 </r>
       <r>    5.9429    0.0000 </r>
       <r>    6.4627    0.0000 </r>
      </set>
      <set comment="kpoint 25">
       <r>  -58.5014    1.0000 </r>
       <r>  -57.1123    1.0000 </r>
       <r>  -32.7026    1.0000 </r>
       <r>  -32.6306    1.0000 </r>
       <r>  -32.5014    1.0000 </r>
       <r>  -31.3362    1.0000 </r>
       <r>  -31.2799    1.0000 </r>
       <r>  -31.2126    1.0000 </r>
       <r>   -9.8003    1.0000 </r>
       <r>   -9.2979    1.0000 </r>
       <r>   -7.0816    1.0000 </r>
       <r>   -6.9514    1.0000 </r>
       <r>   -2.2364    1.0000 </r>
       <r>   -2.1395    1.0000 </r>
       <r>   -1.6127    1.0000 </r>
       <r>   -1.2858    1.0000 </r>
       <r>   -1.0547    1.0000 </r>
       <r>   -0.5831    1.0000 </r>
       <r>   -0.3699    1.0000 </r>
       <r>    0.1590    1.0000 </r>
       <r>    0.2341    1.0000 </r>
       <r>    0.5941    1.0000 </r>
       <r>    1.0802    1.0000 </r>
       <r>    1.6662    1.0000 </r>
       <r>    1.9935    1.0000 </r>
       <r>    3.2119    1.0000 </r>
       <r>    3.9439    0.0000 </r>
       <r>    4.8171    0.0000 </r>
       <r>    5.0983    0.0000 </r>
       <r>    5.2187    0.0000 </r>
       <r>    5.6804    0.0000 </r>
       <r>    5.8876    0.0000 </r>
       <r>    6.5405    0.0000 </r>
      </set>
      <set comment="kpoint 26">
       <r>  -58.5004    1.0000 </r>
       <r>  -57.1113    1.0000 </r>
       <r>  -32.7009    1.0000 </r>
       <r>  -32.6463    1.0000 </r>
       <r>  -32.4992    1.0000 </r>
       <r>  -31.3338    1.0000 </r>
       <r>  -31.2777    1.0000 </r>
       <r>  -31.2284    1.0000 </r>
       <r>   -9.7111    1.0000 </r>
       <r>   -9.2607    1.0000 </r>
       <r>   -6.8359    1.0000 </r>
       <r>   -6.7804    1.0000 </r>
       <r>   -2.3416    1.0000 </r>
       <r>   -2.0261    1.0000 </r>
       <r>   -1.6749    1.0000 </r>
       <r>   -1.4755    1.0000 </r>
       <r>   -1.1588    1.0000 </r>
       <r>   -0.8184    1.0000 </r>
       <r>   -0.3188    1.0000 </r>
       <r>   -0.2178    1.0000 </r>
       <r>    0.1330    1.0000 </r>
       <r>    0.6366    1.0000 </r>
       <r>    0.9294    1.0000 </r>
       <r>    1.5246    1.0000 </r>
       <r>    2.1830    1.0000 </r>
       <r>    3.3462    1.0000 </r>
       <r>    3.6394    0.0066 </r>
       <r>    4.9544    0.0000 </r>
       <r>    5.0139    0.0000 </r>
       <r>    5.3774    0.0000 </r>
       <r>    5.8107    0.0000 </r>
       <r>    6.0850    0.0000 </r>
       <r>    6.5110    0.0000 </r>
      </set>
      <set comment="kpoint 27">
       <r>  -58.5001    1.0000 </r>
       <r>  -57.1109    1.0000 </r>
       <r>  -32.6908    1.0000 </r>
       <r>  -32.6619    1.0000 </r>
       <r>  -32.4983    1.0000 </r>
       <r>  -31.3329    1.0000 </r>
       <r>  -31.2656    1.0000 </r>
       <r>  -31.2458    1.0000 </r>
       <r>   -9.6778    1.0000 </r>
       <r>   -9.2453    1.0000 </r>
       <r>   -6.7454    1.0000 </r>
       <r>   -6.7142    1.0000 </r>
       <r>   -2.4182    1.0000 </r>
       <r>   -1.7507    1.0000 </r>
       <r>   -1.4995    1.0000 </r>
       <r>   -1.4779    1.0000 </r>
       <r>   -1.2573    1.0000 </r>
       <r>   -1.0292    1.0000 </r>
       <r>   -0.7066    1.0000 </r>
       <r>   -0.1929    1.0000 </r>
       <r>    0.0082    1.0000 </r>
       <r>    0.6285    1.0000 </r>
       <r>    0.8549    1.0000 </r>
       <r>    1.4825    1.0000 </r>
       <r>    2.3033    1.0000 </r>
       <r>    3.4232    0.9999 </r>
       <r>    3.4604    0.9951 </r>
       <r>    4.8750    0.0000 </r>
       <r>    4.9525    0.0000 </r>
       <r>    5.5117    0.0000 </r>
       <r>    5.8360    0.0000 </r>
       <r>    6.2316    0.0000 </r>
       <r>    6.5006    0.0000 </r>
      </set>
     </set>
    </set>
   </array>
  </eigenvalues>
  <separator name="orbital magnetization" >
   <v name="MAGDIPOLOUT">      0.00000000      0.00000000      0.00000000</v>
  </separator>
 </calculation>
 <structure name="finalpos" >
  <crystal>
   <varray name="basis" >
    <v>       3.37894624       0.00000000       0.00000000 </v>
    <v>       1.68947312       2.92625328       0.00000000 </v>
    <v>       0.00000000       0.00000000      20.00000000 </v>
   </varray>
   <i name="volume">    197.75304998 </i>
   <varray name="rec_basis" >
    <v>       0.29595025      -0.17086696       0.00000000 </v>
    <v>       0.00000000       0.34173392       0.00000000 </v>
    <v>       0.00000000       0.00000000       0.05000000 </v>
   </varray>
  </crystal>
  <varray name="positions" >
   <v>      -0.00000000      -0.00000000       0.50189943 </v>
   <v>       0.33333333       0.33333333       0.82312455 </v>
   <v>       0.33333333       0.33333333       0.42708465 </v>
   <v>       0.33333333       0.33333333       0.57677796 </v>
   <v>       0.00000000       0.00000000       0.72959090 </v>
   <v>      -0.00000000      -0.00000000       0.91652252 </v>
  </varray>
 </structure>
</modeling>
