MoS2_MoTe2_2H relaxation                
           1
     3.378946    0.000000    0.000000
     1.689473    2.926253    0.000000
     0.000000    0.000000   20.000000
   Mo   S    Te
     2     2     2
Direct configuration=     1
   0.00000000  0.00000000  0.50000000
   0.33333333  0.33333333  0.82500000
   0.33333333  0.33333333  0.42229739
   0.33333333  0.33333333  0.57770261
   0.00000000  0.00000000  0.73523222
   0.00000000  0.00000000  0.91476778
Direct configuration=     2
   0.00000000  0.00000000  0.49992974
   0.33333333  0.33333333  0.82495783
   0.33333333  0.33333333  0.42453726
   0.33333333  0.33333333  0.57566067
  -0.00000000  0.00000000  0.73250853
  -0.00000000 -0.00000000  0.91740597
Direct configuration=     3
   0.00000000  0.00000000  0.50018704
   0.33333333  0.33333333  0.82499364
   0.33333333  0.33333333  0.42520690
   0.33333333  0.33333333  0.57488993
  -0.00000000  0.00000000  0.73143950
  -0.00000000 -0.00000000  0.91828299
Direct configuration=     4
   0.00000000  0.00000000  0.50009882
   0.33333333  0.33333333  0.82494860
   0.33333333  0.33333333  0.42527194
   0.33333333  0.33333333  0.57498266
  -0.00000000  0.00000000  0.73138185
  -0.00000000 -0.00000000  0.91831613
Direct configuration=     5
   0.00000000  0.00000000  0.50014670
   0.33333333  0.33333333  0.82489615
   0.33333333  0.33333333  0.42529555
   0.33333333  0.33333333  0.57504419
  -0.00000000  0.00000000  0.73130463
  -0.00000000 -0.00000000  0.91831277
Direct configuration=     6
   0.00000000  0.00000000  0.50019363
   0.33333333  0.33333333  0.82484235
   0.33333333  0.33333333  0.42534862
   0.33333333  0.33333333  0.57510992
  -0.00000000  0.00000000  0.73124515
   0.00000000 -0.00000000  0.91826033
Direct configuration=     7
   0.00000000  0.00000000  0.50034919
   0.33333333  0.33333333  0.82466854
   0.33333333  0.33333333  0.42549519
   0.33333333  0.33333333  0.57526604
  -0.00000000  0.00000000  0.73110245
   0.00000000  0.00000000  0.91811860
Direct configuration=     8
   0.00000000  0.00000000  0.50095063
   0.33333333  0.33333333  0.82406861
   0.33333333  0.33333333  0.42609611
   0.33333333  0.33333333  0.57585570
   0.00000000  0.00000000  0.73054196
   0.00000000  0.00000000  0.91748698
Direct configuration=     9
   0.00000000  0.00000000  0.50115204
   0.33333333  0.33333333  0.82385606
   0.33333333  0.33333333  0.42634706
   0.33333333  0.33333333  0.57606792
   0.00000000  0.00000000  0.73030884
   0.00000000  0.00000000  0.91726808
Direct configuration=    10
   0.00000000  0.00000000  0.50111320
   0.33333333  0.33333333  0.82391363
   0.33333333  0.33333333  0.42627789
   0.33333333  0.33333333  0.57600366
   0.00000000  0.00000000  0.73036378
   0.00000000  0.00000000  0.91732784
Direct configuration=    11
   0.00000000  0.00000000  0.50116124
   0.33333333  0.33333333  0.82386087
   0.33333333  0.33333333  0.42633242
   0.33333333  0.33333333  0.57605543
   0.00000000  0.00000000  0.73031592
   0.00000000  0.00000000  0.91727412
Direct configuration=    12
   0.00000000  0.00000000  0.50121037
   0.33333333  0.33333333  0.82380941
   0.33333333  0.33333333  0.42637879
   0.33333333  0.33333333  0.57610051
   0.00000000  0.00000000  0.73026815
   0.00000000  0.00000000  0.91723276
Direct configuration=    13
   0.00000000  0.00000000  0.50126673
   0.33333333  0.33333333  0.82374377
   0.33333333  0.33333333  0.42644735
   0.33333333  0.33333333  0.57617179
   0.00000000  0.00000000  0.73020459
   0.00000000  0.00000000  0.91716577
Direct configuration=    14
   0.00000000  0.00000000  0.50134007
   0.33333333  0.33333333  0.82367585
   0.33333333  0.33333333  0.42651544
   0.33333333  0.33333333  0.57623889
   0.00000000  0.00000000  0.73013451
   0.00000000  0.00000000  0.91709524
Direct configuration=    15
   0.00000000  0.00000000  0.50143489
   0.33333333  0.33333333  0.82358326
   0.33333333  0.33333333  0.42661184
   0.33333333  0.33333333  0.57631815
   0.00000000  0.00000000  0.73003903
   0.00000000  0.00000000  0.91701283
Direct configuration=    16
   0.00000000  0.00000000  0.50149744
   0.33333333  0.33333333  0.82351795
   0.33333333  0.33333333  0.42668413
   0.33333333  0.33333333  0.57638460
   0.00000000  0.00000000  0.72996844
   0.00000000  0.00000000  0.91694743
Direct configuration=    17
   0.00000000  0.00000000  0.50153659
   0.33333333  0.33333333  0.82348337
   0.33333333  0.33333333  0.42671499
   0.33333333  0.33333333  0.57641721
   0.00000000  0.00000000  0.72993932
   0.00000000  0.00000000  0.91690851
Direct configuration=    18
   0.00000000  0.00000000  0.50150031
   0.33333333  0.33333333  0.82352121
   0.33333333  0.33333333  0.42667530
   0.33333333  0.33333333  0.57638075
   0.00000000  0.00000000  0.72997928
   0.00000000  0.00000000  0.91694316
Direct configuration=    19
   0.00000000  0.00000000  0.50156004
   0.33333333  0.33333333  0.82345313
   0.33333333  0.33333333  0.42673955
   0.33333333  0.33333333  0.57644436
   0.00000000  0.00000000  0.72992456
   0.00000000  0.00000000  0.91687836
Direct configuration=    20
   0.00000000  0.00000000  0.50150672
   0.33333333  0.33333333  0.82351170
   0.33333333  0.33333333  0.42668468
   0.33333333  0.33333333  0.57638999
   0.00000000  0.00000000  0.72997122
   0.00000000  0.00000000  0.91693569
Direct configuration=    21
   0.00000000  0.00000000  0.50149414
   0.33333333  0.33333333  0.82352012
   0.33333333  0.33333333  0.42667849
   0.33333333  0.33333333  0.57638410
   0.00000000  0.00000000  0.72998001
   0.00000000  0.00000000  0.91694314
Direct configuration=    22
   0.00000000  0.00000000  0.50148879
   0.33333333  0.33333333  0.82352565
   0.33333333  0.33333333  0.42667181
   0.33333333  0.33333333  0.57637773
   0.00000000  0.00000000  0.72998597
   0.00000000  0.00000000  0.91695004
Direct configuration=    23
   0.00000000  0.00000000  0.50156004
   0.33333333  0.33333333  0.82345563
   0.33333333  0.33333333  0.42674598
   0.33333333  0.33333333  0.57644523
   0.00000000  0.00000000  0.72991968
   0.00000000  0.00000000  0.91687344
Direct configuration=    24
   0.00000000  0.00000000  0.50154698
   0.33333333  0.33333333  0.82347703
   0.33333333  0.33333333  0.42672129
   0.33333333  0.33333333  0.57642551
   0.00000000  0.00000000  0.72993752
   0.00000000  0.00000000  0.91689167
Direct configuration=    25
   0.00000000  0.00000000  0.50156091
   0.33333333  0.33333333  0.82346025
   0.33333333  0.33333333  0.42674002
   0.33333333  0.33333333  0.57644318
   0.00000000  0.00000000  0.72992563
   0.00000000  0.00000000  0.91687001
Direct configuration=    26
   0.00000000  0.00000000  0.50156272
   0.33333333  0.33333333  0.82345799
   0.33333333  0.33333333  0.42674289
   0.33333333  0.33333333  0.57644600
   0.00000000  0.00000000  0.72992269
   0.00000000  0.00000000  0.91686771
Direct configuration=    27
   0.00000000  0.00000000  0.50158113
   0.33333333  0.33333333  0.82344335
   0.33333333  0.33333333  0.42676659
   0.33333333  0.33333333  0.57646229
   0.00000000  0.00000000  0.72990284
   0.00000000  0.00000000  0.91684381
Direct configuration=    28
   0.00000000  0.00000000  0.50158541
   0.33333333  0.33333333  0.82343817
   0.33333333  0.33333333  0.42677029
   0.33333333  0.33333333  0.57646590
   0.00000000  0.00000000  0.72989990
   0.00000000  0.00000000  0.91684033
Direct configuration=    29
   0.00000000  0.00000000  0.50161551
   0.33333333  0.33333333  0.82340667
   0.33333333  0.33333333  0.42680310
   0.33333333  0.33333333  0.57649634
  -0.00000000  0.00000000  0.72986982
  -0.00000000  0.00000000  0.91680856
Direct configuration=    30
  -0.00000000  0.00000000  0.50162605
   0.33333333  0.33333333  0.82339693
   0.33333333  0.33333333  0.42681259
   0.33333333  0.33333333  0.57650560
  -0.00000000  0.00000000  0.72985966
  -0.00000000  0.00000000  0.91679917
Direct configuration=    31
  -0.00000000  0.00000000  0.50164780
   0.33333333  0.33333333  0.82337263
   0.33333333  0.33333333  0.42683628
   0.33333333  0.33333333  0.57652952
  -0.00000000  0.00000000  0.72984119
  -0.00000000  0.00000000  0.91677258
Direct configuration=    32
  -0.00000000 -0.00000000  0.50174096
   0.33333333  0.33333333  0.82327643
   0.33333333  0.33333333  0.42692595
   0.33333333  0.33333333  0.57661487
  -0.00000000  0.00000000  0.72976139
  -0.00000000 -0.00000000  0.91668039
Direct configuration=    33
  -0.00000000 -0.00000000  0.50171679
   0.33333333  0.33333333  0.82330747
   0.33333333  0.33333333  0.42689700
   0.33333333  0.33333333  0.57659169
  -0.00000000  0.00000000  0.72978247
  -0.00000000 -0.00000000  0.91670458
Direct configuration=    34
  -0.00000000 -0.00000000  0.50172225
   0.33333333  0.33333333  0.82330112
   0.33333333  0.33333333  0.42690366
   0.33333333  0.33333333  0.57659808
  -0.00000000  0.00000000  0.72977667
  -0.00000000 -0.00000000  0.91669821
Direct configuration=    35
  -0.00000000 -0.00000000  0.50174395
   0.33333333  0.33333333  0.82328106
   0.33333333  0.33333333  0.42692071
   0.33333333  0.33333333  0.57662064
  -0.00000000  0.00000000  0.72975467
  -0.00000000 -0.00000000  0.91667897
Direct configuration=    36
  -0.00000000 -0.00000000  0.50177484
   0.33333333  0.33333333  0.82324853
   0.33333333  0.33333333  0.42695279
   0.33333333  0.33333333  0.57665150
  -0.00000000  0.00000000  0.72972423
  -0.00000000 -0.00000000  0.91664811
Direct configuration=    37
  -0.00000000 -0.00000000  0.50177282
   0.33333333  0.33333333  0.82325047
   0.33333333  0.33333333  0.42695081
   0.33333333  0.33333333  0.57664945
  -0.00000000  0.00000000  0.72972666
  -0.00000000 -0.00000000  0.91664979
Direct configuration=    38
  -0.00000000 -0.00000000  0.50176515
   0.33333333  0.33333333  0.82326131
   0.33333333  0.33333333  0.42694025
   0.33333333  0.33333333  0.57663865
  -0.00000000  0.00000000  0.72973351
  -0.00000000 -0.00000000  0.91666113
Direct configuration=    39
  -0.00000000 -0.00000000  0.50176488
   0.33333333  0.33333333  0.82326909
   0.33333333  0.33333333  0.42693123
   0.33333333  0.33333333  0.57663143
  -0.00000000  0.00000000  0.72972983
  -0.00000000 -0.00000000  0.91667354
Direct configuration=    40
  -0.00000000 -0.00000000  0.50176275
   0.33333333  0.33333333  0.82325981
   0.33333333  0.33333333  0.42695319
   0.33333333  0.33333333  0.57664931
  -0.00000000  0.00000000  0.72971832
  -0.00000000 -0.00000000  0.91665663
Direct configuration=    41
  -0.00000000 -0.00000000  0.50176877
   0.33333333  0.33333333  0.82325479
   0.33333333  0.33333333  0.42695204
   0.33333333  0.33333333  0.57664927
  -0.00000000  0.00000000  0.72971638
  -0.00000000 -0.00000000  0.91665874
Direct configuration=    42
  -0.00000000 -0.00000000  0.50177647
   0.33333333  0.33333333  0.82324893
   0.33333333  0.33333333  0.42696103
   0.33333333  0.33333333  0.57665670
  -0.00000000  0.00000000  0.72970679
  -0.00000000 -0.00000000  0.91665008
Direct configuration=    43
  -0.00000000 -0.00000000  0.50177987
   0.33333333  0.33333333  0.82324283
   0.33333333  0.33333333  0.42696523
   0.33333333  0.33333333  0.57666118
  -0.00000000  0.00000000  0.72970405
  -0.00000000 -0.00000000  0.91664684
Direct configuration=    44
  -0.00000000 -0.00000000  0.50181921
   0.33333333  0.33333333  0.82320571
   0.33333333  0.33333333  0.42700189
   0.33333333  0.33333333  0.57669619
  -0.00000000  0.00000000  0.72966670
  -0.00000000 -0.00000000  0.91661030
Direct configuration=    45
  -0.00000000 -0.00000000  0.50182568
   0.33333333  0.33333333  0.82319784
   0.33333333  0.33333333  0.42700915
   0.33333333  0.33333333  0.57670303
  -0.00000000  0.00000000  0.72966137
  -0.00000000 -0.00000000  0.91660294
Direct configuration=    46
  -0.00000000 -0.00000000  0.50184034
   0.33333333  0.33333333  0.82318062
   0.33333333  0.33333333  0.42702672
   0.33333333  0.33333333  0.57671866
  -0.00000000  0.00000000  0.72964695
  -0.00000000 -0.00000000  0.91658672
Direct configuration=    47
  -0.00000000 -0.00000000  0.50184243
   0.33333333  0.33333333  0.82317860
   0.33333333  0.33333333  0.42702880
   0.33333333  0.33333333  0.57672077
  -0.00000000  0.00000000  0.72964498
  -0.00000000 -0.00000000  0.91658441
Direct configuration=    48
  -0.00000000 -0.00000000  0.50182753
   0.33333333  0.33333333  0.82319432
   0.33333333  0.33333333  0.42701384
   0.33333333  0.33333333  0.57670644
  -0.00000000  0.00000000  0.72965861
  -0.00000000 -0.00000000  0.91659926
Direct configuration=    49
  -0.00000000 -0.00000000  0.50182898
   0.33333333  0.33333333  0.82319294
   0.33333333  0.33333333  0.42701594
   0.33333333  0.33333333  0.57670779
  -0.00000000  0.00000000  0.72965687
  -0.00000000 -0.00000000  0.91659748
Direct configuration=    50
  -0.00000000 -0.00000000  0.50182834
   0.33333333  0.33333333  0.82319282
   0.33333333  0.33333333  0.42701414
   0.33333333  0.33333333  0.57670678
  -0.00000000  0.00000000  0.72965830
  -0.00000000 -0.00000000  0.91659962
Direct configuration=    51
  -0.00000000 -0.00000000  0.50182832
   0.33333333  0.33333333  0.82319281
   0.33333333  0.33333333  0.42701410
   0.33333333  0.33333333  0.57670673
  -0.00000000  0.00000000  0.72965853
  -0.00000000 -0.00000000  0.91659951
Direct configuration=    52
  -0.00000000 -0.00000000  0.50182840
   0.33333333  0.33333333  0.82319398
   0.33333333  0.33333333  0.42701303
   0.33333333  0.33333333  0.57670624
  -0.00000000  0.00000000  0.72965926
  -0.00000000 -0.00000000  0.91659908
Direct configuration=    53
  -0.00000000 -0.00000000  0.50182812
   0.33333333  0.33333333  0.82319438
   0.33333333  0.33333333  0.42701243
   0.33333333  0.33333333  0.57670650
  -0.00000000  0.00000000  0.72966080
  -0.00000000 -0.00000000  0.91659777
Direct configuration=    54
  -0.00000000 -0.00000000  0.50182768
   0.33333333  0.33333333  0.82319466
   0.33333333  0.33333333  0.42701222
   0.33333333  0.33333333  0.57670623
  -0.00000000  0.00000000  0.72966145
  -0.00000000 -0.00000000  0.91659777
Direct configuration=    55
  -0.00000000 -0.00000000  0.50182767
   0.33333333  0.33333333  0.82319469
   0.33333333  0.33333333  0.42701207
   0.33333333  0.33333333  0.57670624
  -0.00000000  0.00000000  0.72966160
  -0.00000000 -0.00000000  0.91659774
Direct configuration=    56
  -0.00000000 -0.00000000  0.50182641
   0.33333333  0.33333333  0.82319430
   0.33333333  0.33333333  0.42701278
   0.33333333  0.33333333  0.57670717
  -0.00000000  0.00000000  0.72966042
  -0.00000000 -0.00000000  0.91659892
Direct configuration=    57
  -0.00000000 -0.00000000  0.50182793
   0.33333333  0.33333333  0.82319590
   0.33333333  0.33333333  0.42701256
   0.33333333  0.33333333  0.57670551
  -0.00000000  0.00000000  0.72965992
  -0.00000000 -0.00000000  0.91659817
Direct configuration=    58
  -0.00000000 -0.00000000  0.50182986
   0.33333333  0.33333333  0.82319409
   0.33333333  0.33333333  0.42701315
   0.33333333  0.33333333  0.57670648
  -0.00000000  0.00000000  0.72965881
  -0.00000000 -0.00000000  0.91659760
Direct configuration=    59
  -0.00000000 -0.00000000  0.50183004
   0.33333333  0.33333333  0.82319450
   0.33333333  0.33333333  0.42701352
   0.33333333  0.33333333  0.57670643
  -0.00000000  0.00000000  0.72965838
  -0.00000000 -0.00000000  0.91659713
Direct configuration=    60
  -0.00000000 -0.00000000  0.50182956
   0.33333333  0.33333333  0.82319458
   0.33333333  0.33333333  0.42701294
   0.33333333  0.33333333  0.57670588
  -0.00000000  0.00000000  0.72965969
  -0.00000000 -0.00000000  0.91659735
Direct configuration=    61
  -0.00000000 -0.00000000  0.50183214
   0.33333333  0.33333333  0.82319439
   0.33333333  0.33333333  0.42701844
   0.33333333  0.33333333  0.57671224
  -0.00000000  0.00000000  0.72965381
  -0.00000000 -0.00000000  0.91658898
Direct configuration=    62
  -0.00000000 -0.00000000  0.50183549
   0.33333333  0.33333333  0.82319019
   0.33333333  0.33333333  0.42701989
   0.33333333  0.33333333  0.57671523
  -0.00000000  0.00000000  0.72965291
  -0.00000000 -0.00000000  0.91658629
Direct configuration=    63
  -0.00000000 -0.00000000  0.50185246
   0.33333333  0.33333333  0.82317113
   0.33333333  0.33333333  0.42703812
   0.33333333  0.33333333  0.57673794
  -0.00000000  0.00000000  0.72964182
  -0.00000000 -0.00000000  0.91655853
Direct configuration=    64
  -0.00000000 -0.00000000  0.50185267
   0.33333333  0.33333333  0.82317092
   0.33333333  0.33333333  0.42703827
   0.33333333  0.33333333  0.57673795
  -0.00000000  0.00000000  0.72964184
  -0.00000000 -0.00000000  0.91655834
Direct configuration=    65
  -0.00000000 -0.00000000  0.50184482
   0.33333333  0.33333333  0.82318338
   0.33333333  0.33333333  0.42702554
   0.33333333  0.33333333  0.57672171
  -0.00000000  0.00000000  0.72964680
  -0.00000000 -0.00000000  0.91657775
Direct configuration=    66
  -0.00000000 -0.00000000  0.50184466
   0.33333333  0.33333333  0.82318101
   0.33333333  0.33333333  0.42702870
   0.33333333  0.33333333  0.57672492
  -0.00000000  0.00000000  0.72964553
  -0.00000000 -0.00000000  0.91657517
Direct configuration=    67
  -0.00000000 -0.00000000  0.50184728
   0.33333333  0.33333333  0.82317946
   0.33333333  0.33333333  0.42703153
   0.33333333  0.33333333  0.57672744
  -0.00000000  0.00000000  0.72964216
  -0.00000000 -0.00000000  0.91657213
Direct configuration=    68
  -0.00000000 -0.00000000  0.50184750
   0.33333333  0.33333333  0.82317917
   0.33333333  0.33333333  0.42702971
   0.33333333  0.33333333  0.57672566
  -0.00000000  0.00000000  0.72964369
  -0.00000000 -0.00000000  0.91657427
Direct configuration=    69
  -0.00000000 -0.00000000  0.50184717
   0.33333333  0.33333333  0.82317936
   0.33333333  0.33333333  0.42702945
   0.33333333  0.33333333  0.57672546
  -0.00000000  0.00000000  0.72964434
  -0.00000000 -0.00000000  0.91657421
Direct configuration=    70
  -0.00000000 -0.00000000  0.50184522
   0.33333333  0.33333333  0.82318113
   0.33333333  0.33333333  0.42703015
   0.33333333  0.33333333  0.57672635
  -0.00000000  0.00000000  0.72964390
  -0.00000000 -0.00000000  0.91657324
Direct configuration=    71
  -0.00000000 -0.00000000  0.50184584
   0.33333333  0.33333333  0.82317754
   0.33333333  0.33333333  0.42703390
   0.33333333  0.33333333  0.57672998
  -0.00000000  0.00000000  0.72964198
  -0.00000000 -0.00000000  0.91657076
Direct configuration=    72
  -0.00000000 -0.00000000  0.50184831
   0.33333333  0.33333333  0.82317723
   0.33333333  0.33333333  0.42703510
   0.33333333  0.33333333  0.57673136
  -0.00000000  0.00000000  0.72963962
  -0.00000000 -0.00000000  0.91656838
Direct configuration=    73
  -0.00000000 -0.00000000  0.50185862
   0.33333333  0.33333333  0.82316597
   0.33333333  0.33333333  0.42704540
   0.33333333  0.33333333  0.57674147
  -0.00000000  0.00000000  0.72962973
  -0.00000000 -0.00000000  0.91655882
Direct configuration=    74
  -0.00000000 -0.00000000  0.50189621
   0.33333333  0.33333333  0.82312935
   0.33333333  0.33333333  0.42707597
   0.33333333  0.33333333  0.57677114
   0.00000000  0.00000000  0.72959950
  -0.00000000 -0.00000000  0.91652782
Direct configuration=    75
  -0.00000000 -0.00000000  0.50188001
   0.33333333  0.33333333  0.82314425
   0.33333333  0.33333333  0.42706435
   0.33333333  0.33333333  0.57675930
  -0.00000000  0.00000000  0.72961088
  -0.00000000 -0.00000000  0.91654120
Direct configuration=    76
  -0.00000000 -0.00000000  0.50188319
   0.33333333  0.33333333  0.82314095
   0.33333333  0.33333333  0.42706958
   0.33333333  0.33333333  0.57676349
  -0.00000000  0.00000000  0.72960553
  -0.00000000 -0.00000000  0.91653727
Direct configuration=    77
  -0.00000000 -0.00000000  0.50189189
   0.33333333  0.33333333  0.82313295
   0.33333333  0.33333333  0.42707532
   0.33333333  0.33333333  0.57677012
  -0.00000000  0.00000000  0.72959891
  -0.00000000 -0.00000000  0.91653082
Direct configuration=    78
  -0.00000000 -0.00000000  0.50189467
   0.33333333  0.33333333  0.82312945
   0.33333333  0.33333333  0.42707897
   0.33333333  0.33333333  0.57677333
   0.00000000  0.00000000  0.72959567
  -0.00000000 -0.00000000  0.91652792
Direct configuration=    79
  -0.00000000 -0.00000000  0.50189496
   0.33333333  0.33333333  0.82312952
   0.33333333  0.33333333  0.42707940
   0.33333333  0.33333333  0.57677352
   0.00000000  0.00000000  0.72959522
  -0.00000000 -0.00000000  0.91652738
Direct configuration=    80
  -0.00000000 -0.00000000  0.50189427
   0.33333333  0.33333333  0.82312977
   0.33333333  0.33333333  0.42707947
   0.33333333  0.33333333  0.57677341
   0.00000000  0.00000000  0.72959554
  -0.00000000 -0.00000000  0.91652754
Direct configuration=    81
  -0.00000000 -0.00000000  0.50189648
   0.33333333  0.33333333  0.82312744
   0.33333333  0.33333333  0.42708166
   0.33333333  0.33333333  0.57677554
   0.00000000  0.00000000  0.72959348
  -0.00000000 -0.00000000  0.91652540
Direct configuration=    82
  -0.00000000 -0.00000000  0.50189565
   0.33333333  0.33333333  0.82312852
   0.33333333  0.33333333  0.42708053
   0.33333333  0.33333333  0.57677437
   0.00000000  0.00000000  0.72959451
  -0.00000000 -0.00000000  0.91652643
Direct configuration=    83
  -0.00000000 -0.00000000  0.50189705
   0.33333333  0.33333333  0.82312711
   0.33333333  0.33333333  0.42708218
   0.33333333  0.33333333  0.57677560
   0.00000000  0.00000000  0.72959314
  -0.00000000 -0.00000000  0.91652492
Direct configuration=    84
  -0.00000000 -0.00000000  0.50189699
   0.33333333  0.33333333  0.82312724
   0.33333333  0.33333333  0.42708187
   0.33333333  0.33333333  0.57677551
   0.00000000  0.00000000  0.72959330
  -0.00000000 -0.00000000  0.91652508
Direct configuration=    85
  -0.00000000 -0.00000000  0.50189714
   0.33333333  0.33333333  0.82312709
   0.33333333  0.33333333  0.42708206
   0.33333333  0.33333333  0.57677556
   0.00000000  0.00000000  0.72959318
  -0.00000000 -0.00000000  0.91652496
Direct configuration=    86
  -0.00000000 -0.00000000  0.50189710
   0.33333333  0.33333333  0.82312711
   0.33333333  0.33333333  0.42708207
   0.33333333  0.33333333  0.57677562
   0.00000000  0.00000000  0.72959317
  -0.00000000 -0.00000000  0.91652494
Direct configuration=    87
  -0.00000000 -0.00000000  0.50189722
   0.33333333  0.33333333  0.82312689
   0.33333333  0.33333333  0.42708212
   0.33333333  0.33333333  0.57677612
   0.00000000  0.00000000  0.72959295
  -0.00000000 -0.00000000  0.91652469
Direct configuration=    88
  -0.00000000 -0.00000000  0.50189731
   0.33333333  0.33333333  0.82312697
   0.33333333  0.33333333  0.42708226
   0.33333333  0.33333333  0.57677593
   0.00000000  0.00000000  0.72959290
  -0.00000000 -0.00000000  0.91652464
Direct configuration=    89
  -0.00000000 -0.00000000  0.50189737
   0.33333333  0.33333333  0.82312662
   0.33333333  0.33333333  0.42708265
   0.33333333  0.33333333  0.57677591
   0.00000000  0.00000000  0.72959285
  -0.00000000 -0.00000000  0.91652460
Direct configuration=    90
  -0.00000000 -0.00000000  0.50189743
   0.33333333  0.33333333  0.82312680
   0.33333333  0.33333333  0.42708250
   0.33333333  0.33333333  0.57677607
   0.00000000  0.00000000  0.72959272
  -0.00000000 -0.00000000  0.91652447
Direct configuration=    91
  -0.00000000 -0.00000000  0.50189758
   0.33333333  0.33333333  0.82312650
   0.33333333  0.33333333  0.42708258
   0.33333333  0.33333333  0.57677641
   0.00000000  0.00000000  0.72959259
  -0.00000000 -0.00000000  0.91652433
Direct configuration=    92
  -0.00000000 -0.00000000  0.50189758
   0.33333333  0.33333333  0.82312662
   0.33333333  0.33333333  0.42708277
   0.33333333  0.33333333  0.57677625
   0.00000000  0.00000000  0.72959252
  -0.00000000 -0.00000000  0.91652425
Direct configuration=    93
  -0.00000000 -0.00000000  0.50189781
   0.33333333  0.33333333  0.82312645
   0.33333333  0.33333333  0.42708281
   0.33333333  0.33333333  0.57677648
   0.00000000  0.00000000  0.72959236
  -0.00000000 -0.00000000  0.91652409
Direct configuration=    94
  -0.00000000 -0.00000000  0.50189756
   0.33333333  0.33333333  0.82312611
   0.33333333  0.33333333  0.42708321
   0.33333333  0.33333333  0.57677655
   0.00000000  0.00000000  0.72959243
  -0.00000000 -0.00000000  0.91652414
Direct configuration=    95
  -0.00000000 -0.00000000  0.50189785
   0.33333333  0.33333333  0.82312631
   0.33333333  0.33333333  0.42708307
   0.33333333  0.33333333  0.57677646
   0.00000000  0.00000000  0.72959230
  -0.00000000 -0.00000000  0.91652402
Direct configuration=    96
  -0.00000000 -0.00000000  0.50189823
   0.33333333  0.33333333  0.82312577
   0.33333333  0.33333333  0.42708311
   0.33333333  0.33333333  0.57677678
   0.00000000  0.00000000  0.72959220
  -0.00000000 -0.00000000  0.91652391
Direct configuration=    97
  -0.00000000 -0.00000000  0.50189802
   0.33333333  0.33333333  0.82312604
   0.33333333  0.33333333  0.42708331
   0.33333333  0.33333333  0.57677673
   0.00000000  0.00000000  0.72959210
  -0.00000000 -0.00000000  0.91652380
Direct configuration=    98
  -0.00000000 -0.00000000  0.50189828
   0.33333333  0.33333333  0.82312581
   0.33333333  0.33333333  0.42708347
   0.33333333  0.33333333  0.57677680
   0.00000000  0.00000000  0.72959197
  -0.00000000 -0.00000000  0.91652367
Direct configuration=    99
  -0.00000000 -0.00000000  0.50189813
   0.33333333  0.33333333  0.82312574
   0.33333333  0.33333333  0.42708344
   0.33333333  0.33333333  0.57677713
   0.00000000  0.00000000  0.72959194
  -0.00000000 -0.00000000  0.91652363
Direct configuration=   100
  -0.00000000 -0.00000000  0.50189828
   0.33333333  0.33333333  0.82312580
   0.33333333  0.33333333  0.42708353
   0.33333333  0.33333333  0.57677699
   0.00000000  0.00000000  0.72959186
  -0.00000000 -0.00000000  0.91652354
Direct configuration=   101
  -0.00000000 -0.00000000  0.50189828
   0.33333333  0.33333333  0.82312582
   0.33333333  0.33333333  0.42708349
   0.33333333  0.33333333  0.57677697
   0.00000000  0.00000000  0.72959188
  -0.00000000 -0.00000000  0.91652357
Direct configuration=   102
  -0.00000000 -0.00000000  0.50189827
   0.33333333  0.33333333  0.82312578
   0.33333333  0.33333333  0.42708342
   0.33333333  0.33333333  0.57677699
   0.00000000  0.00000000  0.72959193
  -0.00000000 -0.00000000  0.91652362
Direct configuration=   103
  -0.00000000 -0.00000000  0.50189822
   0.33333333  0.33333333  0.82312562
   0.33333333  0.33333333  0.42708342
   0.33333333  0.33333333  0.57677715
   0.00000000  0.00000000  0.72959196
  -0.00000000 -0.00000000  0.91652364
Direct configuration=   104
  -0.00000000 -0.00000000  0.50189824
   0.33333333  0.33333333  0.82312561
   0.33333333  0.33333333  0.42708343
   0.33333333  0.33333333  0.57677724
   0.00000000  0.00000000  0.72959190
  -0.00000000 -0.00000000  0.91652358
Direct configuration=   105
  -0.00000000 -0.00000000  0.50189823
   0.33333333  0.33333333  0.82312554
   0.33333333  0.33333333  0.42708343
   0.33333333  0.33333333  0.57677725
  -0.00000000  0.00000000  0.72959193
  -0.00000000 -0.00000000  0.91652361
Direct configuration=   106
  -0.00000000 -0.00000000  0.50189883
   0.33333333  0.33333333  0.82312531
   0.33333333  0.33333333  0.42708374
   0.33333333  0.33333333  0.57677718
  -0.00000000  0.00000000  0.72959164
  -0.00000000 -0.00000000  0.91652331
Direct configuration=   107
  -0.00000000 -0.00000000  0.50189848
   0.33333333  0.33333333  0.82312530
   0.33333333  0.33333333  0.42708377
   0.33333333  0.33333333  0.57677745
  -0.00000000  0.00000000  0.72959167
  -0.00000000 -0.00000000  0.91652333
Direct configuration=   108
  -0.00000000 -0.00000000  0.50189874
   0.33333333  0.33333333  0.82312517
   0.33333333  0.33333333  0.42708380
   0.33333333  0.33333333  0.57677754
  -0.00000000  0.00000000  0.72959155
  -0.00000000 -0.00000000  0.91652321
Direct configuration=   109
  -0.00000000 -0.00000000  0.50189873
   0.33333333  0.33333333  0.82312516
   0.33333333  0.33333333  0.42708412
   0.33333333  0.33333333  0.57677747
  -0.00000000  0.00000000  0.72959144
  -0.00000000 -0.00000000  0.91652309
Direct configuration=   110
  -0.00000000 -0.00000000  0.50189876
   0.33333333  0.33333333  0.82312505
   0.33333333  0.33333333  0.42708406
   0.33333333  0.33333333  0.57677765
  -0.00000000  0.00000000  0.72959142
  -0.00000000 -0.00000000  0.91652307
Direct configuration=   111
  -0.00000000 -0.00000000  0.50189874
   0.33333333  0.33333333  0.82312507
   0.33333333  0.33333333  0.42708403
   0.33333333  0.33333333  0.57677763
  -0.00000000  0.00000000  0.72959144
  -0.00000000 -0.00000000  0.91652309
Direct configuration=   112
  -0.00000000 -0.00000000  0.50189875
   0.33333333  0.33333333  0.82312523
   0.33333333  0.33333333  0.42708394
   0.33333333  0.33333333  0.57677754
   0.00000000  0.00000000  0.72959144
  -0.00000000 -0.00000000  0.91652310
Direct configuration=   113
  -0.00000000 -0.00000000  0.50189890
   0.33333333  0.33333333  0.82312517
   0.33333333  0.33333333  0.42708404
   0.33333333  0.33333333  0.57677734
   0.00000000  0.00000000  0.72959144
  -0.00000000 -0.00000000  0.91652311
Direct configuration=   114
  -0.00000000 -0.00000000  0.50189882
   0.33333333  0.33333333  0.82312520
   0.33333333  0.33333333  0.42708409
   0.33333333  0.33333333  0.57677746
   0.00000000  0.00000000  0.72959138
  -0.00000000 -0.00000000  0.91652304
Direct configuration=   115
  -0.00000000 -0.00000000  0.50189916
   0.33333333  0.33333333  0.82312502
   0.33333333  0.33333333  0.42708397
   0.33333333  0.33333333  0.57677766
   0.00000000  0.00000000  0.72959127
  -0.00000000 -0.00000000  0.91652292
Direct configuration=   116
  -0.00000000 -0.00000000  0.50189907
   0.33333333  0.33333333  0.82312511
   0.33333333  0.33333333  0.42708421
   0.33333333  0.33333333  0.57677745
   0.00000000  0.00000000  0.72959125
  -0.00000000 -0.00000000  0.91652291
Direct configuration=   117
  -0.00000000 -0.00000000  0.50189884
   0.33333333  0.33333333  0.82312466
   0.33333333  0.33333333  0.42708448
   0.33333333  0.33333333  0.57677791
   0.00000000  0.00000000  0.72959124
  -0.00000000 -0.00000000  0.91652288
Direct configuration=   118
  -0.00000000 -0.00000000  0.50189913
   0.33333333  0.33333333  0.82312489
   0.33333333  0.33333333  0.42708435
   0.33333333  0.33333333  0.57677767
   0.00000000  0.00000000  0.72959115
  -0.00000000 -0.00000000  0.91652280
Direct configuration=   119
  -0.00000000 -0.00000000  0.50189941
   0.33333333  0.33333333  0.82312447
   0.33333333  0.33333333  0.42708442
   0.33333333  0.33333333  0.57677791
   0.00000000  0.00000000  0.72959108
  -0.00000000 -0.00000000  0.91652272
Direct configuration=   120
  -0.00000000 -0.00000000  0.50189925
   0.33333333  0.33333333  0.82312467
   0.33333333  0.33333333  0.42708454
   0.33333333  0.33333333  0.57677791
   0.00000000  0.00000000  0.72959100
  -0.00000000 -0.00000000  0.91652263
Direct configuration=   121
  -0.00000000 -0.00000000  0.50189943
   0.33333333  0.33333333  0.82312455
   0.33333333  0.33333333  0.42708465
   0.33333333  0.33333333  0.57677796
   0.00000000  0.00000000  0.72959090
  -0.00000000 -0.00000000  0.91652252
