Mo S  W  Te
 1.0000000000000000
     3.3615860000000000   -0.0000000000000020    0.0000000000000000
     1.6807929999999847    2.9112188730060811    0.0000000000000000
     0.0000000000000000    0.0000000000000000   20.0000000000000000
 Mo  S   W   Te 
   1   2   1   2
Direct
  0.0000000000000000  0.0000000000000000  0.4713996362742451
  0.3333333333333357  0.3333333333333357  0.3960334398447500
  0.3333333333333357  0.3333333333333357  0.5467714905199159
  0.3333333333333357  0.3333333333333357  0.8449000603795401
  0.0000000000000000  0.0000000000000000  0.7498714905199151
  0.0000000000000000  0.0000000000000000  0.9398612510468802
Cartesian
  0.0000000000000000  0.0000000000000000  0.0000000000000000
  0.0000000000000000  0.0000000000000000  0.0000000000000000
  0.0000000000000000  0.0000000000000000  0.0000000000000000
  0.0000000000000000  0.0000000000000000  0.0000000000000000
  0.0000000000000000  0.0000000000000000  0.0000000000000000
  0.0000000000000000  0.0000000000000000  0.0000000000000000
