generated by phonopy                    
   1.00000000000000     
    10.0155606456556576    0.0000000000000000    0.0000000000000000
     5.0077803228278288    8.6737299522814748    0.0000000000000000
     0.0000000000000000    0.0000000000000000   20.0000000000000000
   Ta   S 
     9    18
Direct
     0.0000000000000000    0.0000000000000000    0.5000000000000000
     0.3333333333333357    0.0000000000000000    0.5000000000000000
     0.6666666666666643    0.0000000000000000    0.5000000000000000
     0.0000000000000000    0.3333333333333357    0.5000000000000000
     0.3333333333333357    0.3333333333333357    0.5000000000000000
     0.6666666666666643    0.3333333333333357    0.5000000000000000
     0.0000000000000000    0.6666666666666643    0.5000000000000000
     0.3333333333333357    0.6666666666666643    0.5000000000000000
     0.6666666666666643    0.6666666666666643    0.5000000000000000
     0.1115581854847179    0.1111111111111143    0.4225092436233808
     0.4444444444444429    0.1111111111111143    0.4220621692497701
     0.7777777777777786    0.1111111111111143    0.4220621692497701
     0.1111111111111143    0.4444444444444429    0.4220621692497701
     0.4444444444444429    0.4444444444444429    0.4220621692497701
     0.7777777777777786    0.4444444444444429    0.4220621692497701
     0.1111111111111143    0.7777777777777786    0.4220621692497701
     0.4444444444444429    0.7777777777777786    0.4220621692497701
     0.7777777777777786    0.7777777777777786    0.4220621692497701
     0.1111111111111143    0.1111111111111143    0.5779378307502299
     0.4444444444444429    0.1111111111111143    0.5779378307502299
     0.7777777777777786    0.1111111111111143    0.5779378307502299
     0.1111111111111143    0.4444444444444429    0.5779378307502299
     0.4444444444444429    0.4444444444444429    0.5779378307502299
     0.7777777777777786    0.4444444444444429    0.5779378307502299
     0.1111111111111143    0.7777777777777786    0.5779378307502299
     0.4444444444444429    0.7777777777777786    0.5779378307502299
     0.7777777777777786    0.7777777777777786    0.5779378307502299
 
  0.00000000E+00  0.00000000E+00  0.00000000E+00
  0.00000000E+00  0.00000000E+00  0.00000000E+00
  0.00000000E+00  0.00000000E+00  0.00000000E+00
  0.00000000E+00  0.00000000E+00  0.00000000E+00
  0.00000000E+00  0.00000000E+00  0.00000000E+00
  0.00000000E+00  0.00000000E+00  0.00000000E+00
  0.00000000E+00  0.00000000E+00  0.00000000E+00
  0.00000000E+00  0.00000000E+00  0.00000000E+00
  0.00000000E+00  0.00000000E+00  0.00000000E+00
  0.00000000E+00  0.00000000E+00  0.00000000E+00
  0.00000000E+00  0.00000000E+00  0.00000000E+00
  0.00000000E+00  0.00000000E+00  0.00000000E+00
  0.00000000E+00  0.00000000E+00  0.00000000E+00
  0.00000000E+00  0.00000000E+00  0.00000000E+00
  0.00000000E+00  0.00000000E+00  0.00000000E+00
  0.00000000E+00  0.00000000E+00  0.00000000E+00
  0.00000000E+00  0.00000000E+00  0.00000000E+00
  0.00000000E+00  0.00000000E+00  0.00000000E+00
  0.00000000E+00  0.00000000E+00  0.00000000E+00
  0.00000000E+00  0.00000000E+00  0.00000000E+00
  0.00000000E+00  0.00000000E+00  0.00000000E+00
  0.00000000E+00  0.00000000E+00  0.00000000E+00
  0.00000000E+00  0.00000000E+00  0.00000000E+00
  0.00000000E+00  0.00000000E+00  0.00000000E+00
  0.00000000E+00  0.00000000E+00  0.00000000E+00
  0.00000000E+00  0.00000000E+00  0.00000000E+00
  0.00000000E+00  0.00000000E+00  0.00000000E+00
