   27   27    1    1
  0.6434983E+02  0.1001556E-08  0.1001556E-08  0.2000000E-08  0.5000000E-15
  1.000000000000000E-004
  CAR 
 TaS2 phonon                             
    207     13    132
 
  0.1276756E-14  0.1276756E-14  0.1276756E-14  0.4000000E-01
      1        -37.394615   1.000000
      2        -37.394358   1.000000
      3        -37.394285   1.000000
      4        -37.394036   1.000000
      5        -37.393926   1.000000
      6        -37.393807   1.000000
      7        -37.393435   1.000000
      8        -37.393026   1.000000
      9        -37.359460   1.000000
     10        -37.359444   1.000000
     11        -37.279907   1.000000
     12        -37.238561   1.000000
     13        -37.238381   1.000000
     14        -37.238291   1.000000
     15        -37.238071   1.000000
     16        -37.237432   1.000000
     17        -37.236432   1.000000
     18        -37.225426   1.000000
     19        -37.225296   1.000000
     20        -37.225261   1.000000
     21        -37.224946   1.000000
     22        -37.224567   1.000000
     23        -37.224206   1.000000
     24        -37.217097   1.000000
     25        -37.216331   1.000000
     26        -37.173768   1.000000
     27        -37.173634   1.000000
     28        -16.740038   1.000000
     29        -15.540610   1.000000
     30        -15.530135   1.000000
     31        -15.530090   1.000000
     32        -15.529896   1.000000
     33        -15.529876   1.000000
     34        -15.529867   1.000000
     35        -15.171033   1.000000
     36        -14.822907   1.000000
     37        -14.818638   1.000000
     38        -14.818576   1.000000
     39        -14.818435   1.000000
     40        -14.818392   1.000000
     41        -14.818285   1.000000
     42        -14.795014   1.000000
     43        -14.792417   1.000000
     44        -14.577169   1.000000
     45        -14.575538   1.000000
     46         -8.282488   1.000000
     47         -7.829641   1.000000
     48         -7.828718   1.000000
     49         -7.828025   1.000000
     50         -7.824776   1.000000
     51         -7.824767   1.000000
     52         -7.823871   1.000000
     53         -7.662512   1.000000
     54         -7.661536   1.000000
     55         -7.399318   1.000000
     56         -7.397441   1.000000
     57         -6.742598   1.000000
     58         -6.738816   1.000000
     59         -6.738637   1.000000
     60         -6.737449   1.000000
     61         -6.737111   1.000000
     62         -6.736710   1.000000
     63         -6.612324   1.000000
     64         -6.610151   1.000000
     65         -6.517685   1.000000
     66         -6.517618   1.000000
     67         -6.515973   1.000000
     68         -6.515248   1.000000
     69         -6.514893   1.000000
     70         -6.514455   1.000000
     71         -6.205648   1.000000
     72         -6.203529   1.000000
     73         -5.437458   1.000000
     74         -5.435768   1.000000
     75         -5.340850   1.000000
     76         -5.338191   1.000000
     77         -5.333903   1.000000
     78         -5.333649   1.000000
     79         -5.333612   1.000000
     80         -5.333502   1.000000
     81         -5.181324   1.000000
     82         -5.180802   1.000000
     83         -4.478498   1.000000
     84         -4.476539   1.000000
     85         -4.259627   1.000000
     86         -4.259430   1.000000
     87         -4.253720   1.000000
     88         -4.253568   1.000000
     89         -4.253509   1.000000
     90         -4.253381   1.000000
     91         -4.239056   1.000000
     92         -4.129277   1.000000
     93         -4.128767   1.000000
     94         -4.128723   1.000000
     95         -4.128274   1.000000
     96         -4.128168   1.000000
     97         -4.122152   1.000000
     98         -4.050995   1.000000
     99         -4.049005   1.000000
    100         -3.068695   1.000000
    101         -3.067386   1.000000
    102         -3.066987   1.000000
    103         -3.066847   1.000000
    104         -3.066261   1.000000
    105         -3.064631   1.000000
    106         -2.044362   0.000000
    107         -2.043575   0.000000
    108         -1.679719   0.000000
    109         -0.389383   0.000000
    110         -0.388857   0.000000
    111          0.501434   0.000000
    112          0.501520   0.000000
    113          0.502329   0.000000
    114          0.502501   0.000000
    115          0.504139   0.000000
    116          0.504676   0.000000
    117          0.520116   0.000000
    118          0.522618   0.000000
    119          0.625775   0.000000
    120          0.626915   0.000000
    121          0.670693   0.000000
    122          0.670841   0.000000
    123          0.671357   0.000000
    124          0.673164   0.000000
    125          0.674537   0.000000
    126          0.675570   0.000000
    127          1.344462   0.000000
    128          1.345148   0.000000
    129          1.346021   0.000000
    130          1.347149   0.000000
    131          1.348072   0.000000
    132          1.350634   0.000000
 
  0.2000000E+00  0.1279561E-14  0.1276756E-14  0.8000000E-01
      1        -37.438075   1.000000
      2        -37.416553   1.000000
      3        -37.416187   1.000000
      4        -37.410762   1.000000
      5        -37.410460   1.000000
      6        -37.367360   1.000000
      7        -37.366819   1.000000
      8        -37.336867   1.000000
      9        -37.335155   1.000000
     10        -37.335095   1.000000
     11        -37.277495   1.000000
     12        -37.249025   1.000000
     13        -37.242572   1.000000
     14        -37.241867   1.000000
     15        -37.237762   1.000000
     16        -37.237628   1.000000
     17        -37.235344   1.000000
     18        -37.232630   1.000000
     19        -37.232004   1.000000
     20        -37.229053   1.000000
     21        -37.224510   1.000000
     22        -37.224198   1.000000
     23        -37.218316   1.000000
     24        -37.217536   1.000000
     25        -37.211428   1.000000
     26        -37.186720   1.000000
     27        -37.176613   1.000000
     28        -16.677811   1.000000
     29        -15.882640   1.000000
     30        -15.675079   1.000000
     31        -15.671429   1.000000
     32        -15.347063   1.000000
     33        -15.343474   1.000000
     34        -15.233107   1.000000
     35        -15.152677   1.000000
     36        -14.919775   1.000000
     37        -14.858745   1.000000
     38        -14.857569   1.000000
     39        -14.839996   1.000000
     40        -14.836898   1.000000
     41        -14.764818   1.000000
     42        -14.763739   1.000000
     43        -14.735807   1.000000
     44        -14.594069   1.000000
     45        -14.592489   1.000000
     46         -8.206626   1.000000
     47         -8.199556   1.000000
     48         -7.982938   1.000000
     49         -7.981962   1.000000
     50         -7.613464   1.000000
     51         -7.612417   1.000000
     52         -7.595106   1.000000
     53         -7.594612   1.000000
     54         -7.578569   1.000000
     55         -7.577859   1.000000
     56         -7.512512   1.000000
     57         -6.867302   1.000000
     58         -6.847562   1.000000
     59         -6.834603   1.000000
     60         -6.834354   1.000000
     61         -6.745994   1.000000
     62         -6.745195   1.000000
     63         -6.634038   1.000000
     64         -6.631819   1.000000
     65         -6.581893   1.000000
     66         -6.439753   1.000000
     67         -6.438802   1.000000
     68         -6.312840   1.000000
     69         -6.312271   1.000000
     70         -6.054193   1.000000
     71         -6.053217   1.000000
     72         -6.052680   1.000000
     73         -5.527095   1.000000
     74         -5.509976   1.000000
     75         -5.507420   1.000000
     76         -5.495591   1.000000
     77         -5.494268   1.000000
     78         -5.375582   1.000000
     79         -5.340001   1.000000
     80         -5.337873   1.000000
     81         -5.125464   1.000000
     82         -5.064462   1.000000
     83         -4.557988   1.000000
     84         -4.483292   1.000000
     85         -4.482054   1.000000
     86         -4.479086   1.000000
     87         -4.404091   1.000000
     88         -4.402278   1.000000
     89         -4.379401   1.000000
     90         -4.377909   1.000000
     91         -4.213388   1.000000
     92         -4.151568   1.000000
     93         -4.130535   1.000000
     94         -4.128353   1.000000
     95         -4.094847   1.000000
     96         -3.996555   1.000000
     97         -3.985556   1.000000
     98         -3.983265   1.000000
     99         -3.859545   1.000000
    100         -3.097221   1.000000
    101         -3.017231   1.000000
    102         -3.016103   1.000000
    103         -2.920630   1.000000
    104         -2.920183   1.000000
    105         -2.791477   0.915580
    106         -2.228454   0.000000
    107         -2.227886   0.000000
    108         -1.743901   0.000000
    109         -0.127084   0.000000
    110         -0.126382   0.000000
    111          0.285387   0.000000
    112          0.285862   0.000000
    113          0.396410   0.000000
    114          0.436387   0.000000
    115          0.481568   0.000000
    116          0.511153   0.000000
    117          0.514782   0.000000
    118          0.517645   0.000000
    119          0.584583   0.000000
    120          0.656638   0.000000
    121          0.686238   0.000000
    122          0.696159   0.000000
    123          0.698211   0.000000
    124          0.886304   0.000000
    125          0.887019   0.000000
    126          0.944987   0.000000
    127          0.995127   0.000000
    128          1.115511   0.000000
    129          1.115994   0.000000
    130          1.471678   0.000000
    131          1.472646   0.000000
    132          1.595672   0.000000
 
  0.2000000E+00  0.2000000E+00  0.1276756E-14  0.8000000E-01
      1        -37.437943   1.000000
      2        -37.416466   1.000000
      3        -37.416334   1.000000
      4        -37.410757   1.000000
      5        -37.410507   1.000000
      6        -37.367297   1.000000
      7        -37.367070   1.000000
      8        -37.336760   1.000000
      9        -37.335158   1.000000
     10        -37.335062   1.000000
     11        -37.277496   1.000000
     12        -37.249007   1.000000
     13        -37.242576   1.000000
     14        -37.241899   1.000000
     15        -37.237785   1.000000
     16        -37.237500   1.000000
     17        -37.235492   1.000000
     18        -37.232657   1.000000
     19        -37.231919   1.000000
     20        -37.229091   1.000000
     21        -37.224515   1.000000
     22        -37.224015   1.000000
     23        -37.218311   1.000000
     24        -37.217543   1.000000
     25        -37.211546   1.000000
     26        -37.186602   1.000000
     27        -37.176729   1.000000
     28        -16.677821   1.000000
     29        -15.882811   1.000000
     30        -15.674783   1.000000
     31        -15.671439   1.000000
     32        -15.346853   1.000000
     33        -15.343488   1.000000
     34        -15.233440   1.000000
     35        -15.152661   1.000000
     36        -14.919567   1.000000
     37        -14.859173   1.000000
     38        -14.857525   1.000000
     39        -14.839935   1.000000
     40        -14.836901   1.000000
     41        -14.765051   1.000000
     42        -14.763699   1.000000
     43        -14.735462   1.000000
     44        -14.594092   1.000000
     45        -14.592484   1.000000
     46         -8.206622   1.000000
     47         -8.199370   1.000000
     48         -7.982691   1.000000
     49         -7.982399   1.000000
     50         -7.613663   1.000000
     51         -7.612406   1.000000
     52         -7.594954   1.000000
     53         -7.594535   1.000000
     54         -7.578745   1.000000
     55         -7.577762   1.000000
     56         -7.512685   1.000000
     57         -6.867604   1.000000
     58         -6.847644   1.000000
     59         -6.834572   1.000000
     60         -6.834065   1.000000
     61         -6.746068   1.000000
     62         -6.745393   1.000000
     63         -6.633343   1.000000
     64         -6.632099   1.000000
     65         -6.582352   1.000000
     66         -6.439682   1.000000
     67         -6.438398   1.000000
     68         -6.312819   1.000000
     69         -6.311919   1.000000
     70         -6.055047   1.000000
     71         -6.052835   1.000000
     72         -6.052133   1.000000
     73         -5.528057   1.000000
     74         -5.508327   1.000000
     75         -5.507457   1.000000
     76         -5.495540   1.000000
     77         -5.494140   1.000000
     78         -5.376031   1.000000
     79         -5.339507   1.000000
     80         -5.338330   1.000000
     81         -5.125050   1.000000
     82         -5.065466   1.000000
     83         -4.557060   1.000000
     84         -4.482957   1.000000
     85         -4.482179   1.000000
     86         -4.479140   1.000000
     87         -4.404208   1.000000
     88         -4.402351   1.000000
     89         -4.379734   1.000000
     90         -4.378018   1.000000
     91         -4.212888   1.000000
     92         -4.153303   1.000000
     93         -4.130461   1.000000
     94         -4.129158   1.000000
     95         -4.094901   1.000000
     96         -3.996519   1.000000
     97         -3.985374   1.000000
     98         -3.983080   1.000000
     99         -3.858832   1.000000
    100         -3.096196   1.000000
    101         -3.017732   1.000000
    102         -3.015871   1.000000
    103         -2.921534   1.000000
    104         -2.920839   1.000000
    105         -2.790590   0.911628
    106         -2.228581   0.000000
    107         -2.227819   0.000000
    108         -1.743803   0.000000
    109         -0.126910   0.000000
    110         -0.126555   0.000000
    111          0.285932   0.000000
    112          0.286396   0.000000
    113          0.396144   0.000000
    114          0.436200   0.000000
    115          0.479851   0.000000
    116          0.512004   0.000000
    117          0.514763   0.000000
    118          0.516915   0.000000
    119          0.583628   0.000000
    120          0.658614   0.000000
    121          0.686451   0.000000
    122          0.695878   0.000000
    123          0.697707   0.000000
    124          0.886684   0.000000
    125          0.887588   0.000000
    126          0.944728   0.000000
    127          0.994324   0.000000
    128          1.115405   0.000000
    129          1.116218   0.000000
    130          1.471328   0.000000
    131          1.475037   0.000000
    132          1.592587   0.000000
 
  0.1276756E-14  0.2000000E+00  0.1276756E-14  0.8000000E-01
      1        -37.438010   1.000000
      2        -37.416540   1.000000
      3        -37.416226   1.000000
      4        -37.410772   1.000000
      5        -37.410474   1.000000
      6        -37.367358   1.000000
      7        -37.366916   1.000000
      8        -37.336813   1.000000
      9        -37.335186   1.000000
     10        -37.335050   1.000000
     11        -37.277495   1.000000
     12        -37.249024   1.000000
     13        -37.242570   1.000000
     14        -37.241873   1.000000
     15        -37.237789   1.000000
     16        -37.237557   1.000000
     17        -37.235406   1.000000
     18        -37.232640   1.000000
     19        -37.231982   1.000000
     20        -37.229064   1.000000
     21        -37.224519   1.000000
     22        -37.224103   1.000000
     23        -37.218313   1.000000
     24        -37.217539   1.000000
     25        -37.211486   1.000000
     26        -37.186660   1.000000
     27        -37.176672   1.000000
     28        -16.677816   1.000000
     29        -15.882725   1.000000
     30        -15.674994   1.000000
     31        -15.671371   1.000000
     32        -15.346993   1.000000
     33        -15.343447   1.000000
     34        -15.233273   1.000000
     35        -15.152669   1.000000
     36        -14.919672   1.000000
     37        -14.859022   1.000000
     38        -14.857485   1.000000
     39        -14.839964   1.000000
     40        -14.836898   1.000000
     41        -14.764972   1.000000
     42        -14.763680   1.000000
     43        -14.735637   1.000000
     44        -14.594084   1.000000
     45        -14.592483   1.000000
     46         -8.206615   1.000000
     47         -8.199475   1.000000
     48         -7.982858   1.000000
     49         -7.982134   1.000000
     50         -7.613924   1.000000
     51         -7.612043   1.000000
     52         -7.594941   1.000000
     53         -7.594662   1.000000
     54         -7.578699   1.000000
     55         -7.577779   1.000000
     56         -7.512595   1.000000
     57         -6.867443   1.000000
     58         -6.847612   1.000000
     59         -6.834669   1.000000
     60         -6.834127   1.000000
     61         -6.746072   1.000000
     62         -6.745252   1.000000
     63         -6.633722   1.000000
     64         -6.631927   1.000000
     65         -6.582121   1.000000
     66         -6.439851   1.000000
     67         -6.438468   1.000000
     68         -6.312920   1.000000
     69         -6.312008   1.000000
     70         -6.054834   1.000000
     71         -6.052892   1.000000
     72         -6.052325   1.000000
     73         -5.527589   1.000000
     74         -5.509228   1.000000
     75         -5.507354   1.000000
     76         -5.495569   1.000000
     77         -5.494196   1.000000
     78         -5.375806   1.000000
     79         -5.339875   1.000000
     80         -5.337986   1.000000
     81         -5.125256   1.000000
     82         -5.064960   1.000000
     83         -4.557526   1.000000
     84         -4.483149   1.000000
     85         -4.482109   1.000000
     86         -4.479094   1.000000
     87         -4.404154   1.000000
     88         -4.402300   1.000000
     89         -4.379756   1.000000
     90         -4.377788   1.000000
     91         -4.213143   1.000000
     92         -4.152431   1.000000
     93         -4.130510   1.000000
     94         -4.128743   1.000000
     95         -4.094873   1.000000
     96         -3.996538   1.000000
     97         -3.985473   1.000000
     98         -3.983161   1.000000
     99         -3.859191   1.000000
    100         -3.096706   1.000000
    101         -3.017625   1.000000
    102         -3.015845   1.000000
    103         -2.921241   1.000000
    104         -2.920353   1.000000
    105         -2.791032   0.913615
    106         -2.228560   0.000000
    107         -2.227810   0.000000
    108         -1.743852   0.000000
    109         -0.127098   0.000000
    110         -0.126368   0.000000
    111          0.285550   0.000000
    112          0.286232   0.000000
    113          0.396275   0.000000
    114          0.436305   0.000000
    115          0.480716   0.000000
    116          0.511572   0.000000
    117          0.514776   0.000000
    118          0.517267   0.000000
    119          0.584111   0.000000
    120          0.657636   0.000000
    121          0.686338   0.000000
    122          0.695994   0.000000
    123          0.697984   0.000000
    124          0.886478   0.000000
    125          0.887313   0.000000
    126          0.944864   0.000000
    127          0.994729   0.000000
    128          1.115278   0.000000
    129          1.116282   0.000000
    130          1.471465   0.000000
    131          1.473918   0.000000
    132          1.586326   0.000000
 
  0.4000000E+00  0.8346566E-14  0.1276756E-14  0.8000000E-01
      1        -37.462074   1.000000
      2        -37.428331   1.000000
      3        -37.428018   1.000000
      4        -37.426148   1.000000
      5        -37.425830   1.000000
      6        -37.347467   1.000000
      7        -37.346810   1.000000
      8        -37.297615   1.000000
      9        -37.297532   1.000000
     10        -37.276417   1.000000
     11        -37.270665   1.000000
     12        -37.263024   1.000000
     13        -37.262939   1.000000
     14        -37.260589   1.000000
     15        -37.244944   1.000000
     16        -37.244248   1.000000
     17        -37.241095   1.000000
     18        -37.229634   1.000000
     19        -37.229220   1.000000
     20        -37.226838   1.000000
     21        -37.226263   1.000000
     22        -37.224336   1.000000
     23        -37.223154   1.000000
     24        -37.221730   1.000000
     25        -37.220864   1.000000
     26        -37.197330   1.000000
     27        -37.184993   1.000000
     28        -16.498028   1.000000
     29        -16.221348   1.000000
     30        -15.750867   1.000000
     31        -15.747215   1.000000
     32        -15.145691   1.000000
     33        -15.141984   1.000000
     34        -15.099691   1.000000
     35        -15.058292   1.000000
     36        -15.018417   1.000000
     37        -14.964926   1.000000
     38        -14.961597   1.000000
     39        -14.878369   1.000000
     40        -14.877650   1.000000
     41        -14.701368   1.000000
     42        -14.699938   1.000000
     43        -14.688152   1.000000
     44        -14.639569   1.000000
     45        -14.638161   1.000000
     46         -8.415735   1.000000
     47         -8.009635   1.000000
     48         -8.008846   1.000000
     49         -7.991325   1.000000
     50         -7.881103   1.000000
     51         -7.880411   1.000000
     52         -7.688479   1.000000
     53         -7.387126   1.000000
     54         -7.385881   1.000000
     55         -7.349313   1.000000
     56         -7.348446   1.000000
     57         -7.056728   1.000000
     58         -7.039539   1.000000
     59         -7.038601   1.000000
     60         -6.921950   1.000000
     61         -6.919483   1.000000
     62         -6.529120   1.000000
     63         -6.523727   1.000000
     64         -6.521548   1.000000
     65         -6.442960   1.000000
     66         -6.435111   1.000000
     67         -6.433170   1.000000
     68         -6.135347   1.000000
     69         -6.134636   1.000000
     70         -5.860144   1.000000
     71         -5.626315   1.000000
     72         -5.623618   1.000000
     73         -5.621615   1.000000
     74         -5.596231   1.000000
     75         -5.594736   1.000000
     76         -5.538012   1.000000
     77         -5.492724   1.000000
     78         -5.491362   1.000000
     79         -5.487703   1.000000
     80         -5.486431   1.000000
     81         -5.026158   1.000000
     82         -4.967511   1.000000
     83         -4.861990   1.000000
     84         -4.860757   1.000000
     85         -4.742545   1.000000
     86         -4.736548   1.000000
     87         -4.710511   1.000000
     88         -4.707294   1.000000
     89         -4.412447   1.000000
     90         -4.257260   1.000000
     91         -4.255979   1.000000
     92         -4.252612   1.000000
     93         -4.149594   1.000000
     94         -4.147691   1.000000
     95         -4.014924   1.000000
     96         -3.851135   1.000000
     97         -3.798688   1.000000
     98         -3.797248   1.000000
     99         -3.774566   1.000000
    100         -3.003805   1.000000
    101         -2.810545   0.972270
    102         -2.809752   0.970810
    103         -2.788263   0.900609
    104         -2.787792   0.898263
    105         -2.543807   0.000000
    106         -2.543402   0.000000
    107         -2.362395   0.000000
    108         -1.969042   0.000000
    109          0.101027   0.000000
    110          0.101451   0.000000
    111          0.300800   0.000000
    112          0.334252   0.000000
    113          0.334498   0.000000
    114          0.336079   0.000000
    115          0.401903   0.000000
    116          0.482502   0.000000
    117          0.487170   0.000000
    118          0.559668   0.000000
    119          0.562707   0.000000
    120          0.664620   0.000000
    121          0.753020   0.000000
    122          0.755265   0.000000
    123          0.836154   0.000000
    124          0.880503   0.000000
    125          0.881160   0.000000
    126          1.008067   0.000000
    127          1.061914   0.000000
    128          1.063247   0.000000
    129          1.182156   0.000000
    130          1.389142   0.000000
    131          1.390181   0.000000
    132          1.451884   0.000000
 
  0.4000000E+00  0.4000000E+00  0.1276756E-14  0.8000000E-01
      1        -37.461939   1.000000
      2        -37.428244   1.000000
      3        -37.428086   1.000000
      4        -37.426142   1.000000
      5        -37.425945   1.000000
      6        -37.347431   1.000000
      7        -37.347097   1.000000
      8        -37.297660   1.000000
      9        -37.297460   1.000000
     10        -37.276300   1.000000
     11        -37.270675   1.000000
     12        -37.263078   1.000000
     13        -37.262835   1.000000
     14        -37.260570   1.000000
     15        -37.244953   1.000000
     16        -37.244259   1.000000
     17        -37.241214   1.000000
     18        -37.229625   1.000000
     19        -37.228995   1.000000
     20        -37.226853   1.000000
     21        -37.226194   1.000000
     22        -37.224363   1.000000
     23        -37.223025   1.000000
     24        -37.221717   1.000000
     25        -37.220895   1.000000
     26        -37.197450   1.000000
     27        -37.185104   1.000000
     28        -16.498070   1.000000
     29        -16.221444   1.000000
     30        -15.750567   1.000000
     31        -15.747224   1.000000
     32        -15.145535   1.000000
     33        -15.141997   1.000000
     34        -15.099653   1.000000
     35        -15.058685   1.000000
     36        -15.018289   1.000000
     37        -14.964844   1.000000
     38        -14.961605   1.000000
     39        -14.878763   1.000000
     40        -14.877614   1.000000
     41        -14.701501   1.000000
     42        -14.699907   1.000000
     43        -14.687771   1.000000
     44        -14.639658   1.000000
     45        -14.638144   1.000000
     46         -8.415427   1.000000
     47         -8.009621   1.000000
     48         -8.009133   1.000000
     49         -7.991384   1.000000
     50         -7.881225   1.000000
     51         -7.880541   1.000000
     52         -7.688622   1.000000
     53         -7.387114   1.000000
     54         -7.385704   1.000000
     55         -7.349302   1.000000
     56         -7.348603   1.000000
     57         -7.057196   1.000000
     58         -7.039359   1.000000
     59         -7.039007   1.000000
     60         -6.921648   1.000000
     61         -6.919253   1.000000
     62         -6.529969   1.000000
     63         -6.522602   1.000000
     64         -6.521798   1.000000
     65         -6.443123   1.000000
     66         -6.434436   1.000000
     67         -6.433322   1.000000
     68         -6.135020   1.000000
     69         -6.134079   1.000000
     70         -5.860460   1.000000
     71         -5.627346   1.000000
     72         -5.622134   1.000000
     73         -5.621622   1.000000
     74         -5.595680   1.000000
     75         -5.594533   1.000000
     76         -5.537213   1.000000
     77         -5.493355   1.000000
     78         -5.491166   1.000000
     79         -5.487682   1.000000
     80         -5.487105   1.000000
     81         -5.025155   1.000000
     82         -4.967135   1.000000
     83         -4.862435   1.000000
     84         -4.860817   1.000000
     85         -4.743817   1.000000
     86         -4.736193   1.000000
     87         -4.710721   1.000000
     88         -4.707256   1.000000
     89         -4.413874   1.000000
     90         -4.257484   1.000000
     91         -4.256318   1.000000
     92         -4.251970   1.000000
     93         -4.149752   1.000000
     94         -4.148352   1.000000
     95         -4.015106   1.000000
     96         -3.851180   1.000000
     97         -3.798804   1.000000
     98         -3.796540   1.000000
     99         -3.774404   1.000000
    100         -3.002840   1.000000
    101         -2.810946   0.972985
    102         -2.809445   0.970227
    103         -2.789136   0.904858
    104         -2.788656   0.902539
    105         -2.544156   0.000000
    106         -2.543158   0.000000
    107         -2.361722   0.000000
    108         -1.968675   0.000000
    109          0.101513   0.000000
    110          0.102131   0.000000
    111          0.300895   0.000000
    112          0.334482   0.000000
    113          0.335126   0.000000
    114          0.335552   0.000000
    115          0.401385   0.000000
    116          0.481194   0.000000
    117          0.486383   0.000000
    118          0.559834   0.000000
    119          0.562082   0.000000
    120          0.663668   0.000000
    121          0.752532   0.000000
    122          0.754848   0.000000
    123          0.836497   0.000000
    124          0.879912   0.000000
    125          0.881874   0.000000
    126          1.009733   0.000000
    127          1.062275   0.000000
    128          1.063691   0.000000
    129          1.182205   0.000000
    130          1.389336   0.000000
    131          1.390260   0.000000
    132          1.457230   0.000000
 
  0.1276756E-14  0.4000000E+00  0.1276756E-14  0.8000000E-01
      1        -37.462007   1.000000
      2        -37.428314   1.000000
      3        -37.428017   1.000000
      4        -37.426160   1.000000
      5        -37.425880   1.000000
      6        -37.347474   1.000000
      7        -37.346928   1.000000
      8        -37.297660   1.000000
      9        -37.297475   1.000000
     10        -37.276358   1.000000
     11        -37.270667   1.000000
     12        -37.263077   1.000000
     13        -37.262860   1.000000
     14        -37.260588   1.000000
     15        -37.244944   1.000000
     16        -37.244248   1.000000
     17        -37.241153   1.000000
     18        -37.229632   1.000000
     19        -37.229112   1.000000
     20        -37.226844   1.000000
     21        -37.226242   1.000000
     22        -37.224350   1.000000
     23        -37.223084   1.000000
     24        -37.221724   1.000000
     25        -37.220871   1.000000
     26        -37.197388   1.000000
     27        -37.185050   1.000000
     28        -16.498048   1.000000
     29        -16.221396   1.000000
     30        -15.750787   1.000000
     31        -15.747150   1.000000
     32        -15.145630   1.000000
     33        -15.141972   1.000000
     34        -15.099670   1.000000
     35        -15.058489   1.000000
     36        -15.018356   1.000000
     37        -14.964893   1.000000
     38        -14.961594   1.000000
     39        -14.878641   1.000000
     40        -14.877554   1.000000
     41        -14.701455   1.000000
     42        -14.699899   1.000000
     43        -14.687965   1.000000
     44        -14.639626   1.000000
     45        -14.638141   1.000000
     46         -8.415584   1.000000
     47         -8.009813   1.000000
     48         -8.008805   1.000000
     49         -7.991352   1.000000
     50         -7.881492   1.000000
     51         -7.880149   1.000000
     52         -7.688551   1.000000
     53         -7.387138   1.000000
     54         -7.385769   1.000000
     55         -7.349349   1.000000
     56         -7.348485   1.000000
     57         -7.056964   1.000000
     58         -7.039540   1.000000
     59         -7.038711   1.000000
     60         -6.921810   1.000000
     61         -6.919357   1.000000
     62         -6.529565   1.000000
     63         -6.523172   1.000000
     64         -6.521642   1.000000
     65         -6.443049   1.000000
     66         -6.434782   1.000000
     67         -6.433233   1.000000
     68         -6.135353   1.000000
     69         -6.134190   1.000000
     70         -5.860302   1.000000
     71         -5.626905   1.000000
     72         -5.622896   1.000000
     73         -5.621513   1.000000
     74         -5.596021   1.000000
     75         -5.594577   1.000000
     76         -5.537626   1.000000
     77         -5.493473   1.000000
     78         -5.490789   1.000000
     79         -5.487809   1.000000
     80         -5.486685   1.000000
     81         -5.025664   1.000000
     82         -4.967317   1.000000
     83         -4.862633   1.000000
     84         -4.860368   1.000000
     85         -4.743166   1.000000
     86         -4.736383   1.000000
     87         -4.710676   1.000000
     88         -4.707211   1.000000
     89         -4.413161   1.000000
     90         -4.257387   1.000000
     91         -4.256132   1.000000
     92         -4.252291   1.000000
     93         -4.149682   1.000000
     94         -4.148014   1.000000
     95         -4.015011   1.000000
     96         -3.851156   1.000000
     97         -3.798747   1.000000
     98         -3.796887   1.000000
     99         -3.774495   1.000000
    100         -3.003321   1.000000
    101         -2.810885   0.972878
    102         -2.809470   0.970276
    103         -2.788764   0.903065
    104         -2.788149   0.900046
    105         -2.544098   0.000000
    106         -2.543162   0.000000
    107         -2.362059   0.000000
    108         -1.968859   0.000000
    109          0.101129   0.000000
    110          0.101926   0.000000
    111          0.300854   0.000000
    112          0.334260   0.000000
    113          0.334891   0.000000
    114          0.335841   0.000000
    115          0.401645   0.000000
    116          0.481763   0.000000
    117          0.486862   0.000000
    118          0.559740   0.000000
    119          0.562406   0.000000
    120          0.664144   0.000000
    121          0.752760   0.000000
    122          0.755072   0.000000
    123          0.836329   0.000000
    124          0.880329   0.000000
    125          0.881394   0.000000
    126          1.008899   0.000000
    127          1.062062   0.000000
    128          1.063499   0.000000
    129          1.182181   0.000000
    130          1.389518   0.000000
    131          1.390453   0.000000
    132          1.453051   0.000000
 
  0.4000000E+00  0.2000000E+00  0.1276756E-14  0.8000000E-01
      1        -37.449643   1.000000
      2        -37.449385   1.000000
      3        -37.431832   1.000000
      4        -37.413608   1.000000
      5        -37.393067   1.000000
      6        -37.392716   1.000000
      7        -37.311946   1.000000
      8        -37.310029   1.000000
      9        -37.309894   1.000000
     10        -37.304174   1.000000
     11        -37.272878   1.000000
     12        -37.253813   1.000000
     13        -37.253356   1.000000
     14        -37.248424   1.000000
     15        -37.247979   1.000000
     16        -37.246780   1.000000
     17        -37.246477   1.000000
     18        -37.234692   1.000000
     19        -37.234211   1.000000
     20        -37.225817   1.000000
     21        -37.225277   1.000000
     22        -37.221185   1.000000
     23        -37.219280   1.000000
     24        -37.210988   1.000000
     25        -37.209017   1.000000
     26        -37.208862   1.000000
     27        -37.182768   1.000000
     28        -16.556792   1.000000
     29        -16.021711   1.000000
     30        -16.018042   1.000000
     31        -15.422461   1.000000
     32        -15.418964   1.000000
     33        -15.117210   1.000000
     34        -15.106274   1.000000
     35        -15.102925   1.000000
     36        -14.960252   1.000000
     37        -14.958543   1.000000
     38        -14.956127   1.000000
     39        -14.888903   1.000000
     40        -14.782038   1.000000
     41        -14.780761   1.000000
     42        -14.697943   1.000000
     43        -14.696403   1.000000
     44        -14.632957   1.000000
     45        -14.615993   1.000000
     46         -8.276042   1.000000
     47         -8.274052   1.000000
     48         -8.060358   1.000000
     49         -7.919623   1.000000
     50         -7.712056   1.000000
     51         -7.707868   1.000000
     52         -7.706288   1.000000
     53         -7.504771   1.000000
     54         -7.502243   1.000000
     55         -7.454681   1.000000
     56         -7.388178   1.000000
     57         -7.034225   1.000000
     58         -7.032434   1.000000
     59         -6.745034   1.000000
     60         -6.744643   1.000000
     61         -6.696122   1.000000
     62         -6.694660   1.000000
     63         -6.648902   1.000000
     64         -6.646799   1.000000
     65         -6.531239   1.000000
     66         -6.528909   1.000000
     67         -6.434464   1.000000
     68         -6.404165   1.000000
     69         -5.802038   1.000000
     70         -5.800727   1.000000
     71         -5.789685   1.000000
     72         -5.709868   1.000000
     73         -5.608183   1.000000
     74         -5.606152   1.000000
     75         -5.593509   1.000000
     76         -5.591182   1.000000
     77         -5.583969   1.000000
     78         -5.561194   1.000000
     79         -5.545078   1.000000
     80         -5.090361   1.000000
     81         -5.089205   1.000000
     82         -5.022689   1.000000
     83         -4.874900   1.000000
     84         -4.786973   1.000000
     85         -4.784054   1.000000
     86         -4.645626   1.000000
     87         -4.644777   1.000000
     88         -4.382958   1.000000
     89         -4.334442   1.000000
     90         -4.312654   1.000000
     91         -4.311350   1.000000
     92         -4.254346   1.000000
     93         -4.224851   1.000000
     94         -4.223037   1.000000
     95         -3.974492   1.000000
     96         -3.972141   1.000000
     97         -3.826027   1.000000
     98         -3.823473   1.000000
     99         -3.745469   1.000000
    100         -2.931678   1.000000
    101         -2.929735   1.000000
    102         -2.891481   0.999987
    103         -2.890467   0.999985
    104         -2.601304   0.000031
    105         -2.599914   0.000026
    106         -2.493658   0.000000
    107         -2.423936   0.000000
    108         -1.888426   0.000000
    109          0.186637   0.000000
    110          0.189371   0.000000
    111          0.202731   0.000000
    112          0.228123   0.000000
    113          0.305000   0.000000
    114          0.306193   0.000000
    115          0.367760   0.000000
    116          0.443822   0.000000
    117          0.516709   0.000000
    118          0.533157   0.000000
    119          0.535001   0.000000
    120          0.736620   0.000000
    121          0.737719   0.000000
    122          0.756947   0.000000
    123          0.757892   0.000000
    124          0.915952   0.000000
    125          0.917200   0.000000
    126          0.920536   0.000000
    127          1.098889   0.000000
    128          1.100498   0.000000
    129          1.236300   0.000000
    130          1.237126   0.000000
    131          1.406291   0.000000
    132          1.535503   0.000000
 
  0.2000000E+00  0.4000000E+00  0.1276756E-14  0.8000000E-01
      1        -37.449643   1.000000
      2        -37.449306   1.000000
      3        -37.431897   1.000000
      4        -37.413542   1.000000
      5        -37.392990   1.000000
      6        -37.392910   1.000000
      7        -37.311996   1.000000
      8        -37.310046   1.000000
      9        -37.309874   1.000000
     10        -37.304120   1.000000
     11        -37.272879   1.000000
     12        -37.253763   1.000000
     13        -37.253407   1.000000
     14        -37.248367   1.000000
     15        -37.247945   1.000000
     16        -37.246715   1.000000
     17        -37.246597   1.000000
     18        -37.234641   1.000000
     19        -37.234264   1.000000
     20        -37.225745   1.000000
     21        -37.225342   1.000000
     22        -37.221195   1.000000
     23        -37.219273   1.000000
     24        -37.210971   1.000000
     25        -37.209034   1.000000
     26        -37.208811   1.000000
     27        -37.182828   1.000000
     28        -16.556807   1.000000
     29        -16.021810   1.000000
     30        -16.017960   1.000000
     31        -15.422377   1.000000
     32        -15.418855   1.000000
     33        -15.117214   1.000000
     34        -15.106519   1.000000
     35        -15.102859   1.000000
     36        -14.960362   1.000000
     37        -14.958461   1.000000
     38        -14.956151   1.000000
     39        -14.888798   1.000000
     40        -14.782385   1.000000
     41        -14.780628   1.000000
     42        -14.697763   1.000000
     43        -14.696373   1.000000
     44        -14.632868   1.000000
     45        -14.616110   1.000000
     46         -8.276249   1.000000
     47         -8.273731   1.000000
     48         -8.060379   1.000000
     49         -7.919744   1.000000
     50         -7.712127   1.000000
     51         -7.707946   1.000000
     52         -7.706183   1.000000
     53         -7.504908   1.000000
     54         -7.502157   1.000000
     55         -7.454487   1.000000
     56         -7.388414   1.000000
     57         -7.034587   1.000000
     58         -7.032397   1.000000
     59         -6.744939   1.000000
     60         -6.744680   1.000000
     61         -6.696131   1.000000
     62         -6.694328   1.000000
     63         -6.648793   1.000000
     64         -6.646698   1.000000
     65         -6.531735   1.000000
     66         -6.528631   1.000000
     67         -6.434314   1.000000
     68         -6.404053   1.000000
     69         -5.801616   1.000000
     70         -5.800816   1.000000
     71         -5.789871   1.000000
     72         -5.710031   1.000000
     73         -5.608430   1.000000
     74         -5.606066   1.000000
     75         -5.593148   1.000000
     76         -5.591200   1.000000
     77         -5.583857   1.000000
     78         -5.561093   1.000000
     79         -5.545045   1.000000
     80         -5.091063   1.000000
     81         -5.089071   1.000000
     82         -5.022460   1.000000
     83         -4.874365   1.000000
     84         -4.787214   1.000000
     85         -4.783945   1.000000
     86         -4.645509   1.000000
     87         -4.644858   1.000000
     88         -4.383751   1.000000
     89         -4.334680   1.000000
     90         -4.312753   1.000000
     91         -4.311384   1.000000
     92         -4.254331   1.000000
     93         -4.224767   1.000000
     94         -4.222964   1.000000
     95         -3.974374   1.000000
     96         -3.972363   1.000000
     97         -3.826057   1.000000
     98         -3.823329   1.000000
     99         -3.745330   1.000000
    100         -2.931336   1.000000
    101         -2.929516   1.000000
    102         -2.891895   0.999988
    103         -2.890638   0.999985
    104         -2.601393   0.000032
    105         -2.599846   0.000026
    106         -2.493551   0.000000
    107         -2.424095   0.000000
    108         -1.888273   0.000000
    109          0.186758   0.000000
    110          0.189635   0.000000
    111          0.202563   0.000000
    112          0.228248   0.000000
    113          0.305291   0.000000
    114          0.306023   0.000000
    115          0.367885   0.000000
    116          0.443043   0.000000
    117          0.516473   0.000000
    118          0.533098   0.000000
    119          0.534558   0.000000
    120          0.736711   0.000000
    121          0.737623   0.000000
    122          0.756983   0.000000
    123          0.757752   0.000000
    124          0.915828   0.000000
    125          0.917203   0.000000
    126          0.921449   0.000000
    127          1.099203   0.000000
    128          1.100474   0.000000
    129          1.236279   0.000000
    130          1.237364   0.000000
    131          1.405844   0.000000
    132          1.533981   0.000000
 
 -0.2000000E+00  0.2000000E+00  0.1276756E-14  0.8000000E-01
      1        -37.449669   1.000000
      2        -37.449438   1.000000
      3        -37.431767   1.000000
      4        -37.413671   1.000000
      5        -37.393204   1.000000
      6        -37.392465   1.000000
      7        -37.311888   1.000000
      8        -37.310044   1.000000
      9        -37.309894   1.000000
     10        -37.304225   1.000000
     11        -37.272875   1.000000
     12        -37.253996   1.000000
     13        -37.253172   1.000000
     14        -37.248524   1.000000
     15        -37.247927   1.000000
     16        -37.246905   1.000000
     17        -37.246342   1.000000
     18        -37.234867   1.000000
     19        -37.234008   1.000000
     20        -37.226001   1.000000
     21        -37.225152   1.000000
     22        -37.221134   1.000000
     23        -37.219303   1.000000
     24        -37.211016   1.000000
     25        -37.209046   1.000000
     26        -37.208856   1.000000
     27        -37.182710   1.000000
     28        -16.556777   1.000000
     29        -16.021671   1.000000
     30        -16.018066   1.000000
     31        -15.422661   1.000000
     32        -15.418956   1.000000
     33        -15.117203   1.000000
     34        -15.106018   1.000000
     35        -15.103001   1.000000
     36        -14.960196   1.000000
     37        -14.958573   1.000000
     38        -14.956105   1.000000
     39        -14.889006   1.000000
     40        -14.781778   1.000000
     41        -14.780802   1.000000
     42        -14.698096   1.000000
     43        -14.696465   1.000000
     44        -14.633049   1.000000
     45        -14.615873   1.000000
     46         -8.275832   1.000000
     47         -8.274382   1.000000
     48         -8.060339   1.000000
     49         -7.919499   1.000000
     50         -7.711982   1.000000
     51         -7.707792   1.000000
     52         -7.706389   1.000000
     53         -7.504671   1.000000
     54         -7.502297   1.000000
     55         -7.454867   1.000000
     56         -7.387943   1.000000
     57         -7.033839   1.000000
     58         -7.032491   1.000000
     59         -6.745221   1.000000
     60         -6.744522   1.000000
     61         -6.696142   1.000000
     62         -6.694957   1.000000
     63         -6.649112   1.000000
     64         -6.646801   1.000000
     65         -6.530694   1.000000
     66         -6.529230   1.000000
     67         -6.434614   1.000000
     68         -6.404279   1.000000
     69         -5.802652   1.000000
     70         -5.800503   1.000000
     71         -5.789465   1.000000
     72         -5.709690   1.000000
     73         -5.607836   1.000000
     74         -5.606346   1.000000
     75         -5.593901   1.000000
     76         -5.591128   1.000000
     77         -5.584086   1.000000
     78         -5.561295   1.000000
     79         -5.545108   1.000000
     80         -5.090190   1.000000
     81         -5.088802   1.000000
     82         -5.022917   1.000000
     83         -4.875438   1.000000
     84         -4.786739   1.000000
     85         -4.784161   1.000000
     86         -4.645740   1.000000
     87         -4.644695   1.000000
     88         -4.382178   1.000000
     89         -4.334203   1.000000
     90         -4.312569   1.000000
     91         -4.311289   1.000000
     92         -4.254352   1.000000
     93         -4.224868   1.000000
     94         -4.223182   1.000000
     95         -3.974594   1.000000
     96         -3.971933   1.000000
     97         -3.825991   1.000000
     98         -3.823619   1.000000
     99         -3.745616   1.000000
    100         -2.931940   1.000000
    101         -2.930036   1.000000
    102         -2.890990   0.999986
    103         -2.890369   0.999985
    104         -2.601112   0.000031
    105         -2.600086   0.000027
    106         -2.493761   0.000000
    107         -2.423779   0.000000
    108         -1.888580   0.000000
    109          0.186472   0.000000
    110          0.189143   0.000000
    111          0.202895   0.000000
    112          0.228008   0.000000
    113          0.304655   0.000000
    114          0.306412   0.000000
    115          0.367641   0.000000
    116          0.444592   0.000000
    117          0.516932   0.000000
    118          0.533221   0.000000
    119          0.535469   0.000000
    120          0.736579   0.000000
    121          0.737815   0.000000
    122          0.756665   0.000000
    123          0.758225   0.000000
    124          0.916136   0.000000
    125          0.917166   0.000000
    126          0.919592   0.000000
    127          1.098531   0.000000
    128          1.100565   0.000000
    129          1.236352   0.000000
    130          1.236861   0.000000
    131          1.405326   0.000000
    132          1.532241   0.000000
 
 -0.4000000E+00  0.2000000E+00  0.1276756E-14  0.8000000E-01
      1        -37.461251   1.000000
      2        -37.447417   1.000000
      3        -37.447100   1.000000
      4        -37.409070   1.000000
      5        -37.408860   1.000000
      6        -37.381664   1.000000
      7        -37.298419   1.000000
      8        -37.279664   1.000000
      9        -37.279376   1.000000
     10        -37.271184   1.000000
     11        -37.271040   1.000000
     12        -37.264597   1.000000
     13        -37.264264   1.000000
     14        -37.255228   1.000000
     15        -37.255133   1.000000
     16        -37.254733   1.000000
     17        -37.254336   1.000000
     18        -37.249788   1.000000
     19        -37.235212   1.000000
     20        -37.227209   1.000000
     21        -37.226871   1.000000
     22        -37.223318   1.000000
     23        -37.222271   1.000000
     24        -37.221576   1.000000
     25        -37.210152   1.000000
     26        -37.194445   1.000000
     27        -37.193959   1.000000
     28        -16.330278   1.000000
     29        -16.326378   1.000000
     30        -16.067519   1.000000
     31        -15.447386   1.000000
     32        -15.167913   1.000000
     33        -15.164190   1.000000
     34        -15.050183   1.000000
     35        -15.049212   1.000000
     36        -15.015269   1.000000
     37        -14.984550   1.000000
     38        -14.980879   1.000000
     39        -14.972122   1.000000
     40        -14.786886   1.000000
     41        -14.702108   1.000000
     42        -14.700328   1.000000
     43        -14.672858   1.000000
     44        -14.654817   1.000000
     45        -14.653354   1.000000
     46         -8.381499   1.000000
     47         -8.178587   1.000000
     48         -8.176643   1.000000
     49         -7.795204   1.000000
     50         -7.792918   1.000000
     51         -7.759124   1.000000
     52         -7.758393   1.000000
     53         -7.559530   1.000000
     54         -7.510305   1.000000
     55         -7.250040   1.000000
     56         -7.247297   1.000000
     57         -7.133715   1.000000
     58         -7.049075   1.000000
     59         -7.046104   1.000000
     60         -6.740808   1.000000
     61         -6.680366   1.000000
     62         -6.603492   1.000000
     63         -6.522627   1.000000
     64         -6.520503   1.000000
     65         -6.509900   1.000000
     66         -6.477377   1.000000
     67         -6.474429   1.000000
     68         -6.232088   1.000000
     69         -6.228950   1.000000
     70         -5.653705   1.000000
     71         -5.652141   1.000000
     72         -5.649657   1.000000
     73         -5.639588   1.000000
     74         -5.636373   1.000000
     75         -5.622713   1.000000
     76         -5.621388   1.000000
     77         -5.302753   1.000000
     78         -5.300177   1.000000
     79         -5.286863   1.000000
     80         -5.285641   1.000000
     81         -5.221337   1.000000
     82         -4.966691   1.000000
     83         -4.881007   1.000000
     84         -4.879445   1.000000
     85         -4.848856   1.000000
     86         -4.844278   1.000000
     87         -4.752875   1.000000
     88         -4.750696   1.000000
     89         -4.733917   1.000000
     90         -4.284765   1.000000
     91         -4.258569   1.000000
     92         -4.257627   1.000000
     93         -4.255389   1.000000
     94         -4.076736   1.000000
     95         -4.074857   1.000000
     96         -3.893150   1.000000
     97         -3.723003   1.000000
     98         -3.719667   1.000000
     99         -3.698846   1.000000
    100         -2.860784   0.999575
    101         -2.841510   0.997373
    102         -2.744983   0.524278
    103         -2.744155   0.514951
    104         -2.675657   0.028720
    105         -2.674186   0.026095
    106         -2.513734   0.000000
    107         -2.199242   0.000000
    108         -2.196917   0.000000
    109          0.095887   0.000000
    110          0.219290   0.000000
    111          0.228561   0.000000
    112          0.230051   0.000000
    113          0.425312   0.000000
    114          0.426752   0.000000
    115          0.468465   0.000000
    116          0.470319   0.000000
    117          0.509102   0.000000
    118          0.511919   0.000000
    119          0.575068   0.000000
    120          0.581933   0.000000
    121          0.582792   0.000000
    122          0.618969   0.000000
    123          0.797054   0.000000
    124          0.933260   0.000000
    125          1.059337   0.000000
    126          1.059939   0.000000
    127          1.116288   0.000000
    128          1.261370   0.000000
    129          1.342616   0.000000
    130          1.348082   0.000000
    131          1.358649   0.000000
    132          1.367583   0.000000
 
  0.4000000E+00 -0.4000000E+00  0.1276756E-14  0.8000000E-01
      1        -37.461117   1.000000
      2        -37.447392   1.000000
      3        -37.447231   1.000000
      4        -37.409093   1.000000
      5        -37.408777   1.000000
      6        -37.381800   1.000000
      7        -37.298545   1.000000
      8        -37.279653   1.000000
      9        -37.279425   1.000000
     10        -37.271297   1.000000
     11        -37.270863   1.000000
     12        -37.264831   1.000000
     13        -37.264013   1.000000
     14        -37.255277   1.000000
     15        -37.255088   1.000000
     16        -37.254774   1.000000
     17        -37.253974   1.000000
     18        -37.249909   1.000000
     19        -37.235216   1.000000
     20        -37.227428   1.000000
     21        -37.226606   1.000000
     22        -37.223191   1.000000
     23        -37.222547   1.000000
     24        -37.221468   1.000000
     25        -37.210029   1.000000
     26        -37.194589   1.000000
     27        -37.194002   1.000000
     28        -16.330301   1.000000
     29        -16.326469   1.000000
     30        -16.067413   1.000000
     31        -15.447208   1.000000
     32        -15.167862   1.000000
     33        -15.164318   1.000000
     34        -15.049974   1.000000
     35        -15.049294   1.000000
     36        -15.015659   1.000000
     37        -14.984118   1.000000
     38        -14.981023   1.000000
     39        -14.972244   1.000000
     40        -14.787110   1.000000
     41        -14.701851   1.000000
     42        -14.700472   1.000000
     43        -14.672474   1.000000
     44        -14.654981   1.000000
     45        -14.653462   1.000000
     46         -8.381187   1.000000
     47         -8.178289   1.000000
     48         -8.177244   1.000000
     49         -7.795318   1.000000
     50         -7.792961   1.000000
     51         -7.759382   1.000000
     52         -7.758305   1.000000
     53         -7.559444   1.000000
     54         -7.510204   1.000000
     55         -7.249853   1.000000
     56         -7.247276   1.000000
     57         -7.134173   1.000000
     58         -7.049534   1.000000
     59         -7.046192   1.000000
     60         -6.740595   1.000000
     61         -6.680057   1.000000
     62         -6.602800   1.000000
     63         -6.522591   1.000000
     64         -6.520440   1.000000
     65         -6.510258   1.000000
     66         -6.476446   1.000000
     67         -6.474820   1.000000
     68         -6.232649   1.000000
     69         -6.228825   1.000000
     70         -5.653401   1.000000
     71         -5.651969   1.000000
     72         -5.650046   1.000000
     73         -5.640345   1.000000
     74         -5.636372   1.000000
     75         -5.622207   1.000000
     76         -5.621168   1.000000
     77         -5.301043   1.000000
     78         -5.300221   1.000000
     79         -5.286942   1.000000
     80         -5.285916   1.000000
     81         -5.220921   1.000000
     82         -4.966685   1.000000
     83         -4.881065   1.000000
     84         -4.879553   1.000000
     85         -4.848264   1.000000
     86         -4.844460   1.000000
     87         -4.755058   1.000000
     88         -4.750492   1.000000
     89         -4.734176   1.000000
     90         -4.284852   1.000000
     91         -4.258749   1.000000
     92         -4.257915   1.000000
     93         -4.255017   1.000000
     94         -4.076934   1.000000
     95         -4.075082   1.000000
     96         -3.892901   1.000000
     97         -3.722850   1.000000
     98         -3.719966   1.000000
     99         -3.698565   1.000000
    100         -2.860020   0.999541
    101         -2.842181   0.997523
    102         -2.744965   0.524072
    103         -2.743940   0.512525
    104         -2.675836   0.029053
    105         -2.674408   0.026478
    106         -2.514586   0.000000
    107         -2.198235   0.000000
    108         -2.196989   0.000000
    109          0.096708   0.000000
    110          0.219524   0.000000
    111          0.228342   0.000000
    112          0.229923   0.000000
    113          0.424897   0.000000
    114          0.427075   0.000000
    115          0.468612   0.000000
    116          0.469920   0.000000
    117          0.509199   0.000000
    118          0.510247   0.000000
    119          0.574530   0.000000
    120          0.581625   0.000000
    121          0.582735   0.000000
    122          0.619622   0.000000
    123          0.797433   0.000000
    124          0.932758   0.000000
    125          1.059762   0.000000
    126          1.060189   0.000000
    127          1.115892   0.000000
    128          1.262180   0.000000
    129          1.339813   0.000000
    130          1.343967   0.000000
    131          1.349026   0.000000
    132          1.382195   0.000000
 
 -0.2000000E+00  0.4000000E+00  0.1276756E-14  0.8000000E-01
      1        -37.461185   1.000000
      2        -37.447395   1.000000
      3        -37.447174   1.000000
      4        -37.409034   1.000000
      5        -37.408866   1.000000
      6        -37.381732   1.000000
      7        -37.298481   1.000000
      8        -37.279637   1.000000
      9        -37.279431   1.000000
     10        -37.271197   1.000000
     11        -37.270986   1.000000
     12        -37.264650   1.000000
     13        -37.264210   1.000000
     14        -37.255240   1.000000
     15        -37.255138   1.000000
     16        -37.254724   1.000000
     17        -37.254168   1.000000
     18        -37.249844   1.000000
     19        -37.235211   1.000000
     20        -37.227260   1.000000
     21        -37.226810   1.000000
     22        -37.223308   1.000000
     23        -37.222316   1.000000
     24        -37.221551   1.000000
     25        -37.210090   1.000000
     26        -37.194500   1.000000
     27        -37.193997   1.000000
     28        -16.330252   1.000000
     29        -16.326462   1.000000
     30        -16.067466   1.000000
     31        -15.447298   1.000000
     32        -15.167852   1.000000
     33        -15.164288   1.000000
     34        -15.050003   1.000000
     35        -15.049329   1.000000
     36        -15.015467   1.000000
     37        -14.984333   1.000000
     38        -14.980954   1.000000
     39        -14.972179   1.000000
     40        -14.786998   1.000000
     41        -14.701958   1.000000
     42        -14.700421   1.000000
     43        -14.672669   1.000000
     44        -14.654903   1.000000
     45        -14.653402   1.000000
     46         -8.381346   1.000000
     47         -8.178443   1.000000
     48         -8.176937   1.000000
     49         -7.795232   1.000000
     50         -7.792970   1.000000
     51         -7.759233   1.000000
     52         -7.758368   1.000000
     53         -7.559486   1.000000
     54         -7.510253   1.000000
     55         -7.249951   1.000000
     56         -7.247282   1.000000
     57         -7.133944   1.000000
     58         -7.049298   1.000000
     59         -7.046152   1.000000
     60         -6.740703   1.000000
     61         -6.680211   1.000000
     62         -6.603151   1.000000
     63         -6.522581   1.000000
     64         -6.520480   1.000000
     65         -6.510097   1.000000
     66         -6.476913   1.000000
     67         -6.474620   1.000000
     68         -6.232365   1.000000
     69         -6.228892   1.000000
     70         -5.653559   1.000000
     71         -5.652075   1.000000
     72         -5.649820   1.000000
     73         -5.639996   1.000000
     74         -5.636365   1.000000
     75         -5.622454   1.000000
     76         -5.621270   1.000000
     77         -5.301867   1.000000
     78         -5.300240   1.000000
     79         -5.286897   1.000000
     80         -5.285773   1.000000
     81         -5.221140   1.000000
     82         -4.966684   1.000000
     83         -4.881016   1.000000
     84         -4.879513   1.000000
     85         -4.848567   1.000000
     86         -4.844368   1.000000
     87         -4.753901   1.000000
     88         -4.750662   1.000000
     89         -4.734041   1.000000
     90         -4.284808   1.000000
     91         -4.258687   1.000000
     92         -4.257732   1.000000
     93         -4.255213   1.000000
     94         -4.076835   1.000000
     95         -4.074969   1.000000
     96         -3.893024   1.000000
     97         -3.722894   1.000000
     98         -3.719849   1.000000
     99         -3.698707   1.000000
    100         -2.860400   0.999558
    101         -2.841850   0.997450
    102         -2.745019   0.524686
    103         -2.744001   0.513207
    104         -2.675781   0.028951
    105         -2.674261   0.026225
    106         -2.514160   0.000000
    107         -2.198744   0.000000
    108         -2.196948   0.000000
    109          0.096293   0.000000
    110          0.219404   0.000000
    111          0.228460   0.000000
    112          0.229984   0.000000
    113          0.425110   0.000000
    114          0.426913   0.000000
    115          0.468533   0.000000
    116          0.470098   0.000000
    117          0.509239   0.000000
    118          0.511017   0.000000
    119          0.574808   0.000000
    120          0.581755   0.000000
    121          0.582785   0.000000
    122          0.619290   0.000000
    123          0.797243   0.000000
    124          0.933009   0.000000
    125          1.059455   0.000000
    126          1.060158   0.000000
    127          1.116094   0.000000
    128          1.261135   0.000000
    129          1.346011   0.000000
    130          1.347661   0.000000
    131          1.355762   0.000000
    132          1.396027   0.000000
