TaS2 phonon                             
           1
    10.015561    0.000000    0.000000
     5.007780    8.673730    0.000000
     0.000000    0.000000   20.000000
   Ta   S 
     9    18
Direct configuration=     1
   0.00000000  0.00000000  0.50000000
   0.33333333  0.00000000  0.50000000
   0.66666667  0.00000000  0.50000000
   0.00000000  0.33333333  0.50000000
   0.33333333  0.33333333  0.50000000
   0.66666667  0.33333333  0.50000000
   0.00000000  0.66666667  0.50000000
   0.33333333  0.66666667  0.50000000
   0.66666667  0.66666667  0.50000000
   0.11155819  0.11111111  0.42250924
   0.44444444  0.11111111  0.42206217
   0.77777778  0.11111111  0.42206217
   0.11111111  0.44444444  0.42206217
   0.44444444  0.44444444  0.42206217
   0.77777778  0.44444444  0.42206217
   0.11111111  0.77777778  0.42206217
   0.44444444  0.77777778  0.42206217
   0.77777778  0.77777778  0.42206217
   0.11111111  0.11111111  0.57793783
   0.44444444  0.11111111  0.57793783
   0.77777778  0.11111111  0.57793783
   0.11111111  0.44444444  0.57793783
   0.44444444  0.44444444  0.57793783
   0.77777778  0.44444444  0.57793783
   0.11111111  0.77777778  0.57793783
   0.44444444  0.77777778  0.57793783
   0.77777778  0.77777778  0.57793783
