Bilayer MoS2/GaN 2H (relaxed monolayers)
   1.00000000000000     
     3.1983354153403925    0.0000000000000000    0.0000000000000000
     1.5991677076701962    2.7698397195082336    0.0000000000000000
     0.0000000000000000    0.0000000000000000   20.0000000000000000
   Mo   S    Ga   N 
     1     2     1     1
Direct
     0.0000000000000000    0.0000000000000000    0.4784307287295629
     0.3333333333333357    0.3333333333333357    0.4007799789379486
     0.3333333333333357    0.3333333333333357    0.5560440280744949
     0.3333333333333357    0.3333333333333357    0.8573116410057259
    -0.0000000000000000   -0.0000000000000000    0.8574336232522503
 
  0.00000000E+00  0.00000000E+00  0.00000000E+00
  0.00000000E+00  0.00000000E+00  0.00000000E+00
  0.00000000E+00  0.00000000E+00  0.00000000E+00
  0.00000000E+00  0.00000000E+00  0.00000000E+00
  0.00000000E+00  0.00000000E+00  0.00000000E+00
