MoS2_GaN_2H phonon                      
           1
     9.595006    0.000000    0.000000
     4.797503    8.309519    0.000000
     0.000000    0.000000   20.000000
   Mo   S    Ga   N 
     9    18     9     9
Direct configuration=     1
   0.00000000  0.00000000  0.47843073
   0.33333333  0.00000000  0.47843073
   0.66666667  0.00000000  0.47843073
   0.00000000  0.33333333  0.47843073
   0.33333333  0.33333333  0.47843073
   0.66666667  0.33333333  0.47843073
   0.00000000  0.66666667  0.47843073
   0.33333333  0.66666667  0.47843073
   0.66666667  0.66666667  0.47843073
   0.11111111  0.11111111  0.40077998
   0.44444444  0.11111111  0.40077998
   0.77777778  0.11111111  0.40077998
   0.11111111  0.44444444  0.40077998
   0.44444444  0.44444444  0.40077998
   0.77777778  0.44444444  0.40077998
   0.11111111  0.77777778  0.40077998
   0.44444444  0.77777778  0.40077998
   0.77777778  0.77777778  0.40077998
   0.11111111  0.11111111  0.55604403
   0.44444444  0.11111111  0.55604403
   0.77777778  0.11111111  0.55604403
   0.11111111  0.44444444  0.55604403
   0.44444444  0.44444444  0.55604403
   0.77777778  0.44444444  0.55604403
   0.11111111  0.77777778  0.55604403
   0.44444444  0.77777778  0.55604403
   0.77777778  0.77777778  0.55604403
   0.11156192  0.11111111  0.85776245
   0.44444444  0.11111111  0.85731164
   0.77777778  0.11111111  0.85731164
   0.11111111  0.44444444  0.85731164
   0.44444444  0.44444444  0.85731164
   0.77777778  0.44444444  0.85731164
   0.11111111  0.77777778  0.85731164
   0.44444444  0.77777778  0.85731164
   0.77777778  0.77777778  0.85731164
   0.00000000  0.00000000  0.85743362
   0.33333333  0.00000000  0.85743362
   0.66666667  0.00000000  0.85743362
   0.00000000  0.33333333  0.85743362
   0.33333333  0.33333333  0.85743362
   0.66666667  0.33333333  0.85743362
   0.00000000  0.66666667  0.85743362
   0.33333333  0.66666667  0.85743362
   0.66666667  0.66666667  0.85743362
