generated by phonopy
   1.0
     9.5767137363913584    0.0000000000000000    0.0000000000000000
     4.7883568681956792    8.2936773804863044    0.0000000000000000
     0.0000000000000000    0.0000000000000000   20.0000000000000000
Mo S
   9   18
Direct
  0.0000000000000000  0.0000000000000000  0.5000000000000000
  0.3333333333333333  0.0000000000000000  0.5000000000000000
  0.6666666666666665  0.0000000000000000  0.5000000000000000
  0.0000000000000000  0.3333333333333333  0.5000000000000000
  0.3333333333333333  0.3333333333333333  0.5000000000000000
  0.6666666666666666  0.3333333333333333  0.5000000000000000
  0.0000000000000000  0.6666666666666666  0.5000000000000000
  0.3333333333333332  0.6666666666666666  0.5000000000000000
  0.6666666666666666  0.6666666666666666  0.5000000000000000
  0.1106601449472489  0.1111111111111119  0.4218464280195803
  0.4444444444444453  0.1111111111111119  0.4222973941834434
  0.7777777777777786  0.1111111111111119  0.4222973941834434
  0.1111111111111119  0.4444444444444452  0.4222973941834434
  0.4444444444444452  0.4444444444444452  0.4222973941834434
  0.7777777777777786  0.4444444444444452  0.4222973941834434
  0.1111111111111120  0.7777777777777786  0.4222973941834434
  0.4444444444444453  0.7777777777777786  0.4222973941834434
  0.7777777777777786  0.7777777777777786  0.4222973941834434
  0.1111111111111119  0.1111111111111119  0.5777026058165565
  0.4444444444444453  0.1111111111111119  0.5777026058165565
  0.7777777777777786  0.1111111111111119  0.5777026058165565
  0.1111111111111119  0.4444444444444452  0.5777026058165565
  0.4444444444444452  0.4444444444444452  0.5777026058165565
  0.7777777777777786  0.4444444444444452  0.5777026058165565
  0.1111111111111120  0.7777777777777786  0.5777026058165565
  0.4444444444444453  0.7777777777777786  0.5777026058165565
  0.7777777777777786  0.7777777777777786  0.5777026058165565
