cpu-bind=MASK - c002, task  0  0 [1233434]: mask 0xfffffffffff0 set
 running  264 mpi-ranks, with    1 threads/rank, on    6 nodes
 distrk:  each k-point on   44 cores,    6 groups
 distr:  one band on    4 cores,   11 groups
 vasp.6.5.1 10Mar25 (build Aug 29 2025 00:30:47) complex                        
  
 POSCAR found type information on POSCAR MoS 
 POSCAR found :  2 types and      27 ions
 scaLAPACK will be used
 LDA part: xc-table for (Slater+PW92), standard interpolation
 POSCAR, INCAR and KPOINTS ok, starting setup
 FFT: planning ... GRIDC
 FFT: planning ... GRID_SOFT
 FFT: planning ... GRID
 WAVECAR not read
 entering main loop
       N       E                     dE             d eps       ncg     rms          rms(c)
DAV:   1     0.202163836398E+04    0.20216E+04   -0.11608E+05  4642   0.132E+03
DAV:   2    -0.442457010163E+01   -0.20261E+04   -0.19894E+04  5049   0.301E+02
DAV:   3    -0.203506789242E+03   -0.19908E+03   -0.19698E+03  4301   0.880E+01
DAV:   4    -0.210264162827E+03   -0.67574E+01   -0.66979E+01  4862   0.160E+01
DAV:   5    -0.210460046278E+03   -0.19588E+00   -0.19526E+00  5291   0.261E+00    0.706E+01
DAV:   6    -0.200131797089E+03    0.10328E+02   -0.90736E+01  4103   0.252E+01    0.274E+01
DAV:   7    -0.198176442534E+03    0.19554E+01   -0.35379E+01  4136   0.158E+01    0.167E+01
DAV:   8    -0.196658663524E+03    0.15178E+01   -0.54960E+00  4521   0.682E+00    0.519E+00
DAV:   9    -0.196694297549E+03   -0.35634E-01   -0.82679E-01  4983   0.198E+00    0.260E+00
DAV:  10    -0.196643045742E+03    0.51252E-01   -0.22462E-01  4664   0.147E+00    0.852E-01
DAV:  11    -0.196634431145E+03    0.86146E-02   -0.35373E-02  4972   0.702E-01    0.533E-01
DAV:  12    -0.196623122187E+03    0.11309E-01   -0.10733E-02  4576   0.334E-01    0.200E-01
DAV:  13    -0.196621500293E+03    0.16219E-02   -0.19784E-03  4851   0.149E-01    0.113E-01
DAV:  14    -0.196619279669E+03    0.22206E-02   -0.13721E-03  4510   0.145E-01    0.105E-01
DAV:  15    -0.196614470366E+03    0.48093E-02   -0.29462E-03  4345   0.130E-01    0.110E-01
DAV:  16    -0.196610880547E+03    0.35898E-02   -0.22801E-03  4059   0.845E-02    0.783E-02
DAV:  17    -0.196606906050E+03    0.39745E-02   -0.17069E-03  4290   0.706E-02    0.649E-02
DAV:  18    -0.196607112454E+03   -0.20640E-03   -0.30677E-04  4906   0.700E-02    0.671E-02
DAV:  19    -0.196609004168E+03   -0.18917E-02   -0.26678E-04  4631   0.564E-02    0.474E-02
DAV:  20    -0.196614314515E+03   -0.53103E-02   -0.88932E-04  4422   0.425E-02    0.319E-02
DAV:  21    -0.196616561449E+03   -0.22469E-02   -0.22488E-04  4708   0.323E-02    0.240E-02
DAV:  22    -0.196617976486E+03   -0.14150E-02   -0.12951E-04  4620   0.341E-02    0.186E-02
DAV:  23    -0.196619118001E+03   -0.11415E-02   -0.11374E-04  4466   0.222E-02    0.156E-02
DAV:  24    -0.196619486653E+03   -0.36865E-03   -0.14368E-05  3894   0.671E-03    0.102E-02
DAV:  25    -0.196619676734E+03   -0.19008E-03   -0.74237E-06  3696   0.582E-03    0.486E-03
DAV:  26    -0.196619736121E+03   -0.59387E-04   -0.16336E-06  3267   0.433E-03    0.275E-03
DAV:  27    -0.196619795473E+03   -0.59352E-04   -0.20278E-06  3190   0.284E-03    0.157E-03
DAV:  28    -0.196619809932E+03   -0.14458E-04   -0.34141E-07  2992   0.882E-04    0.118E-03
DAV:  29    -0.196619814405E+03   -0.44731E-05   -0.63368E-08  2508   0.462E-04    0.638E-04
DAV:  30    -0.196619816556E+03   -0.21516E-05   -0.50222E-08  2321   0.384E-04    0.219E-04
DAV:  31    -0.196619817364E+03   -0.80721E-06   -0.21377E-08  2277   0.254E-04
   1 F= -.20505603E+03 E0= -.20505603E+03  d E =-.222521E-20
