Bilayer MoS2/WS2 2H (relaxed monolayers)
   1.00000000000000     
     3.1556299999999999    0.0000000000000000    0.0000000000000000
     1.5778150000000000    2.7328557449442878    0.0000000000000000
     0.0000000000000000    0.0000000000000000   20.0000000000000000
   Mo   S    W 
     1     4     1
Direct
     0.0000000000000000   -0.0000000000000000    0.4997296378967356
     0.3333333333333357    0.3333333333333357    0.4214379921754159
     0.3333333333333357    0.3333333333333357    0.5779306905541778
    -0.0000000000000000   -0.0000000000000000    0.7248717892369453
    -0.0000000000000000    0.0000000000000000    0.8825024509512315
     0.3333333333333357    0.3333333333333357    0.8036452411975443
 
  0.00000000E+00  0.00000000E+00  0.00000000E+00
  0.00000000E+00  0.00000000E+00  0.00000000E+00
  0.00000000E+00  0.00000000E+00  0.00000000E+00
  0.00000000E+00  0.00000000E+00  0.00000000E+00
  0.00000000E+00  0.00000000E+00  0.00000000E+00
  0.00000000E+00  0.00000000E+00  0.00000000E+00
