Bilayer WS2/TiS2 2H (relaxed monolayers)
   1.00000000000000     
     3.2219699999999998    0.0000000000000000    0.0000000000000000
     1.6109849999999999    2.7903078702313473    0.0000000000000000
     0.0000000000000000    0.0000000000000000   20.0000000000000000
   W    S    Ti
     1     4     1
Direct
     0.0000000000000000   -0.0000000000000000    0.5009606562751509
     0.3333333333333357    0.3333333333333357    0.4232866121638232
     0.3333333333333357    0.3333333333333357    0.5784640305658904
    -0.0000000000000000    0.0000000000000000    0.7252418179951838
    -0.0000000000000000   -0.0000000000000000    0.8781780846753340
     0.3333333333333357    0.3333333333333357    0.8016639080235207
 
  0.00000000E+00  0.00000000E+00  0.00000000E+00
  0.00000000E+00  0.00000000E+00  0.00000000E+00
  0.00000000E+00  0.00000000E+00  0.00000000E+00
  0.00000000E+00  0.00000000E+00  0.00000000E+00
  0.00000000E+00  0.00000000E+00  0.00000000E+00
  0.00000000E+00  0.00000000E+00  0.00000000E+00
