Bilayer structure
 1.0000000000000000
  3.2835830000000001   0.0000000000000000   0.0000000000000000
  1.6417915000000001   2.8436662934347186   0.0000000000000000
  0.0000000000000000   0.0000000000000000  20.0000000000000000
   Mo   Se
     2     4
Direct
  0.0000000000000000   0.0000000000000000   0.5000000000000000
  0.3333333333333333   0.3333333333333333   0.8194526000000001
  0.3333333333333333   0.3333333333333333   0.4161737000000000
  0.3333333333333333   0.3333333333333333   0.5838263000000000
  0.6666666666666666   0.6666666666666666   0.7356263000000001
  0.6666666666666666   0.6666666666666666   0.9032789000000001
