Bilayer MoS2/MoTe2 2H (relaxed monolayer
    1.000000000000000     
     3.3181600000000002    0.0000000000000000    0.0000000000000000
     1.6590800000000001    2.8736108538213729    0.0000000000000000
     0.0000000000000000    0.0000000000000000   20.0000000000000000
  Mo              S               Te            
     2     2     2
Direct
     0.0000000000000000    0.0000000000000000    0.4982931921112889
     0.3333333333333357    0.3333333333333357    0.8208445699167317
     0.3333333333333357    0.3333333333333357    0.4226550260324266
     0.3333333333333357    0.3333333333333357    0.5739833375966571
     0.0000000000000000    0.0000000000000000    0.7260415270696995
    -0.0000000000000000    0.0000000000000000    0.9154791458560785
 
  0.00000000E+00  0.00000000E+00  0.00000000E+00
  0.00000000E+00  0.00000000E+00  0.00000000E+00
  0.00000000E+00  0.00000000E+00  0.00000000E+00
  0.00000000E+00  0.00000000E+00  0.00000000E+00
  0.00000000E+00  0.00000000E+00  0.00000000E+00
  0.00000000E+00  0.00000000E+00  0.00000000E+00
