generated by phonopy                    
   1.00000000000000     
     7.4018737848092480    0.0000000000000000    0.0000000000000000
     3.7009368924046240    6.4102107332508798    0.0000000000000000
     0.0000000000000000    0.0000000000000000   20.0000000000000000
   C 
    18
Direct
     0.0004689166220970    0.0000000000000000    0.5004689166220970
     0.3333333333333357    0.0000000000000000    0.5000000000000000
     0.6666666666666643    0.0000000000000000    0.5000000000000000
     0.0000000000000000    0.3333333333333357    0.5000000000000000
     0.3333333333333357    0.3333333333333357    0.5000000000000000
     0.6666666666666643    0.3333333333333357    0.5000000000000000
     0.0000000000000000    0.6666666666666643    0.5000000000000000
     0.3333333333333357    0.6666666666666643    0.5000000000000000
     0.6666666666666643    0.6666666666666643    0.5000000000000000
     0.1111111111111143    0.1111111111111143    0.5000000000000000
     0.4444444444444429    0.1111111111111143    0.5000000000000000
     0.7777777777777786    0.1111111111111143    0.5000000000000000
     0.1111111111111143    0.4444444444444429    0.5000000000000000
     0.4444444444444429    0.4444444444444429    0.5000000000000000
     0.7777777777777786    0.4444444444444429    0.5000000000000000
     0.1111111111111143    0.7777777777777786    0.5000000000000000
     0.4444444444444429    0.7777777777777786    0.5000000000000000
     0.7777777777777786    0.7777777777777786    0.5000000000000000
 
  0.00000000E+00  0.00000000E+00  0.00000000E+00
  0.00000000E+00  0.00000000E+00  0.00000000E+00
  0.00000000E+00  0.00000000E+00  0.00000000E+00
  0.00000000E+00  0.00000000E+00  0.00000000E+00
  0.00000000E+00  0.00000000E+00  0.00000000E+00
  0.00000000E+00  0.00000000E+00  0.00000000E+00
  0.00000000E+00  0.00000000E+00  0.00000000E+00
  0.00000000E+00  0.00000000E+00  0.00000000E+00
  0.00000000E+00  0.00000000E+00  0.00000000E+00
  0.00000000E+00  0.00000000E+00  0.00000000E+00
  0.00000000E+00  0.00000000E+00  0.00000000E+00
  0.00000000E+00  0.00000000E+00  0.00000000E+00
  0.00000000E+00  0.00000000E+00  0.00000000E+00
  0.00000000E+00  0.00000000E+00  0.00000000E+00
  0.00000000E+00  0.00000000E+00  0.00000000E+00
  0.00000000E+00  0.00000000E+00  0.00000000E+00
  0.00000000E+00  0.00000000E+00  0.00000000E+00
  0.00000000E+00  0.00000000E+00  0.00000000E+00
