cpu-bind=MASK - c019, task  0  0 [556576]: mask 0xfffffffffff0 set
 running  264 mpi-ranks, with    1 threads/rank, on    6 nodes
 distrk:  each k-point on   44 cores,    6 groups
 distr:  one band on    4 cores,   11 groups
 vasp.6.5.1 10Mar25 (build Aug 29 2025 00:30:47) complex                        
  
 POSCAR found type information on POSCAR C 
 POSCAR found :  1 types and      18 ions
 scaLAPACK will be used
 LDA part: xc-table for (Slater+PW92), standard interpolation
 POSCAR, INCAR and KPOINTS ok, starting setup
 FFT: planning ... GRIDC
 FFT: planning ... GRID_SOFT
 FFT: planning ... GRID
 WAVECAR not read
 entering main loop
       N       E                     dE             d eps       ncg     rms          rms(c)
DAV:   1     0.641882211766E+03    0.64188E+03   -0.25875E+04  1551   0.955E+02
DAV:   2    -0.584161883813E+02   -0.70030E+03   -0.67094E+03  2266   0.227E+02
DAV:   3    -0.173990285589E+03   -0.11557E+03   -0.11520E+03  1815   0.102E+02
DAV:   4    -0.177342587149E+03   -0.33523E+01   -0.33378E+01  1804   0.226E+01
DAV:   5    -0.177440313233E+03   -0.97726E-01   -0.97598E-01  2046   0.352E+00    0.189E+01
DAV:   6    -0.169287142831E+03    0.81532E+01   -0.74385E+00  1727   0.882E+00    0.111E+01
DAV:   7    -0.166131781583E+03    0.31554E+01   -0.10219E+01  1705   0.101E+01    0.285E+00
DAV:   8    -0.166068543764E+03    0.63238E-01   -0.24052E-01  1804   0.170E+00    0.288E-01
DAV:   9    -0.166055855204E+03    0.12689E-01   -0.12775E-02  1925   0.372E-01    0.230E-01
DAV:  10    -0.166007732133E+03    0.48123E-01   -0.25597E-02  1595   0.380E-01    0.174E-01
DAV:  11    -0.166004323392E+03    0.34087E-02   -0.54582E-03  1507   0.206E-01    0.122E-01
DAV:  12    -0.166005117351E+03   -0.79396E-03   -0.19837E-03  1463   0.142E-01    0.702E-02
DAV:  13    -0.166009179883E+03   -0.40625E-02   -0.98882E-04  1595   0.785E-02    0.646E-02
DAV:  14    -0.166012349768E+03   -0.31699E-02   -0.23890E-03  1529   0.102E-01    0.509E-02
DAV:  15    -0.166013620815E+03   -0.12710E-02   -0.37255E-04  1595   0.547E-02    0.503E-02
DAV:  16    -0.166016027997E+03   -0.24072E-02   -0.48686E-04  1430   0.640E-02    0.321E-02
DAV:  17    -0.166016911198E+03   -0.88320E-03   -0.27753E-05  1452   0.206E-02    0.158E-02
DAV:  18    -0.166017996399E+03   -0.10852E-02   -0.38466E-05  1496   0.192E-02    0.888E-03
DAV:  19    -0.166018370630E+03   -0.37423E-03   -0.94244E-06  1287   0.998E-03    0.264E-03
DAV:  20    -0.166018495915E+03   -0.12529E-03   -0.16222E-06  1331   0.394E-03    0.164E-03
DAV:  21    -0.166018516089E+03   -0.20174E-04   -0.39281E-07  1122   0.203E-03    0.333E-04
DAV:  22    -0.166018522309E+03   -0.62203E-05   -0.61904E-08  1144   0.843E-04    0.152E-04
DAV:  23    -0.166018524155E+03   -0.18453E-05   -0.14829E-08  1067   0.390E-04    0.908E-05
DAV:  24    -0.166018524503E+03   -0.34789E-06   -0.31956E-09  1089   0.202E-04
   1 F= -.16761309E+03 E0= -.16761085E+03  d E =-.448994E-02
