generated by phonopy
   1.0
     7.5056654524739645    0.0000000000000000    0.0000000000000000
     3.7528327262369823    6.5000969541496758    0.0000000000000000
     0.0000000000000000    0.0000000000000000   20.0000000000000000
B N
   9    9
Direct
  0.0000000000000000  0.0000000000000000  0.5000000000000000
  0.3333333333333333  0.0000000000000000  0.5000000000000000
  0.6666666666666666  0.0000000000000000  0.5000000000000000
  0.0000000000000000  0.3333333333333333  0.5000000000000000
  0.3333333333333334  0.3333333333333333  0.5000000000000000
  0.6666666666666666  0.3333333333333333  0.5000000000000000
  0.0000000000000000  0.6666666666666666  0.5000000000000000
  0.3333333333333333  0.6666666666666666  0.5000000000000000
  0.6666666666666667  0.6666666666666666  0.5000000000000000
  0.1115792320890153  0.1111111111111119  0.5004681209779034
  0.4444444444444451  0.1111111111111119  0.5000000000000000
  0.7777777777777786  0.1111111111111119  0.5000000000000000
  0.1111111111111119  0.4444444444444452  0.5000000000000000
  0.4444444444444453  0.4444444444444452  0.5000000000000000
  0.7777777777777785  0.4444444444444452  0.5000000000000000
  0.1111111111111119  0.7777777777777786  0.5000000000000000
  0.4444444444444452  0.7777777777777786  0.5000000000000000
  0.7777777777777786  0.7777777777777786  0.5000000000000000
