cpu-bind=MASK - c185, task  0  0 [2625857]: mask 0x7ffefffefffe set
 running  264 mpi-ranks, with    1 threads/rank, on    6 nodes
 distrk:  each k-point on   44 cores,    6 groups
 distr:  one band on    4 cores,   11 groups
 vasp.6.5.1 10Mar25 (build Aug 29 2025 00:30:47) complex                        
  
 POSCAR found type information on POSCAR B N 
 POSCAR found :  2 types and      18 ions
 scaLAPACK will be used
 LDA part: xc-table for (Slater+PW92), standard interpolation
 POSCAR, INCAR and KPOINTS ok, starting setup
 FFT: planning ... GRIDC
 FFT: planning ... GRID_SOFT
 FFT: planning ... GRID
 WAVECAR not read
 entering main loop
       N       E                     dE             d eps       ncg     rms          rms(c)
DAV:   1     0.672265336606E+03    0.67227E+03   -0.25882E+04  1595   0.948E+02
DAV:   2    -0.356655262140E+02   -0.70793E+03   -0.67821E+03  2255   0.228E+02
DAV:   3    -0.170752283361E+03   -0.13509E+03   -0.13424E+03  1705   0.114E+02
DAV:   4    -0.175827467641E+03   -0.50752E+01   -0.50574E+01  1782   0.290E+01
DAV:   5    -0.175942642754E+03   -0.11518E+00   -0.11511E+00  1881   0.379E+00    0.241E+01
DAV:   6    -0.160906266496E+03    0.15036E+02   -0.40455E+01  1760   0.228E+01    0.108E+01
DAV:   7    -0.159297816290E+03    0.16085E+01   -0.37033E+00  1826   0.643E+00    0.673E+00
DAV:   8    -0.158490803456E+03    0.80701E+00   -0.21102E+00  1892   0.478E+00    0.135E+00
DAV:   9    -0.158447688243E+03    0.43115E-01   -0.16366E-01  1793   0.149E+00    0.492E-01
DAV:  10    -0.158403627133E+03    0.44061E-01   -0.17266E-02  1738   0.442E-01    0.226E-01
DAV:  11    -0.158361395225E+03    0.42232E-01   -0.15757E-02  1496   0.407E-01    0.229E-01
DAV:  12    -0.158341971072E+03    0.19424E-01   -0.11951E-02  1529   0.305E-01    0.101E-01
DAV:  13    -0.158352393730E+03   -0.10423E-01   -0.54117E-03  1496   0.246E-01    0.157E-01
DAV:  14    -0.158352433819E+03   -0.40089E-04   -0.30795E-03  1540   0.177E-01    0.629E-02
DAV:  15    -0.158354907072E+03   -0.24733E-02   -0.14522E-03  1529   0.111E-01    0.536E-02
DAV:  16    -0.158355744082E+03   -0.83701E-03   -0.99655E-04  1595   0.913E-02    0.650E-02
DAV:  17    -0.158358013564E+03   -0.22695E-02   -0.27730E-04  1529   0.568E-02    0.243E-02
DAV:  18    -0.158360221628E+03   -0.22081E-02   -0.49453E-05  1496   0.306E-02    0.246E-02
DAV:  19    -0.158360927319E+03   -0.70569E-03   -0.20095E-05  1496   0.151E-02    0.141E-02
DAV:  20    -0.158361347652E+03   -0.42033E-03   -0.15137E-05  1430   0.152E-02    0.311E-03
DAV:  21    -0.158361470076E+03   -0.12242E-03   -0.18031E-06  1320   0.657E-03    0.214E-03
DAV:  22    -0.158361537456E+03   -0.67379E-04   -0.12739E-06  1287   0.330E-03    0.189E-03
DAV:  23    -0.158361547103E+03   -0.96471E-05   -0.11714E-07  1166   0.131E-03    0.851E-04
DAV:  24    -0.158361551378E+03   -0.42755E-05   -0.68166E-08  1023   0.930E-04    0.106E-04
DAV:  25    -0.158361552183E+03   -0.80464E-06   -0.13670E-08  1122   0.450E-04
   1 F= -.15975729E+03 E0= -.15975729E+03  d E =-.667901E-11
