BN phonon                               
           1
     7.505665    0.000000    0.000000
     3.752833    6.500097    0.000000
     0.000000    0.000000   20.000000
   B    N 
     9     9
Direct configuration=     1
   0.00000000  0.00000000  0.50000000
   0.33333333  0.00000000  0.50000000
   0.66666667  0.00000000  0.50000000
   0.00000000  0.33333333  0.50000000
   0.33333333  0.33333333  0.50000000
   0.66666667  0.33333333  0.50000000
   0.00000000  0.66666667  0.50000000
   0.33333333  0.66666667  0.50000000
   0.66666667  0.66666667  0.50000000
   0.11157923  0.11111111  0.50046812
   0.44444444  0.11111111  0.50000000
   0.77777778  0.11111111  0.50000000
   0.11111111  0.44444444  0.50000000
   0.44444444  0.44444444  0.50000000
   0.77777778  0.44444444  0.50000000
   0.11111111  0.77777778  0.50000000
   0.44444444  0.77777778  0.50000000
   0.77777778  0.77777778  0.50000000
