Te2 Mo1                                 
   1.00000000000000     
     3.5029591714873640    0.0000000000000000    0.0000000000000000
     1.7514795857436820    3.0336516309277468    0.0000000000000000
     0.0000000000000000    0.0000000000000000   20.7223200796868881
   Mo   Te
     1     2
Direct
     0.0000000000000000    0.0000000000000000    0.5000000000000000
     0.3333333333333357    0.3333333333333357    0.4122540456201581
     0.3333333333333357    0.3333333333333357    0.5877459543798492
 
  0.00000000E+00  0.00000000E+00  0.00000000E+00
  0.00000000E+00  0.00000000E+00  0.00000000E+00
  0.00000000E+00  0.00000000E+00  0.00000000E+00
