Bilayer MoSe2/WSe2 3R (relaxed monolayer
   1.00000000000000     
     3.3017577650387437    0.0000000000000000    0.0000000000000000
     1.6508788825193719    2.8594061016660834    0.0000000000000000
     0.0000000000000000    0.0000000000000000   20.0000000000000000
   Mo   Se   W 
     1     4     1
Direct
    -0.0000000000000000   -0.0000000000000000    0.5034859559124600
     0.3333333333333357    0.3333333333333357    0.4199681682401289
     0.3333333333333357    0.3333333333333357    0.5868217667086176
     0.6666666666666714    0.6666666666666714    0.7375613379257592
     0.6666666666666714    0.6666666666666714    0.9056008784640985
     0.3333333333333357    0.3333333333333357    0.8215618927489556
 
  0.00000000E+00  0.00000000E+00  0.00000000E+00
  0.00000000E+00  0.00000000E+00  0.00000000E+00
  0.00000000E+00  0.00000000E+00  0.00000000E+00
  0.00000000E+00  0.00000000E+00  0.00000000E+00
  0.00000000E+00  0.00000000E+00  0.00000000E+00
  0.00000000E+00  0.00000000E+00  0.00000000E+00
