  54  54   0   0
  0.3295884E+02  0.1013684E-08  0.1013684E-08  0.2000000E-08  0.5000000E-15
  1.000000000000000E-004
  CAR 
 MoS2_MoTe2_3R phonon                    
      9.62918068    -61.73045433  301      3.52423514      1.00000000
    -61.730  0.0000E+00  0.0000E+00
    -61.493  0.0000E+00  0.0000E+00
    -61.255  0.0000E+00  0.0000E+00
    -61.017  0.0000E+00  0.0000E+00
    -60.779  0.0000E+00  0.0000E+00
    -60.541  0.0000E+00  0.0000E+00
    -60.303  0.0000E+00  0.0000E+00
    -60.065  0.0000E+00  0.0000E+00
    -59.828  0.0000E+00  0.0000E+00
    -59.590  0.0000E+00  0.0000E+00
    -59.352  0.0000E+00  0.0000E+00
    -59.114  0.0000E+00  0.0000E+00
    -58.876  0.0000E+00  0.0000E+00
    -58.638  0.1747E-03  0.4155E-04
    -58.400  0.7422E+02  0.1766E+02
    -58.162  0.1450E+01  0.1800E+02
    -57.925  0.0000E+00  0.1800E+02
    -57.687  0.0000E+00  0.1800E+02
    -57.449  0.1307E-15  0.1800E+02
    -57.211  0.1984E+01  0.1847E+02
    -56.973  0.7369E+02  0.3600E+02
    -56.735  0.0000E+00  0.3600E+02
    -56.497  0.0000E+00  0.3600E+02
    -56.260  0.0000E+00  0.3600E+02
    -56.022  0.0000E+00  0.3600E+02
    -55.784  0.0000E+00  0.3600E+02
    -55.546  0.0000E+00  0.3600E+02
    -55.308  0.0000E+00  0.3600E+02
    -55.070  0.0000E+00  0.3600E+02
    -54.832  0.0000E+00  0.3600E+02
    -54.594  0.0000E+00  0.3600E+02
    -54.357  0.0000E+00  0.3600E+02
    -54.119  0.0000E+00  0.3600E+02
    -53.881  0.0000E+00  0.3600E+02
    -53.643  0.0000E+00  0.3600E+02
    -53.405  0.0000E+00  0.3600E+02
    -53.167  0.0000E+00  0.3600E+02
    -52.929  0.0000E+00  0.3600E+02
    -52.692  0.0000E+00  0.3600E+02
    -52.454  0.0000E+00  0.3600E+02
    -52.216  0.0000E+00  0.3600E+02
    -51.978  0.0000E+00  0.3600E+02
    -51.740  0.0000E+00  0.3600E+02
    -51.502  0.0000E+00  0.3600E+02
    -51.264  0.0000E+00  0.3600E+02
    -51.027  0.0000E+00  0.3600E+02
    -50.789  0.0000E+00  0.3600E+02
    -50.551  0.0000E+00  0.3600E+02
    -50.313  0.0000E+00  0.3600E+02
    -50.075  0.0000E+00  0.3600E+02
    -49.837  0.0000E+00  0.3600E+02
    -49.599  0.0000E+00  0.3600E+02
    -49.361  0.0000E+00  0.3600E+02
    -49.124  0.0000E+00  0.3600E+02
    -48.886  0.0000E+00  0.3600E+02
    -48.648  0.0000E+00  0.3600E+02
    -48.410  0.0000E+00  0.3600E+02
    -48.172  0.0000E+00  0.3600E+02
    -47.934  0.0000E+00  0.3600E+02
    -47.696  0.0000E+00  0.3600E+02
    -47.459  0.0000E+00  0.3600E+02
    -47.221  0.0000E+00  0.3600E+02
    -46.983  0.0000E+00  0.3600E+02
    -46.745  0.0000E+00  0.3600E+02
    -46.507  0.0000E+00  0.3600E+02
    -46.269  0.0000E+00  0.3600E+02
    -46.031  0.0000E+00  0.3600E+02
    -45.793  0.0000E+00  0.3600E+02
    -45.556  0.0000E+00  0.3600E+02
    -45.318  0.0000E+00  0.3600E+02
    -45.080  0.0000E+00  0.3600E+02
    -44.842  0.0000E+00  0.3600E+02
    -44.604  0.0000E+00  0.3600E+02
    -44.366  0.0000E+00  0.3600E+02
    -44.128  0.0000E+00  0.3600E+02
    -43.891  0.0000E+00  0.3600E+02
    -43.653  0.0000E+00  0.3600E+02
    -43.415  0.0000E+00  0.3600E+02
    -43.177  0.0000E+00  0.3600E+02
    -42.939  0.0000E+00  0.3600E+02
    -42.701  0.0000E+00  0.3600E+02
    -42.463  0.0000E+00  0.3600E+02
    -42.225  0.0000E+00  0.3600E+02
    -41.988  0.0000E+00  0.3600E+02
    -41.750  0.0000E+00  0.3600E+02
    -41.512  0.0000E+00  0.3600E+02
    -41.274  0.0000E+00  0.3600E+02
    -41.036  0.0000E+00  0.3600E+02
    -40.798  0.0000E+00  0.3600E+02
    -40.560  0.0000E+00  0.3600E+02
    -40.323  0.0000E+00  0.3600E+02
    -40.085  0.0000E+00  0.3600E+02
    -39.847  0.0000E+00  0.3600E+02
    -39.609  0.0000E+00  0.3600E+02
    -39.371  0.0000E+00  0.3600E+02
    -39.133  0.0000E+00  0.3600E+02
    -38.895  0.0000E+00  0.3600E+02
    -38.658  0.0000E+00  0.3600E+02
    -38.420  0.0000E+00  0.3600E+02
    -38.182  0.0000E+00  0.3600E+02
    -37.944  0.0000E+00  0.3600E+02
    -37.706  0.0000E+00  0.3600E+02
    -37.468  0.0000E+00  0.3600E+02
    -37.230  0.0000E+00  0.3600E+02
    -36.992  0.0000E+00  0.3600E+02
    -36.755  0.0000E+00  0.3600E+02
    -36.517  0.0000E+00  0.3600E+02
    -36.279  0.0000E+00  0.3600E+02
    -36.041  0.0000E+00  0.3600E+02
    -35.803  0.0000E+00  0.3600E+02
    -35.565  0.0000E+00  0.3600E+02
    -35.327  0.0000E+00  0.3600E+02
    -35.090  0.0000E+00  0.3600E+02
    -34.852  0.0000E+00  0.3600E+02
    -34.614  0.0000E+00  0.3600E+02
    -34.376  0.0000E+00  0.3600E+02
    -34.138  0.0000E+00  0.3600E+02
    -33.900  0.0000E+00  0.3600E+02
    -33.662  0.0000E+00  0.3600E+02
    -33.424  0.0000E+00  0.3600E+02
    -33.187  0.0000E+00  0.3600E+02
    -32.949  0.8184E-11  0.3600E+02
    -32.711  0.8566E+01  0.3804E+02
    -32.473  0.1870E+03  0.8251E+02
    -32.235  0.3147E+02  0.9000E+02
    -31.997  0.0000E+00  0.9000E+02
    -31.759  0.0000E+00  0.9000E+02
    -31.522  0.5466E-02  0.9000E+02
    -31.284  0.1161E+03  0.1176E+03
    -31.046  0.1109E+03  0.1440E+03
    -30.808  0.2490E-01  0.1440E+03
    -30.570  0.0000E+00  0.1440E+03
    -30.332  0.0000E+00  0.1440E+03
    -30.094  0.0000E+00  0.1440E+03
    -29.856  0.0000E+00  0.1440E+03
    -29.619  0.0000E+00  0.1440E+03
    -29.381  0.0000E+00  0.1440E+03
    -29.143  0.0000E+00  0.1440E+03
    -28.905  0.0000E+00  0.1440E+03
    -28.667  0.0000E+00  0.1440E+03
    -28.429  0.0000E+00  0.1440E+03
    -28.191  0.0000E+00  0.1440E+03
    -27.954  0.0000E+00  0.1440E+03
    -27.716  0.0000E+00  0.1440E+03
    -27.478  0.0000E+00  0.1440E+03
    -27.240  0.0000E+00  0.1440E+03
    -27.002  0.0000E+00  0.1440E+03
    -26.764  0.0000E+00  0.1440E+03
    -26.526  0.0000E+00  0.1440E+03
    -26.289  0.0000E+00  0.1440E+03
    -26.051  0.0000E+00  0.1440E+03
    -25.813  0.0000E+00  0.1440E+03
    -25.575  0.0000E+00  0.1440E+03
    -25.337  0.0000E+00  0.1440E+03
    -25.099  0.0000E+00  0.1440E+03
    -24.861  0.0000E+00  0.1440E+03
    -24.623  0.0000E+00  0.1440E+03
    -24.386  0.0000E+00  0.1440E+03
    -24.148  0.0000E+00  0.1440E+03
    -23.910  0.0000E+00  0.1440E+03
    -23.672  0.0000E+00  0.1440E+03
    -23.434  0.0000E+00  0.1440E+03
    -23.196  0.0000E+00  0.1440E+03
    -22.958  0.0000E+00  0.1440E+03
    -22.721  0.0000E+00  0.1440E+03
    -22.483  0.0000E+00  0.1440E+03
    -22.245  0.0000E+00  0.1440E+03
    -22.007  0.0000E+00  0.1440E+03
    -21.769  0.0000E+00  0.1440E+03
    -21.531  0.0000E+00  0.1440E+03
    -21.293  0.0000E+00  0.1440E+03
    -21.055  0.0000E+00  0.1440E+03
    -20.818  0.0000E+00  0.1440E+03
    -20.580  0.0000E+00  0.1440E+03
    -20.342  0.0000E+00  0.1440E+03
    -20.104  0.0000E+00  0.1440E+03
    -19.866  0.0000E+00  0.1440E+03
    -19.628  0.0000E+00  0.1440E+03
    -19.390  0.0000E+00  0.1440E+03
    -19.153  0.0000E+00  0.1440E+03
    -18.915  0.0000E+00  0.1440E+03
    -18.677  0.0000E+00  0.1440E+03
    -18.439  0.0000E+00  0.1440E+03
    -18.201  0.0000E+00  0.1440E+03
    -17.963  0.0000E+00  0.1440E+03
    -17.725  0.0000E+00  0.1440E+03
    -17.487  0.0000E+00  0.1440E+03
    -17.250  0.0000E+00  0.1440E+03
    -17.012  0.0000E+00  0.1440E+03
    -16.774  0.0000E+00  0.1440E+03
    -16.536  0.0000E+00  0.1440E+03
    -16.298  0.0000E+00  0.1440E+03
    -16.060  0.0000E+00  0.1440E+03
    -15.822  0.0000E+00  0.1440E+03
    -15.585  0.0000E+00  0.1440E+03
    -15.347  0.0000E+00  0.1440E+03
    -15.109  0.0000E+00  0.1440E+03
    -14.871  0.0000E+00  0.1440E+03
    -14.633  0.0000E+00  0.1440E+03
    -14.395  0.0000E+00  0.1440E+03
    -14.157  0.0000E+00  0.1440E+03
    -13.919  0.0000E+00  0.1440E+03
    -13.682  0.0000E+00  0.1440E+03
    -13.444  0.0000E+00  0.1440E+03
    -13.206  0.0000E+00  0.1440E+03
    -12.968  0.0000E+00  0.1440E+03
    -12.730  0.0000E+00  0.1440E+03
    -12.492  0.0000E+00  0.1440E+03
    -12.254  0.0000E+00  0.1440E+03
    -12.017  0.0000E+00  0.1440E+03
    -11.779  0.0000E+00  0.1440E+03
    -11.541  0.0000E+00  0.1440E+03
    -11.303  0.7434E-03  0.1440E+03
    -11.065  0.3156E+01  0.1448E+03
    -10.827  0.6916E+01  0.1464E+03
    -10.589  0.7501E+01  0.1482E+03
    -10.352  0.8080E+01  0.1501E+03
    -10.114  0.1056E+02  0.1526E+03
     -9.876  0.1905E+02  0.1571E+03
     -9.638  0.3380E+02  0.1652E+03
     -9.400  0.2933E+02  0.1722E+03
     -9.162  0.4248E+02  0.1823E+03
     -8.924  0.3056E+01  0.1830E+03
     -8.686  0.9751E+01  0.1853E+03
     -8.449  0.9788E+01  0.1876E+03
     -8.211  0.1229E+02  0.1906E+03
     -7.973  0.9008E+01  0.1927E+03
     -7.735  0.1595E+02  0.1965E+03
     -7.497  0.1392E+02  0.1998E+03
     -7.259  0.1786E+02  0.2041E+03
     -7.021  0.2891E+02  0.2109E+03
     -6.784  0.1951E+02  0.2156E+03
     -6.546  0.1785E+01  0.2160E+03
     -6.308  0.0000E+00  0.2160E+03
     -6.070  0.0000E+00  0.2160E+03
     -5.832  0.0000E+00  0.2160E+03
     -5.594  0.0000E+00  0.2160E+03
     -5.356  0.0000E+00  0.2160E+03
     -5.118  0.0000E+00  0.2160E+03
     -4.881  0.0000E+00  0.2160E+03
     -4.643  0.0000E+00  0.2160E+03
     -4.405  0.0000E+00  0.2160E+03
     -4.167  0.0000E+00  0.2160E+03
     -3.929  0.0000E+00  0.2160E+03
     -3.691  0.0000E+00  0.2160E+03
     -3.453  0.0000E+00  0.2160E+03
     -3.216  0.0000E+00  0.2160E+03
     -2.978  0.7981E-03  0.2160E+03
     -2.740  0.5756E+01  0.2174E+03
     -2.502  0.2512E+02  0.2233E+03
     -2.264  0.5089E+02  0.2354E+03
     -2.026  0.1828E+02  0.2398E+03
     -1.788  0.2505E+02  0.2458E+03
     -1.550  0.4138E+02  0.2556E+03
     -1.313  0.5930E+02  0.2697E+03
     -1.075  0.4972E+02  0.2815E+03
     -0.837  0.3353E+02  0.2895E+03
     -0.599  0.2916E+02  0.2964E+03
     -0.361  0.5116E+02  0.3086E+03
     -0.123  0.4910E+02  0.3203E+03
      0.115  0.6571E+02  0.3359E+03
      0.352  0.4739E+02  0.3472E+03
      0.590  0.3897E+02  0.3565E+03
      0.828  0.3640E+02  0.3651E+03
      1.066  0.3813E+02  0.3742E+03
      1.304  0.3314E+02  0.3821E+03
      1.542  0.4642E+02  0.3931E+03
      1.780  0.5857E+02  0.4070E+03
      2.017  0.5739E+02  0.4207E+03
      2.255  0.5668E+02  0.4342E+03
      2.493  0.3691E+02  0.4430E+03
      2.731  0.2578E+02  0.4491E+03
      2.969  0.1849E+02  0.4535E+03
      3.207  0.2904E+02  0.4604E+03
      3.445  0.2934E+02  0.4674E+03
      3.683  0.6023E+01  0.4688E+03
      3.920  0.3449E+01  0.4696E+03
      4.158  0.1139E+02  0.4723E+03
      4.396  0.2958E+02  0.4794E+03
      4.634  0.4348E+02  0.4897E+03
      4.872  0.5904E+02  0.5038E+03
      5.110  0.6163E+02  0.5184E+03
      5.348  0.5391E+02  0.5312E+03
      5.585  0.5888E+02  0.5452E+03
      5.823  0.5046E+02  0.5573E+03
      6.061  0.4641E+02  0.5683E+03
      6.299  0.1398E+02  0.5716E+03
      6.537  0.1613E+01  0.5720E+03
      6.775  0.6119E-05  0.5720E+03
      7.013  0.0000E+00  0.5720E+03
      7.251  0.0000E+00  0.5720E+03
      7.488  0.0000E+00  0.5720E+03
      7.726  0.0000E+00  0.5720E+03
      7.964  0.0000E+00  0.5720E+03
      8.202  0.0000E+00  0.5720E+03
      8.440  0.0000E+00  0.5720E+03
      8.678  0.0000E+00  0.5720E+03
      8.916  0.0000E+00  0.5720E+03
      9.153  0.0000E+00  0.5720E+03
      9.391  0.0000E+00  0.5720E+03
      9.629  0.0000E+00  0.5720E+03
