       N       E                     dE             d eps       ncg     rms          rms(c)
DAV:   1     0.395709447598E+04    0.39571E+04   -0.24377E+05  9064   0.143E+03
DAV:   2    -0.468948896714E+02   -0.40040E+04   -0.38914E+04  8998   0.336E+02
DAV:   3    -0.360013081114E+03   -0.31312E+03   -0.30612E+03  8987   0.805E+01
DAV:   4    -0.375232487941E+03   -0.15219E+02   -0.15067E+02 10175   0.161E+01
DAV:   5    -0.375741485554E+03   -0.50900E+00   -0.50600E+00 10307   0.295E+00    0.785E+01
DAV:   6    -0.360854469114E+03    0.14887E+02   -0.14580E+02  8371   0.203E+01    0.353E+01
DAV:   7    -0.360067038789E+03    0.78743E+00   -0.10223E+02  8393   0.164E+01    0.223E+01
DAV:   8    -0.354353267398E+03    0.57138E+01   -0.14573E+01  8261   0.705E+00    0.866E+00
DAV:   9    -0.354174534740E+03    0.17873E+00   -0.39520E+00  9834   0.295E+00    0.508E+00
DAV:  10    -0.354057166705E+03    0.11737E+00   -0.36319E-01  8932   0.121E+00    0.282E+00
DAV:  11    -0.354013064494E+03    0.44102E-01   -0.32715E-01  9801   0.157E+00    0.191E+00
DAV:  12    -0.353960033761E+03    0.53031E-01   -0.30350E-01  8800   0.106E+00    0.114E+00
DAV:  13    -0.353951522542E+03    0.85112E-02   -0.37291E-02  9394   0.374E-01    0.823E-01
DAV:  14    -0.353948553882E+03    0.29687E-02   -0.56008E-03  9713   0.227E-01    0.610E-01
DAV:  15    -0.353938509071E+03    0.10045E-01   -0.17891E-02  9152   0.341E-01    0.370E-01
DAV:  16    -0.353932229176E+03    0.62799E-02   -0.92489E-03  9625   0.265E-01    0.367E-01
DAV:  17    -0.353931866361E+03    0.36281E-03   -0.23852E-03  9031   0.121E-01    0.281E-01
DAV:  18    -0.353931013791E+03    0.85257E-03   -0.20911E-03  9218   0.122E-01    0.251E-01
DAV:  19    -0.353929842147E+03    0.11716E-02   -0.35382E-03  8800   0.138E-01    0.191E-01
DAV:  20    -0.353931506907E+03   -0.16648E-02   -0.33685E-03  8976   0.116E-01    0.306E-01
DAV:  21    -0.353932030752E+03   -0.52384E-03   -0.45645E-04  9636   0.633E-02    0.265E-01
DAV:  22    -0.353933757022E+03   -0.17263E-02   -0.21226E-03  8382   0.795E-02    0.837E-02
DAV:  23    -0.353936276358E+03   -0.25193E-02   -0.85447E-04  8635   0.483E-02    0.972E-02
DAV:  24    -0.353936947129E+03   -0.67077E-03   -0.19284E-04  8998   0.321E-02    0.947E-02
DAV:  25    -0.353937151087E+03   -0.20396E-03   -0.35826E-05  9229   0.176E-02    0.733E-02
DAV:  26    -0.353937496786E+03   -0.34570E-03   -0.30819E-05  8965   0.177E-02    0.242E-02
DAV:  27    -0.353937647816E+03   -0.15103E-03   -0.36167E-05  7678   0.970E-03    0.232E-02
DAV:  28    -0.353937655098E+03   -0.72825E-05   -0.32891E-06  7183   0.550E-03    0.167E-02
DAV:  29    -0.353937663828E+03   -0.87295E-05   -0.19152E-06  6237   0.317E-03    0.663E-03
DAV:  30    -0.353937688474E+03   -0.24646E-04   -0.28542E-06  5995   0.200E-03    0.321E-03
DAV:  31    -0.353937692380E+03   -0.39062E-05   -0.51354E-07  5764   0.976E-04    0.343E-03
DAV:  32    -0.353937694079E+03   -0.16986E-05   -0.14261E-07  4587   0.934E-04    0.253E-03
DAV:  33    -0.353937695710E+03   -0.16308E-05   -0.29475E-07  5192   0.965E-04    0.169E-03
DAV:  34    -0.353937695793E+03   -0.83288E-07   -0.35742E-07  5357   0.594E-04
   1 F= -.37672611E+03 E0= -.37672248E+03  d E =-.726431E-02
