 vasp.6.5.1 10Mar25 (build Aug 29 2025 00:30:47) complex                        
  
 executed on             LinuxIFC date 2026.06.04  18:29:29
 running  264 mpi-ranks, with    1 threads/rank, on    6 nodes
 distrk:  each k-point on   44 cores,    6 groups
 distr:  one band on NCORE=   4 cores,   11 groups


--------------------------------------------------------------------------------------------------------


 INCAR:
   SYSTEM = MoS2_MoTe2_3R phonon
   PREC = Accurate
   ENCUT = 520
   EDIFF = 1E-6
   ISMEAR = 0
   SIGMA = 0.05
   LREAL = Auto
   ALGO = Normal
   AMIN = 0.01
   NELM = 200
   NSW = 0
   IBRION = -1
   IVDW = 12
   KPAR = 6
   NCORE = 4
   LWAVE = .FALSE.
   LCHARG = .FALSE.

 POTCAR:    PAW_PBE Mo_sv 02Feb2006               
 POTCAR:    PAW_PBE S 06Sep2000                   
 POTCAR:    PAW_PBE Te 08Apr2002                  
 POTCAR:    PAW_PBE Mo_sv 02Feb2006               
   SHA256 =  2731df97e41766cc617548c5a8267718fdef1f509ac6bafa01e745abea2bdfaa Mo_sv/POTCAR          
   COPYR  = (c) Copyright 02Feb2006 Georg Kresse                                                    
   COPYR  = This file is part of the software VASP. Any use, copying, and all other rights are regul
   COPYR  = If you do not have a valid VASP license, you may not use, copy or distribute this file. 
   VRHFIN =Mo: 4p5s4d                                                                               
   LEXCH  = PE                                                                                      
   EATOM  =  1862.2866 eV,  136.8742 Ry                                                             
                                                                                                    
   TITEL  = PAW_PBE Mo_sv 02Feb2006                                                                 
   LULTRA =        F    use ultrasoft PP ?                                                          
   IUNSCR =        1    unscreen: 0-lin 1-nonlin 2-no                                               
   RPACOR =    2.200    partial core radius                                                         
   POMASS =   95.940; ZVAL   =   14.000    mass and valenz                                          
   RCORE  =    2.500    outmost cutoff radius                                                       
   RWIGS  =    2.750; RWIGS  =    1.455    wigner-seitz radius (au A)                               
   ENMAX  =  242.676; ENMIN  =  182.007 eV                                                          
   ICORE  =        3    local potential                                                             
   LCOR   =        T    correct aug charges                                                         
   LPAW   =        T    paw PP                                                                      
   EAUG   =  446.014                                                                                
   DEXC   =    0.000                                                                                
   RMAX   =    2.563    core radius for proj-oper                                                   
   RAUG   =    1.300    factor for augmentation sphere                                              
   RDEP   =    2.641    radius for radial grids                                                     
   RDEPT  =    2.031    core radius for aug-charge                                                  
                                                                                                    
   Atomic configuration                                                                             
   11 entries                                                                                       
     n  l   j            E        occ.                                                              
     1  0  0.50    -19819.0341   2.0000                                                             
     2  0  0.50     -2799.0127   2.0000                                                             
     2  1  1.50     -2502.0276   6.0000                                                             
     3  0  0.50      -476.4449   2.0000                                                             
     3  1  1.50      -379.1496   6.0000                                                             
     3  2  2.50      -220.9367  10.0000                                                             
     4  0  0.50       -64.3378   2.0000                                                             
     5  0  0.50        -4.0862   1.0000                                                             
     4  1  1.50       -38.4773   6.0000                                                             
     4  2  2.50        -3.7535   5.0000                                                             
     4  3  2.50        -1.3606   0.0000                                                             
   Description                                                                                      
     l       E           TYP  RCUT    TYP  RCUT                                                     
     0    -64.3377829     23  2.100                                                                 
     0     -4.0861640     23  2.400                                                                 
     1    -38.4772993     23  2.100                                                                 
     1     13.6058260     23  2.100                                                                 
     2     -3.7534941     23  2.400                                                                 
     2     -5.1140767     23  2.400                                                                 
     3     -4.0817478     23  2.500                                                                 
  local pseudopotential read in
  partial core-charges read in
  partial kinetic energy density read in
  atomic valenz-charges read in
  non local Contribution for L=           0  read in
    real space projection operators read in
  non local Contribution for L=           0  read in
    real space projection operators read in
  non local Contribution for L=           1  read in
    real space projection operators read in
  non local Contribution for L=           1  read in
    real space projection operators read in
  non local Contribution for L=           2  read in
    real space projection operators read in
  non local Contribution for L=           2  read in
    real space projection operators read in
    PAW grid and wavefunctions read in
 
   number of l-projection  operators is LMAX  =           6
   number of lm-projection operators is LMMAX =          18
 
 POTCAR:    PAW_PBE S 06Sep2000                   
   SHA256 =  0fc7481fb0695f01bdc6462160264c5c84044ae9ec85a907d398b887a2bc3132 S/POTCAR              
   COPYR  = (c) Copyright 06Sep2000 Georg Kresse                                                    
   COPYR  = This file is part of the software VASP. Any use, copying, and all other rights are regul
   COPYR  = If you do not have a valid VASP license, you may not use, copy or distribute this file. 
   VRHFIN =S : s2p4                                                                                 
   LEXCH  = PE                                                                                      
   EATOM  =   276.8230 eV,   20.3459 Ry                                                             
                                                                                                    
   TITEL  = PAW_PBE S 06Sep2000                                                                     
   LULTRA =        F    use ultrasoft PP ?                                                          
   IUNSCR =        1    unscreen: 0-lin 1-nonlin 2-no                                               
   RPACOR =    1.500    partial core radius                                                         
   POMASS =   32.066; ZVAL   =    6.000    mass and valenz                                          
   RCORE  =    1.900    outmost cutoff radius                                                       
   RWIGS  =    2.200; RWIGS  =    1.164    wigner-seitz radius (au A)                               
   ENMAX  =  258.689; ENMIN  =  194.016 eV                                                          
   ICORE  =        2    local potential                                                             
   LCOR   =        T    correct aug charges                                                         
   LPAW   =        T    paw PP                                                                      
   EAUG   =  335.092                                                                                
   DEXC   =    0.000                                                                                
   RMAX   =    1.942    core radius for proj-oper                                                   
   RAUG   =    1.300    factor for augmentation sphere                                              
   RDEP   =    1.954    radius for radial grids                                                     
   RDEPT  =    1.744    core radius for aug-charge                                                  
                                                                                                    
   Atomic configuration                                                                             
    6 entries                                                                                       
     n  l   j            E        occ.                                                              
     1  0  0.50     -2405.8406   2.0000                                                             
     2  0  0.50      -211.7007   2.0000                                                             
     2  1  1.50      -156.4958   6.0000                                                             
     3  0  0.50       -17.2562   2.0000                                                             
     3  1  0.50        -7.0085   4.0000                                                             
     3  2  1.50        -6.8029   0.0000                                                             
   Description                                                                                      
     l       E           TYP  RCUT    TYP  RCUT                                                     
     0    -17.2561641     23  1.900                                                                 
     0    -15.8743224     23  1.900                                                                 
     1     -7.0085400     23  1.900                                                                 
     1     -2.7779785     23  1.900                                                                 
     2     -6.8029130     23  1.900                                                                 
  local pseudopotential read in
  partial core-charges read in
  partial kinetic energy density read in
  atomic valenz-charges read in
  non local Contribution for L=           0  read in
    real space projection operators read in
  non local Contribution for L=           0  read in
    real space projection operators read in
  non local Contribution for L=           1  read in
    real space projection operators read in
  non local Contribution for L=           1  read in
    real space projection operators read in
    PAW grid and wavefunctions read in
 
   number of l-projection  operators is LMAX  =           4
   number of lm-projection operators is LMMAX =           8
 
 POTCAR:    PAW_PBE Te 08Apr2002                  
   SHA256 =  e13b0861f25acb1fe6cdc17458a3647985498b67a429eb77ddc1eac05a1775b1 Te/POTCAR             
   COPYR  = (c) Copyright 08Apr2002 Georg Kresse                                                    
   COPYR  = This file is part of the software VASP. Any use, copying, and all other rights are regul
   COPYR  = If you do not have a valid VASP license, you may not use, copy or distribute this file. 
   VRHFIN =Te: s2p4                                                                                 
   LEXCH  = PE                                                                                      
   EATOM  =   223.2721 eV,   16.4100 Ry                                                             
                                                                                                    
   TITEL  = PAW_PBE Te 08Apr2002                                                                    
   LULTRA =        F    use ultrasoft PP ?                                                          
   IUNSCR =        1    unscreen: 0-lin 1-nonlin 2-no                                               
   RPACOR =    2.200    partial core radius                                                         
   POMASS =  127.600; ZVAL   =    6.000    mass and valenz                                          
   RCORE  =    2.300    outmost cutoff radius                                                       
   RWIGS  =    2.900; RWIGS  =    1.535    wigner-seitz radius (au A)                               
   ENMAX  =  174.982; ENMIN  =  131.236 eV                                                          
   ICORE  =        3    local potential                                                             
   LCOR   =        T    correct aug charges                                                         
   LPAW   =        T    paw PP                                                                      
   EAUG   =  368.792                                                                                
   DEXC   =    0.000                                                                                
   RMAX   =    2.345    core radius for proj-oper                                                   
   RAUG   =    1.300    factor for augmentation sphere                                              
   RDEP   =    2.397    radius for radial grids                                                     
   RDEPT  =    2.174    core radius for aug-charge                                                  
                                                                                                    
   Atomic configuration                                                                             
   13 entries                                                                                       
     n  l   j            E        occ.                                                              
     1  0  0.50    -31621.2075   2.0000                                                             
     2  0  0.50     -4848.7941   2.0000                                                             
     2  1  1.50     -4352.1960   6.0000                                                             
     3  0  0.50      -964.9612   2.0000                                                             
     3  1  1.50      -803.6179   6.0000                                                             
     3  2  2.50      -559.8710  10.0000                                                             
     4  0  0.50      -164.3522   2.0000                                                             
     4  1  1.50      -114.3756   6.0000                                                             
     4  2  2.50       -41.6483  10.0000                                                             
     5  0  0.50       -15.1072   2.0000                                                             
     5  1  0.50        -5.9526   4.0000                                                             
     5  2  1.50        -5.4423   0.0000                                                             
     4  3  2.50        -5.4423   0.0000                                                             
   Description                                                                                      
     l       E           TYP  RCUT    TYP  RCUT                                                     
     0    -15.1072389     23  2.300                                                                 
     0    -16.4678215     23  2.300                                                                 
     1     -5.9526306     23  2.300                                                                 
     1     -2.4873968     23  2.300                                                                 
     2     -5.4423304     23  2.300                                                                 
     3     -1.3605826     23  2.300                                                                 
  local pseudopotential read in
  partial core-charges read in
  partial kinetic energy density read in
  atomic valenz-charges read in
  non local Contribution for L=           0  read in
    real space projection operators read in
  non local Contribution for L=           0  read in
    real space projection operators read in
  non local Contribution for L=           1  read in
    real space projection operators read in
  non local Contribution for L=           1  read in
    real space projection operators read in
  non local Contribution for L=           2  read in
    real space projection operators read in
    PAW grid and wavefunctions read in
 
   number of l-projection  operators is LMAX  =           5
   number of lm-projection operators is LMMAX =          13
 
 Optimization of the real space projectors (new method)

 maximal supplied QI-value         = 15.12
 optimisation between [QCUT,QGAM] = [ 11.64, 23.28] = [ 37.95,151.78] Ry 
 Optimized for a Real-space Cutoff    1.53 Angstroem

   l    n(q)    QCUT    max X(q) W(low)/X(q) W(high)/X(q)  e(spline) 
   0     11    11.641     3.559    0.80E-05    0.27E-04    0.27E-06
   0     11    11.641    20.730    0.39E-04    0.26E-04    0.29E-06
   1     10    11.641     3.279    0.18E-05    0.27E-05    0.28E-07
   1     10    11.641     4.693    0.11E-03    0.12E-04    0.28E-06
   2     10    11.641    67.616    0.19E-03    0.29E-03    0.91E-06
   2     10    11.641    62.420    0.19E-03    0.29E-03    0.92E-06
 Optimization of the real space projectors (new method)

 maximal supplied QI-value         = 19.84
 optimisation between [QCUT,QGAM] = [ 11.51, 23.22] = [ 37.09,150.92] Ry 
 Optimized for a Real-space Cutoff    1.21 Angstroem

   l    n(q)    QCUT    max X(q) W(low)/X(q) W(high)/X(q)  e(spline) 
   0      8    11.508   187.594    0.96E-04    0.18E-03    0.54E-07
   0      8    11.508   164.243    0.96E-04    0.18E-03    0.54E-07
   1      8    11.508    67.533    0.18E-03    0.65E-04    0.94E-07
   1      8    11.508    50.729    0.18E-03    0.63E-04    0.92E-07
 Optimization of the real space projectors (new method)

 maximal supplied QI-value         = 16.25
 optimisation between [QCUT,QGAM] = [ 11.54, 23.24] = [ 37.28,151.24] Ry 
 Optimized for a Real-space Cutoff    1.36 Angstroem

   l    n(q)    QCUT    max X(q) W(low)/X(q) W(high)/X(q)  e(spline) 
   0      9    11.539   224.858    0.53E-04    0.69E-04    0.12E-06
   0      9    11.539   205.313    0.53E-04    0.69E-04    0.12E-06
   1      9    11.539   119.695    0.25E-03    0.13E-04    0.15E-06
   1      9    11.539    84.282    0.24E-03    0.13E-04    0.15E-06
   2      9    11.539     5.599    0.30E-04    0.97E-04    0.54E-07
  PAW_PBE Mo_sv 02Feb2006               :
 energy of atom  1       EATOM=-1862.2866
 kinetic energy error for atom=    0.0070 (will be added to EATOM!!)
  PAW_PBE S 06Sep2000                   :
 energy of atom  2       EATOM= -276.8230
 kinetic energy error for atom=    0.0016 (will be added to EATOM!!)
  PAW_PBE Te 08Apr2002                  :
 energy of atom  3       EATOM= -223.2721
 kinetic energy error for atom=    0.0007 (will be added to EATOM!!)
 
 
 POSCAR: generated by phonopy
  positions in direct lattice
  No initial velocities read in
 IVDW         = 12
 VDW_S6       =    1.0000
 VDW_S8       =    0.7875
 VDW_A1       =    0.4289
 VDW_A2       =    4.4407
 VDW_RADIUS   =   50.2022 A
 VDW_CNRADIUS =   21.1671 A


 exchange-correlation table for PE
   RHO(1)=    0.500       N(1)  =     2000
   RHO(2)=  100.500       N(2)  =     4000
 


--------------------------------------------------------------------------------------------------------


 ion  position               nearest neighbor table
   1  0.000  0.000  0.504-  28 2.45  34 2.45  30 2.46  19 2.46  25 2.46  21 2.47   2 3.37   4 3.38
                             8 3.38   7 3.38   6 3.38   3 3.38
   2  0.333  0.000  0.504-  28 2.46  29 2.46  35 2.46  19 2.46  20 2.46  26 2.46   1 3.37   3 3.38
                             9 3.38   5 3.38   8 3.38   4 3.38
   3  0.667  0.000  0.504-  29 2.46  36 2.46  30 2.46  27 2.46  20 2.46  21 2.46   2 3.38   5 3.38
                             6 3.38   7 3.38   9 3.38   1 3.38
   4  0.000  0.333  0.504-  28 2.46  31 2.46  33 2.46  19 2.46  22 2.46  24 2.46   1 3.38   7 3.38
                             9 3.38   6 3.38   2 3.38   5 3.38
   5  0.333  0.333  0.504-  32 2.46  31 2.46  29 2.46  23 2.46  20 2.46  22 2.46   6 3.38   8 3.38
                             7 3.38   3 3.38   4 3.38   2 3.38
   6  0.667  0.333  0.504-  30 2.46  32 2.46  33 2.46  21 2.46  23 2.46  24 2.46   5 3.38   8 3.38
                             9 3.38   4 3.38   3 3.38   1 3.38
   7  0.000  0.667  0.504-  31 2.46  36 2.46  34 2.46  27 2.46  22 2.46  25 2.46   4 3.38   5 3.38
                             3 3.38   8 3.38   9 3.38   1 3.38
   8  0.333  0.667  0.504-  32 2.46  34 2.46  35 2.46  23 2.46  25 2.46  26 2.46   1 3.38   9 3.38
                             6 3.38   5 3.38   7 3.38   2 3.38
   9  0.667  0.667  0.504-  33 2.46  35 2.46  36 2.46  26 2.46  24 2.46  27 2.46   8 3.38   6 3.38
                             2 3.38   4 3.38   7 3.38   3 3.38
  10  0.111  0.111  0.821-  46 2.70  48 2.70  52 2.70  37 2.70  43 2.70  39 2.70  11 3.38  13 3.38
                            15 3.38  17 3.38  16 3.38  12 3.38
  11  0.444  0.111  0.821-  46 2.70  47 2.70  53 2.70  37 2.70  38 2.70  44 2.70  10 3.38  13 3.38
                            14 3.38  12 3.38  17 3.38  18 3.38
  12  0.778  0.111  0.821-  47 2.70  48 2.70  54 2.70  38 2.70  39 2.70  45 2.70  15 3.38  14 3.38
                            16 3.38  18 3.38  10 3.38  11 3.38
  13  0.111  0.444  0.821-  46 2.70  49 2.70  51 2.70  37 2.70  40 2.70  42 2.70  14 3.38  11 3.38
                            10 3.38  15 3.38  16 3.38  18 3.38
  14  0.444  0.444  0.821-  47 2.70  49 2.70  50 2.70  40 2.70  38 2.70  41 2.70  13 3.38  11 3.38
                            12 3.38  16 3.38  15 3.38  17 3.38
  15  0.778  0.444  0.821-  48 2.70  50 2.70  51 2.70  41 2.70  39 2.70  42 2.70  12 3.38  10 3.38
                            17 3.38  18 3.38  13 3.38  14 3.38
  16  0.111  0.778  0.821-  49 2.70  52 2.70  54 2.70  40 2.70  43 2.70  45 2.70  17 3.38  14 3.38
                            12 3.38  18 3.38  13 3.38  10 3.38
  17  0.444  0.778  0.821-  50 2.70  52 2.70  53 2.70  43 2.70  41 2.70  44 2.70  16 3.38  10 3.38
                            11 3.38  18 3.38  14 3.38  15 3.38
  18  0.778  0.778  0.821-  51 2.70  53 2.70  54 2.70  44 2.70  42 2.70  45 2.70  11 3.38  12 3.38
                            13 3.38  15 3.38  16 3.38  17 3.38
  19  0.111  0.111  0.429-   2 2.46   4 2.46   1 2.46
  20  0.444  0.111  0.429-   2 2.46   3 2.46   5 2.46
  21  0.778  0.111  0.429-   6 2.46   3 2.46   1 2.47
  22  0.111  0.444  0.429-   4 2.46   5 2.46   7 2.46
  23  0.444  0.444  0.429-   5 2.46   6 2.46   8 2.46
  24  0.778  0.444  0.429-   4 2.46   6 2.46   9 2.46
  25  0.111  0.778  0.429-   8 2.46   7 2.46   1 2.46
  26  0.444  0.778  0.429-   2 2.46   8 2.46   9 2.46
  27  0.778  0.778  0.429-   3 2.46   7 2.46   9 2.46
  28  0.111  0.111  0.579-   1 2.45   2 2.46   4 2.46
  29  0.444  0.111  0.579-   2 2.46   3 2.46   5 2.46
  30  0.778  0.111  0.579-   1 2.46   6 2.46   3 2.46
  31  0.111  0.444  0.579-   4 2.46   5 2.46   7 2.46
  32  0.444  0.444  0.579-   5 2.46   6 2.46   8 2.46
  33  0.778  0.444  0.579-   4 2.46   6 2.46   9 2.46
  34  0.111  0.778  0.579-   1 2.45   8 2.46   7 2.46
  35  0.444  0.778  0.579-   2 2.46   8 2.46   9 2.46
  36  0.778  0.778  0.579-   3 2.46   7 2.46   9 2.46
  37  0.222  0.222  0.728-  10 2.70  11 2.70  13 2.70  39 3.38  43 3.38  42 3.38  44 3.38  40 3.38
                            38 3.38
  38  0.556  0.222  0.728-  11 2.70  12 2.70  14 2.70  44 3.38  45 3.38  40 3.38  41 3.38  37 3.38
                            39 3.38
  39  0.889  0.222  0.728-  10 2.70  12 2.70  15 2.70  37 3.38  43 3.38  45 3.38  42 3.38  38 3.38
                            41 3.38
  40  0.222  0.556  0.728-  13 2.70  14 2.70  16 2.70  42 3.38  45 3.38  41 3.38  37 3.38  43 3.38
                            38 3.38
  41  0.556  0.556  0.728-  15 2.70  17 2.70  14 2.70  38 3.38  39 3.38  40 3.38  42 3.38  43 3.38
                            44 3.38
  42  0.889  0.556  0.728-  13 2.70  18 2.70  15 2.70  40 3.38  37 3.38  39 3.38  41 3.38  44 3.38
                            45 3.38
  43  0.222  0.889  0.728-  10 2.70  16 2.70  17 2.70  45 3.38  39 3.38  37 3.38  41 3.38  44 3.38
                            40 3.38
  44  0.556  0.889  0.728-  11 2.70  18 2.70  17 2.70  38 3.38  37 3.38  41 3.38  42 3.38  43 3.38
                            45 3.38
  45  0.889  0.889  0.728-  12 2.70  16 2.70  18 2.70  43 3.38  39 3.38  40 3.38  38 3.38  42 3.38
                            44 3.38
  46  0.222  0.222  0.914-  10 2.70  11 2.70  13 2.70  48 3.38  52 3.38  51 3.38  53 3.38  49 3.38
                            47 3.38
  47  0.556  0.222  0.914-  11 2.70  12 2.70  14 2.70  53 3.38  54 3.38  49 3.38  50 3.38  46 3.38
                            48 3.38
  48  0.889  0.222  0.914-  10 2.70  12 2.70  15 2.70  46 3.38  52 3.38  54 3.38  51 3.38  47 3.38
                            50 3.38
  49  0.222  0.556  0.914-  13 2.70  14 2.70  16 2.70  51 3.38  54 3.38  50 3.38  46 3.38  52 3.38
                            47 3.38
  50  0.556  0.556  0.914-  15 2.70  17 2.70  14 2.70  47 3.38  48 3.38  49 3.38  51 3.38  52 3.38
                            53 3.38
  51  0.889  0.556  0.914-  13 2.70  18 2.70  15 2.70  49 3.38  46 3.38  48 3.38  50 3.38  53 3.38
                            54 3.38
  52  0.222  0.889  0.914-  10 2.70  16 2.70  17 2.70  54 3.38  48 3.38  46 3.38  50 3.38  53 3.38
                            49 3.38
  53  0.556  0.889  0.914-  11 2.70  18 2.70  17 2.70  47 3.38  46 3.38  50 3.38  51 3.38  52 3.38
                            54 3.38
  54  0.889  0.889  0.914-  12 2.70  16 2.70  18 2.70  52 3.38  48 3.38  49 3.38  47 3.38  51 3.38
                            53 3.38
 
  LATTYP: Found a hexagonal cell.
 ALAT       =    10.1368387072
 C/A-ratio  =     1.9730016998
  
  Lattice vectors:
  
 A1 = (  -5.0684193536,  -8.7787598345,   0.0000000000)
 A2 = (  10.1368387072,   0.0000000000,   0.0000000000)
 A3 = (   0.0000000000,   0.0000000000,  20.0000000000)


Analysis of symmetry for initial positions (statically):
=====================================================================
 Subroutine PRICEL returns:
 Original cell was already a primitive cell.
 

 Routine SETGRP: Setting up the symmetry group for a 
 hexagonal supercell.


 Subroutine GETGRP returns: Found  1 space group operations
 (whereof  1 operations were pure point group operations)
 out of a pool of 24 trial point group operations.


The static configuration has the point symmetry C_1 .


Analysis of symmetry for dynamics (positions and initial velocities):
=====================================================================
 Subroutine PRICEL returns:
 Original cell was already a primitive cell.
 

 Routine SETGRP: Setting up the symmetry group for a 
 hexagonal supercell.


 Subroutine GETGRP returns: Found  1 space group operations
 (whereof  1 operations were pure point group operations)
 out of a pool of 24 trial point group operations.


The dynamic configuration has the point symmetry C_1 .


 Subroutine INISYM returns: Found  1 space group operations
 (whereof  1 operations are pure point group operations),
 and found     1 'primitive' translations


----------------------------------------------------------------------------------------

                                     Primitive cell                                     

  volume of cell :    1779.7774

  direct lattice vectors                    reciprocal lattice vectors
    10.136838707  0.000000000  0.000000000     0.098650085 -0.056955653  0.000000000
     5.068419354  8.778759834  0.000000000     0.000000000  0.113911306  0.000000000
     0.000000000  0.000000000 20.000000000     0.000000000  0.000000000  0.050000000

  length of vectors
    10.136838707 10.136838707 20.000000000     0.113911306  0.113911306  0.050000000

  position of ions in fractional coordinates (direct lattice)
     0.000445986  0.000000000  0.504431613
     0.333333333  0.000000000  0.503985627
     0.666666667  0.000000000  0.503985627
     1.000000000  0.333333333  0.503985627
     0.333333333  0.333333333  0.503985627
     0.666666667  0.333333333  0.503985627
     1.000000000  0.666666667  0.503985627
     0.333333333  0.666666667  0.503985627
     0.666666667  0.666666667  0.503985627
     0.111111111  0.111111111  0.821036919
     0.444444444  0.111111111  0.821036919
     0.777777778  0.111111111  0.821036919
     0.111111111  0.444444444  0.821036919
     0.444444444  0.444444444  0.821036919
     0.777777778  0.444444444  0.821036919
     0.111111111  0.777777778  0.821036919
     0.444444444  0.777777778  0.821036919
     0.777777778  0.777777778  0.821036919
     0.111111111  0.111111111  0.429129409
     0.444444444  0.111111111  0.429129409
     0.777777778  0.111111111  0.429129409
     0.111111111  0.444444444  0.429129409
     0.444444444  0.444444444  0.429129409
     0.777777778  0.444444444  0.429129409
     0.111111111  0.777777778  0.429129409
     0.444444444  0.777777778  0.429129409
     0.777777778  0.777777778  0.429129409
     0.111111111  0.111111111  0.578776962
     0.444444444  0.111111111  0.578776962
     0.777777778  0.111111111  0.578776962
     0.111111111  0.444444444  0.578776962
     0.444444444  0.444444444  0.578776962
     0.777777778  0.444444444  0.578776962
     0.111111111  0.777777778  0.578776962
     0.444444444  0.777777778  0.578776962
     0.777777778  0.777777778  0.578776962
     0.222222222  0.222222222  0.727657924
     0.555555556  0.222222222  0.727657924
     0.888888889  0.222222222  0.727657924
     0.222222222  0.555555556  0.727657924
     0.555555556  0.555555556  0.727657924
     0.888888889  0.555555556  0.727657924
     0.222222222  0.888888889  0.727657924
     0.555555556  0.888888889  0.727657924
     0.888888889  0.888888889  0.727657924
     0.222222222  0.222222222  0.914413160
     0.555555556  0.222222222  0.914413160
     0.888888889  0.222222222  0.914413160
     0.222222222  0.555555556  0.914413160
     0.555555556  0.555555556  0.914413160
     0.888888889  0.555555556  0.914413160
     0.222222222  0.888888889  0.914413160
     0.555555556  0.888888889  0.914413160
     0.888888889  0.888888889  0.914413160

  ion indices of the primitive-cell ions
   primitive index   ion index
                 1           1
                 2           2
                 3           3
                 4           4
                 5           5
                 6           6
                 7           7
                 8           8
                 9           9
                10          10
                11          11
                12          12
                13          13
                14          14
                15          15
                16          16
                17          17
                18          18
                19          19
                20          20
                21          21
                22          22
                23          23
                24          24
                25          25
                26          26
                27          27
                28          28
                29          29
                30          30
                31          31
                32          32
                33          33
                34          34
                35          35
                36          36
                37          37
                38          38
                39          39
                40          40
                41          41
                42          42
                43          43
                44          44
                45          45
                46          46
                47          47
                48          48
                49          49
                50          50
                51          51
                52          52
                53          53
                54          54

----------------------------------------------------------------------------------------

 
 
 KPOINTS: Automatic mesh                          

Automatic generation of k-mesh.
 Grid dimensions read from file:
 generate k-points for:    5    5    1

 Generating k-lattice:

  Cartesian coordinates                     Fractional coordinates (reciprocal lattice)
     0.019730017 -0.011391131  0.000000000     0.200000000 -0.000000000  0.000000000
     0.000000000  0.022782261  0.000000000     0.000000000  0.200000000  0.000000000
     0.000000000  0.000000000  0.050000000     0.000000000  0.000000000  1.000000000

  Length of vectors
     0.022782261  0.022782261  0.050000000

  Shift w.r.t. Gamma in fractional coordinates (k-lattice)
     0.000000000  0.000000000  0.000000000

 
 Subroutine IBZKPT returns following result:
 ===========================================
 
 Found     13 irreducible k-points:
 
 Following reciprocal coordinates:
            Coordinates               Weight
  0.000000  0.000000  0.000000      1.000000
  0.200000  0.000000  0.000000      2.000000
  0.200000  0.200000  0.000000      2.000000
  0.000000  0.200000  0.000000      2.000000
  0.400000  0.000000  0.000000      2.000000
  0.400000  0.400000  0.000000      2.000000
  0.000000  0.400000  0.000000      2.000000
  0.400000  0.200000  0.000000      2.000000
  0.200000  0.400000  0.000000      2.000000
 -0.200000  0.200000  0.000000      2.000000
 -0.400000  0.200000  0.000000      2.000000
  0.400000 -0.400000  0.000000      2.000000
 -0.200000  0.400000  0.000000      2.000000
 
 Following cartesian coordinates:
            Coordinates               Weight
  0.000000  0.000000  0.000000      1.000000
  0.019730 -0.011391  0.000000      2.000000
  0.019730  0.011391  0.000000      2.000000
  0.000000  0.022782  0.000000      2.000000
  0.039460 -0.022782  0.000000      2.000000
  0.039460  0.022782  0.000000      2.000000
  0.000000  0.045565  0.000000      2.000000
  0.039460  0.000000  0.000000      2.000000
  0.019730  0.034173  0.000000      2.000000
 -0.019730  0.034173  0.000000      2.000000
 -0.039460  0.045565  0.000000      2.000000
  0.039460 -0.068347  0.000000      2.000000
 -0.019730  0.056956  0.000000      2.000000
 


--------------------------------------------------------------------------------------------------------




 Dimension of arrays:
   k-points           NKPTS =     13   k-points in BZ     NKDIM =     13   number of bands    NBANDS=    286
   number of dos      NEDOS =    301   number of ions     NIONS =     54
   non local maximal  LDIM  =      6   non local SUM 2l+1 LMDIM =     18
   total plane-waves  NPLWV = 960000
   max r-space proj   IRMAX =   8202   max aug-charges    IRDMAX=  31569
   dimension x,y,z NGX =    80 NGY =   80 NGZ =  150
   dimension x,y,z NGXF=   160 NGYF=  160 NGZF=  300
   support grid    NGXF=   160 NGYF=  160 NGZF=  300
   ions per type =              18  18  18
   NGX,Y,Z   is equivalent  to a cutoff of  13.12, 13.12, 12.47 a.u.
   NGXF,Y,Z  is equivalent  to a cutoff of  26.24, 26.24, 24.94 a.u.

 SYSTEM =  MoS2_MoTe2_3R phonon                    
 POSCAR =  generated by phonopy                    

 Startparameter for this run:
   NWRITE =      2    write-flag & timer
   PREC   = accura    normal or accurate (medium, high low for compatibility)
   ISTART =      0    job   : 0-new  1-cont  2-samecut
   ICHARG =      2    charge: 1-file 2-atom 10-const
   ISPIN  =      1    spin polarized calculation?
   LNONCOLLINEAR =      F non collinear calculations
   LSORBIT =      F    spin-orbit coupling
   INIWAV =      1    electr: 0-lowe 1-rand  2-diag
   LASPH  =      F    aspherical Exc in radial PAW
 Electronic Relaxation 1
   ENCUT  =  520.0 eV  38.22 Ry    6.18 a.u.  18.85 18.85 37.19*2*pi/ulx,y,z
   ENINI  =  520.0     initial cutoff
   ENAUG  =  446.0 eV  augmentation charge cutoff
   NELM   =    200;   NELMIN=  2; NELMDL= -5     # of ELM steps 
   EDIFF  = 0.1E-05   stopping-criterion for ELM
   LREAL  =      T    real-space projection
   NLSPLINE    = F    spline interpolate recip. space projectors
   LCOMPAT=      F    compatible to vasp.4.4
   GGA_COMPAT  = T    GGA compatible to vasp.4.4-vasp.4.6
   LMAXPAW     = -100 max onsite density
   LMAXMIX     =    2 max onsite mixed and CHGCAR
   VOSKOWN=      0    Vosko Wilk Nusair interpolation
   ROPT   =   -0.00025  -0.00025  -0.00025
 Ionic relaxation
   EDIFFG = 0.1E-04   stopping-criterion for IOM
   NSW    =      0    number of steps for IOM
   NBLOCK =      1;   KBLOCK =      1    inner block; outer block 
   IBRION =     -1    ionic relax: 0-MD 1-quasi-New 2-CG
   NFREE  =      0    steps in history (QN), initial steepest desc. (CG)
   ISIF   =      2    stress and relaxation
   IWAVPR =     10    prediction:  0-non 1-charg 2-wave 3-comb
   ISYM   =      2    0-nonsym 1-usesym 2-fastsym
   LCORR  =      T    Harris-Foulkes like correction to forces

   POTIM  = 0.5000    time-step for ionic-motion
   TEIN   =    0.0    initial temperature
   TEBEG  =    0.0;   TEEND  =   0.0 temperature during run
   SMASS  =  -3.00    Nose mass-parameter (am)
   estimated Nose-frequenzy (Omega)   =  0.10E-29 period in steps = 0.13E+47 mass=  -0.235E-26a.u.
   SCALEE = 1.0000    scale energy and forces
   NPACO  =    256;   APACO  = 10.0  distance and # of slots for P.C.
   PSTRESS=    0.0 pullay stress

  Mass of Ions in am
   POMASS =  95.94 32.07127.60
  Ionic Valenz
   ZVAL   =  14.00  6.00  6.00
  Atomic Wigner-Seitz radii
   RWIGS  =  -1.00 -1.00 -1.00
  virtual crystal weights 
   VCA    =   1.00  1.00  1.00
   NELECT =     468.0000    total number of electrons
   NUPDOWN=      -1.0000    fix difference up-down

 DOS related values:
   EMIN   =  10.00;   EMAX   =-10.00  energy-range for DOS
   EFERMI =   0.00;   METHOD = LEGACY      
   ISMEAR =     0;   SIGMA  =   0.05  broadening in eV -4-tet -1-fermi 0-gaus
   EFERMI_NEDOS =   21; number of points for ismear=-14 and -15

 Electronic relaxation 2 (details)
   IALGO  =     38    algorithm
   LDIAG  =      T    sub-space diagonalisation (order eigenvalues)
   LSUBROT=      F    optimize rotation matrix (better conditioning)
   LROBUST=      F    robust break criterion during scf (extrapolated energy error)
   ISEARCH=      0    line search for conjugate gradient (0, 1=use gradient)
   TURBO    =      0    0=normal 1=particle mesh
   IRESTART =      0    0=no restart 2=restart with 2 vectors
   NREBOOT  =      0    no. of reboots
   NMIN     =      0    reboot dimension
   EREF     =   0.00    reference energy to select bands
   IMIX   =      4    mixing-type and parameters
     AMIX     =   0.40;   BMIX     =  1.00
     AMIX_MAG =   1.60;   BMIX_MAG =  1.00
     AMIN     =   0.01
     WC   =   100.;   INIMIX=   1;  MIXPRE=   1;  MAXMIX= -45

 Intra band minimization:
   WEIMIN = 0.0000     energy-eigenvalue tresh-hold
   EBREAK =  0.87E-09  absolut break condition
   DEPER  =   0.30     relativ break condition  

   TIME   =   0.40     timestep for ELM

  volume/ion in A,a.u.               =      32.96       222.42
  Fermi-wavevector in a.u.,A,eV,Ry     =   1.048821  1.981985 14.966767  1.100026
  Thomas-Fermi vector in A             =   2.183759
 
 Write flags
   LWAVE        =      F    write WAVECAR
   LDOWNSAMPLE  =      F    k-point downsampling of WAVECAR
   LCHARG       =      F    write CHGCAR
   LVTOT        =      F    write LOCPOT, total local potential
   LVHAR        =      F    write LOCPOT, Hartree potential only
   WRT_POTENTIAL= false  ! write potential to hdf5 file
   LELF         =      F    write electronic localiz. function (ELF)
   LORBIT       =      0    0 simple, 1 ext, 2 COOP (PROOUT), +10 PAW based schemes


 Python interface
   PLUGINS active      =      F    recompile with -DPLUGINS to activate
 
 Dipole corrections
   LMONO      =      F    monopole corrections only (constant potential shift)
   LDIPOL     =      F    correct potential (dipole corrections)
   IDIPOL     =      0    1-x, 2-y, 3-z, 4-all directions 
   EPSILON    =  1.0000000 bulk dielectric constant
   LVACPOTAV  =      F  vacuum potentials using an averaging scheme for the charge density
   VACPOTFLAT =  0.1000000 required flatness to determine vacuum potential
 
Coulomb truncation method
  LTRUNCATE          =      F  Coulomb kernel truncation to be used

 
 Exchange correlation treatment:
   GGA     = PE    functional components
   XC_C    = 1    coefficients multiplying the functional components
   LIBXC   =     F    Libxc                    
   VOSKOWN =     0    Vosko Wilk Nusair interpolation
   LHFCALC =     F    Hartree Fock is set to
   LHFONE  =     F    Hartree Fock one center treatment
   AEXX    =    0.0000 exact exchange contribution

 Parameters of functionals:
   PE:
     No parameter
 
 Van der Waals corrections
   IVDW    =    12    specifies the selected vdW correction

 Linear response parameters
   LEPSILON=     F    determine dielectric tensor
   LRPA    =     F    only Hartree local field effects (RPA)
   LNABLA  =     F    use nabla operator in PAW spheres
   LVEL    =     F    velocity operator in full k-point grid
   CSHIFT  =0.1000    complex shift for real part using Kramers Kronig
   OMEGAMAX=  -1.0    maximum frequency
   DEG_THRESHOLD= 0.2000000E-02 threshold for treating states as degnerate
   RTIME   =   -0.100 relaxation time in fs
  (WPLASMAI=    0.000 imaginary part of plasma frequency in eV, 0.658/RTIME)
   DFIELD  = 0.0000000 0.0000000 0.0000000 field for delta impulse in time
 
  Optional k-point grid parameters
   LKPOINTS_OPT  =     F    use optional k-point grid
   KPOINTS_OPT_MODE=     1    mode for optional k-point grid
 
 Orbital magnetization related:
   ORBITALMAG=     F  switch on orbital magnetization
   LCHIMAG   =     F  perturbation theory with respect to B field
   DQ        =  0.001000  dq finite difference perturbation B field
   LLRAUG    =     F  two centre corrections for induced B field
   LBONE     =     F  B-component reconstruction in AE one-centre
   LVGVCALC  =     T  calculate vGv susceptibility
   LVGVAPPL  =     F  apply vGv susceptibility instead of pGv for G=0

 Random number generation:
   RANDOM_GENERATOR = DEFAULT
   PCG_SEED         = not used


--------------------------------------------------------------------------------------------------------


 Static calculation
 charge density and potential will be updated during run
 non-spin polarized calculation
 Variant of blocked Davidson
 Davidson routine will perform the subspace rotation
 perform sub-space diagonalisation
    after iterative eigenvector-optimisation
 modified Broyden-mixing scheme, WC =      100.0
 initial mixing is a Kerker type mixing with AMIX =  0.4000 and BMIX =      1.0000
 Hartree-type preconditioning will be used
 using additional bands           52
 real space projection scheme for non local part
 use partial core corrections
 calculate Harris-corrections to forces 
   (improved forces if not selfconsistent)
 use gradient corrections 
 use of overlap-Matrix (Vanderbilt PP)
 Gauss-broadening in eV      SIGMA  =   0.05


--------------------------------------------------------------------------------------------------------


  energy-cutoff  :      520.00
  volume of cell :     1779.78
      direct lattice vectors                 reciprocal lattice vectors
    10.136838707  0.000000000  0.000000000     0.098650085 -0.056955653  0.000000000
     5.068419354  8.778759834  0.000000000     0.000000000  0.113911306  0.000000000
     0.000000000  0.000000000 20.000000000     0.000000000  0.000000000  0.050000000

  length of vectors
    10.136838707 10.136838707 20.000000000     0.113911306  0.113911306  0.050000000


 
 k-points in units of 2pi/SCALE and weight: Automatic mesh                          
   0.00000000  0.00000000  0.00000000       0.040
   0.01973002 -0.01139113  0.00000000       0.080
   0.01973002  0.01139113  0.00000000       0.080
   0.00000000  0.02278226  0.00000000       0.080
   0.03946003 -0.02278226  0.00000000       0.080
   0.03946003  0.02278226  0.00000000       0.080
   0.00000000  0.04556452  0.00000000       0.080
   0.03946003  0.00000000  0.00000000       0.080
   0.01973002  0.03417339  0.00000000       0.080
  -0.01973002  0.03417339  0.00000000       0.080
  -0.03946003  0.04556452  0.00000000       0.080
   0.03946003 -0.06834678  0.00000000       0.080
  -0.01973002  0.05695565  0.00000000       0.080
 
 k-points in reciprocal lattice and weights: Automatic mesh                          
   0.00000000  0.00000000  0.00000000       0.040
   0.20000000  0.00000000  0.00000000       0.080
   0.20000000  0.20000000  0.00000000       0.080
   0.00000000  0.20000000  0.00000000       0.080
   0.40000000  0.00000000  0.00000000       0.080
   0.40000000  0.40000000  0.00000000       0.080
   0.00000000  0.40000000  0.00000000       0.080
   0.40000000  0.20000000  0.00000000       0.080
   0.20000000  0.40000000  0.00000000       0.080
  -0.20000000  0.20000000  0.00000000       0.080
  -0.40000000  0.20000000  0.00000000       0.080
   0.40000000 -0.40000000  0.00000000       0.080
  -0.20000000  0.40000000  0.00000000       0.080
 
 position of ions in fractional coordinates (direct lattice) 
   0.00044599  0.00000000  0.50443161
   0.33333333  0.00000000  0.50398563
   0.66666667  0.00000000  0.50398563
   0.00000000  0.33333333  0.50398563
   0.33333333  0.33333333  0.50398563
   0.66666667  0.33333333  0.50398563
   0.00000000  0.66666667  0.50398563
   0.33333333  0.66666667  0.50398563
   0.66666667  0.66666667  0.50398563
   0.11111111  0.11111111  0.82103692
   0.44444444  0.11111111  0.82103692
   0.77777778  0.11111111  0.82103692
   0.11111111  0.44444444  0.82103692
   0.44444444  0.44444444  0.82103692
   0.77777778  0.44444444  0.82103692
   0.11111111  0.77777778  0.82103692
   0.44444444  0.77777778  0.82103692
   0.77777778  0.77777778  0.82103692
   0.11111111  0.11111111  0.42912941
   0.44444444  0.11111111  0.42912941
   0.77777778  0.11111111  0.42912941
   0.11111111  0.44444444  0.42912941
   0.44444444  0.44444444  0.42912941
   0.77777778  0.44444444  0.42912941
   0.11111111  0.77777778  0.42912941
   0.44444444  0.77777778  0.42912941
   0.77777778  0.77777778  0.42912941
   0.11111111  0.11111111  0.57877696
   0.44444444  0.11111111  0.57877696
   0.77777778  0.11111111  0.57877696
   0.11111111  0.44444444  0.57877696
   0.44444444  0.44444444  0.57877696
   0.77777778  0.44444444  0.57877696
   0.11111111  0.77777778  0.57877696
   0.44444444  0.77777778  0.57877696
   0.77777778  0.77777778  0.57877696
   0.22222222  0.22222222  0.72765792
   0.55555556  0.22222222  0.72765792
   0.88888889  0.22222222  0.72765792
   0.22222222  0.55555556  0.72765792
   0.55555556  0.55555556  0.72765792
   0.88888889  0.55555556  0.72765792
   0.22222222  0.88888889  0.72765792
   0.55555556  0.88888889  0.72765792
   0.88888889  0.88888889  0.72765792
   0.22222222  0.22222222  0.91441316
   0.55555556  0.22222222  0.91441316
   0.88888889  0.22222222  0.91441316
   0.22222222  0.55555556  0.91441316
   0.55555556  0.55555556  0.91441316
   0.88888889  0.55555556  0.91441316
   0.22222222  0.88888889  0.91441316
   0.55555556  0.88888889  0.91441316
   0.88888889  0.88888889  0.91441316
 
 position of ions in cartesian coordinates  (Angst):
   0.00452089  0.00000000 10.08863226
   3.37894624  0.00000000 10.07971254
   6.75789247  0.00000000 10.07971254
   1.68947312  2.92625328 10.07971254
   5.06841935  2.92625328 10.07971254
   8.44736559  2.92625328 10.07971254
   3.37894624  5.85250656 10.07971254
   6.75789247  5.85250656 10.07971254
  10.13683871  5.85250656 10.07971254
   1.68947312  0.97541776 16.42073837
   5.06841935  0.97541776 16.42073837
   8.44736559  0.97541776 16.42073837
   3.37894624  3.90167104 16.42073837
   6.75789247  3.90167104 16.42073837
  10.13683871  3.90167104 16.42073837
   5.06841935  6.82792432 16.42073837
   8.44736559  6.82792432 16.42073837
  11.82631183  6.82792432 16.42073837
   1.68947312  0.97541776  8.58258817
   5.06841935  0.97541776  8.58258817
   8.44736559  0.97541776  8.58258817
   3.37894624  3.90167104  8.58258817
   6.75789247  3.90167104  8.58258817
  10.13683871  3.90167104  8.58258817
   5.06841935  6.82792432  8.58258817
   8.44736559  6.82792432  8.58258817
  11.82631183  6.82792432  8.58258817
   1.68947312  0.97541776 11.57553923
   5.06841935  0.97541776 11.57553923
   8.44736559  0.97541776 11.57553923
   3.37894624  3.90167104 11.57553923
   6.75789247  3.90167104 11.57553923
  10.13683871  3.90167104 11.57553923
   5.06841935  6.82792432 11.57553923
   8.44736559  6.82792432 11.57553923
  11.82631183  6.82792432 11.57553923
   3.37894624  1.95083552 14.55315848
   6.75789247  1.95083552 14.55315848
  10.13683871  1.95083552 14.55315848
   5.06841935  4.87708880 14.55315848
   8.44736559  4.87708880 14.55315848
  11.82631183  4.87708880 14.55315848
   6.75789247  7.80334208 14.55315848
  10.13683871  7.80334208 14.55315848
  13.51578494  7.80334208 14.55315848
   3.37894624  1.95083552 18.28826321
   6.75789247  1.95083552 18.28826321
  10.13683871  1.95083552 18.28826321
   5.06841935  4.87708880 18.28826321
   8.44736559  4.87708880 18.28826321
  11.82631183  4.87708880 18.28826321
   6.75789247  7.80334208 18.28826321
  10.13683871  7.80334208 18.28826321
  13.51578494  7.80334208 18.28826321
 


--------------------------------------------------------------------------------------------------------


 k-point     1 :   0.0000 0.0000 0.0000  plane waves:   47973
 k-point     2 :   0.2000 0.0000 0.0000  plane waves:   47889
 k-point     3 :   0.2000 0.2000 0.0000  plane waves:   47889
 k-point     4 :   0.0000 0.2000 0.0000  plane waves:   47889
 k-point     5 :   0.4000 0.0000 0.0000  plane waves:   47894
 k-point     6 :   0.4000 0.4000 0.0000  plane waves:   47894
 k-point     7 :   0.0000 0.4000 0.0000  plane waves:   47894
 k-point     8 :   0.4000 0.2000 0.0000  plane waves:   47889
 k-point     9 :   0.2000 0.4000 0.0000  plane waves:   47889
 k-point    10 :  -0.2000 0.2000 0.0000  plane waves:   47889
 k-point    11 :  -0.4000 0.2000 0.0000  plane waves:   47967
 k-point    12 :   0.4000-0.4000 0.0000  plane waves:   47967
 k-point    13 :  -0.2000 0.4000 0.0000  plane waves:   47967

 maximum and minimum number of plane-waves per node :     12040    11925

 maximum number of plane-waves:     47973
 maximum index in each direction: 
   IXMAX=   19   IYMAX=   19   IZMAX=   37
   IXMIN=  -19   IYMIN=  -19   IZMIN=  -37


 real space projection operators:
  total allocation   :      34532.48 KBytes
  max/ min on nodes  :       8637.17       8629.00


 parallel 3D FFT for wavefunctions:
    minimum data exchange during FFTs selected (reduces bandwidth)
 parallel 3D FFT for charge:
    minimum data exchange during FFTs selected (reduces bandwidth)


 total amount of memory used by VASP MPI-rank0   149799. kBytes
=======================================================================

   base                                    :      30000. kBytes
   nonlr-proj                              :      18150. kBytes
   fftplans                                :      13426. kBytes
   grid                                    :      21975. kBytes
   one-center                              :        217. kBytes
   wavefun                                 :      66031. kBytes
 
     INWAV:  cpu time      0.0000: real time      0.0000
 Broyden mixing: mesh for mixing (old mesh)
   NGX = 37   NGY = 37   NGZ = 75
  (NGX  =160   NGY  =160   NGZ  =300)
  gives a total of 102675 points

 initial charge density was supplied:
 charge density of overlapping atoms calculated
 number of electron     468.0000000 magnetization 
 keeping initial charge density in first step


--------------------------------------------------------------------------------------------------------


 Maximum index for non-local projection operator         2008
 Maximum index for augmentation-charges         1166 (set IRDMAX)


--------------------------------------------------------------------------------------------------------


 First call to EWALD:  gamma=   0.146
 Maximum number of real-space cells   4x   4x   2
 Maximum number of reciprocal cells   2x   2x   4

    FEWALD:  cpu time      0.0808: real time      0.0809


--------------------------------------- Ionic step        1  -------------------------------------------




--------------------------------------- Iteration      1(   1)  ---------------------------------------


    POTLOK:  cpu time      0.1609: real time      0.1616
    SETDIJ:  cpu time      0.1041: real time      0.1043
     EDDAV:  cpu time     13.8988: real time     13.9673
       DOS:  cpu time      0.0149: real time      0.0149
    --------------------------------------------
      LOOP:  cpu time     14.1787: real time     14.2481

 eigenvalue-minimisations  :  9064
 total energy-change (2. order) : 0.3957094E+04  (-0.2437681E+05)
 number of electron     468.0000000 magnetization 
 augmentation part      468.0000000 magnetization 

 Free energy of the ion-electron system (eV)
  ---------------------------------------------------
  alpha Z        PSCENC =       762.60753795
  Ewald energy   TEWEN  =     33940.01510412
  -Hartree energ DENC   =    -73576.01201770
  -exchange      EXHF   =         0.00000000
  -V(xc)+E(xc)   XCENC  =       918.23924474
  PAW double counting   =     34614.88318918   -33532.01794540
  entropy T*S    EENTRO =        -0.02286252
  eigenvalues    EBANDS =     -1693.30167050
  atomic energy  EATOM  =     42522.70389611
  Solvation  Ediel_sol  =         0.00000000
  ---------------------------------------------------
  free energy    TOTEN  =      3957.09447598 eV

  energy without entropy =     3957.11733850  energy(sigma->0) =     3957.10590724


--------------------------------------------------------------------------------------------------------




--------------------------------------- Iteration      1(   2)  ---------------------------------------


     EDDAV:  cpu time     13.7955: real time     13.8607
       DOS:  cpu time      0.0105: real time      0.0106
    --------------------------------------------
      LOOP:  cpu time     13.8061: real time     13.8713

 eigenvalue-minimisations  :  8998
 total energy-change (2. order) :-0.4003989E+04  (-0.3891437E+04)
 number of electron     468.0000000 magnetization 
 augmentation part      468.0000000 magnetization 

 Free energy of the ion-electron system (eV)
  ---------------------------------------------------
  alpha Z        PSCENC =       762.60753795
  Ewald energy   TEWEN  =     33940.01510412
  -Hartree energ DENC   =    -73576.01201770
  -exchange      EXHF   =         0.00000000
  -V(xc)+E(xc)   XCENC  =       918.23924474
  PAW double counting   =     34614.88318918   -33532.01794540
  entropy T*S    EENTRO =        -0.00231539
  eigenvalues    EBANDS =     -5697.31158328
  atomic energy  EATOM  =     42522.70389611
  Solvation  Ediel_sol  =         0.00000000
  ---------------------------------------------------
  free energy    TOTEN  =       -46.89488967 eV

  energy without entropy =      -46.89257428  energy(sigma->0) =      -46.89373197


--------------------------------------------------------------------------------------------------------




--------------------------------------- Iteration      1(   3)  ---------------------------------------


     EDDAV:  cpu time     13.8323: real time     13.8987
       DOS:  cpu time      0.0072: real time      0.0146
    --------------------------------------------
      LOOP:  cpu time     13.8394: real time     13.9133

 eigenvalue-minimisations  :  8987
 total energy-change (2. order) :-0.3131182E+03  (-0.3061241E+03)
 number of electron     468.0000000 magnetization 
 augmentation part      468.0000000 magnetization 

 Free energy of the ion-electron system (eV)
  ---------------------------------------------------
  alpha Z        PSCENC =       762.60753795
  Ewald energy   TEWEN  =     33940.01510412
  -Hartree energ DENC   =    -73576.01201770
  -exchange      EXHF   =         0.00000000
  -V(xc)+E(xc)   XCENC  =       918.23924474
  PAW double counting   =     34614.88318918   -33532.01794540
  entropy T*S    EENTRO =        -0.00000001
  eigenvalues    EBANDS =     -6010.43209010
  atomic energy  EATOM  =     42522.70389611
  Solvation  Ediel_sol  =         0.00000000
  ---------------------------------------------------
  free energy    TOTEN  =      -360.01308111 eV

  energy without entropy =     -360.01308110  energy(sigma->0) =     -360.01308111


--------------------------------------------------------------------------------------------------------




--------------------------------------- Iteration      1(   4)  ---------------------------------------


     EDDAV:  cpu time     15.3585: real time     15.4336
       DOS:  cpu time      0.0042: real time      0.0042
    --------------------------------------------
      LOOP:  cpu time     15.3626: real time     15.4378

 eigenvalue-minimisations  : 10175
 total energy-change (2. order) :-0.1521941E+02  (-0.1506715E+02)
 number of electron     468.0000000 magnetization 
 augmentation part      468.0000000 magnetization 

 Free energy of the ion-electron system (eV)
  ---------------------------------------------------
  alpha Z        PSCENC =       762.60753795
  Ewald energy   TEWEN  =     33940.01510412
  -Hartree energ DENC   =    -73576.01201770
  -exchange      EXHF   =         0.00000000
  -V(xc)+E(xc)   XCENC  =       918.23924474
  PAW double counting   =     34614.88318918   -33532.01794540
  entropy T*S    EENTRO =        -0.00000000
  eigenvalues    EBANDS =     -6025.65149694
  atomic energy  EATOM  =     42522.70389611
  Solvation  Ediel_sol  =         0.00000000
  ---------------------------------------------------
  free energy    TOTEN  =      -375.23248794 eV

  energy without entropy =     -375.23248794  energy(sigma->0) =     -375.23248794


--------------------------------------------------------------------------------------------------------




--------------------------------------- Iteration      1(   5)  ---------------------------------------


     EDDAV:  cpu time     15.3251: real time     15.3982
       DOS:  cpu time      0.0067: real time      0.0067
    CHARGE:  cpu time      0.7754: real time      0.7784
    MIXING:  cpu time      0.0334: real time      0.0335
    --------------------------------------------
      LOOP:  cpu time     16.1407: real time     16.2168

 eigenvalue-minimisations  : 10307
 total energy-change (2. order) :-0.5089976E+00  (-0.5059976E+00)
 number of electron     467.9999994 magnetization 
 augmentation part        1.9293762 magnetization 

 Broyden mixing:
  rms(total) = 0.78536E+01    rms(broyden)= 0.78536E+01
  rms(prec ) = 0.79894E+01
  weight for this iteration     100.00

 Free energy of the ion-electron system (eV)
  ---------------------------------------------------
  alpha Z        PSCENC =       762.60753795
  Ewald energy   TEWEN  =     33940.01510412
  -Hartree energ DENC   =    -73576.01201770
  -exchange      EXHF   =         0.00000000
  -V(xc)+E(xc)   XCENC  =       918.23924474
  PAW double counting   =     34614.88318918   -33532.01794540
  entropy T*S    EENTRO =        -0.00000000
  eigenvalues    EBANDS =     -6026.16049456
  atomic energy  EATOM  =     42522.70389611
  Solvation  Ediel_sol  =         0.00000000
  ---------------------------------------------------
  free energy    TOTEN  =      -375.74148555 eV

  energy without entropy =     -375.74148555  energy(sigma->0) =     -375.74148555


--------------------------------------------------------------------------------------------------------




--------------------------------------- Iteration      1(   6)  ---------------------------------------


    POTLOK:  cpu time      0.1548: real time      0.1562
    SETDIJ:  cpu time      0.0077: real time      0.0078
     EDDAV:  cpu time     12.9296: real time     12.9910
       DOS:  cpu time      0.0065: real time      0.0065
    CHARGE:  cpu time      0.7700: real time      0.7730
    MIXING:  cpu time      0.0328: real time      0.0329
    --------------------------------------------
      LOOP:  cpu time     13.9015: real time     13.9674

 eigenvalue-minimisations  :  8371
 total energy-change (2. order) : 0.1488702E+02  (-0.1457971E+02)
 number of electron     467.9999997 magnetization 
 augmentation part       12.1491674 magnetization 

 Broyden mixing:
  rms(total) = 0.35285E+01    rms(broyden)= 0.35285E+01
  rms(prec ) = 0.37673E+01
  weight for this iteration     100.00

 eigenvalues of (default mixing * dielectric matrix)
  average eigenvalue GAMMA=   1.0782
  1.0782

 Free energy of the ion-electron system (eV)
  ---------------------------------------------------
  alpha Z        PSCENC =       762.60753795
  Ewald energy   TEWEN  =     33940.01510412
  -Hartree energ DENC   =    -73140.76476791
  -exchange      EXHF   =         0.00000000
  -V(xc)+E(xc)   XCENC  =       904.48950944
  PAW double counting   =     39940.87364591   -38908.57144953
  entropy T*S    EENTRO =        -0.02620802
  eigenvalues    EBANDS =     -6382.18173718
  atomic energy  EATOM  =     42522.70389611
  Solvation  Ediel_sol  =         0.00000000
  ---------------------------------------------------
  free energy    TOTEN  =      -360.85446911 eV

  energy without entropy =     -360.82826109  energy(sigma->0) =     -360.84136510


--------------------------------------------------------------------------------------------------------




--------------------------------------- Iteration      1(   7)  ---------------------------------------


    POTLOK:  cpu time      0.1511: real time      0.1522
    SETDIJ:  cpu time      0.0058: real time      0.0058
     EDDAV:  cpu time     12.9800: real time     13.0409
       DOS:  cpu time      0.0022: real time      0.0022
    CHARGE:  cpu time      0.7573: real time      0.7601
    MIXING:  cpu time      0.0282: real time      0.0283
    --------------------------------------------
      LOOP:  cpu time     13.9246: real time     13.9896

 eigenvalue-minimisations  :  8393
 total energy-change (2. order) : 0.7874303E+00  (-0.1022300E+02)
 number of electron     467.9999995 magnetization 
 augmentation part        5.4910714 magnetization 

 Broyden mixing:
  rms(total) = 0.22282E+01    rms(broyden)= 0.22282E+01
  rms(prec ) = 0.23988E+01
  weight for this iteration     100.00

 eigenvalues of (default mixing * dielectric matrix)
  average eigenvalue GAMMA=   1.1212
  1.6710  0.5713

 Free energy of the ion-electron system (eV)
  ---------------------------------------------------
  alpha Z        PSCENC =       762.60753795
  Ewald energy   TEWEN  =     33940.01510412
  -Hartree energ DENC   =    -73497.46219619
  -exchange      EXHF   =         0.00000000
  -V(xc)+E(xc)   XCENC  =       911.21733486
  PAW double counting   =     44565.05206929   -43517.11863782
  entropy T*S    EENTRO =        -0.00039382
  eigenvalues    EBANDS =     -6047.08175328
  atomic energy  EATOM  =     42522.70389611
  Solvation  Ediel_sol  =         0.00000000
  ---------------------------------------------------
  free energy    TOTEN  =      -360.06703879 eV

  energy without entropy =     -360.06664497  energy(sigma->0) =     -360.06684188


--------------------------------------------------------------------------------------------------------




--------------------------------------- Iteration      1(   8)  ---------------------------------------


    POTLOK:  cpu time      0.1498: real time      0.1509
    SETDIJ:  cpu time      0.0055: real time      0.0055
     EDDAV:  cpu time     12.8226: real time     12.8825
       DOS:  cpu time      0.0019: real time      0.0019
    CHARGE:  cpu time      0.7664: real time      0.7694
    MIXING:  cpu time      0.0265: real time      0.0266
    --------------------------------------------
      LOOP:  cpu time     13.7726: real time     13.8368

 eigenvalue-minimisations  :  8261
 total energy-change (2. order) : 0.5713771E+01  (-0.1457306E+01)
 number of electron     467.9999995 magnetization 
 augmentation part        7.2077874 magnetization 

 Broyden mixing:
  rms(total) = 0.86583E+00    rms(broyden)= 0.86583E+00
  rms(prec ) = 0.90871E+00
  weight for this iteration     100.00

 eigenvalues of (default mixing * dielectric matrix)
  average eigenvalue GAMMA=   1.1250
  2.0837  0.7191  0.5722

 Free energy of the ion-electron system (eV)
  ---------------------------------------------------
  alpha Z        PSCENC =       762.60753795
  Ewald energy   TEWEN  =     33940.01510412
  -Hartree energ DENC   =    -73356.45285538
  -exchange      EXHF   =         0.00000000
  -V(xc)+E(xc)   XCENC  =       907.56998187
  PAW double counting   =     48163.37828795   -47132.71681178
  entropy T*S    EENTRO =        -0.00003347
  eigenvalues    EBANDS =     -6161.45837476
  atomic energy  EATOM  =     42522.70389611
  Solvation  Ediel_sol  =         0.00000000
  ---------------------------------------------------
  free energy    TOTEN  =      -354.35326740 eV

  energy without entropy =     -354.35323392  energy(sigma->0) =     -354.35325066


--------------------------------------------------------------------------------------------------------




--------------------------------------- Iteration      1(   9)  ---------------------------------------


    POTLOK:  cpu time      0.1471: real time      0.1481
    SETDIJ:  cpu time      0.0053: real time      0.0053
     EDDAV:  cpu time     14.7071: real time     14.7769
       DOS:  cpu time      0.0020: real time      0.0020
    CHARGE:  cpu time      0.7372: real time      0.7400
    MIXING:  cpu time      0.0269: real time      0.0270
    --------------------------------------------
      LOOP:  cpu time     15.6255: real time     15.6993

 eigenvalue-minimisations  :  9834
 total energy-change (2. order) : 0.1787327E+00  (-0.3951980E+00)
 number of electron     467.9999995 magnetization 
 augmentation part        8.4249456 magnetization 

 Broyden mixing:
  rms(total) = 0.50830E+00    rms(broyden)= 0.50830E+00
  rms(prec ) = 0.53455E+00
  weight for this iteration     100.00

 eigenvalues of (default mixing * dielectric matrix)
  average eigenvalue GAMMA=   1.0154
  1.9891  0.7813  0.6456  0.6456

 Free energy of the ion-electron system (eV)
  ---------------------------------------------------
  alpha Z        PSCENC =       762.60753795
  Ewald energy   TEWEN  =     33940.01510412
  -Hartree energ DENC   =    -73318.54859387
  -exchange      EXHF   =         0.00000000
  -V(xc)+E(xc)   XCENC  =       906.41158429
  PAW double counting   =     49533.40214318   -48508.58938944
  entropy T*S    EENTRO =        -0.00177739
  eigenvalues    EBANDS =     -6192.17503970
  atomic energy  EATOM  =     42522.70389611
  Solvation  Ediel_sol  =         0.00000000
  ---------------------------------------------------
  free energy    TOTEN  =      -354.17453474 eV

  energy without entropy =     -354.17275735  energy(sigma->0) =     -354.17364604


--------------------------------------------------------------------------------------------------------




--------------------------------------- Iteration      1(  10)  ---------------------------------------


    POTLOK:  cpu time      0.1468: real time      0.1481
    SETDIJ:  cpu time      0.0053: real time      0.0053
     EDDAV:  cpu time     13.5915: real time     13.6557
       DOS:  cpu time      0.0021: real time      0.0021
    CHARGE:  cpu time      0.7497: real time      0.7527
    MIXING:  cpu time      0.0272: real time      0.0273
    --------------------------------------------
      LOOP:  cpu time     14.5226: real time     14.5911

 eigenvalue-minimisations  :  8932
 total energy-change (2. order) : 0.1173680E+00  (-0.3631888E-01)
 number of electron     467.9999995 magnetization 
 augmentation part        8.0641700 magnetization 

 Broyden mixing:
  rms(total) = 0.28155E+00    rms(broyden)= 0.28155E+00
  rms(prec ) = 0.30567E+00
  weight for this iteration     100.00

 eigenvalues of (default mixing * dielectric matrix)
  average eigenvalue GAMMA=   1.2332
  2.1734  1.3284  1.3284  0.6680  0.6680

 Free energy of the ion-electron system (eV)
  ---------------------------------------------------
  alpha Z        PSCENC =       762.60753795
  Ewald energy   TEWEN  =     33940.01510412
  -Hartree energ DENC   =    -73341.43604043
  -exchange      EXHF   =         0.00000000
  -V(xc)+E(xc)   XCENC  =       906.94791050
  PAW double counting   =     49492.76752967   -48466.40825337
  entropy T*S    EENTRO =        -0.00120617
  eigenvalues    EBANDS =     -6171.25364509
  atomic energy  EATOM  =     42522.70389611
  Solvation  Ediel_sol  =         0.00000000
  ---------------------------------------------------
  free energy    TOTEN  =      -354.05716670 eV

  energy without entropy =     -354.05596054  energy(sigma->0) =     -354.05656362


--------------------------------------------------------------------------------------------------------




--------------------------------------- Iteration      1(  11)  ---------------------------------------


    POTLOK:  cpu time      0.1473: real time      0.1484
    SETDIJ:  cpu time      0.0052: real time      0.0052
     EDDAV:  cpu time     14.4661: real time     14.5350
       DOS:  cpu time      0.0014: real time      0.0014
    CHARGE:  cpu time      0.7365: real time      0.7394
    MIXING:  cpu time      0.0278: real time      0.0279
    --------------------------------------------
      LOOP:  cpu time     15.3843: real time     15.4573

 eigenvalue-minimisations  :  9801
 total energy-change (2. order) : 0.4410221E-01  (-0.3271459E-01)
 number of electron     467.9999995 magnetization 
 augmentation part        8.2146020 magnetization 

 Broyden mixing:
  rms(total) = 0.19147E+00    rms(broyden)= 0.19146E+00
  rms(prec ) = 0.23676E+00
  weight for this iteration     100.00

 eigenvalues of (default mixing * dielectric matrix)
  average eigenvalue GAMMA=   1.1437
  2.2374  1.7266  1.1294  0.6579  0.6579  0.4529

 Free energy of the ion-electron system (eV)
  ---------------------------------------------------
  alpha Z        PSCENC =       762.60753795
  Ewald energy   TEWEN  =     33940.01510412
  -Hartree energ DENC   =    -73348.86466476
  -exchange      EXHF   =         0.00000000
  -V(xc)+E(xc)   XCENC  =       906.99581644
  PAW double counting   =     49838.95513274   -48813.36687376
  entropy T*S    EENTRO =        -0.00446261
  eigenvalues    EBANDS =     -6163.05455070
  atomic energy  EATOM  =     42522.70389611
  Solvation  Ediel_sol  =         0.00000000
  ---------------------------------------------------
  free energy    TOTEN  =      -354.01306449 eV

  energy without entropy =     -354.00860188  energy(sigma->0) =     -354.01083319


--------------------------------------------------------------------------------------------------------




--------------------------------------- Iteration      1(  12)  ---------------------------------------


    POTLOK:  cpu time      0.1470: real time      0.1504
    SETDIJ:  cpu time      0.1588: real time      0.1590
     EDDAV:  cpu time     13.3406: real time     13.4033
       DOS:  cpu time      0.0022: real time      0.0022
    CHARGE:  cpu time      0.7956: real time      0.7985
    MIXING:  cpu time      0.0309: real time      0.0309
    --------------------------------------------
      LOOP:  cpu time     14.4750: real time     14.5442

 eigenvalue-minimisations  :  8800
 total energy-change (2. order) : 0.5303073E-01  (-0.3034999E-01)
 number of electron     467.9999995 magnetization 
 augmentation part        8.1986135 magnetization 

 Broyden mixing:
  rms(total) = 0.11431E+00    rms(broyden)= 0.11429E+00
  rms(prec ) = 0.13265E+00
  weight for this iteration     100.00

 eigenvalues of (default mixing * dielectric matrix)
  average eigenvalue GAMMA=   1.0556
  2.0828  1.8491  0.9259  0.9259  0.6588  0.6588  0.2876

 Free energy of the ion-electron system (eV)
  ---------------------------------------------------
  alpha Z        PSCENC =       762.60753795
  Ewald energy   TEWEN  =     33940.01510412
  -Hartree energ DENC   =    -73356.49143227
  -exchange      EXHF   =         0.00000000
  -V(xc)+E(xc)   XCENC  =       907.13371358
  PAW double counting   =     49869.21552988   -48843.43680305
  entropy T*S    EENTRO =        -0.00685089
  eigenvalues    EBANDS =     -6155.70072919
  atomic energy  EATOM  =     42522.70389611
  Solvation  Ediel_sol  =         0.00000000
  ---------------------------------------------------
  free energy    TOTEN  =      -353.96003376 eV

  energy without entropy =     -353.95318287  energy(sigma->0) =     -353.95660831


--------------------------------------------------------------------------------------------------------




--------------------------------------- Iteration      1(  13)  ---------------------------------------


    POTLOK:  cpu time      0.1467: real time      0.1480
    SETDIJ:  cpu time      0.0052: real time      0.0052
     EDDAV:  cpu time     14.1526: real time     14.2206
       DOS:  cpu time      0.0023: real time      0.0023
    CHARGE:  cpu time      0.8057: real time      0.8089
    MIXING:  cpu time      0.0265: real time      0.0266
    --------------------------------------------
      LOOP:  cpu time     15.1390: real time     15.2117

 eigenvalue-minimisations  :  9394
 total energy-change (2. order) : 0.8511220E-02  (-0.3729092E-02)
 number of electron     467.9999995 magnetization 
 augmentation part        8.1178834 magnetization 

 Broyden mixing:
  rms(total) = 0.82312E-01    rms(broyden)= 0.82312E-01
  rms(prec ) = 0.96104E-01
  weight for this iteration     100.00

 eigenvalues of (default mixing * dielectric matrix)
  average eigenvalue GAMMA=   0.9696
  2.0759  1.7829  0.9148  0.9148  0.6715  0.6715  0.3628  0.3628

 Free energy of the ion-electron system (eV)
  ---------------------------------------------------
  alpha Z        PSCENC =       762.60753795
  Ewald energy   TEWEN  =     33940.01510412
  -Hartree energ DENC   =    -73363.27501797
  -exchange      EXHF   =         0.00000000
  -V(xc)+E(xc)   XCENC  =       907.27543033
  PAW double counting   =     49844.35493960   -48818.27788183
  entropy T*S    EENTRO =        -0.00719117
  eigenvalues    EBANDS =     -6149.34833968
  atomic energy  EATOM  =     42522.70389611
  Solvation  Ediel_sol  =         0.00000000
  ---------------------------------------------------
  free energy    TOTEN  =      -353.95152254 eV

  energy without entropy =     -353.94433137  energy(sigma->0) =     -353.94792696


--------------------------------------------------------------------------------------------------------




--------------------------------------- Iteration      1(  14)  ---------------------------------------


    POTLOK:  cpu time      0.1470: real time      0.1485
    SETDIJ:  cpu time      0.0053: real time      0.0053
     EDDAV:  cpu time     14.5390: real time     14.6074
       DOS:  cpu time      0.0022: real time      0.0022
    CHARGE:  cpu time      0.7619: real time      0.7649
    MIXING:  cpu time      0.0272: real time      0.0273
    --------------------------------------------
      LOOP:  cpu time     15.4826: real time     15.5555

 eigenvalue-minimisations  :  9713
 total energy-change (2. order) : 0.2968660E-02  (-0.5600841E-03)
 number of electron     467.9999995 magnetization 
 augmentation part        8.1258352 magnetization 

 Broyden mixing:
  rms(total) = 0.61010E-01    rms(broyden)= 0.61010E-01
  rms(prec ) = 0.78299E-01
  weight for this iteration     100.00

 eigenvalues of (default mixing * dielectric matrix)
  average eigenvalue GAMMA=   1.0763
  2.3009  1.3565  1.3565  1.2940  1.2940  0.6465  0.6465  0.4855  0.3060

 Free energy of the ion-electron system (eV)
  ---------------------------------------------------
  alpha Z        PSCENC =       762.60753795
  Ewald energy   TEWEN  =     33940.01510412
  -Hartree energ DENC   =    -73365.63576092
  -exchange      EXHF   =         0.00000000
  -V(xc)+E(xc)   XCENC  =       907.30365165
  PAW double counting   =     49827.93194582   -48801.85807213
  entropy T*S    EENTRO =        -0.00704602
  eigenvalues    EBANDS =     -6147.00981047
  atomic energy  EATOM  =     42522.70389611
  Solvation  Ediel_sol  =         0.00000000
  ---------------------------------------------------
  free energy    TOTEN  =      -353.94855388 eV

  energy without entropy =     -353.94150786  energy(sigma->0) =     -353.94503087


--------------------------------------------------------------------------------------------------------




--------------------------------------- Iteration      1(  15)  ---------------------------------------


    POTLOK:  cpu time      0.1475: real time      0.1486
    SETDIJ:  cpu time      0.0052: real time      0.0052
     EDDAV:  cpu time     13.8898: real time     13.9557
       DOS:  cpu time      0.0018: real time      0.0018
    CHARGE:  cpu time      0.7800: real time      0.7830
    MIXING:  cpu time      0.0278: real time      0.0278
    --------------------------------------------
      LOOP:  cpu time     14.8520: real time     14.9221

 eigenvalue-minimisations  :  9152
 total energy-change (2. order) : 0.1004481E-01  (-0.1789079E-02)
 number of electron     467.9999995 magnetization 
 augmentation part        8.1833987 magnetization 

 Broyden mixing:
  rms(total) = 0.37014E-01    rms(broyden)= 0.37013E-01
  rms(prec ) = 0.55344E-01
  weight for this iteration     100.00

 eigenvalues of (default mixing * dielectric matrix)
  average eigenvalue GAMMA=   1.1198
  2.5898  1.9099  1.9099  1.0632  1.0632  0.6475  0.6475  0.6640  0.3996  0.3038

 Free energy of the ion-electron system (eV)
  ---------------------------------------------------
  alpha Z        PSCENC =       762.60753795
  Ewald energy   TEWEN  =     33940.01510412
  -Hartree energ DENC   =    -73375.90054055
  -exchange      EXHF   =         0.00000000
  -V(xc)+E(xc)   XCENC  =       907.41587207
  PAW double counting   =     49829.45748041   -48803.46454283
  entropy T*S    EENTRO =        -0.00741755
  eigenvalues    EBANDS =     -6136.76589879
  atomic energy  EATOM  =     42522.70389611
  Solvation  Ediel_sol  =         0.00000000
  ---------------------------------------------------
  free energy    TOTEN  =      -353.93850907 eV

  energy without entropy =     -353.93109153  energy(sigma->0) =     -353.93480030


--------------------------------------------------------------------------------------------------------




--------------------------------------- Iteration      1(  16)  ---------------------------------------


    POTLOK:  cpu time      0.1472: real time      0.1486
    SETDIJ:  cpu time      0.0052: real time      0.0053
     EDDAV:  cpu time     14.3691: real time     14.4362
       DOS:  cpu time      0.0022: real time      0.0022
    CHARGE:  cpu time      0.7595: real time      0.7626
    MIXING:  cpu time      0.0281: real time      0.0282
    --------------------------------------------
      LOOP:  cpu time     15.3114: real time     15.3831

 eigenvalue-minimisations  :  9625
 total energy-change (2. order) : 0.6279896E-02  (-0.9248904E-03)
 number of electron     467.9999995 magnetization 
 augmentation part        8.1793196 magnetization 

 Broyden mixing:
  rms(total) = 0.36742E-01    rms(broyden)= 0.36741E-01
  rms(prec ) = 0.47343E-01
  weight for this iteration     100.00

 eigenvalues of (default mixing * dielectric matrix)
  average eigenvalue GAMMA=   1.0681
  2.3669  2.0260  2.0260  1.3264  0.7469  0.7469  0.6204  0.6204  0.6027  0.3599
  0.3067

 Free energy of the ion-electron system (eV)
  ---------------------------------------------------
  alpha Z        PSCENC =       762.60753795
  Ewald energy   TEWEN  =     33940.01510412
  -Hartree energ DENC   =    -73385.83233533
  -exchange      EXHF   =         0.00000000
  -V(xc)+E(xc)   XCENC  =       907.54181558
  PAW double counting   =     49824.75893438   -48798.65754299
  entropy T*S    EENTRO =        -0.00729573
  eigenvalues    EBANDS =     -6127.06234326
  atomic energy  EATOM  =     42522.70389611
  Solvation  Ediel_sol  =         0.00000000
  ---------------------------------------------------
  free energy    TOTEN  =      -353.93222918 eV

  energy without entropy =     -353.92493344  energy(sigma->0) =     -353.92858131


--------------------------------------------------------------------------------------------------------




--------------------------------------- Iteration      1(  17)  ---------------------------------------


    POTLOK:  cpu time      0.1471: real time      0.1483
    SETDIJ:  cpu time      0.0053: real time      0.0053
     EDDAV:  cpu time     13.8018: real time     13.8674
       DOS:  cpu time      0.0019: real time      0.0019
    CHARGE:  cpu time      0.7825: real time      0.7856
    MIXING:  cpu time      0.0262: real time      0.0262
    --------------------------------------------
      LOOP:  cpu time     14.7648: real time     14.8347

 eigenvalue-minimisations  :  9031
 total energy-change (2. order) : 0.3628148E-03  (-0.2385238E-03)
 number of electron     467.9999995 magnetization 
 augmentation part        8.1726562 magnetization 

 Broyden mixing:
  rms(total) = 0.28133E-01    rms(broyden)= 0.28133E-01
  rms(prec ) = 0.39674E-01
  weight for this iteration     100.00

 eigenvalues of (default mixing * dielectric matrix)
  average eigenvalue GAMMA=   1.0548
  2.4894  2.0528  2.0528  1.3761  0.8222  0.8222  0.6916  0.6483  0.6483  0.3039
  0.3789  0.3718

 Free energy of the ion-electron system (eV)
  ---------------------------------------------------
  alpha Z        PSCENC =       762.60753795
  Ewald energy   TEWEN  =     33940.01510412
  -Hartree energ DENC   =    -73387.61844058
  -exchange      EXHF   =         0.00000000
  -V(xc)+E(xc)   XCENC  =       907.55234907
  PAW double counting   =     49816.67763432   -48790.54620817
  entropy T*S    EENTRO =        -0.00735785
  eigenvalues    EBANDS =     -6125.31638133
  atomic energy  EATOM  =     42522.70389611
  Solvation  Ediel_sol  =         0.00000000
  ---------------------------------------------------
  free energy    TOTEN  =      -353.93186636 eV

  energy without entropy =     -353.92450851  energy(sigma->0) =     -353.92818744


--------------------------------------------------------------------------------------------------------




--------------------------------------- Iteration      1(  18)  ---------------------------------------


    POTLOK:  cpu time      0.1471: real time      0.1483
    SETDIJ:  cpu time      0.0053: real time      0.0053
     EDDAV:  cpu time     14.0076: real time     14.0727
       DOS:  cpu time      0.0022: real time      0.0022
    CHARGE:  cpu time      0.7764: real time      0.7794
    MIXING:  cpu time      0.0278: real time      0.0279
    --------------------------------------------
      LOOP:  cpu time     14.9664: real time     15.0358

 eigenvalue-minimisations  :  9218
 total energy-change (2. order) : 0.8525700E-03  (-0.2091138E-03)
 number of electron     467.9999995 magnetization 
 augmentation part        8.1736590 magnetization 

 Broyden mixing:
  rms(total) = 0.25135E-01    rms(broyden)= 0.25134E-01
  rms(prec ) = 0.35863E-01
  weight for this iteration     100.00

 eigenvalues of (default mixing * dielectric matrix)
  average eigenvalue GAMMA=   1.0869
  2.8477  1.9685  1.9685  1.5027  1.1164  1.1164  0.8119  0.6465  0.6465  0.4988
  0.3799  0.3049  0.3208

 Free energy of the ion-electron system (eV)
  ---------------------------------------------------
  alpha Z        PSCENC =       762.60753795
  Ewald energy   TEWEN  =     33940.01510412
  -Hartree energ DENC   =    -73391.79446268
  -exchange      EXHF   =         0.00000000
  -V(xc)+E(xc)   XCENC  =       907.57699537
  PAW double counting   =     49822.58759451   -48796.45155987
  entropy T*S    EENTRO =        -0.00733928
  eigenvalues    EBANDS =     -6121.16878002
  atomic energy  EATOM  =     42522.70389611
  Solvation  Ediel_sol  =         0.00000000
  ---------------------------------------------------
  free energy    TOTEN  =      -353.93101379 eV

  energy without entropy =     -353.92367451  energy(sigma->0) =     -353.92734415


--------------------------------------------------------------------------------------------------------




--------------------------------------- Iteration      1(  19)  ---------------------------------------


    POTLOK:  cpu time      0.1471: real time      0.1484
    SETDIJ:  cpu time      0.0053: real time      0.0053
     EDDAV:  cpu time     13.5765: real time     13.6419
       DOS:  cpu time      0.0022: real time      0.0022
    CHARGE:  cpu time      0.7838: real time      0.7868
    MIXING:  cpu time      0.0273: real time      0.0274
    --------------------------------------------
      LOOP:  cpu time     14.5422: real time     14.6120

 eigenvalue-minimisations  :  8800
 total energy-change (2. order) : 0.1171644E-02  (-0.3538188E-03)
 number of electron     467.9999995 magnetization 
 augmentation part        8.1694454 magnetization 

 Broyden mixing:
  rms(total) = 0.19066E-01    rms(broyden)= 0.19066E-01
  rms(prec ) = 0.26108E-01
  weight for this iteration     100.00

 eigenvalues of (default mixing * dielectric matrix)
  average eigenvalue GAMMA=   1.1672
  2.9040  2.9040  2.0394  2.0394  1.1660  0.9070  0.9070  0.6414  0.6414  0.6802
  0.5129  0.3822  0.3053  0.3101

 Free energy of the ion-electron system (eV)
  ---------------------------------------------------
  alpha Z        PSCENC =       762.60753795
  Ewald energy   TEWEN  =     33940.01510412
  -Hartree energ DENC   =    -73402.94180039
  -exchange      EXHF   =         0.00000000
  -V(xc)+E(xc)   XCENC  =       907.64423392
  PAW double counting   =     49845.10850571   -48818.95776594
  entropy T*S    EENTRO =        -0.00716896
  eigenvalues    EBANDS =     -6110.10238467
  atomic energy  EATOM  =     42522.70389611
  Solvation  Ediel_sol  =         0.00000000
  ---------------------------------------------------
  free energy    TOTEN  =      -353.92984215 eV

  energy without entropy =     -353.92267319  energy(sigma->0) =     -353.92625767


--------------------------------------------------------------------------------------------------------




--------------------------------------- Iteration      1(  20)  ---------------------------------------


    POTLOK:  cpu time      0.1488: real time      0.1505
    SETDIJ:  cpu time      0.0052: real time      0.0052
     EDDAV:  cpu time     13.5903: real time     13.6549
       DOS:  cpu time      0.0022: real time      0.0022
    CHARGE:  cpu time      0.7575: real time      0.7606
    MIXING:  cpu time      0.0281: real time      0.0282
    --------------------------------------------
      LOOP:  cpu time     14.5321: real time     14.6016

 eigenvalue-minimisations  :  8976
 total energy-change (2. order) :-0.1664760E-02  (-0.3368491E-03)
 number of electron     467.9999995 magnetization 
 augmentation part        8.1523486 magnetization 

 Broyden mixing:
  rms(total) = 0.30553E-01    rms(broyden)= 0.30553E-01
  rms(prec ) = 0.32894E-01
  weight for this iteration     100.00

 eigenvalues of (default mixing * dielectric matrix)
  average eigenvalue GAMMA=   1.1322
  3.0761  3.0761  1.9674  1.9674  1.2828  0.8716  0.8716  0.6457  0.6457  0.6646
  0.4665  0.4665  0.3664  0.3031  0.3116

 Free energy of the ion-electron system (eV)
  ---------------------------------------------------
  alpha Z        PSCENC =       762.60753795
  Ewald energy   TEWEN  =     33940.01510412
  -Hartree energ DENC   =    -73412.46537886
  -exchange      EXHF   =         0.00000000
  -V(xc)+E(xc)   XCENC  =       907.67713780
  PAW double counting   =     49843.49802563   -48817.31895081
  entropy T*S    EENTRO =        -0.00721998
  eigenvalues    EBANDS =     -6100.64165886
  atomic energy  EATOM  =     42522.70389611
  Solvation  Ediel_sol  =         0.00000000
  ---------------------------------------------------
  free energy    TOTEN  =      -353.93150691 eV

  energy without entropy =     -353.92428693  energy(sigma->0) =     -353.92789692


--------------------------------------------------------------------------------------------------------




--------------------------------------- Iteration      1(  21)  ---------------------------------------


    POTLOK:  cpu time      0.1504: real time      0.1519
    SETDIJ:  cpu time      0.0055: real time      0.0056
     EDDAV:  cpu time     14.6122: real time     14.6811
       DOS:  cpu time      0.0012: real time      0.0018
    CHARGE:  cpu time      0.7841: real time      0.7873
    MIXING:  cpu time      0.0276: real time      0.0279
    --------------------------------------------
      LOOP:  cpu time     15.5810: real time     15.6559

 eigenvalue-minimisations  :  9636
 total energy-change (2. order) :-0.5238448E-03  (-0.4564457E-04)
 number of electron     467.9999995 magnetization 
 augmentation part        8.1539238 magnetization 

 Broyden mixing:
  rms(total) = 0.26473E-01    rms(broyden)= 0.26473E-01
  rms(prec ) = 0.28328E-01
  weight for this iteration     100.00

 eigenvalues of (default mixing * dielectric matrix)
  average eigenvalue GAMMA=   1.1629
  3.1736  3.1736  1.7703  1.7703  1.7585  1.0835  1.0835  0.7913  0.7913  0.6403
  0.6403  0.5500  0.3821  0.3821  0.3046  0.3110

 Free energy of the ion-electron system (eV)
  ---------------------------------------------------
  alpha Z        PSCENC =       762.60753795
  Ewald energy   TEWEN  =     33940.01510412
  -Hartree energ DENC   =    -73414.57966398
  -exchange      EXHF   =         0.00000000
  -V(xc)+E(xc)   XCENC  =       907.68152865
  PAW double counting   =     49834.34254947   -48808.17891747
  entropy T*S    EENTRO =        -0.00723813
  eigenvalues    EBANDS =     -6098.51682747
  atomic energy  EATOM  =     42522.70389611
  Solvation  Ediel_sol  =         0.00000000
  ---------------------------------------------------
  free energy    TOTEN  =      -353.93203075 eV

  energy without entropy =     -353.92479262  energy(sigma->0) =     -353.92841169


--------------------------------------------------------------------------------------------------------




--------------------------------------- Iteration      1(  22)  ---------------------------------------


    POTLOK:  cpu time      0.1481: real time      0.1547
    SETDIJ:  cpu time      0.0052: real time      0.0054
     EDDAV:  cpu time     12.9734: real time     13.0335
       DOS:  cpu time      0.0012: real time      0.0020
    CHARGE:  cpu time      0.7406: real time      0.7437
    MIXING:  cpu time      0.0268: real time      0.0271
    --------------------------------------------
      LOOP:  cpu time     13.8953: real time     13.9662

 eigenvalue-minimisations  :  8382
 total energy-change (2. order) :-0.1726270E-02  (-0.2122565E-03)
 number of electron     467.9999995 magnetization 
 augmentation part        8.1744159 magnetization 

 Broyden mixing:
  rms(total) = 0.83712E-02    rms(broyden)= 0.83711E-02
  rms(prec ) = 0.10637E-01
  weight for this iteration     100.00

 eigenvalues of (default mixing * dielectric matrix)
  average eigenvalue GAMMA=   1.2774
  5.3485  2.7808  2.0188  2.0188  1.3851  1.3851  1.1338  0.8881  0.8881  0.6391
  0.6391  0.6499  0.5650  0.3844  0.3758  0.3045  0.3109

 Free energy of the ion-electron system (eV)
  ---------------------------------------------------
  alpha Z        PSCENC =       762.60753795
  Ewald energy   TEWEN  =     33940.01510412
  -Hartree energ DENC   =    -73420.36041163
  -exchange      EXHF   =         0.00000000
  -V(xc)+E(xc)   XCENC  =       907.70843906
  PAW double counting   =     49799.13177840   -48773.02486557
  entropy T*S    EENTRO =        -0.00721842
  eigenvalues    EBANDS =     -6092.70801703
  atomic energy  EATOM  =     42522.70389611
  Solvation  Ediel_sol  =         0.00000000
  ---------------------------------------------------
  free energy    TOTEN  =      -353.93375702 eV

  energy without entropy =     -353.92653860  energy(sigma->0) =     -353.93014781


--------------------------------------------------------------------------------------------------------




--------------------------------------- Iteration      1(  23)  ---------------------------------------


    POTLOK:  cpu time      0.1491: real time      0.1559
    SETDIJ:  cpu time      0.0052: real time      0.0055
     EDDAV:  cpu time     13.2157: real time     13.2775
       DOS:  cpu time      0.0012: real time      0.0018
    CHARGE:  cpu time      0.7818: real time      0.7863
    MIXING:  cpu time      0.0279: real time      0.0282
    --------------------------------------------
      LOOP:  cpu time     14.1810: real time     14.2553

 eigenvalue-minimisations  :  8635
 total energy-change (2. order) :-0.2519336E-02  (-0.8544706E-04)
 number of electron     467.9999995 magnetization 
 augmentation part        8.1722633 magnetization 

 Broyden mixing:
  rms(total) = 0.97214E-02    rms(broyden)= 0.97214E-02
  rms(prec ) = 0.10302E-01
  weight for this iteration     100.00

 eigenvalues of (default mixing * dielectric matrix)
  average eigenvalue GAMMA=   1.3977
  7.6918  2.3233  2.3233  2.2971  1.5249  1.5249  1.0494  0.9116  0.9116  0.7034
  0.7034  0.6306  0.6306  0.5559  0.3827  0.3786  0.3044  0.3110

 Free energy of the ion-electron system (eV)
  ---------------------------------------------------
  alpha Z        PSCENC =       762.60753795
  Ewald energy   TEWEN  =     33940.01510412
  -Hartree energ DENC   =    -73427.62425308
  -exchange      EXHF   =         0.00000000
  -V(xc)+E(xc)   XCENC  =       907.74221653
  PAW double counting   =     49795.06351784   -48768.95560873
  entropy T*S    EENTRO =        -0.00716445
  eigenvalues    EBANDS =     -6085.48152264
  atomic energy  EATOM  =     42522.70389611
  Solvation  Ediel_sol  =         0.00000000
  ---------------------------------------------------
  free energy    TOTEN  =      -353.93627636 eV

  energy without entropy =     -353.92911191  energy(sigma->0) =     -353.93269413


--------------------------------------------------------------------------------------------------------




--------------------------------------- Iteration      1(  24)  ---------------------------------------


    POTLOK:  cpu time      0.1480: real time      0.1546
    SETDIJ:  cpu time      0.0052: real time      0.0054
     EDDAV:  cpu time     13.7423: real time     13.8071
       DOS:  cpu time      0.0011: real time      0.0017
    CHARGE:  cpu time      0.7712: real time      0.7745
    MIXING:  cpu time      0.0282: real time      0.0285
    --------------------------------------------
      LOOP:  cpu time     14.6960: real time     14.7716

 eigenvalue-minimisations  :  8998
 total energy-change (2. order) :-0.6707710E-03  (-0.1928358E-04)
 number of electron     467.9999995 magnetization 
 augmentation part        8.1696078 magnetization 

 Broyden mixing:
  rms(total) = 0.94682E-02    rms(broyden)= 0.94682E-02
  rms(prec ) = 0.98565E-02
  weight for this iteration     100.00

 eigenvalues of (default mixing * dielectric matrix)
  average eigenvalue GAMMA=   1.3845
  8.2580  2.4237  2.4237  2.0954  1.5734  1.5734  0.9648  0.9648  1.0460  0.7058
  0.7058  0.6302  0.6302  0.5649  0.3045  0.3109  0.3884  0.3706  0.3706

 Free energy of the ion-electron system (eV)
  ---------------------------------------------------
  alpha Z        PSCENC =       762.60753795
  Ewald energy   TEWEN  =     33940.01510412
  -Hartree energ DENC   =    -73428.91938180
  -exchange      EXHF   =         0.00000000
  -V(xc)+E(xc)   XCENC  =       907.74840924
  PAW double counting   =     49797.74062990   -48771.63431762
  entropy T*S    EENTRO =        -0.00718649
  eigenvalues    EBANDS =     -6084.19163854
  atomic energy  EATOM  =     42522.70389611
  Solvation  Ediel_sol  =         0.00000000
  ---------------------------------------------------
  free energy    TOTEN  =      -353.93694713 eV

  energy without entropy =     -353.92976064  energy(sigma->0) =     -353.93335388


--------------------------------------------------------------------------------------------------------




--------------------------------------- Iteration      1(  25)  ---------------------------------------


    POTLOK:  cpu time      0.1463: real time      0.1520
    SETDIJ:  cpu time      0.0051: real time      0.0055
     EDDAV:  cpu time     13.9734: real time     14.0392
       DOS:  cpu time      0.0024: real time      0.0024
    CHARGE:  cpu time      0.7645: real time      0.7688
    MIXING:  cpu time      0.0286: real time      0.0287
    --------------------------------------------
      LOOP:  cpu time     14.9203: real time     14.9964

 eigenvalue-minimisations  :  9229
 total energy-change (2. order) :-0.2039578E-03  (-0.3582576E-05)
 number of electron     467.9999995 magnetization 
 augmentation part        8.1679691 magnetization 

 Broyden mixing:
  rms(total) = 0.73268E-02    rms(broyden)= 0.73268E-02
  rms(prec ) = 0.75543E-02
  weight for this iteration     100.00

 eigenvalues of (default mixing * dielectric matrix)
  average eigenvalue GAMMA=   1.4143
  8.8893  2.4348  2.4348  1.9707  1.7361  1.7361  1.1063  1.1063  1.0580  0.8122
  0.7110  0.7110  0.6380  0.6380  0.5497  0.3045  0.3110  0.3857  0.3857  0.3658

 Free energy of the ion-electron system (eV)
  ---------------------------------------------------
  alpha Z        PSCENC =       762.60753795
  Ewald energy   TEWEN  =     33940.01510412
  -Hartree energ DENC   =    -73429.20427096
  -exchange      EXHF   =         0.00000000
  -V(xc)+E(xc)   XCENC  =       907.75068154
  PAW double counting   =     49799.47095482   -48773.36282865
  entropy T*S    EENTRO =        -0.00721060
  eigenvalues    EBANDS =     -6083.91101542
  atomic energy  EATOM  =     42522.70389611
  Solvation  Ediel_sol  =         0.00000000
  ---------------------------------------------------
  free energy    TOTEN  =      -353.93715109 eV

  energy without entropy =     -353.92994048  energy(sigma->0) =     -353.93354578


--------------------------------------------------------------------------------------------------------




--------------------------------------- Iteration      1(  26)  ---------------------------------------


    POTLOK:  cpu time      0.1484: real time      0.1497
    SETDIJ:  cpu time      0.0057: real time      0.0057
     EDDAV:  cpu time     13.6241: real time     13.6889
       DOS:  cpu time      0.0199: real time      0.0200
    CHARGE:  cpu time      0.7591: real time      0.7620
    MIXING:  cpu time      0.0274: real time      0.0275
    --------------------------------------------
      LOOP:  cpu time     14.5845: real time     14.6536

 eigenvalue-minimisations  :  8965
 total energy-change (2. order) :-0.3456987E-03  (-0.3081904E-05)
 number of electron     467.9999995 magnetization 
 augmentation part        8.1655114 magnetization 

 Broyden mixing:
  rms(total) = 0.24162E-02    rms(broyden)= 0.24162E-02
  rms(prec ) = 0.25386E-02
  weight for this iteration     100.00

 eigenvalues of (default mixing * dielectric matrix)
  average eigenvalue GAMMA=   1.5589
 10.8973  2.9026  2.9026  2.0685  1.7510  1.7510  1.4418  1.1692  0.9751  0.9751
  0.8611  0.7370  0.7370  0.6352  0.6352  0.5576  0.3045  0.3110  0.3820  0.3820
  0.3605

 Free energy of the ion-electron system (eV)
  ---------------------------------------------------
  alpha Z        PSCENC =       762.60753795
  Ewald energy   TEWEN  =     33940.01510412
  -Hartree energ DENC   =    -73429.62510622
  -exchange      EXHF   =         0.00000000
  -V(xc)+E(xc)   XCENC  =       907.75346241
  PAW double counting   =     49803.13337063   -48777.01937449
  entropy T*S    EENTRO =        -0.00726633
  eigenvalues    EBANDS =     -6083.49912096
  atomic energy  EATOM  =     42522.70389611
  Solvation  Ediel_sol  =         0.00000000
  ---------------------------------------------------
  free energy    TOTEN  =      -353.93749679 eV

  energy without entropy =     -353.93023046  energy(sigma->0) =     -353.93386362


--------------------------------------------------------------------------------------------------------




--------------------------------------- Iteration      1(  27)  ---------------------------------------


    POTLOK:  cpu time      0.1493: real time      0.1505
    SETDIJ:  cpu time      0.0058: real time      0.0058
     EDDAV:  cpu time     12.1981: real time     12.2556
       DOS:  cpu time      0.0022: real time      0.0022
    CHARGE:  cpu time      0.7794: real time      0.7824
    MIXING:  cpu time      0.0282: real time      0.0283
    --------------------------------------------
      LOOP:  cpu time     13.1630: real time     13.2249

 eigenvalue-minimisations  :  7678
 total energy-change (2. order) :-0.1510303E-03  (-0.3616666E-05)
 number of electron     467.9999995 magnetization 
 augmentation part        8.1660850 magnetization 

 Broyden mixing:
  rms(total) = 0.23234E-02    rms(broyden)= 0.23234E-02
  rms(prec ) = 0.23736E-02
  weight for this iteration     100.00

 eigenvalues of (default mixing * dielectric matrix)
  average eigenvalue GAMMA=   1.5435
 11.4587  3.3412  2.4119  2.0560  1.8051  1.8051  1.5183  0.9890  0.9890  1.0079
  0.9124  0.7612  0.6752  0.6752  0.6309  0.6309  0.5481  0.3045  0.3110  0.3825
  0.3810  0.3624

 Free energy of the ion-electron system (eV)
  ---------------------------------------------------
  alpha Z        PSCENC =       762.60753795
  Ewald energy   TEWEN  =     33940.01510412
  -Hartree energ DENC   =    -73430.17592938
  -exchange      EXHF   =         0.00000000
  -V(xc)+E(xc)   XCENC  =       907.75475177
  PAW double counting   =     49804.31615911   -48778.20384233
  entropy T*S    EENTRO =        -0.00726577
  eigenvalues    EBANDS =     -6082.94805940
  atomic energy  EATOM  =     42522.70389611
  Solvation  Ediel_sol  =         0.00000000
  ---------------------------------------------------
  free energy    TOTEN  =      -353.93764782 eV

  energy without entropy =     -353.93038205  energy(sigma->0) =     -353.93401493


--------------------------------------------------------------------------------------------------------




--------------------------------------- Iteration      1(  28)  ---------------------------------------


    POTLOK:  cpu time      0.1496: real time      0.1507
    SETDIJ:  cpu time      0.0056: real time      0.0057
     EDDAV:  cpu time     11.6483: real time     11.7041
       DOS:  cpu time      0.0021: real time      0.0021
    CHARGE:  cpu time      0.7732: real time      0.7761
    MIXING:  cpu time      0.0282: real time      0.0283
    --------------------------------------------
      LOOP:  cpu time     12.6070: real time     12.6670

 eigenvalue-minimisations  :  7183
 total energy-change (2. order) :-0.7282528E-05  (-0.3289145E-06)
 number of electron     467.9999995 magnetization 
 augmentation part        8.1662901 magnetization 

 Broyden mixing:
  rms(total) = 0.16663E-02    rms(broyden)= 0.16662E-02
  rms(prec ) = 0.17077E-02
  weight for this iteration     100.00

 eigenvalues of (default mixing * dielectric matrix)
  average eigenvalue GAMMA=   1.5356
 11.8480  3.4721  2.1617  2.1617  1.8904  1.8904  1.5002  1.0696  1.0696  0.9428
  0.9428  0.8596  0.7762  0.7762  0.6348  0.6348  0.5499  0.3045  0.3110  0.3989
  0.3822  0.3822  0.3604

 Free energy of the ion-electron system (eV)
  ---------------------------------------------------
  alpha Z        PSCENC =       762.60753795
  Ewald energy   TEWEN  =     33940.01510412
  -Hartree energ DENC   =    -73430.14544810
  -exchange      EXHF   =         0.00000000
  -V(xc)+E(xc)   XCENC  =       907.75302639
  PAW double counting   =     49804.06713424   -48777.95599163
  entropy T*S    EENTRO =        -0.00726458
  eigenvalues    EBANDS =     -6082.97564960
  atomic energy  EATOM  =     42522.70389611
  Solvation  Ediel_sol  =         0.00000000
  ---------------------------------------------------
  free energy    TOTEN  =      -353.93765510 eV

  energy without entropy =     -353.93039052  energy(sigma->0) =     -353.93402281


--------------------------------------------------------------------------------------------------------




--------------------------------------- Iteration      1(  29)  ---------------------------------------


    POTLOK:  cpu time      0.1483: real time      0.1494
    SETDIJ:  cpu time      0.0052: real time      0.0053
     EDDAV:  cpu time     10.3928: real time     10.4413
       DOS:  cpu time      0.0025: real time      0.0025
    CHARGE:  cpu time      0.7781: real time      0.7812
    MIXING:  cpu time      0.0283: real time      0.0284
    --------------------------------------------
      LOOP:  cpu time     11.3553: real time     11.4080

 eigenvalue-minimisations  :  6237
 total energy-change (2. order) :-0.8729548E-05  (-0.1915192E-06)
 number of electron     467.9999995 magnetization 
 augmentation part        8.1663861 magnetization 

 Broyden mixing:
  rms(total) = 0.66347E-03    rms(broyden)= 0.66346E-03
  rms(prec ) = 0.71032E-03
  weight for this iteration     100.00

 eigenvalues of (default mixing * dielectric matrix)
  average eigenvalue GAMMA=   1.5910
 12.5340  3.5954  2.5129  2.5129  1.9362  1.9362  1.5262  1.2693  1.1415  1.1415
  0.9151  0.9151  0.7790  0.7552  0.7552  0.6345  0.6345  0.5548  0.3045  0.3110
  0.3932  0.3817  0.3817  0.3618

 Free energy of the ion-electron system (eV)
  ---------------------------------------------------
  alpha Z        PSCENC =       762.60753795
  Ewald energy   TEWEN  =     33940.01510412
  -Hartree energ DENC   =    -73430.09275012
  -exchange      EXHF   =         0.00000000
  -V(xc)+E(xc)   XCENC  =       907.75097875
  PAW double counting   =     49803.54182192   -48777.43147588
  entropy T*S    EENTRO =        -0.00726353
  eigenvalues    EBANDS =     -6083.02551315
  atomic energy  EATOM  =     42522.70389611
  Solvation  Ediel_sol  =         0.00000000
  ---------------------------------------------------
  free energy    TOTEN  =      -353.93766383 eV

  energy without entropy =     -353.93040030  energy(sigma->0) =     -353.93403206


--------------------------------------------------------------------------------------------------------




--------------------------------------- Iteration      1(  30)  ---------------------------------------


    POTLOK:  cpu time      0.1465: real time      0.1478
    SETDIJ:  cpu time      0.0053: real time      0.0053
     EDDAV:  cpu time     10.0697: real time     10.1166
       DOS:  cpu time      0.0012: real time      0.0017
    CHARGE:  cpu time      0.7341: real time      0.7372
    MIXING:  cpu time      0.0282: real time      0.0285
    --------------------------------------------
      LOOP:  cpu time     10.9850: real time     11.0374

 eigenvalue-minimisations  :  5995
 total energy-change (2. order) :-0.2464625E-04  (-0.2854239E-06)
 number of electron     467.9999995 magnetization 
 augmentation part        8.1668261 magnetization 

 Broyden mixing:
  rms(total) = 0.32103E-03    rms(broyden)= 0.32102E-03
  rms(prec ) = 0.35899E-03
  weight for this iteration     100.00

 eigenvalues of (default mixing * dielectric matrix)
  average eigenvalue GAMMA=   1.6018
 13.0971  3.7119  2.5819  2.5819  1.8906  1.8906  1.7132  1.2848  1.1547  1.1547
  0.9747  0.9747  0.7727  0.7727  0.7663  0.7663  0.6346  0.6346  0.5541  0.3045
  0.3110  0.3929  0.3820  0.3820  0.3610

 Free energy of the ion-electron system (eV)
  ---------------------------------------------------
  alpha Z        PSCENC =       762.60753795
  Ewald energy   TEWEN  =     33940.01510412
  -Hartree energ DENC   =    -73430.13130685
  -exchange      EXHF   =         0.00000000
  -V(xc)+E(xc)   XCENC  =       907.75032490
  PAW double counting   =     49803.06754260   -48776.95712996
  entropy T*S    EENTRO =        -0.00726173
  eigenvalues    EBANDS =     -6082.98639561
  atomic energy  EATOM  =     42522.70389611
  Solvation  Ediel_sol  =         0.00000000
  ---------------------------------------------------
  free energy    TOTEN  =      -353.93768847 eV

  energy without entropy =     -353.93042674  energy(sigma->0) =     -353.93405761


--------------------------------------------------------------------------------------------------------




--------------------------------------- Iteration      1(  31)  ---------------------------------------


    POTLOK:  cpu time      0.1464: real time      0.1526
    SETDIJ:  cpu time      0.0052: real time      0.0055
     EDDAV:  cpu time      9.8185: real time      9.8663
       DOS:  cpu time      0.0011: real time      0.0018
    CHARGE:  cpu time      0.7509: real time      0.7542
    MIXING:  cpu time      0.0276: real time      0.0279
    --------------------------------------------
      LOOP:  cpu time     10.7497: real time     10.8084

 eigenvalue-minimisations  :  5764
 total energy-change (2. order) :-0.3906222E-05  (-0.5135402E-07)
 number of electron     467.9999995 magnetization 
 augmentation part        8.1669242 magnetization 

 Broyden mixing:
  rms(total) = 0.34332E-03    rms(broyden)= 0.34332E-03
  rms(prec ) = 0.36794E-03
  weight for this iteration     100.00

 eigenvalues of (default mixing * dielectric matrix)
  average eigenvalue GAMMA=   1.5860
 13.1552  3.7060  2.6653  1.8956  1.8956  2.1768  2.0231  1.2321  1.2321  1.0898
  1.0898  1.1481  0.8868  0.8868  0.7526  0.7526  0.6341  0.6341  0.6921  0.5540
  0.3045  0.3110  0.3611  0.3820  0.3820  0.3945

 Free energy of the ion-electron system (eV)
  ---------------------------------------------------
  alpha Z        PSCENC =       762.60753795
  Ewald energy   TEWEN  =     33940.01510412
  -Hartree energ DENC   =    -73430.15437153
  -exchange      EXHF   =         0.00000000
  -V(xc)+E(xc)   XCENC  =       907.75044944
  PAW double counting   =     49803.29301921   -48777.18285617
  entropy T*S    EENTRO =        -0.00726203
  eigenvalues    EBANDS =     -6082.96320948
  atomic energy  EATOM  =     42522.70389611
  Solvation  Ediel_sol  =         0.00000000
  ---------------------------------------------------
  free energy    TOTEN  =      -353.93769238 eV

  energy without entropy =     -353.93043035  energy(sigma->0) =     -353.93406136


--------------------------------------------------------------------------------------------------------




--------------------------------------- Iteration      1(  32)  ---------------------------------------


    POTLOK:  cpu time      0.1462: real time      0.1525
    SETDIJ:  cpu time      0.0056: real time      0.0058
     EDDAV:  cpu time      8.3555: real time      8.3938
       DOS:  cpu time      0.0016: real time      0.0022
    CHARGE:  cpu time      0.7120: real time      0.7150
    MIXING:  cpu time      0.0286: real time      0.0289
    --------------------------------------------
      LOOP:  cpu time      9.2494: real time      9.2983

 eigenvalue-minimisations  :  4587
 total energy-change (2. order) :-0.1698638E-05  (-0.1426077E-07)
 number of electron     467.9999995 magnetization 
 augmentation part        8.1669212 magnetization 

 Broyden mixing:
  rms(total) = 0.25324E-03    rms(broyden)= 0.25323E-03
  rms(prec ) = 0.27769E-03
  weight for this iteration     100.00

 eigenvalues of (default mixing * dielectric matrix)
  average eigenvalue GAMMA=   1.5829
 13.1861  3.7423  2.8797  2.1390  2.1390  1.9686  1.9686  1.4854  1.4854  1.1400
  1.1400  0.9320  0.9320  0.9503  0.7563  0.7563  0.7221  0.6339  0.6339  0.5537
  0.3045  0.3110  0.4601  0.3611  0.3940  0.3821  0.3821

 Free energy of the ion-electron system (eV)
  ---------------------------------------------------
  alpha Z        PSCENC =       762.60753795
  Ewald energy   TEWEN  =     33940.01510412
  -Hartree energ DENC   =    -73430.16433399
  -exchange      EXHF   =         0.00000000
  -V(xc)+E(xc)   XCENC  =       907.75056432
  PAW double counting   =     49803.33099730   -48777.22086920
  entropy T*S    EENTRO =        -0.00726288
  eigenvalues    EBANDS =     -6082.95332782
  atomic energy  EATOM  =     42522.70389611
  Solvation  Ediel_sol  =         0.00000000
  ---------------------------------------------------
  free energy    TOTEN  =      -353.93769408 eV

  energy without entropy =     -353.93043120  energy(sigma->0) =     -353.93406264


--------------------------------------------------------------------------------------------------------




--------------------------------------- Iteration      1(  33)  ---------------------------------------


    POTLOK:  cpu time      0.1454: real time      0.1521
    SETDIJ:  cpu time      0.0052: real time      0.0054
     EDDAV:  cpu time      8.9359: real time      8.9792
       DOS:  cpu time      0.0012: real time      0.0018
    CHARGE:  cpu time      0.7227: real time      0.7257
    MIXING:  cpu time      0.0287: real time      0.0289
    --------------------------------------------
      LOOP:  cpu time      9.8390: real time      9.8929

 eigenvalue-minimisations  :  5192
 total energy-change (2. order) :-0.1630848E-05  (-0.2947522E-07)
 number of electron     467.9999995 magnetization 
 augmentation part        8.1668900 magnetization 

 Broyden mixing:
  rms(total) = 0.16886E-03    rms(broyden)= 0.16886E-03
  rms(prec ) = 0.18266E-03
  weight for this iteration     100.00

 eigenvalues of (default mixing * dielectric matrix)
  average eigenvalue GAMMA=   1.6078
 13.1806  4.2797  3.0942  2.3138  2.3138  1.8987  1.8987  2.0398  1.3794  1.1647
  1.1647  0.9784  0.9784  0.8654  0.8654  0.7503  0.7503  0.7327  0.6345  0.6345
  0.5542  0.3045  0.3110  0.3610  0.3820  0.3820  0.3948  0.4126

 Free energy of the ion-electron system (eV)
  ---------------------------------------------------
  alpha Z        PSCENC =       762.60753795
  Ewald energy   TEWEN  =     33940.01510412
  -Hartree energ DENC   =    -73430.17724161
  -exchange      EXHF   =         0.00000000
  -V(xc)+E(xc)   XCENC  =       907.75066542
  PAW double counting   =     49803.32742181   -48777.21716697
  entropy T*S    EENTRO =        -0.00726391
  eigenvalues    EBANDS =     -6082.94064862
  atomic energy  EATOM  =     42522.70389611
  Solvation  Ediel_sol  =         0.00000000
  ---------------------------------------------------
  free energy    TOTEN  =      -353.93769571 eV

  energy without entropy =     -353.93043180  energy(sigma->0) =     -353.93406375


--------------------------------------------------------------------------------------------------------




--------------------------------------- Iteration      1(  34)  ---------------------------------------


    POTLOK:  cpu time      0.1455: real time      0.1528
    SETDIJ:  cpu time      0.0054: real time      0.0057
     EDDAV:  cpu time      9.1429: real time      9.1865
       DOS:  cpu time      0.0014: real time      0.0022
    --------------------------------------------
      LOOP:  cpu time      9.2951: real time      9.3471

 eigenvalue-minimisations  :  5357
 total energy-change (2. order) :-0.8328789E-07  (-0.3574219E-07)
 number of electron     467.9999995 magnetization 
 augmentation part        8.1668900 magnetization 

 Free energy of the ion-electron system (eV)
  ---------------------------------------------------
  alpha Z        PSCENC =       762.60753795
  Ewald energy   TEWEN  =     33940.01510412
  -Hartree energ DENC   =    -73430.18479541
  -exchange      EXHF   =         0.00000000
  -V(xc)+E(xc)   XCENC  =       907.75063476
  PAW double counting   =     49803.29927265   -48777.18867644
  entropy T*S    EENTRO =        -0.00726431
  eigenvalues    EBANDS =     -6082.93340523
  atomic energy  EATOM  =     42522.70389611
  Solvation  Ediel_sol  =         0.00000000
  ---------------------------------------------------
  free energy    TOTEN  =      -353.93769579 eV

  energy without entropy =     -353.93043148  energy(sigma->0) =     -353.93406364


--------------------------------------------------------------------------------------------------------




 average (electrostatic) potential at core
  the test charge radii are     1.0818  0.9698  1.1897
  (the norm of the test charge is              1.0000)
       1 -79.2832       2 -79.2819       3 -79.2829       4 -79.2821       5 -79.2830
       6 -79.2828       7 -79.2825       8 -79.2824       9 -79.2830      10 -77.8871
      11 -77.8871      12 -77.8872      13 -77.8870      14 -77.8870      15 -77.8872
      16 -77.8871      17 -77.8872      18 -77.8872      19 -88.7037      20 -88.7039
      21 -88.7002      22 -88.7040      23 -88.7039      24 -88.7025      25 -88.7019
      26 -88.7023      27 -88.7028      28 -88.7902      29 -88.7859      30 -88.7866
      31 -88.7859      32 -88.7860      33 -88.7873      34 -88.7884      35 -88.7870
      36 -88.7876      37 -90.8302      38 -90.8302      39 -90.8309      40 -90.8302
      41 -90.8307      42 -90.8307      43 -90.8309      44 -90.8307      45 -90.8308
      46 -90.8261      47 -90.8261      48 -90.8262      49 -90.8261      50 -90.8262
      51 -90.8261      52 -90.8262      53 -90.8261      54 -90.8262
 
 
 
 E-fermi :   3.5242     XC(G=0):  -7.3843     alpha+bet : -8.8552

 val. band max:        3.5033865254   @ k =   0.4000   0.4000   0.0000
 cond. band min:       3.6661361137   @ k =   0.0000   0.2000   0.0000
 fundamental gap:      0.1627495883
 Fermi energy:         3.5242351360

 k-point     1 :       0.0000    0.0000    0.0000
  band No.  band energies     occupation 
      1     -58.4868      2.00000
      2     -58.4748      2.00000
      3     -58.4746      2.00000
      4     -58.4743      2.00000
      5     -58.4743      2.00000
      6     -58.4739      2.00000
      7     -58.4739      2.00000
      8     -58.4682      2.00000
      9     -58.4678      2.00000
     10     -57.1543      2.00000
     11     -57.1417      2.00000
     12     -57.1417      2.00000
     13     -57.1417      2.00000
     14     -57.1416      2.00000
     15     -57.1416      2.00000
     16     -57.1416      2.00000
     17     -57.1353      2.00000
     18     -57.1353      2.00000
     19     -32.6578      2.00000
     20     -32.6569      2.00000
     21     -32.6552      2.00000
     22     -32.6548      2.00000
     23     -32.6545      2.00000
     24     -32.6545      2.00000
     25     -32.6542      2.00000
     26     -32.6540      2.00000
     27     -32.6285      2.00000
     28     -32.6283      2.00000
     29     -32.5381      2.00000
     30     -32.5377      2.00000
     31     -32.5374      2.00000
     32     -32.5373      2.00000
     33     -32.5373      2.00000
     34     -32.5370      2.00000
     35     -32.5147      2.00000
     36     -32.5019      2.00000
     37     -32.5019      2.00000
     38     -32.4862      2.00000
     39     -32.4860      2.00000
     40     -32.4855      2.00000
     41     -32.4855      2.00000
     42     -32.4851      2.00000
     43     -32.4851      2.00000
     44     -32.4713      2.00000
     45     -32.4707      2.00000
     46     -31.4088      2.00000
     47     -31.3767      2.00000
     48     -31.3767      2.00000
     49     -31.3767      2.00000
     50     -31.3766      2.00000
     51     -31.3766      2.00000
     52     -31.3766      2.00000
     53     -31.3606      2.00000
     54     -31.3606      2.00000
     55     -31.2908      2.00000
     56     -31.2908      2.00000
     57     -31.2908      2.00000
     58     -31.2908      2.00000
     59     -31.2908      2.00000
     60     -31.2907      2.00000
     61     -31.2896      2.00000
     62     -31.2896      2.00000
     63     -31.2697      2.00000
     64     -31.2697      2.00000
     65     -31.1780      2.00000
     66     -31.1780      2.00000
     67     -31.1780      2.00000
     68     -31.1779      2.00000
     69     -31.1779      2.00000
     70     -31.1779      2.00000
     71     -31.1434      2.00000
     72     -31.1434      2.00000
     73     -11.2021      2.00000
     74     -10.2289      2.00000
     75     -10.2266      2.00000
     76     -10.2260      2.00000
     77     -10.2259      2.00000
     78     -10.2258      2.00000
     79     -10.2243      2.00000
     80      -9.9114      2.00000
     81      -9.6594      2.00000
     82      -9.6584      2.00000
     83      -9.6224      2.00000
     84      -9.4592      2.00000
     85      -9.4571      2.00000
     86      -9.4570      2.00000
     87      -9.4569      2.00000
     88      -9.4564      2.00000
     89      -9.4537      2.00000
     90      -9.2211      2.00000
     91      -9.2187      2.00000
     92      -8.8491      2.00000
     93      -8.1028      2.00000
     94      -8.1028      2.00000
     95      -8.1028      2.00000
     96      -8.1027      2.00000
     97      -8.1026      2.00000
     98      -8.1026      2.00000
     99      -7.6916      2.00000
    100      -7.6916      2.00000
    101      -7.6916      2.00000
    102      -7.6914      2.00000
    103      -7.6914      2.00000
    104      -7.6914      2.00000
    105      -6.7834      2.00000
    106      -6.7834      2.00000
    107      -6.7449      2.00000
    108      -6.7449      2.00000
    109      -2.8778      2.00000
    110      -2.4689      2.00000
    111      -2.4675      2.00000
    112      -2.4672      2.00000
    113      -2.4669      2.00000
    114      -2.4666      2.00000
    115      -2.4657      2.00000
    116      -2.4040      2.00000
    117      -2.4034      2.00000
    118      -1.8091      2.00000
    119      -1.7640      2.00000
    120      -1.7639      2.00000
    121      -1.5599      2.00000
    122      -1.5589      2.00000
    123      -1.5585      2.00000
    124      -1.5583      2.00000
    125      -1.5577      2.00000
    126      -1.5572      2.00000
    127      -1.5309      2.00000
    128      -1.5305      2.00000
    129      -1.4703      2.00000
    130      -1.4703      2.00000
    131      -1.2847      2.00000
    132      -1.2844      2.00000
    133      -1.2512      2.00000
    134      -1.2510      2.00000
    135      -1.2491      2.00000
    136      -1.2487      2.00000
    137      -1.2482      2.00000
    138      -1.2478      2.00000
    139      -1.0767      2.00000
    140      -1.0765      2.00000
    141      -1.0764      2.00000
    142      -1.0762      2.00000
    143      -1.0757      2.00000
    144      -1.0755      2.00000
    145      -1.0163      2.00000
    146      -1.0155      2.00000
    147      -0.7673      2.00000
    148      -0.7673      2.00000
    149      -0.5765      2.00000
    150      -0.5765      2.00000
    151      -0.5764      2.00000
    152      -0.5763      2.00000
    153      -0.5762      2.00000
    154      -0.5759      2.00000
    155      -0.4354      2.00000
    156      -0.4306      2.00000
    157      -0.4295      2.00000
    158      -0.4293      2.00000
    159      -0.4292      2.00000
    160      -0.4289      2.00000
    161      -0.4224      2.00000
    162      -0.4214      2.00000
    163      -0.2141      2.00000
    164      -0.2141      2.00000
    165      -0.2139      2.00000
    166      -0.2137      2.00000
    167      -0.2136      2.00000
    168      -0.2133      2.00000
    169      -0.0215      2.00000
    170      -0.0214      2.00000
    171      -0.0155      2.00000
    172      -0.0151      2.00000
    173       0.5121      2.00000
    174       0.5121      2.00000
    175       0.6065      2.00000
    176       0.6155      2.00000
    177       0.6187      2.00000
    178       0.6192      2.00000
    179       0.6192      2.00000
    180       0.6196      2.00000
    181       0.6226      2.00000
    182       0.6656      2.00000
    183       0.6698      2.00000
    184       0.8908      2.00000
    185       0.8932      2.00000
    186       1.2205      2.00000
    187       1.2214      2.00000
    188       1.2216      2.00000
    189       1.2224      2.00000
    190       1.2228      2.00000
    191       1.2239      2.00000
    192       1.3729      2.00000
    193       1.3729      2.00000
    194       1.5673      2.00000
    195       1.5673      2.00000
    196       1.5673      2.00000
    197       1.5674      2.00000
    198       1.5674      2.00000
    199       1.5674      2.00000
    200       1.6671      2.00000
    201       1.6688      2.00000
    202       1.6697      2.00000
    203       1.6714      2.00000
    204       1.6717      2.00000
    205       1.6726      2.00000
    206       1.8509      2.00000
    207       1.8959      2.00000
    208       1.8966      2.00000
    209       1.8969      2.00000
    210       1.8972      2.00000
    211       1.8980      2.00000
    212       1.9001      2.00000
    213       2.0316      2.00000
    214       2.0316      2.00000
    215       2.2615      2.00000
    216       2.2616      2.00000
    217       2.2616      2.00000
    218       2.2619      2.00000
    219       2.2620      2.00000
    220       2.2621      2.00000
    221       2.3616      2.00000
    222       2.3632      2.00000
    223       2.5854      2.00000
    224       2.8287      2.00000
    225       2.8287      2.00000
    226       3.1773      2.00000
    227       3.1774      2.00000
    228       3.1774      2.00000
    229       3.1774      2.00000
    230       3.1774      2.00000
    231       3.1774      2.00000
    232       3.4066      1.99912
    233       3.4066      1.99912
    234       3.4623      1.92011
    235       3.4868      1.71027
    236       3.4870      1.70755
    237       4.3491      0.00000
    238       4.3511      0.00000
    239       4.3518      0.00000
    240       4.3519      0.00000
    241       4.3525      0.00000
    242       4.3544      0.00000
    243       4.6396      0.00000
    244       4.6405      0.00000
    245       4.6410      0.00000
    246       4.6413      0.00000
    247       4.6419      0.00000
    248       4.6433      0.00000
    249       4.8498      0.00000
    250       4.8547      0.00000
    251       4.9252      0.00000
    252       4.9252      0.00000
    253       4.9385      0.00000
    254       4.9385      0.00000
    255       4.9417      0.00000
    256       4.9431      0.00000
    257       4.9435      0.00000
    258       4.9440      0.00000
    259       4.9445      0.00000
    260       4.9447      0.00000
    261       5.2432      0.00000
    262       5.2450      0.00000
    263       5.4499      0.00000
    264       5.4500      0.00000
    265       5.4501      0.00000
    266       5.4501      0.00000
    267       5.4501      0.00000
    268       5.4501      0.00000
    269       5.5397      0.00000
    270       5.5414      0.00000
    271       5.5826      0.00000
    272       5.5865      0.00000
    273       5.5868      0.00000
    274       5.5869      0.00000
    275       5.5873      0.00000
    276       5.5919      0.00000
    277       5.6654      0.00000
    278       5.6657      0.00000
    279       6.1934      0.00000
    280       6.1958      0.00000
    281       6.1965      0.00000
    282       6.1969      0.00000
    283       6.1983      0.00000
    284       6.2004      0.00000
    285       6.3852      0.00000
    286       6.3856      0.00000

 k-point     2 :       0.2000    0.0000    0.0000
  band No.  band energies     occupation 
      1     -58.4861      2.00000
      2     -58.4776      2.00000
      3     -58.4758      2.00000
      4     -58.4754      2.00000
      5     -58.4728      2.00000
      6     -58.4724      2.00000
      7     -58.4717      2.00000
      8     -58.4686      2.00000
      9     -58.4682      2.00000
     10     -57.1536      2.00000
     11     -57.1450      2.00000
     12     -57.1430      2.00000
     13     -57.1430      2.00000
     14     -57.1400      2.00000
     15     -57.1400      2.00000
     16     -57.1391      2.00000
     17     -57.1357      2.00000
     18     -57.1357      2.00000
     19     -32.6854      2.00000
     20     -32.6706      2.00000
     21     -32.6701      2.00000
     22     -32.6678      2.00000
     23     -32.6671      2.00000
     24     -32.6362      2.00000
     25     -32.6356      2.00000
     26     -32.6147      2.00000
     27     -32.6129      2.00000
     28     -32.6127      2.00000
     29     -32.5463      2.00000
     30     -32.5461      2.00000
     31     -32.5447      2.00000
     32     -32.5370      2.00000
     33     -32.5369      2.00000
     34     -32.5281      2.00000
     35     -32.5130      2.00000
     36     -32.5108      2.00000
     37     -32.5040      2.00000
     38     -32.4933      2.00000
     39     -32.4889      2.00000
     40     -32.4883      2.00000
     41     -32.4820      2.00000
     42     -32.4815      2.00000
     43     -32.4796      2.00000
     44     -32.4721      2.00000
     45     -32.4716      2.00000
     46     -31.4069      2.00000
     47     -31.3851      2.00000
     48     -31.3800      2.00000
     49     -31.3800      2.00000
     50     -31.3724      2.00000
     51     -31.3724      2.00000
     52     -31.3700      2.00000
     53     -31.3616      2.00000
     54     -31.3615      2.00000
     55     -31.3207      2.00000
     56     -31.3060      2.00000
     57     -31.3060      2.00000
     58     -31.3017      2.00000
     59     -31.3017      2.00000
     60     -31.2728      2.00000
     61     -31.2728      2.00000
     62     -31.2524      2.00000
     63     -31.2523      2.00000
     64     -31.2523      2.00000
     65     -31.1865      2.00000
     66     -31.1865      2.00000
     67     -31.1850      2.00000
     68     -31.1775      2.00000
     69     -31.1775      2.00000
     70     -31.1689      2.00000
     71     -31.1520      2.00000
     72     -31.1454      2.00000
     73     -11.1513      2.00000
     74     -10.5064      2.00000
     75     -10.3394      2.00000
     76     -10.3381      2.00000
     77     -10.0802      2.00000
     78     -10.0789      2.00000
     79      -9.9922      2.00000
     80      -9.8744      2.00000
     81      -9.6927      2.00000
     82      -9.6916      2.00000
     83      -9.5671      2.00000
     84      -9.5640      2.00000
     85      -9.4992      2.00000
     86      -9.4976      2.00000
     87      -9.4017      2.00000
     88      -9.3999      2.00000
     89      -9.3703      2.00000
     90      -9.2369      2.00000
     91      -9.2345      2.00000
     92      -8.7972      2.00000
     93      -8.6206      2.00000
     94      -8.3223      2.00000
     95      -8.3222      2.00000
     96      -8.0655      2.00000
     97      -7.8477      2.00000
     98      -7.8477      2.00000
     99      -7.7992      2.00000
    100      -7.7992      2.00000
    101      -7.5929      2.00000
    102      -7.4763      2.00000
    103      -7.4762      2.00000
    104      -7.3374      2.00000
    105      -6.8723      2.00000
    106      -6.8723      2.00000
    107      -6.8123      2.00000
    108      -6.8123      2.00000
    109      -2.8170      2.00000
    110      -2.6609      2.00000
    111      -2.5320      2.00000
    112      -2.5318      2.00000
    113      -2.3595      2.00000
    114      -2.3587      2.00000
    115      -2.3392      2.00000
    116      -2.3306      2.00000
    117      -2.3300      2.00000
    118      -2.0430      2.00000
    119      -2.0122      2.00000
    120      -2.0122      2.00000
    121      -1.7357      2.00000
    122      -1.7248      2.00000
    123      -1.7245      2.00000
    124      -1.7225      2.00000
    125      -1.7224      2.00000
    126      -1.5702      2.00000
    127      -1.5078      2.00000
    128      -1.5077      2.00000
    129      -1.4720      2.00000
    130      -1.4712      2.00000
    131      -1.4441      2.00000
    132      -1.4406      2.00000
    133      -1.4094      2.00000
    134      -1.4089      2.00000
    135      -1.3294      2.00000
    136      -1.3287      2.00000
    137      -1.1627      2.00000
    138      -1.1621      2.00000
    139      -1.1444      2.00000
    140      -1.1434      2.00000
    141      -1.0704      2.00000
    142      -1.0437      2.00000
    143      -0.8650      2.00000
    144      -0.8648      2.00000
    145      -0.8184      2.00000
    146      -0.8181      2.00000
    147      -0.7916      2.00000
    148      -0.7912      2.00000
    149      -0.6820      2.00000
    150      -0.5979      2.00000
    151      -0.5421      2.00000
    152      -0.5153      2.00000
    153      -0.5136      2.00000
    154      -0.4257      2.00000
    155      -0.4233      2.00000
    156      -0.3693      2.00000
    157      -0.3336      2.00000
    158      -0.3334      2.00000
    159      -0.2045      2.00000
    160      -0.2043      2.00000
    161      -0.1968      2.00000
    162      -0.1299      2.00000
    163      -0.1177      2.00000
    164      -0.1173      2.00000
    165      -0.1161      2.00000
    166      -0.1160      2.00000
    167      -0.1036      2.00000
    168      -0.1033      2.00000
    169       0.0438      2.00000
    170       0.0912      2.00000
    171       0.0969      2.00000
    172       0.0971      2.00000
    173       0.3266      2.00000
    174       0.3314      2.00000
    175       0.4229      2.00000
    176       0.4242      2.00000
    177       0.5246      2.00000
    178       0.5246      2.00000
    179       0.5810      2.00000
    180       0.6238      2.00000
    181       0.6257      2.00000
    182       0.8116      2.00000
    183       0.8572      2.00000
    184       0.9929      2.00000
    185       0.9949      2.00000
    186       1.0127      2.00000
    187       1.0130      2.00000
    188       1.0910      2.00000
    189       1.1661      2.00000
    190       1.1667      2.00000
    191       1.3659      2.00000
    192       1.3867      2.00000
    193       1.3878      2.00000
    194       1.4207      2.00000
    195       1.4208      2.00000
    196       1.4521      2.00000
    197       1.5538      2.00000
    198       1.5694      2.00000
    199       1.5701      2.00000
    200       1.7025      2.00000
    201       1.7031      2.00000
    202       1.8348      2.00000
    203       1.8415      2.00000
    204       1.8430      2.00000
    205       1.8485      2.00000
    206       1.8907      2.00000
    207       1.8915      2.00000
    208       1.8935      2.00000
    209       1.8996      2.00000
    210       1.9379      2.00000
    211       2.0934      2.00000
    212       2.0956      2.00000
    213       2.1046      2.00000
    214       2.1046      2.00000
    215       2.1127      2.00000
    216       2.1128      2.00000
    217       2.1529      2.00000
    218       2.1530      2.00000
    219       2.2384      2.00000
    220       2.2397      2.00000
    221       2.3650      2.00000
    222       2.3684      2.00000
    223       2.5777      2.00000
    224       2.7368      2.00000
    225       2.8126      2.00000
    226       2.8677      2.00000
    227       3.0577      2.00000
    228       3.0577      2.00000
    229       3.2589      2.00000
    230       3.2590      2.00000
    231       3.3292      2.00000
    232       3.3292      2.00000
    233       3.3615      2.00000
    234       3.3999      1.99956
    235       3.6662      0.00006
    236       3.6667      0.00006
    237       4.2370      0.00000
    238       4.3046      0.00000
    239       4.3066      0.00000
    240       4.4150      0.00000
    241       4.4157      0.00000
    242       4.5312      0.00000
    243       4.5677      0.00000
    244       4.5680      0.00000
    245       4.6169      0.00000
    246       4.6180      0.00000
    247       4.6471      0.00000
    248       4.6577      0.00000
    249       4.8036      0.00000
    250       4.9074      0.00000
    251       4.9084      0.00000
    252       4.9111      0.00000
    253       4.9118      0.00000
    254       4.9383      0.00000
    255       4.9544      0.00000
    256       4.9558      0.00000
    257       4.9570      0.00000
    258       5.0464      0.00000
    259       5.0538      0.00000
    260       5.0538      0.00000
    261       5.1777      0.00000
    262       5.1788      0.00000
    263       5.2786      0.00000
    264       5.2938      0.00000
    265       5.2983      0.00000
    266       5.3013      0.00000
    267       5.3958      0.00000
    268       5.3959      0.00000
    269       5.3976      0.00000
    270       5.3988      0.00000
    271       5.5346      0.00000
    272       5.5346      0.00000
    273       5.6589      0.00000
    274       5.6613      0.00000
    275       5.6711      0.00000
    276       5.6715      0.00000
    277       5.7265      0.00000
    278       5.8871      0.00000
    279       5.9746      0.00000
    280       6.0249      0.00000
    281       6.0255      0.00000
    282       6.0628      0.00000
    283       6.2073      0.00000
    284       6.2078      0.00000
    285       6.2726      0.00000
    286       6.2746      0.00000

 k-point     3 :       0.2000    0.2000    0.0000
  band No.  band energies     occupation 
      1     -58.4861      2.00000
      2     -58.4776      2.00000
      3     -58.4758      2.00000
      4     -58.4754      2.00000
      5     -58.4728      2.00000
      6     -58.4724      2.00000
      7     -58.4717      2.00000
      8     -58.4686      2.00000
      9     -58.4682      2.00000
     10     -57.1536      2.00000
     11     -57.1450      2.00000
     12     -57.1430      2.00000
     13     -57.1430      2.00000
     14     -57.1400      2.00000
     15     -57.1400      2.00000
     16     -57.1391      2.00000
     17     -57.1357      2.00000
     18     -57.1357      2.00000
     19     -32.6855      2.00000
     20     -32.6705      2.00000
     21     -32.6702      2.00000
     22     -32.6678      2.00000
     23     -32.6671      2.00000
     24     -32.6360      2.00000
     25     -32.6357      2.00000
     26     -32.6148      2.00000
     27     -32.6129      2.00000
     28     -32.6127      2.00000
     29     -32.5464      2.00000
     30     -32.5461      2.00000
     31     -32.5447      2.00000
     32     -32.5372      2.00000
     33     -32.5367      2.00000
     34     -32.5281      2.00000
     35     -32.5130      2.00000
     36     -32.5108      2.00000
     37     -32.5039      2.00000
     38     -32.4933      2.00000
     39     -32.4889      2.00000
     40     -32.4883      2.00000
     41     -32.4820      2.00000
     42     -32.4815      2.00000
     43     -32.4795      2.00000
     44     -32.4721      2.00000
     45     -32.4716      2.00000
     46     -31.4069      2.00000
     47     -31.3851      2.00000
     48     -31.3800      2.00000
     49     -31.3800      2.00000
     50     -31.3724      2.00000
     51     -31.3724      2.00000
     52     -31.3700      2.00000
     53     -31.3616      2.00000
     54     -31.3615      2.00000
     55     -31.3207      2.00000
     56     -31.3060      2.00000
     57     -31.3060      2.00000
     58     -31.3017      2.00000
     59     -31.3017      2.00000
     60     -31.2728      2.00000
     61     -31.2728      2.00000
     62     -31.2524      2.00000
     63     -31.2523      2.00000
     64     -31.2523      2.00000
     65     -31.1865      2.00000
     66     -31.1865      2.00000
     67     -31.1850      2.00000
     68     -31.1775      2.00000
     69     -31.1775      2.00000
     70     -31.1689      2.00000
     71     -31.1520      2.00000
     72     -31.1454      2.00000
     73     -11.1513      2.00000
     74     -10.5062      2.00000
     75     -10.3396      2.00000
     76     -10.3383      2.00000
     77     -10.0803      2.00000
     78     -10.0791      2.00000
     79      -9.9918      2.00000
     80      -9.8744      2.00000
     81      -9.6927      2.00000
     82      -9.6917      2.00000
     83      -9.5671      2.00000
     84      -9.5644      2.00000
     85      -9.4989      2.00000
     86      -9.4973      2.00000
     87      -9.4015      2.00000
     88      -9.3996      2.00000
     89      -9.3710      2.00000
     90      -9.2368      2.00000
     91      -9.2345      2.00000
     92      -8.7972      2.00000
     93      -8.6206      2.00000
     94      -8.3223      2.00000
     95      -8.3222      2.00000
     96      -8.0655      2.00000
     97      -7.8477      2.00000
     98      -7.8477      2.00000
     99      -7.7992      2.00000
    100      -7.7992      2.00000
    101      -7.5929      2.00000
    102      -7.4763      2.00000
    103      -7.4762      2.00000
    104      -7.3374      2.00000
    105      -6.8723      2.00000
    106      -6.8723      2.00000
    107      -6.8123      2.00000
    108      -6.8123      2.00000
    109      -2.8170      2.00000
    110      -2.6610      2.00000
    111      -2.5320      2.00000
    112      -2.5317      2.00000
    113      -2.3596      2.00000
    114      -2.3588      2.00000
    115      -2.3389      2.00000
    116      -2.3306      2.00000
    117      -2.3299      2.00000
    118      -2.0429      2.00000
    119      -2.0122      2.00000
    120      -2.0119      2.00000
    121      -1.7357      2.00000
    122      -1.7250      2.00000
    123      -1.7243      2.00000
    124      -1.7225      2.00000
    125      -1.7223      2.00000
    126      -1.5699      2.00000
    127      -1.5078      2.00000
    128      -1.5077      2.00000
    129      -1.4724      2.00000
    130      -1.4715      2.00000
    131      -1.4436      2.00000
    132      -1.4402      2.00000
    133      -1.4091      2.00000
    134      -1.4085      2.00000
    135      -1.3294      2.00000
    136      -1.3290      2.00000
    137      -1.1632      2.00000
    138      -1.1626      2.00000
    139      -1.1446      2.00000
    140      -1.1441      2.00000
    141      -1.0699      2.00000
    142      -1.0441      2.00000
    143      -0.8654      2.00000
    144      -0.8648      2.00000
    145      -0.8186      2.00000
    146      -0.8185      2.00000
    147      -0.7912      2.00000
    148      -0.7908      2.00000
    149      -0.6825      2.00000
    150      -0.5962      2.00000
    151      -0.5414      2.00000
    152      -0.5166      2.00000
    153      -0.5150      2.00000
    154      -0.4251      2.00000
    155      -0.4238      2.00000
    156      -0.3701      2.00000
    157      -0.3335      2.00000
    158      -0.3335      2.00000
    159      -0.2046      2.00000
    160      -0.2043      2.00000
    161      -0.1947      2.00000
    162      -0.1299      2.00000
    163      -0.1181      2.00000
    164      -0.1174      2.00000
    165      -0.1161      2.00000
    166      -0.1160      2.00000
    167      -0.1036      2.00000
    168      -0.1032      2.00000
    169       0.0438      2.00000
    170       0.0913      2.00000
    171       0.0970      2.00000
    172       0.0971      2.00000
    173       0.3264      2.00000
    174       0.3295      2.00000
    175       0.4229      2.00000
    176       0.4241      2.00000
    177       0.5246      2.00000
    178       0.5247      2.00000
    179       0.5845      2.00000
    180       0.6241      2.00000
    181       0.6263      2.00000
    182       0.8103      2.00000
    183       0.8576      2.00000
    184       0.9930      2.00000
    185       0.9952      2.00000
    186       1.0126      2.00000
    187       1.0133      2.00000
    188       1.0904      2.00000
    189       1.1662      2.00000
    190       1.1666      2.00000
    191       1.3659      2.00000
    192       1.3872      2.00000
    193       1.3882      2.00000
    194       1.4207      2.00000
    195       1.4208      2.00000
    196       1.4521      2.00000
    197       1.5533      2.00000
    198       1.5689      2.00000
    199       1.5701      2.00000
    200       1.7027      2.00000
    201       1.7032      2.00000
    202       1.8352      2.00000
    203       1.8423      2.00000
    204       1.8444      2.00000
    205       1.8485      2.00000
    206       1.8908      2.00000
    207       1.8917      2.00000
    208       1.8936      2.00000
    209       1.8979      2.00000
    210       1.9371      2.00000
    211       2.0934      2.00000
    212       2.0946      2.00000
    213       2.1046      2.00000
    214       2.1047      2.00000
    215       2.1128      2.00000
    216       2.1129      2.00000
    217       2.1530      2.00000
    218       2.1531      2.00000
    219       2.2384      2.00000
    220       2.2397      2.00000
    221       2.3649      2.00000
    222       2.3683      2.00000
    223       2.5776      2.00000
    224       2.7368      2.00000
    225       2.8126      2.00000
    226       2.8677      2.00000
    227       3.0577      2.00000
    228       3.0577      2.00000
    229       3.2589      2.00000
    230       3.2590      2.00000
    231       3.3292      2.00000
    232       3.3292      2.00000
    233       3.3613      2.00000
    234       3.3999      1.99956
    235       3.6663      0.00006
    236       3.6667      0.00006
    237       4.2363      0.00000
    238       4.3047      0.00000
    239       4.3064      0.00000
    240       4.4147      0.00000
    241       4.4161      0.00000
    242       4.5316      0.00000
    243       4.5675      0.00000
    244       4.5681      0.00000
    245       4.6170      0.00000
    246       4.6179      0.00000
    247       4.6471      0.00000
    248       4.6576      0.00000
    249       4.8076      0.00000
    250       4.9071      0.00000
    251       4.9084      0.00000
    252       4.9112      0.00000
    253       4.9117      0.00000
    254       4.9387      0.00000
    255       4.9518      0.00000
    256       4.9557      0.00000
    257       4.9560      0.00000
    258       5.0464      0.00000
    259       5.0538      0.00000
    260       5.0538      0.00000
    261       5.1772      0.00000
    262       5.1793      0.00000
    263       5.2798      0.00000
    264       5.2938      0.00000
    265       5.2984      0.00000
    266       5.3015      0.00000
    267       5.3958      0.00000
    268       5.3959      0.00000
    269       5.3974      0.00000
    270       5.3988      0.00000
    271       5.5344      0.00000
    272       5.5346      0.00000
    273       5.6577      0.00000
    274       5.6602      0.00000
    275       5.6708      0.00000
    276       5.6713      0.00000
    277       5.7261      0.00000
    278       5.8890      0.00000
    279       5.9729      0.00000
    280       6.0260      0.00000
    281       6.0262      0.00000
    282       6.0629      0.00000
    283       6.2072      0.00000
    284       6.2077      0.00000
    285       6.2702      0.00000
    286       6.2735      0.00000

 k-point     4 :       0.0000    0.2000    0.0000
  band No.  band energies     occupation 
      1     -58.4861      2.00000
      2     -58.4776      2.00000
      3     -58.4758      2.00000
      4     -58.4754      2.00000
      5     -58.4728      2.00000
      6     -58.4725      2.00000
      7     -58.4717      2.00000
      8     -58.4686      2.00000
      9     -58.4682      2.00000
     10     -57.1536      2.00000
     11     -57.1450      2.00000
     12     -57.1430      2.00000
     13     -57.1430      2.00000
     14     -57.1400      2.00000
     15     -57.1400      2.00000
     16     -57.1391      2.00000
     17     -57.1357      2.00000
     18     -57.1357      2.00000
     19     -32.6855      2.00000
     20     -32.6706      2.00000
     21     -32.6701      2.00000
     22     -32.6678      2.00000
     23     -32.6671      2.00000
     24     -32.6362      2.00000
     25     -32.6356      2.00000
     26     -32.6147      2.00000
     27     -32.6130      2.00000
     28     -32.6126      2.00000
     29     -32.5464      2.00000
     30     -32.5461      2.00000
     31     -32.5447      2.00000
     32     -32.5371      2.00000
     33     -32.5368      2.00000
     34     -32.5281      2.00000
     35     -32.5130      2.00000
     36     -32.5108      2.00000
     37     -32.5040      2.00000
     38     -32.4933      2.00000
     39     -32.4889      2.00000
     40     -32.4883      2.00000
     41     -32.4820      2.00000
     42     -32.4815      2.00000
     43     -32.4795      2.00000
     44     -32.4721      2.00000
     45     -32.4716      2.00000
     46     -31.4069      2.00000
     47     -31.3851      2.00000
     48     -31.3800      2.00000
     49     -31.3800      2.00000
     50     -31.3724      2.00000
     51     -31.3724      2.00000
     52     -31.3700      2.00000
     53     -31.3616      2.00000
     54     -31.3615      2.00000
     55     -31.3207      2.00000
     56     -31.3060      2.00000
     57     -31.3060      2.00000
     58     -31.3017      2.00000
     59     -31.3017      2.00000
     60     -31.2728      2.00000
     61     -31.2728      2.00000
     62     -31.2524      2.00000
     63     -31.2523      2.00000
     64     -31.2523      2.00000
     65     -31.1865      2.00000
     66     -31.1865      2.00000
     67     -31.1850      2.00000
     68     -31.1775      2.00000
     69     -31.1775      2.00000
     70     -31.1689      2.00000
     71     -31.1520      2.00000
     72     -31.1454      2.00000
     73     -11.1513      2.00000
     74     -10.5063      2.00000
     75     -10.3397      2.00000
     76     -10.3380      2.00000
     77     -10.0804      2.00000
     78     -10.0789      2.00000
     79      -9.9920      2.00000
     80      -9.8744      2.00000
     81      -9.6927      2.00000
     82      -9.6916      2.00000
     83      -9.5671      2.00000
     84      -9.5642      2.00000
     85      -9.4989      2.00000
     86      -9.4976      2.00000
     87      -9.4016      2.00000
     88      -9.3999      2.00000
     89      -9.3706      2.00000
     90      -9.2368      2.00000
     91      -9.2345      2.00000
     92      -8.7972      2.00000
     93      -8.6206      2.00000
     94      -8.3223      2.00000
     95      -8.3222      2.00000
     96      -8.0655      2.00000
     97      -7.8477      2.00000
     98      -7.8477      2.00000
     99      -7.7992      2.00000
    100      -7.7992      2.00000
    101      -7.5929      2.00000
    102      -7.4763      2.00000
    103      -7.4762      2.00000
    104      -7.3374      2.00000
    105      -6.8723      2.00000
    106      -6.8723      2.00000
    107      -6.8123      2.00000
    108      -6.8123      2.00000
    109      -2.8170      2.00000
    110      -2.6610      2.00000
    111      -2.5321      2.00000
    112      -2.5316      2.00000
    113      -2.3600      2.00000
    114      -2.3584      2.00000
    115      -2.3390      2.00000
    116      -2.3307      2.00000
    117      -2.3299      2.00000
    118      -2.0429      2.00000
    119      -2.0122      2.00000
    120      -2.0120      2.00000
    121      -1.7357      2.00000
    122      -1.7249      2.00000
    123      -1.7244      2.00000
    124      -1.7225      2.00000
    125      -1.7223      2.00000
    126      -1.5701      2.00000
    127      -1.5078      2.00000
    128      -1.5077      2.00000
    129      -1.4723      2.00000
    130      -1.4713      2.00000
    131      -1.4439      2.00000
    132      -1.4404      2.00000
    133      -1.4095      2.00000
    134      -1.4084      2.00000
    135      -1.3295      2.00000
    136      -1.3288      2.00000
    137      -1.1632      2.00000
    138      -1.1621      2.00000
    139      -1.1445      2.00000
    140      -1.1438      2.00000
    141      -1.0701      2.00000
    142      -1.0439      2.00000
    143      -0.8653      2.00000
    144      -0.8647      2.00000
    145      -0.8185      2.00000
    146      -0.8183      2.00000
    147      -0.7915      2.00000
    148      -0.7909      2.00000
    149      -0.6822      2.00000
    150      -0.5970      2.00000
    151      -0.5418      2.00000
    152      -0.5155      2.00000
    153      -0.5147      2.00000
    154      -0.4255      2.00000
    155      -0.4234      2.00000
    156      -0.3697      2.00000
    157      -0.3335      2.00000
    158      -0.3335      2.00000
    159      -0.2046      2.00000
    160      -0.2043      2.00000
    161      -0.1957      2.00000
    162      -0.1299      2.00000
    163      -0.1178      2.00000
    164      -0.1174      2.00000
    165      -0.1161      2.00000
    166      -0.1159      2.00000
    167      -0.1037      2.00000
    168      -0.1032      2.00000
    169       0.0438      2.00000
    170       0.0913      2.00000
    171       0.0969      2.00000
    172       0.0971      2.00000
    173       0.3265      2.00000
    174       0.3305      2.00000
    175       0.4223      2.00000
    176       0.4247      2.00000
    177       0.5246      2.00000
    178       0.5247      2.00000
    179       0.5828      2.00000
    180       0.6237      2.00000
    181       0.6262      2.00000
    182       0.8109      2.00000
    183       0.8574      2.00000
    184       0.9930      2.00000
    185       0.9951      2.00000
    186       1.0126      2.00000
    187       1.0132      2.00000
    188       1.0907      2.00000
    189       1.1661      2.00000
    190       1.1667      2.00000
    191       1.3659      2.00000
    192       1.3870      2.00000
    193       1.3879      2.00000
    194       1.4207      2.00000
    195       1.4208      2.00000
    196       1.4521      2.00000
    197       1.5536      2.00000
    198       1.5692      2.00000
    199       1.5701      2.00000
    200       1.7024      2.00000
    201       1.7034      2.00000
    202       1.8350      2.00000
    203       1.8422      2.00000
    204       1.8435      2.00000
    205       1.8485      2.00000
    206       1.8905      2.00000
    207       1.8918      2.00000
    208       1.8935      2.00000
    209       1.8988      2.00000
    210       1.9375      2.00000
    211       2.0934      2.00000
    212       2.0951      2.00000
    213       2.1046      2.00000
    214       2.1047      2.00000
    215       2.1127      2.00000
    216       2.1129      2.00000
    217       2.1529      2.00000
    218       2.1531      2.00000
    219       2.2383      2.00000
    220       2.2398      2.00000
    221       2.3649      2.00000
    222       2.3683      2.00000
    223       2.5777      2.00000
    224       2.7368      2.00000
    225       2.8126      2.00000
    226       2.8677      2.00000
    227       3.0577      2.00000
    228       3.0577      2.00000
    229       3.2589      2.00000
    230       3.2590      2.00000
    231       3.3292      2.00000
    232       3.3292      2.00000
    233       3.3614      2.00000
    234       3.3999      1.99956
    235       3.6661      0.00006
    236       3.6668      0.00006
    237       4.2366      0.00000
    238       4.3052      0.00000
    239       4.3060      0.00000
    240       4.4149      0.00000
    241       4.4159      0.00000
    242       4.5313      0.00000
    243       4.5675      0.00000
    244       4.5682      0.00000
    245       4.6166      0.00000
    246       4.6183      0.00000
    247       4.6472      0.00000
    248       4.6576      0.00000
    249       4.8056      0.00000
    250       4.9070      0.00000
    251       4.9085      0.00000
    252       4.9113      0.00000
    253       4.9117      0.00000
    254       4.9384      0.00000
    255       4.9534      0.00000
    256       4.9558      0.00000
    257       4.9563      0.00000
    258       5.0464      0.00000
    259       5.0538      0.00000
    260       5.0538      0.00000
    261       5.1773      0.00000
    262       5.1792      0.00000
    263       5.2791      0.00000
    264       5.2938      0.00000
    265       5.2986      0.00000
    266       5.3012      0.00000
    267       5.3958      0.00000
    268       5.3959      0.00000
    269       5.3973      0.00000
    270       5.3990      0.00000
    271       5.5345      0.00000
    272       5.5346      0.00000
    273       5.6586      0.00000
    274       5.6605      0.00000
    275       5.6707      0.00000
    276       5.6715      0.00000
    277       5.7263      0.00000
    278       5.8880      0.00000
    279       5.9738      0.00000
    280       6.0255      0.00000
    281       6.0257      0.00000
    282       6.0628      0.00000
    283       6.2071      0.00000
    284       6.2079      0.00000
    285       6.2718      0.00000
    286       6.2738      0.00000

 k-point     5 :       0.4000    0.0000    0.0000
  band No.  band energies     occupation 
      1     -58.4841      2.00000
      2     -58.4811      2.00000
      3     -58.4765      2.00000
      4     -58.4761      2.00000
      5     -58.4711      2.00000
      6     -58.4707      2.00000
      7     -58.4703      2.00000
      8     -58.4696      2.00000
      9     -58.4692      2.00000
     10     -57.1515      2.00000
     11     -57.1485      2.00000
     12     -57.1437      2.00000
     13     -57.1437      2.00000
     14     -57.1383      2.00000
     15     -57.1383      2.00000
     16     -57.1376      2.00000
     17     -57.1367      2.00000
     18     -57.1367      2.00000
     19     -32.7023      2.00000
     20     -32.6790      2.00000
     21     -32.6785      2.00000
     22     -32.6778      2.00000
     23     -32.6773      2.00000
     24     -32.6224      2.00000
     25     -32.6218      2.00000
     26     -32.5875      2.00000
     27     -32.5872      2.00000
     28     -32.5727      2.00000
     29     -32.5637      2.00000
     30     -32.5635      2.00000
     31     -32.5488      2.00000
     32     -32.5404      2.00000
     33     -32.5403      2.00000
     34     -32.5359      2.00000
     35     -32.5183      2.00000
     36     -32.5098      2.00000
     37     -32.5083      2.00000
     38     -32.5013      2.00000
     39     -32.4905      2.00000
     40     -32.4900      2.00000
     41     -32.4780      2.00000
     42     -32.4775      2.00000
     43     -32.4763      2.00000
     44     -32.4745      2.00000
     45     -32.4739      2.00000
     46     -31.4017      2.00000
     47     -31.3940      2.00000
     48     -31.3818      2.00000
     49     -31.3818      2.00000
     50     -31.3680      2.00000
     51     -31.3680      2.00000
     52     -31.3664      2.00000
     53     -31.3642      2.00000
     54     -31.3642      2.00000
     55     -31.3369      2.00000
     56     -31.3140      2.00000
     57     -31.3139      2.00000
     58     -31.3124      2.00000
     59     -31.3124      2.00000
     60     -31.2593      2.00000
     61     -31.2593      2.00000
     62     -31.2268      2.00000
     63     -31.2268      2.00000
     64     -31.2118      2.00000
     65     -31.2035      2.00000
     66     -31.2035      2.00000
     67     -31.1889      2.00000
     68     -31.1808      2.00000
     69     -31.1808      2.00000
     70     -31.1762      2.00000
     71     -31.1593      2.00000
     72     -31.1510      2.00000
     73     -11.0047      2.00000
     74     -10.7799      2.00000
     75     -10.4002      2.00000
     76     -10.3989      2.00000
     77      -9.9242      2.00000
     78      -9.9230      2.00000
     79      -9.8573      2.00000
     80      -9.7866      2.00000
     81      -9.7856      2.00000
     82      -9.7855      2.00000
     83      -9.6775      2.00000
     84      -9.5212      2.00000
     85      -9.5197      2.00000
     86      -9.3852      2.00000
     87      -9.3388      2.00000
     88      -9.3369      2.00000
     89      -9.3218      2.00000
     90      -9.2797      2.00000
     91      -9.2774      2.00000
     92      -9.0631      2.00000
     93      -8.6434      2.00000
     94      -8.4366      2.00000
     95      -8.4365      2.00000
     96      -8.3941      2.00000
     97      -7.9292      2.00000
     98      -7.9292      2.00000
     99      -7.4505      2.00000
    100      -7.4504      2.00000
    101      -7.2461      2.00000
    102      -7.2289      2.00000
    103      -7.2289      2.00000
    104      -7.1163      2.00000
    105      -7.1163      2.00000
    106      -7.1083      2.00000
    107      -6.9903      2.00000
    108      -6.9903      2.00000
    109      -2.7832      2.00000
    110      -2.6506      2.00000
    111      -2.5140      2.00000
    112      -2.4965      2.00000
    113      -2.4963      2.00000
    114      -2.4400      2.00000
    115      -2.3357      2.00000
    116      -2.3355      2.00000
    117      -2.2796      2.00000
    118      -2.2786      2.00000
    119      -2.0953      2.00000
    120      -2.0945      2.00000
    121      -1.9129      2.00000
    122      -1.9126      2.00000
    123      -1.8832      2.00000
    124      -1.8831      2.00000
    125      -1.8670      2.00000
    126      -1.7225      2.00000
    127      -1.7219      2.00000
    128      -1.6187      2.00000
    129      -1.5297      2.00000
    130      -1.4953      2.00000
    131      -1.4952      2.00000
    132      -1.4281      2.00000
    133      -1.4277      2.00000
    134      -1.4211      2.00000
    135      -1.4198      2.00000
    136      -1.2878      2.00000
    137      -1.2193      2.00000
    138      -1.1362      2.00000
    139      -1.1084      2.00000
    140      -1.1077      2.00000
    141      -1.0563      2.00000
    142      -1.0550      2.00000
    143      -1.0308      2.00000
    144      -1.0303      2.00000
    145      -0.8370      2.00000
    146      -0.7723      2.00000
    147      -0.7711      2.00000
    148      -0.6846      2.00000
    149      -0.4858      2.00000
    150      -0.4847      2.00000
    151      -0.4029      2.00000
    152      -0.4015      2.00000
    153      -0.4006      2.00000
    154      -0.3472      2.00000
    155      -0.3466      2.00000
    156      -0.2123      2.00000
    157      -0.2059      2.00000
    158      -0.2054      2.00000
    159      -0.0896      2.00000
    160      -0.0295      2.00000
    161       0.0136      2.00000
    162       0.0222      2.00000
    163       0.0223      2.00000
    164       0.0409      2.00000
    165       0.0411      2.00000
    166       0.0902      2.00000
    167       0.0903      2.00000
    168       0.1017      2.00000
    169       0.1952      2.00000
    170       0.1955      2.00000
    171       0.2619      2.00000
    172       0.2632      2.00000
    173       0.3215      2.00000
    174       0.3226      2.00000
    175       0.3474      2.00000
    176       0.3475      2.00000
    177       0.3645      2.00000
    178       0.5337      2.00000
    179       0.6774      2.00000
    180       0.6777      2.00000
    181       0.7785      2.00000
    182       0.8107      2.00000
    183       0.8634      2.00000
    184       0.8635      2.00000
    185       0.8775      2.00000
    186       0.8777      2.00000
    187       0.9869      2.00000
    188       1.0365      2.00000
    189       1.1762      2.00000
    190       1.1777      2.00000
    191       1.2649      2.00000
    192       1.2900      2.00000
    193       1.2914      2.00000
    194       1.4485      2.00000
    195       1.5053      2.00000
    196       1.5501      2.00000
    197       1.5503      2.00000
    198       1.5993      2.00000
    199       1.5995      2.00000
    200       1.6770      2.00000
    201       1.6788      2.00000
    202       1.6867      2.00000
    203       1.6870      2.00000
    204       1.7009      2.00000
    205       1.8309      2.00000
    206       1.8633      2.00000
    207       1.8663      2.00000
    208       1.9242      2.00000
    209       1.9249      2.00000
    210       1.9585      2.00000
    211       1.9591      2.00000
    212       2.0132      2.00000
    213       2.0407      2.00000
    214       2.0416      2.00000
    215       2.1748      2.00000
    216       2.2717      2.00000
    217       2.3385      2.00000
    218       2.4032      2.00000
    219       2.4291      2.00000
    220       2.4292      2.00000
    221       2.4945      2.00000
    222       2.5255      2.00000
    223       2.5395      2.00000
    224       2.5439      2.00000
    225       2.6370      2.00000
    226       2.6765      2.00000
    227       3.0092      2.00000
    228       3.0092      2.00000
    229       3.0567      2.00000
    230       3.1975      2.00000
    231       3.1975      2.00000
    232       3.2090      2.00000
    233       3.2090      2.00000
    234       3.5034      1.44470
    235       4.0069      0.00000
    236       4.0074      0.00000
    237       4.1829      0.00000
    238       4.2607      0.00000
    239       4.2620      0.00000
    240       4.4343      0.00000
    241       4.4355      0.00000
    242       4.4792      0.00000
    243       4.4798      0.00000
    244       4.5987      0.00000
    245       4.6384      0.00000
    246       4.6396      0.00000
    247       4.7570      0.00000
    248       4.7617      0.00000
    249       4.8411      0.00000
    250       4.8534      0.00000
    251       4.8547      0.00000
    252       4.8576      0.00000
    253       4.8585      0.00000
    254       4.8824      0.00000
    255       4.9643      0.00000
    256       4.9648      0.00000
    257       4.9850      0.00000
    258       5.0627      0.00000
    259       5.0661      0.00000
    260       5.0672      0.00000
    261       5.1623      0.00000
    262       5.1631      0.00000
    263       5.2139      0.00000
    264       5.2383      0.00000
    265       5.2536      0.00000
    266       5.3037      0.00000
    267       5.3744      0.00000
    268       5.3745      0.00000
    269       5.4960      0.00000
    270       5.4960      0.00000
    271       5.5167      0.00000
    272       5.5171      0.00000
    273       5.5704      0.00000
    274       5.6506      0.00000
    275       5.6517      0.00000
    276       5.6622      0.00000
    277       5.6626      0.00000
    278       5.7156      0.00000
    279       5.7158      0.00000
    280       5.8864      0.00000
    281       5.8919      0.00000
    282       5.8927      0.00000
    283       5.9468      0.00000
    284       5.9826      0.00000
    285       5.9832      0.00000
    286       6.1025      0.00000

 k-point     6 :       0.4000    0.4000    0.0000
  band No.  band energies     occupation 
      1     -58.4841      2.00000
      2     -58.4811      2.00000
      3     -58.4765      2.00000
      4     -58.4761      2.00000
      5     -58.4711      2.00000
      6     -58.4707      2.00000
      7     -58.4703      2.00000
      8     -58.4696      2.00000
      9     -58.4692      2.00000
     10     -57.1515      2.00000
     11     -57.1485      2.00000
     12     -57.1437      2.00000
     13     -57.1437      2.00000
     14     -57.1383      2.00000
     15     -57.1383      2.00000
     16     -57.1376      2.00000
     17     -57.1367      2.00000
     18     -57.1367      2.00000
     19     -32.7024      2.00000
     20     -32.6790      2.00000
     21     -32.6785      2.00000
     22     -32.6778      2.00000
     23     -32.6773      2.00000
     24     -32.6222      2.00000
     25     -32.6219      2.00000
     26     -32.5875      2.00000
     27     -32.5872      2.00000
     28     -32.5728      2.00000
     29     -32.5638      2.00000
     30     -32.5635      2.00000
     31     -32.5487      2.00000
     32     -32.5407      2.00000
     33     -32.5401      2.00000
     34     -32.5360      2.00000
     35     -32.5183      2.00000
     36     -32.5097      2.00000
     37     -32.5083      2.00000
     38     -32.5013      2.00000
     39     -32.4905      2.00000
     40     -32.4900      2.00000
     41     -32.4780      2.00000
     42     -32.4775      2.00000
     43     -32.4763      2.00000
     44     -32.4745      2.00000
     45     -32.4739      2.00000
     46     -31.4017      2.00000
     47     -31.3940      2.00000
     48     -31.3818      2.00000
     49     -31.3818      2.00000
     50     -31.3680      2.00000
     51     -31.3680      2.00000
     52     -31.3664      2.00000
     53     -31.3642      2.00000
     54     -31.3641      2.00000
     55     -31.3369      2.00000
     56     -31.3140      2.00000
     57     -31.3139      2.00000
     58     -31.3124      2.00000
     59     -31.3124      2.00000
     60     -31.2593      2.00000
     61     -31.2593      2.00000
     62     -31.2268      2.00000
     63     -31.2268      2.00000
     64     -31.2118      2.00000
     65     -31.2035      2.00000
     66     -31.2035      2.00000
     67     -31.1889      2.00000
     68     -31.1808      2.00000
     69     -31.1808      2.00000
     70     -31.1762      2.00000
     71     -31.1593      2.00000
     72     -31.1510      2.00000
     73     -11.0047      2.00000
     74     -10.7798      2.00000
     75     -10.4004      2.00000
     76     -10.3991      2.00000
     77      -9.9243      2.00000
     78      -9.9231      2.00000
     79      -9.8568      2.00000
     80      -9.7867      2.00000
     81      -9.7857      2.00000
     82      -9.7856      2.00000
     83      -9.6777      2.00000
     84      -9.5209      2.00000
     85      -9.5194      2.00000
     86      -9.3852      2.00000
     87      -9.3387      2.00000
     88      -9.3367      2.00000
     89      -9.3226      2.00000
     90      -9.2796      2.00000
     91      -9.2774      2.00000
     92      -9.0631      2.00000
     93      -8.6434      2.00000
     94      -8.4365      2.00000
     95      -8.4365      2.00000
     96      -8.3941      2.00000
     97      -7.9292      2.00000
     98      -7.9292      2.00000
     99      -7.4505      2.00000
    100      -7.4504      2.00000
    101      -7.2461      2.00000
    102      -7.2289      2.00000
    103      -7.2289      2.00000
    104      -7.1163      2.00000
    105      -7.1163      2.00000
    106      -7.1083      2.00000
    107      -6.9903      2.00000
    108      -6.9903      2.00000
    109      -2.7834      2.00000
    110      -2.6505      2.00000
    111      -2.5140      2.00000
    112      -2.4962      2.00000
    113      -2.4962      2.00000
    114      -2.4398      2.00000
    115      -2.3354      2.00000
    116      -2.3354      2.00000
    117      -2.2797      2.00000
    118      -2.2788      2.00000
    119      -2.0950      2.00000
    120      -2.0944      2.00000
    121      -1.9128      2.00000
    122      -1.9125      2.00000
    123      -1.8832      2.00000
    124      -1.8831      2.00000
    125      -1.8669      2.00000
    126      -1.7223      2.00000
    127      -1.7216      2.00000
    128      -1.6181      2.00000
    129      -1.5297      2.00000
    130      -1.4955      2.00000
    131      -1.4953      2.00000
    132      -1.4283      2.00000
    133      -1.4280      2.00000
    134      -1.4213      2.00000
    135      -1.4209      2.00000
    136      -1.2878      2.00000
    137      -1.2185      2.00000
    138      -1.1358      2.00000
    139      -1.1089      2.00000
    140      -1.1082      2.00000
    141      -1.0572      2.00000
    142      -1.0557      2.00000
    143      -1.0312      2.00000
    144      -1.0305      2.00000
    145      -0.8363      2.00000
    146      -0.7725      2.00000
    147      -0.7720      2.00000
    148      -0.6829      2.00000
    149      -0.4872      2.00000
    150      -0.4856      2.00000
    151      -0.4035      2.00000
    152      -0.4014      2.00000
    153      -0.4000      2.00000
    154      -0.3482      2.00000
    155      -0.3470      2.00000
    156      -0.2129      2.00000
    157      -0.2056      2.00000
    158      -0.2047      2.00000
    159      -0.0897      2.00000
    160      -0.0316      2.00000
    161       0.0138      2.00000
    162       0.0223      2.00000
    163       0.0224      2.00000
    164       0.0408      2.00000
    165       0.0410      2.00000
    166       0.0901      2.00000
    167       0.0903      2.00000
    168       0.1036      2.00000
    169       0.1953      2.00000
    170       0.1957      2.00000
    171       0.2620      2.00000
    172       0.2632      2.00000
    173       0.3217      2.00000
    174       0.3234      2.00000
    175       0.3474      2.00000
    176       0.3475      2.00000
    177       0.3675      2.00000
    178       0.5336      2.00000
    179       0.6775      2.00000
    180       0.6777      2.00000
    181       0.7780      2.00000
    182       0.8107      2.00000
    183       0.8634      2.00000
    184       0.8635      2.00000
    185       0.8775      2.00000
    186       0.8777      2.00000
    187       0.9875      2.00000
    188       1.0357      2.00000
    189       1.1766      2.00000
    190       1.1784      2.00000
    191       1.2650      2.00000
    192       1.2906      2.00000
    193       1.2921      2.00000
    194       1.4485      2.00000
    195       1.5049      2.00000
    196       1.5502      2.00000
    197       1.5503      2.00000
    198       1.5994      2.00000
    199       1.5995      2.00000
    200       1.6769      2.00000
    201       1.6776      2.00000
    202       1.6868      2.00000
    203       1.6870      2.00000
    204       1.7010      2.00000
    205       1.8309      2.00000
    206       1.8655      2.00000
    207       1.8664      2.00000
    208       1.9241      2.00000
    209       1.9248      2.00000
    210       1.9589      2.00000
    211       1.9597      2.00000
    212       2.0115      2.00000
    213       2.0407      2.00000
    214       2.0416      2.00000
    215       2.1748      2.00000
    216       2.2717      2.00000
    217       2.3378      2.00000
    218       2.4029      2.00000
    219       2.4291      2.00000
    220       2.4292      2.00000
    221       2.4945      2.00000
    222       2.5255      2.00000
    223       2.5394      2.00000
    224       2.5439      2.00000
    225       2.6366      2.00000
    226       2.6763      2.00000
    227       3.0092      2.00000
    228       3.0092      2.00000
    229       3.0562      2.00000
    230       3.1975      2.00000
    231       3.1976      2.00000
    232       3.2090      2.00000
    233       3.2090      2.00000
    234       3.5034      1.44460
    235       4.0068      0.00000
    236       4.0075      0.00000
    237       4.1820      0.00000
    238       4.2606      0.00000
    239       4.2620      0.00000
    240       4.4346      0.00000
    241       4.4357      0.00000
    242       4.4788      0.00000
    243       4.4794      0.00000
    244       4.5982      0.00000
    245       4.6385      0.00000
    246       4.6396      0.00000
    247       4.7579      0.00000
    248       4.7646      0.00000
    249       4.8419      0.00000
    250       4.8542      0.00000
    251       4.8549      0.00000
    252       4.8572      0.00000
    253       4.8581      0.00000
    254       4.8832      0.00000
    255       4.9641      0.00000
    256       4.9649      0.00000
    257       4.9862      0.00000
    258       5.0630      0.00000
    259       5.0650      0.00000
    260       5.0678      0.00000
    261       5.1623      0.00000
    262       5.1630      0.00000
    263       5.2141      0.00000
    264       5.2350      0.00000
    265       5.2536      0.00000
    266       5.3039      0.00000
    267       5.3743      0.00000
    268       5.3745      0.00000
    269       5.4960      0.00000
    270       5.4960      0.00000
    271       5.5165      0.00000
    272       5.5167      0.00000
    273       5.5678      0.00000
    274       5.6499      0.00000
    275       5.6512      0.00000
    276       5.6617      0.00000
    277       5.6621      0.00000
    278       5.7161      0.00000
    279       5.7163      0.00000
    280       5.8865      0.00000
    281       5.8914      0.00000
    282       5.8923      0.00000
    283       5.9468      0.00000
    284       5.9820      0.00000
    285       5.9825      0.00000
    286       6.1190      0.00000

 k-point     7 :       0.0000    0.4000    0.0000
  band No.  band energies     occupation 
      1     -58.4841      2.00000
      2     -58.4811      2.00000
      3     -58.4765      2.00000
      4     -58.4761      2.00000
      5     -58.4711      2.00000
      6     -58.4708      2.00000
      7     -58.4703      2.00000
      8     -58.4696      2.00000
      9     -58.4692      2.00000
     10     -57.1515      2.00000
     11     -57.1485      2.00000
     12     -57.1437      2.00000
     13     -57.1437      2.00000
     14     -57.1383      2.00000
     15     -57.1383      2.00000
     16     -57.1376      2.00000
     17     -57.1367      2.00000
     18     -57.1367      2.00000
     19     -32.7023      2.00000
     20     -32.6790      2.00000
     21     -32.6785      2.00000
     22     -32.6779      2.00000
     23     -32.6772      2.00000
     24     -32.6224      2.00000
     25     -32.6218      2.00000
     26     -32.5876      2.00000
     27     -32.5871      2.00000
     28     -32.5727      2.00000
     29     -32.5638      2.00000
     30     -32.5634      2.00000
     31     -32.5487      2.00000
     32     -32.5405      2.00000
     33     -32.5402      2.00000
     34     -32.5359      2.00000
     35     -32.5183      2.00000
     36     -32.5098      2.00000
     37     -32.5083      2.00000
     38     -32.5013      2.00000
     39     -32.4905      2.00000
     40     -32.4900      2.00000
     41     -32.4780      2.00000
     42     -32.4775      2.00000
     43     -32.4763      2.00000
     44     -32.4745      2.00000
     45     -32.4739      2.00000
     46     -31.4017      2.00000
     47     -31.3940      2.00000
     48     -31.3818      2.00000
     49     -31.3818      2.00000
     50     -31.3680      2.00000
     51     -31.3680      2.00000
     52     -31.3664      2.00000
     53     -31.3642      2.00000
     54     -31.3641      2.00000
     55     -31.3369      2.00000
     56     -31.3140      2.00000
     57     -31.3139      2.00000
     58     -31.3124      2.00000
     59     -31.3124      2.00000
     60     -31.2593      2.00000
     61     -31.2593      2.00000
     62     -31.2268      2.00000
     63     -31.2268      2.00000
     64     -31.2118      2.00000
     65     -31.2035      2.00000
     66     -31.2035      2.00000
     67     -31.1889      2.00000
     68     -31.1808      2.00000
     69     -31.1808      2.00000
     70     -31.1762      2.00000
     71     -31.1593      2.00000
     72     -31.1510      2.00000
     73     -11.0047      2.00000
     74     -10.7798      2.00000
     75     -10.4005      2.00000
     76     -10.3988      2.00000
     77      -9.9243      2.00000
     78      -9.9230      2.00000
     79      -9.8571      2.00000
     80      -9.7867      2.00000
     81      -9.7856      2.00000
     82      -9.7855      2.00000
     83      -9.6776      2.00000
     84      -9.5208      2.00000
     85      -9.5197      2.00000
     86      -9.3852      2.00000
     87      -9.3388      2.00000
     88      -9.3369      2.00000
     89      -9.3222      2.00000
     90      -9.2796      2.00000
     91      -9.2774      2.00000
     92      -9.0631      2.00000
     93      -8.6434      2.00000
     94      -8.4365      2.00000
     95      -8.4365      2.00000
     96      -8.3941      2.00000
     97      -7.9292      2.00000
     98      -7.9292      2.00000
     99      -7.4505      2.00000
    100      -7.4504      2.00000
    101      -7.2461      2.00000
    102      -7.2289      2.00000
    103      -7.2289      2.00000
    104      -7.1163      2.00000
    105      -7.1163      2.00000
    106      -7.1083      2.00000
    107      -6.9903      2.00000
    108      -6.9903      2.00000
    109      -2.7833      2.00000
    110      -2.6505      2.00000
    111      -2.5140      2.00000
    112      -2.4964      2.00000
    113      -2.4962      2.00000
    114      -2.4399      2.00000
    115      -2.3356      2.00000
    116      -2.3355      2.00000
    117      -2.2801      2.00000
    118      -2.2783      2.00000
    119      -2.0954      2.00000
    120      -2.0942      2.00000
    121      -1.9130      2.00000
    122      -1.9125      2.00000
    123      -1.8833      2.00000
    124      -1.8830      2.00000
    125      -1.8670      2.00000
    126      -1.7227      2.00000
    127      -1.7214      2.00000
    128      -1.6184      2.00000
    129      -1.5297      2.00000
    130      -1.4954      2.00000
    131      -1.4952      2.00000
    132      -1.4283      2.00000
    133      -1.4277      2.00000
    134      -1.4213      2.00000
    135      -1.4203      2.00000
    136      -1.2878      2.00000
    137      -1.2189      2.00000
    138      -1.1360      2.00000
    139      -1.1088      2.00000
    140      -1.1078      2.00000
    141      -1.0570      2.00000
    142      -1.0551      2.00000
    143      -1.0311      2.00000
    144      -1.0303      2.00000
    145      -0.8367      2.00000
    146      -0.7725      2.00000
    147      -0.7715      2.00000
    148      -0.6837      2.00000
    149      -0.4860      2.00000
    150      -0.4857      2.00000
    151      -0.4037      2.00000
    152      -0.4015      2.00000
    153      -0.3998      2.00000
    154      -0.3475      2.00000
    155      -0.3470      2.00000
    156      -0.2125      2.00000
    157      -0.2060      2.00000
    158      -0.2049      2.00000
    159      -0.0896      2.00000
    160      -0.0306      2.00000
    161       0.0137      2.00000
    162       0.0222      2.00000
    163       0.0224      2.00000
    164       0.0409      2.00000
    165       0.0410      2.00000
    166       0.0902      2.00000
    167       0.0903      2.00000
    168       0.1027      2.00000
    169       0.1952      2.00000
    170       0.1956      2.00000
    171       0.2616      2.00000
    172       0.2635      2.00000
    173       0.3215      2.00000
    174       0.3231      2.00000
    175       0.3473      2.00000
    176       0.3475      2.00000
    177       0.3660      2.00000
    178       0.5337      2.00000
    179       0.6774      2.00000
    180       0.6778      2.00000
    181       0.7782      2.00000
    182       0.8107      2.00000
    183       0.8634      2.00000
    184       0.8635      2.00000
    185       0.8775      2.00000
    186       0.8777      2.00000
    187       0.9872      2.00000
    188       1.0361      2.00000
    189       1.1764      2.00000
    190       1.1780      2.00000
    191       1.2650      2.00000
    192       1.2904      2.00000
    193       1.2917      2.00000
    194       1.4485      2.00000
    195       1.5051      2.00000
    196       1.5501      2.00000
    197       1.5503      2.00000
    198       1.5993      2.00000
    199       1.5995      2.00000
    200       1.6771      2.00000
    201       1.6780      2.00000
    202       1.6867      2.00000
    203       1.6871      2.00000
    204       1.7009      2.00000
    205       1.8309      2.00000
    206       1.8648      2.00000
    207       1.8660      2.00000
    208       1.9238      2.00000
    209       1.9252      2.00000
    210       1.9589      2.00000
    211       1.9592      2.00000
    212       2.0124      2.00000
    213       2.0405      2.00000
    214       2.0418      2.00000
    215       2.1748      2.00000
    216       2.2717      2.00000
    217       2.3381      2.00000
    218       2.4030      2.00000
    219       2.4291      2.00000
    220       2.4292      2.00000
    221       2.4945      2.00000
    222       2.5255      2.00000
    223       2.5394      2.00000
    224       2.5439      2.00000
    225       2.6368      2.00000
    226       2.6764      2.00000
    227       3.0092      2.00000
    228       3.0092      2.00000
    229       3.0565      2.00000
    230       3.1975      2.00000
    231       3.1975      2.00000
    232       3.2090      2.00000
    233       3.2090      2.00000
    234       3.5034      1.44465
    235       4.0067      0.00000
    236       4.0077      0.00000
    237       4.1824      0.00000
    238       4.2607      0.00000
    239       4.2620      0.00000
    240       4.4341      0.00000
    241       4.4359      0.00000
    242       4.4792      0.00000
    243       4.4794      0.00000
    244       4.5984      0.00000
    245       4.6379      0.00000
    246       4.6401      0.00000
    247       4.7575      0.00000
    248       4.7632      0.00000
    249       4.8415      0.00000
    250       4.8536      0.00000
    251       4.8550      0.00000
    252       4.8571      0.00000
    253       4.8586      0.00000
    254       4.8827      0.00000
    255       4.9641      0.00000
    256       4.9650      0.00000
    257       4.9856      0.00000
    258       5.0628      0.00000
    259       5.0653      0.00000
    260       5.0678      0.00000
    261       5.1620      0.00000
    262       5.1634      0.00000
    263       5.2140      0.00000
    264       5.2367      0.00000
    265       5.2536      0.00000
    266       5.3038      0.00000
    267       5.3743      0.00000
    268       5.3745      0.00000
    269       5.4960      0.00000
    270       5.4960      0.00000
    271       5.5166      0.00000
    272       5.5169      0.00000
    273       5.5691      0.00000
    274       5.6501      0.00000
    275       5.6517      0.00000
    276       5.6618      0.00000
    277       5.6625      0.00000
    278       5.7157      0.00000
    279       5.7161      0.00000
    280       5.8864      0.00000
    281       5.8914      0.00000
    282       5.8928      0.00000
    283       5.9468      0.00000
    284       5.9824      0.00000
    285       5.9830      0.00000
    286       6.0907      0.00000

 k-point     8 :       0.4000    0.2000    0.0000
  band No.  band energies     occupation 
      1     -58.4847      2.00000
      2     -58.4790      2.00000
      3     -58.4790      2.00000
      4     -58.4733      2.00000
      5     -58.4733      2.00000
      6     -58.4707      2.00000
      7     -58.4706      2.00000
      8     -58.4694      2.00000
      9     -58.4687      2.00000
     10     -57.1522      2.00000
     11     -57.1464      2.00000
     12     -57.1464      2.00000
     13     -57.1407      2.00000
     14     -57.1406      2.00000
     15     -57.1380      2.00000
     16     -57.1380      2.00000
     17     -57.1367      2.00000
     18     -57.1362      2.00000
     19     -32.6936      2.00000
     20     -32.6935      2.00000
     21     -32.6817      2.00000
     22     -32.6691      2.00000
     23     -32.6540      2.00000
     24     -32.6540      2.00000
     25     -32.5971      2.00000
     26     -32.5961      2.00000
     27     -32.5960      2.00000
     28     -32.5919      2.00000
     29     -32.5535      2.00000
     30     -32.5534      2.00000
     31     -32.5525      2.00000
     32     -32.5524      2.00000
     33     -32.5276      2.00000
     34     -32.5263      2.00000
     35     -32.5263      2.00000
     36     -32.5098      2.00000
     37     -32.5082      2.00000
     38     -32.4965      2.00000
     39     -32.4964      2.00000
     40     -32.4833      2.00000
     41     -32.4832      2.00000
     42     -32.4771      2.00000
     43     -32.4770      2.00000
     44     -32.4741      2.00000
     45     -32.4728      2.00000
     46     -31.4034      2.00000
     47     -31.3887      2.00000
     48     -31.3886      2.00000
     49     -31.3741      2.00000
     50     -31.3740      2.00000
     51     -31.3673      2.00000
     52     -31.3673      2.00000
     53     -31.3640      2.00000
     54     -31.3627      2.00000
     55     -31.3285      2.00000
     56     -31.3284      2.00000
     57     -31.3163      2.00000
     58     -31.3039      2.00000
     59     -31.2901      2.00000
     60     -31.2901      2.00000
     61     -31.2365      2.00000
     62     -31.2343      2.00000
     63     -31.2343      2.00000
     64     -31.2312      2.00000
     65     -31.1935      2.00000
     66     -31.1935      2.00000
     67     -31.1926      2.00000
     68     -31.1926      2.00000
     69     -31.1681      2.00000
     70     -31.1671      2.00000
     71     -31.1671      2.00000
     72     -31.1495      2.00000
     73     -11.0526      2.00000
     74     -10.6171      2.00000
     75     -10.6167      2.00000
     76     -10.1397      2.00000
     77     -10.1393      2.00000
     78      -9.8932      2.00000
     79      -9.8925      2.00000
     80      -9.8123      2.00000
     81      -9.7816      2.00000
     82      -9.7298      2.00000
     83      -9.6085      2.00000
     84      -9.6081      2.00000
     85      -9.4477      2.00000
     86      -9.4197      2.00000
     87      -9.4193      2.00000
     88      -9.3328      2.00000
     89      -9.3320      2.00000
     90      -9.2737      2.00000
     91      -9.2561      2.00000
     92      -8.8067      2.00000
     93      -8.8066      2.00000
     94      -8.6944      2.00000
     95      -8.2023      2.00000
     96      -8.2022      2.00000
     97      -7.9362      2.00000
     98      -7.9361      2.00000
     99      -7.5681      2.00000
    100      -7.5680      2.00000
    101      -7.3525      2.00000
    102      -7.3524      2.00000
    103      -7.1729      2.00000
    104      -7.1729      2.00000
    105      -7.1164      2.00000
    106      -6.9840      2.00000
    107      -6.9580      2.00000
    108      -6.8829      2.00000
    109      -2.7029      2.00000
    110      -2.6839      2.00000
    111      -2.6836      2.00000
    112      -2.3760      2.00000
    113      -2.3758      2.00000
    114      -2.3375      2.00000
    115      -2.3370      2.00000
    116      -2.3325      2.00000
    117      -2.2728      2.00000
    118      -2.2726      2.00000
    119      -2.2342      2.00000
    120      -2.1748      2.00000
    121      -2.1188      2.00000
    122      -2.0501      2.00000
    123      -1.7362      2.00000
    124      -1.7358      2.00000
    125      -1.6616      2.00000
    126      -1.6488      2.00000
    127      -1.6121      2.00000
    128      -1.6116      2.00000
    129      -1.5953      2.00000
    130      -1.5097      2.00000
    131      -1.5088      2.00000
    132      -1.3874      2.00000
    133      -1.3865      2.00000
    134      -1.3649      2.00000
    135      -1.3643      2.00000
    136      -1.3060      2.00000
    137      -1.1734      2.00000
    138      -1.1598      2.00000
    139      -1.1591      2.00000
    140      -1.1082      2.00000
    141      -1.0612      2.00000
    142      -1.0610      2.00000
    143      -1.0520      2.00000
    144      -1.0512      2.00000
    145      -0.7456      2.00000
    146      -0.6336      2.00000
    147      -0.6329      2.00000
    148      -0.5991      2.00000
    149      -0.5974      2.00000
    150      -0.5806      2.00000
    151      -0.5802      2.00000
    152      -0.4774      2.00000
    153      -0.3961      2.00000
    154      -0.3954      2.00000
    155      -0.3072      2.00000
    156      -0.3052      2.00000
    157      -0.2660      2.00000
    158      -0.2386      2.00000
    159      -0.1804      2.00000
    160      -0.1788      2.00000
    161      -0.0685      2.00000
    162      -0.0684      2.00000
    163      -0.0086      2.00000
    164      -0.0082      2.00000
    165       0.0048      2.00000
    166       0.0839      2.00000
    167       0.1227      2.00000
    168       0.1750      2.00000
    169       0.1755      2.00000
    170       0.1991      2.00000
    171       0.3105      2.00000
    172       0.3111      2.00000
    173       0.3440      2.00000
    174       0.3692      2.00000
    175       0.3693      2.00000
    176       0.4015      2.00000
    177       0.4183      2.00000
    178       0.4184      2.00000
    179       0.4689      2.00000
    180       0.7028      2.00000
    181       0.7031      2.00000
    182       0.7621      2.00000
    183       0.7624      2.00000
    184       0.8240      2.00000
    185       0.8878      2.00000
    186       0.9643      2.00000
    187       0.9651      2.00000
    188       1.0954      2.00000
    189       1.1644      2.00000
    190       1.2622      2.00000
    191       1.2628      2.00000
    192       1.4474      2.00000
    193       1.4688      2.00000
    194       1.4696      2.00000
    195       1.5018      2.00000
    196       1.5020      2.00000
    197       1.5626      2.00000
    198       1.5629      2.00000
    199       1.5718      2.00000
    200       1.5914      2.00000
    201       1.6655      2.00000
    202       1.6660      2.00000
    203       1.7635      2.00000
    204       1.7651      2.00000
    205       1.7740      2.00000
    206       1.7744      2.00000
    207       1.8541      2.00000
    208       1.9492      2.00000
    209       1.9503      2.00000
    210       2.0429      2.00000
    211       2.0834      2.00000
    212       2.0837      2.00000
    213       2.1435      2.00000
    214       2.1454      2.00000
    215       2.1469      2.00000
    216       2.2067      2.00000
    217       2.2467      2.00000
    218       2.2470      2.00000
    219       2.3119      2.00000
    220       2.3119      2.00000
    221       2.4772      2.00000
    222       2.4775      2.00000
    223       2.5075      2.00000
    224       2.5607      2.00000
    225       2.7799      2.00000
    226       2.7942      2.00000
    227       2.7942      2.00000
    228       3.1342      2.00000
    229       3.1342      2.00000
    230       3.1698      2.00000
    231       3.1933      2.00000
    232       3.2802      2.00000
    233       3.3632      1.99999
    234       3.3632      1.99999
    235       3.8558      0.00000
    236       3.9702      0.00000
    237       4.2166      0.00000
    238       4.2173      0.00000
    239       4.3708      0.00000
    240       4.3713      0.00000
    241       4.4684      0.00000
    242       4.4688      0.00000
    243       4.5886      0.00000
    244       4.5900      0.00000
    245       4.6443      0.00000
    246       4.6447      0.00000
    247       4.7023      0.00000
    248       4.7030      0.00000
    249       4.7410      0.00000
    250       4.8263      0.00000
    251       4.8401      0.00000
    252       4.8402      0.00000
    253       4.8676      0.00000
    254       4.8697      0.00000
    255       4.9934      0.00000
    256       5.0239      0.00000
    257       5.0710      0.00000
    258       5.0713      0.00000
    259       5.1028      0.00000
    260       5.1560      0.00000
    261       5.1573      0.00000
    262       5.1720      0.00000
    263       5.1779      0.00000
    264       5.2227      0.00000
    265       5.2258      0.00000
    266       5.3109      0.00000
    267       5.3118      0.00000
    268       5.3574      0.00000
    269       5.3881      0.00000
    270       5.3883      0.00000
    271       5.5040      0.00000
    272       5.5041      0.00000
    273       5.6017      0.00000
    274       5.7080      0.00000
    275       5.7090      0.00000
    276       5.7469      0.00000
    277       5.8373      0.00000
    278       5.8379      0.00000
    279       5.8602      0.00000
    280       5.8606      0.00000
    281       5.9107      0.00000
    282       5.9332      0.00000
    283       5.9349      0.00000
    284       5.9920      0.00000
    285       5.9933      0.00000
    286       6.0210      0.00000

 k-point     9 :       0.2000    0.4000    0.0000
  band No.  band energies     occupation 
      1     -58.4847      2.00000
      2     -58.4791      2.00000
      3     -58.4789      2.00000
      4     -58.4734      2.00000
      5     -58.4732      2.00000
      6     -58.4708      2.00000
      7     -58.4705      2.00000
      8     -58.4694      2.00000
      9     -58.4687      2.00000
     10     -57.1522      2.00000
     11     -57.1464      2.00000
     12     -57.1464      2.00000
     13     -57.1407      2.00000
     14     -57.1406      2.00000
     15     -57.1380      2.00000
     16     -57.1380      2.00000
     17     -57.1367      2.00000
     18     -57.1362      2.00000
     19     -32.6938      2.00000
     20     -32.6934      2.00000
     21     -32.6817      2.00000
     22     -32.6691      2.00000
     23     -32.6541      2.00000
     24     -32.6538      2.00000
     25     -32.5971      2.00000
     26     -32.5963      2.00000
     27     -32.5959      2.00000
     28     -32.5919      2.00000
     29     -32.5537      2.00000
     30     -32.5533      2.00000
     31     -32.5526      2.00000
     32     -32.5522      2.00000
     33     -32.5276      2.00000
     34     -32.5265      2.00000
     35     -32.5261      2.00000
     36     -32.5098      2.00000
     37     -32.5082      2.00000
     38     -32.4965      2.00000
     39     -32.4964      2.00000
     40     -32.4834      2.00000
     41     -32.4831      2.00000
     42     -32.4772      2.00000
     43     -32.4770      2.00000
     44     -32.4741      2.00000
     45     -32.4728      2.00000
     46     -31.4034      2.00000
     47     -31.3887      2.00000
     48     -31.3886      2.00000
     49     -31.3741      2.00000
     50     -31.3740      2.00000
     51     -31.3673      2.00000
     52     -31.3673      2.00000
     53     -31.3640      2.00000
     54     -31.3627      2.00000
     55     -31.3285      2.00000
     56     -31.3284      2.00000
     57     -31.3163      2.00000
     58     -31.3039      2.00000
     59     -31.2901      2.00000
     60     -31.2901      2.00000
     61     -31.2365      2.00000
     62     -31.2343      2.00000
     63     -31.2343      2.00000
     64     -31.2312      2.00000
     65     -31.1935      2.00000
     66     -31.1935      2.00000
     67     -31.1926      2.00000
     68     -31.1926      2.00000
     69     -31.1681      2.00000
     70     -31.1671      2.00000
     71     -31.1671      2.00000
     72     -31.1495      2.00000
     73     -11.0526      2.00000
     74     -10.6176      2.00000
     75     -10.6162      2.00000
     76     -10.1405      2.00000
     77     -10.1388      2.00000
     78      -9.8934      2.00000
     79      -9.8920      2.00000
     80      -9.8123      2.00000
     81      -9.7815      2.00000
     82      -9.7299      2.00000
     83      -9.6089      2.00000
     84      -9.6077      2.00000
     85      -9.4477      2.00000
     86      -9.4200      2.00000
     87      -9.4186      2.00000
     88      -9.3334      2.00000
     89      -9.3317      2.00000
     90      -9.2738      2.00000
     91      -9.2559      2.00000
     92      -8.8067      2.00000
     93      -8.8066      2.00000
     94      -8.6944      2.00000
     95      -8.2023      2.00000
     96      -8.2022      2.00000
     97      -7.9362      2.00000
     98      -7.9361      2.00000
     99      -7.5681      2.00000
    100      -7.5680      2.00000
    101      -7.3525      2.00000
    102      -7.3524      2.00000
    103      -7.1729      2.00000
    104      -7.1729      2.00000
    105      -7.1164      2.00000
    106      -6.9840      2.00000
    107      -6.9580      2.00000
    108      -6.8829      2.00000
    109      -2.7028      2.00000
    110      -2.6840      2.00000
    111      -2.6835      2.00000
    112      -2.3765      2.00000
    113      -2.3754      2.00000
    114      -2.3380      2.00000
    115      -2.3365      2.00000
    116      -2.3326      2.00000
    117      -2.2727      2.00000
    118      -2.2726      2.00000
    119      -2.2340      2.00000
    120      -2.1749      2.00000
    121      -2.1185      2.00000
    122      -2.0502      2.00000
    123      -1.7362      2.00000
    124      -1.7354      2.00000
    125      -1.6617      2.00000
    126      -1.6488      2.00000
    127      -1.6118      2.00000
    128      -1.6115      2.00000
    129      -1.5953      2.00000
    130      -1.5101      2.00000
    131      -1.5086      2.00000
    132      -1.3879      2.00000
    133      -1.3867      2.00000
    134      -1.3649      2.00000
    135      -1.3645      2.00000
    136      -1.3060      2.00000
    137      -1.1737      2.00000
    138      -1.1598      2.00000
    139      -1.1588      2.00000
    140      -1.1083      2.00000
    141      -1.0614      2.00000
    142      -1.0611      2.00000
    143      -1.0521      2.00000
    144      -1.0512      2.00000
    145      -0.7452      2.00000
    146      -0.6338      2.00000
    147      -0.6329      2.00000
    148      -0.5989      2.00000
    149      -0.5972      2.00000
    150      -0.5819      2.00000
    151      -0.5800      2.00000
    152      -0.4771      2.00000
    153      -0.3963      2.00000
    154      -0.3954      2.00000
    155      -0.3076      2.00000
    156      -0.3053      2.00000
    157      -0.2663      2.00000
    158      -0.2387      2.00000
    159      -0.1802      2.00000
    160      -0.1778      2.00000
    161      -0.0685      2.00000
    162      -0.0683      2.00000
    163      -0.0088      2.00000
    164      -0.0082      2.00000
    165       0.0048      2.00000
    166       0.0829      2.00000
    167       0.1227      2.00000
    168       0.1742      2.00000
    169       0.1763      2.00000
    170       0.1991      2.00000
    171       0.3102      2.00000
    172       0.3115      2.00000
    173       0.3441      2.00000
    174       0.3692      2.00000
    175       0.3694      2.00000
    176       0.4031      2.00000
    177       0.4183      2.00000
    178       0.4185      2.00000
    179       0.4688      2.00000
    180       0.7029      2.00000
    181       0.7030      2.00000
    182       0.7621      2.00000
    183       0.7629      2.00000
    184       0.8236      2.00000
    185       0.8878      2.00000
    186       0.9639      2.00000
    187       0.9654      2.00000
    188       1.0958      2.00000
    189       1.1645      2.00000
    190       1.2621      2.00000
    191       1.2628      2.00000
    192       1.4474      2.00000
    193       1.4691      2.00000
    194       1.4695      2.00000
    195       1.5017      2.00000
    196       1.5020      2.00000
    197       1.5625      2.00000
    198       1.5628      2.00000
    199       1.5718      2.00000
    200       1.5914      2.00000
    201       1.6656      2.00000
    202       1.6661      2.00000
    203       1.7643      2.00000
    204       1.7651      2.00000
    205       1.7739      2.00000
    206       1.7744      2.00000
    207       1.8541      2.00000
    208       1.9488      2.00000
    209       1.9497      2.00000
    210       2.0427      2.00000
    211       2.0835      2.00000
    212       2.0837      2.00000
    213       2.1439      2.00000
    214       2.1455      2.00000
    215       2.1464      2.00000
    216       2.2067      2.00000
    217       2.2467      2.00000
    218       2.2470      2.00000
    219       2.3118      2.00000
    220       2.3119      2.00000
    221       2.4771      2.00000
    222       2.4775      2.00000
    223       2.5075      2.00000
    224       2.5607      2.00000
    225       2.7799      2.00000
    226       2.7942      2.00000
    227       2.7942      2.00000
    228       3.1342      2.00000
    229       3.1342      2.00000
    230       3.1696      2.00000
    231       3.1933      2.00000
    232       3.2802      2.00000
    233       3.3632      1.99999
    234       3.3632      1.99999
    235       3.8562      0.00000
    236       3.9698      0.00000
    237       4.2159      0.00000
    238       4.2173      0.00000
    239       4.3710      0.00000
    240       4.3716      0.00000
    241       4.4676      0.00000
    242       4.4695      0.00000
    243       4.5878      0.00000
    244       4.5909      0.00000
    245       4.6437      0.00000
    246       4.6452      0.00000
    247       4.7025      0.00000
    248       4.7026      0.00000
    249       4.7425      0.00000
    250       4.8262      0.00000
    251       4.8394      0.00000
    252       4.8408      0.00000
    253       4.8674      0.00000
    254       4.8701      0.00000
    255       4.9935      0.00000
    256       5.0244      0.00000
    257       5.0709      0.00000
    258       5.0713      0.00000
    259       5.1023      0.00000
    260       5.1561      0.00000
    261       5.1574      0.00000
    262       5.1719      0.00000
    263       5.1764      0.00000
    264       5.2223      0.00000
    265       5.2262      0.00000
    266       5.3110      0.00000
    267       5.3116      0.00000
    268       5.3574      0.00000
    269       5.3881      0.00000
    270       5.3883      0.00000
    271       5.5040      0.00000
    272       5.5041      0.00000
    273       5.6012      0.00000
    274       5.7081      0.00000
    275       5.7091      0.00000
    276       5.7470      0.00000
    277       5.8373      0.00000
    278       5.8380      0.00000
    279       5.8602      0.00000
    280       5.8606      0.00000
    281       5.9105      0.00000
    282       5.9325      0.00000
    283       5.9352      0.00000
    284       5.9918      0.00000
    285       5.9924      0.00000
    286       6.0205      0.00000

 k-point    10 :      -0.2000    0.2000    0.0000
  band No.  band energies     occupation 
      1     -58.4847      2.00000
      2     -58.4791      2.00000
      3     -58.4789      2.00000
      4     -58.4734      2.00000
      5     -58.4731      2.00000
      6     -58.4708      2.00000
      7     -58.4705      2.00000
      8     -58.4694      2.00000
      9     -58.4687      2.00000
     10     -57.1522      2.00000
     11     -57.1464      2.00000
     12     -57.1464      2.00000
     13     -57.1407      2.00000
     14     -57.1406      2.00000
     15     -57.1380      2.00000
     16     -57.1380      2.00000
     17     -57.1367      2.00000
     18     -57.1362      2.00000
     19     -32.6937      2.00000
     20     -32.6934      2.00000
     21     -32.6817      2.00000
     22     -32.6690      2.00000
     23     -32.6542      2.00000
     24     -32.6539      2.00000
     25     -32.5971      2.00000
     26     -32.5962      2.00000
     27     -32.5959      2.00000
     28     -32.5918      2.00000
     29     -32.5535      2.00000
     30     -32.5534      2.00000
     31     -32.5526      2.00000
     32     -32.5523      2.00000
     33     -32.5275      2.00000
     34     -32.5265      2.00000
     35     -32.5261      2.00000
     36     -32.5098      2.00000
     37     -32.5082      2.00000
     38     -32.4966      2.00000
     39     -32.4964      2.00000
     40     -32.4834      2.00000
     41     -32.4831      2.00000
     42     -32.4772      2.00000
     43     -32.4770      2.00000
     44     -32.4741      2.00000
     45     -32.4728      2.00000
     46     -31.4034      2.00000
     47     -31.3887      2.00000
     48     -31.3886      2.00000
     49     -31.3741      2.00000
     50     -31.3740      2.00000
     51     -31.3673      2.00000
     52     -31.3673      2.00000
     53     -31.3640      2.00000
     54     -31.3627      2.00000
     55     -31.3285      2.00000
     56     -31.3284      2.00000
     57     -31.3163      2.00000
     58     -31.3039      2.00000
     59     -31.2901      2.00000
     60     -31.2901      2.00000
     61     -31.2365      2.00000
     62     -31.2343      2.00000
     63     -31.2343      2.00000
     64     -31.2312      2.00000
     65     -31.1935      2.00000
     66     -31.1934      2.00000
     67     -31.1926      2.00000
     68     -31.1926      2.00000
     69     -31.1681      2.00000
     70     -31.1671      2.00000
     71     -31.1671      2.00000
     72     -31.1495      2.00000
     73     -11.0526      2.00000
     74     -10.6175      2.00000
     75     -10.6163      2.00000
     76     -10.1400      2.00000
     77     -10.1387      2.00000
     78      -9.8935      2.00000
     79      -9.8924      2.00000
     80      -9.8122      2.00000
     81      -9.7817      2.00000
     82      -9.7296      2.00000
     83      -9.6091      2.00000
     84      -9.6076      2.00000
     85      -9.4477      2.00000
     86      -9.4204      2.00000
     87      -9.4190      2.00000
     88      -9.3332      2.00000
     89      -9.3311      2.00000
     90      -9.2735      2.00000
     91      -9.2564      2.00000
     92      -8.8068      2.00000
     93      -8.8066      2.00000
     94      -8.6944      2.00000
     95      -8.2024      2.00000
     96      -8.2022      2.00000
     97      -7.9362      2.00000
     98      -7.9361      2.00000
     99      -7.5681      2.00000
    100      -7.5680      2.00000
    101      -7.3525      2.00000
    102      -7.3524      2.00000
    103      -7.1729      2.00000
    104      -7.1728      2.00000
    105      -7.1164      2.00000
    106      -6.9840      2.00000
    107      -6.9580      2.00000
    108      -6.8829      2.00000
    109      -2.7029      2.00000
    110      -2.6840      2.00000
    111      -2.6834      2.00000
    112      -2.3765      2.00000
    113      -2.3753      2.00000
    114      -2.3381      2.00000
    115      -2.3365      2.00000
    116      -2.3325      2.00000
    117      -2.2728      2.00000
    118      -2.2726      2.00000
    119      -2.2344      2.00000
    120      -2.1746      2.00000
    121      -2.1192      2.00000
    122      -2.0500      2.00000
    123      -1.7362      2.00000
    124      -1.7360      2.00000
    125      -1.6616      2.00000
    126      -1.6488      2.00000
    127      -1.6125      2.00000
    128      -1.6116      2.00000
    129      -1.5953      2.00000
    130      -1.5097      2.00000
    131      -1.5085      2.00000
    132      -1.3873      2.00000
    133      -1.3860      2.00000
    134      -1.3649      2.00000
    135      -1.3642      2.00000
    136      -1.3060      2.00000
    137      -1.1731      2.00000
    138      -1.1601      2.00000
    139      -1.1591      2.00000
    140      -1.1080      2.00000
    141      -1.0612      2.00000
    142      -1.0608      2.00000
    143      -1.0522      2.00000
    144      -1.0510      2.00000
    145      -0.7460      2.00000
    146      -0.6337      2.00000
    147      -0.6326      2.00000
    148      -0.5992      2.00000
    149      -0.5973      2.00000
    150      -0.5810      2.00000
    151      -0.5790      2.00000
    152      -0.4778      2.00000
    153      -0.3961      2.00000
    154      -0.3952      2.00000
    155      -0.3069      2.00000
    156      -0.3050      2.00000
    157      -0.2656      2.00000
    158      -0.2385      2.00000
    159      -0.1819      2.00000
    160      -0.1786      2.00000
    161      -0.0685      2.00000
    162      -0.0684      2.00000
    163      -0.0085      2.00000
    164      -0.0082      2.00000
    165       0.0047      2.00000
    166       0.0850      2.00000
    167       0.1227      2.00000
    168       0.1740      2.00000
    169       0.1766      2.00000
    170       0.1991      2.00000
    171       0.3097      2.00000
    172       0.3117      2.00000
    173       0.3440      2.00000
    174       0.3690      2.00000
    175       0.3693      2.00000
    176       0.3999      2.00000
    177       0.4183      2.00000
    178       0.4184      2.00000
    179       0.4689      2.00000
    180       0.7028      2.00000
    181       0.7032      2.00000
    182       0.7616      2.00000
    183       0.7623      2.00000
    184       0.8244      2.00000
    185       0.8878      2.00000
    186       0.9645      2.00000
    187       0.9650      2.00000
    188       1.0951      2.00000
    189       1.1643      2.00000
    190       1.2620      2.00000
    191       1.2631      2.00000
    192       1.4474      2.00000
    193       1.4687      2.00000
    194       1.4695      2.00000
    195       1.5017      2.00000
    196       1.5021      2.00000
    197       1.5626      2.00000
    198       1.5630      2.00000
    199       1.5718      2.00000
    200       1.5914      2.00000
    201       1.6654      2.00000
    202       1.6659      2.00000
    203       1.7629      2.00000
    204       1.7648      2.00000
    205       1.7739      2.00000
    206       1.7746      2.00000
    207       1.8542      2.00000
    208       1.9496      2.00000
    209       1.9509      2.00000
    210       2.0431      2.00000
    211       2.0833      2.00000
    212       2.0837      2.00000
    213       2.1440      2.00000
    214       2.1450      2.00000
    215       2.1466      2.00000
    216       2.2067      2.00000
    217       2.2467      2.00000
    218       2.2471      2.00000
    219       2.3119      2.00000
    220       2.3119      2.00000
    221       2.4773      2.00000
    222       2.4775      2.00000
    223       2.5075      2.00000
    224       2.5607      2.00000
    225       2.7800      2.00000
    226       2.7942      2.00000
    227       2.7943      2.00000
    228       3.1341      2.00000
    229       3.1342      2.00000
    230       3.1700      2.00000
    231       3.1933      2.00000
    232       3.2802      2.00000
    233       3.3632      1.99999
    234       3.3632      1.99999
    235       3.8555      0.00000
    236       3.9705      0.00000
    237       4.2166      0.00000
    238       4.2180      0.00000
    239       4.3704      0.00000
    240       4.3713      0.00000
    241       4.4680      0.00000
    242       4.4692      0.00000
    243       4.5882      0.00000
    244       4.5903      0.00000
    245       4.6440      0.00000
    246       4.6451      0.00000
    247       4.7021      0.00000
    248       4.7034      0.00000
    249       4.7394      0.00000
    250       4.8264      0.00000
    251       4.8396      0.00000
    252       4.8408      0.00000
    253       4.8673      0.00000
    254       4.8697      0.00000
    255       4.9933      0.00000
    256       5.0233      0.00000
    257       5.0710      0.00000
    258       5.0713      0.00000
    259       5.1032      0.00000
    260       5.1557      0.00000
    261       5.1573      0.00000
    262       5.1721      0.00000
    263       5.1793      0.00000
    264       5.2229      0.00000
    265       5.2256      0.00000
    266       5.3110      0.00000
    267       5.3118      0.00000
    268       5.3573      0.00000
    269       5.3881      0.00000
    270       5.3883      0.00000
    271       5.5040      0.00000
    272       5.5041      0.00000
    273       5.6023      0.00000
    274       5.7080      0.00000
    275       5.7087      0.00000
    276       5.7467      0.00000
    277       5.8374      0.00000
    278       5.8378      0.00000
    279       5.8602      0.00000
    280       5.8607      0.00000
    281       5.9110      0.00000
    282       5.9328      0.00000
    283       5.9358      0.00000
    284       5.9919      0.00000
    285       5.9936      0.00000
    286       6.0198      0.00000

 k-point    11 :      -0.4000    0.2000    0.0000
  band No.  band energies     occupation 
      1     -58.4823      2.00000
      2     -58.4821      2.00000
      3     -58.4795      2.00000
      4     -58.4735      2.00000
      5     -58.4712      2.00000
      6     -58.4710      2.00000
      7     -58.4700      2.00000
      8     -58.4697      2.00000
      9     -58.4694      2.00000
     10     -57.1497      2.00000
     11     -57.1496      2.00000
     12     -57.1469      2.00000
     13     -57.1409      2.00000
     14     -57.1384      2.00000
     15     -57.1384      2.00000
     16     -57.1373      2.00000
     17     -57.1370      2.00000
     18     -57.1369      2.00000
     19     -32.7017      2.00000
     20     -32.6924      2.00000
     21     -32.6920      2.00000
     22     -32.6656      2.00000
     23     -32.6653      2.00000
     24     -32.6463      2.00000
     25     -32.5882      2.00000
     26     -32.5751      2.00000
     27     -32.5748      2.00000
     28     -32.5694      2.00000
     29     -32.5691      2.00000
     30     -32.5581      2.00000
     31     -32.5578      2.00000
     32     -32.5573      2.00000
     33     -32.5547      2.00000
     34     -32.5270      2.00000
     35     -32.5163      2.00000
     36     -32.5160      2.00000
     37     -32.5040      2.00000
     38     -32.5039      2.00000
     39     -32.4976      2.00000
     40     -32.4837      2.00000
     41     -32.4782      2.00000
     42     -32.4780      2.00000
     43     -32.4754      2.00000
     44     -32.4748      2.00000
     45     -32.4746      2.00000
     46     -31.3970      2.00000
     47     -31.3969      2.00000
     48     -31.3899      2.00000
     49     -31.3746      2.00000
     50     -31.3684      2.00000
     51     -31.3684      2.00000
     52     -31.3655      2.00000
     53     -31.3647      2.00000
     54     -31.3647      2.00000
     55     -31.3364      2.00000
     56     -31.3269      2.00000
     57     -31.3269      2.00000
     58     -31.3009      2.00000
     59     -31.3009      2.00000
     60     -31.2826      2.00000
     61     -31.2266      2.00000
     62     -31.2146      2.00000
     63     -31.2146      2.00000
     64     -31.2090      2.00000
     65     -31.2089      2.00000
     66     -31.1979      2.00000
     67     -31.1973      2.00000
     68     -31.1973      2.00000
     69     -31.1947      2.00000
     70     -31.1679      2.00000
     71     -31.1572      2.00000
     72     -31.1572      2.00000
     73     -10.8674      2.00000
     74     -10.8660      2.00000
     75     -10.6554      2.00000
     76     -10.1606      2.00000
     77      -9.9423      2.00000
     78      -9.9407      2.00000
     79      -9.8247      2.00000
     80      -9.8008      2.00000
     81      -9.7993      2.00000
     82      -9.7172      2.00000
     83      -9.7162      2.00000
     84      -9.6240      2.00000
     85      -9.4261      2.00000
     86      -9.3405      2.00000
     87      -9.3390      2.00000
     88      -9.3073      2.00000
     89      -9.2924      2.00000
     90      -9.2906      2.00000
     91      -9.1926      2.00000
     92      -9.1924      2.00000
     93      -8.8697      2.00000
     94      -8.4926      2.00000
     95      -8.4924      2.00000
     96      -8.2488      2.00000
     97      -7.9838      2.00000
     98      -7.6000      2.00000
     99      -7.5082      2.00000
    100      -7.5081      2.00000
    101      -7.2613      2.00000
    102      -7.2612      2.00000
    103      -7.1654      2.00000
    104      -7.1258      2.00000
    105      -7.1257      2.00000
    106      -7.0510      2.00000
    107      -7.0113      2.00000
    108      -7.0113      2.00000
    109      -2.7424      2.00000
    110      -2.5656      2.00000
    111      -2.5653      2.00000
    112      -2.5242      2.00000
    113      -2.5101      2.00000
    114      -2.5082      2.00000
    115      -2.3404      2.00000
    116      -2.3379      2.00000
    117      -2.3378      2.00000
    118      -2.3038      2.00000
    119      -2.2985      2.00000
    120      -2.2983      2.00000
    121      -1.9355      2.00000
    122      -1.9340      2.00000
    123      -1.8932      2.00000
    124      -1.8351      2.00000
    125      -1.8332      2.00000
    126      -1.7253      2.00000
    127      -1.7251      2.00000
    128      -1.7230      2.00000
    129      -1.5219      2.00000
    130      -1.5215      2.00000
    131      -1.4464      2.00000
    132      -1.3741      2.00000
    133      -1.3504      2.00000
    134      -1.3500      2.00000
    135      -1.3200      2.00000
    136      -1.2229      2.00000
    137      -1.1828      2.00000
    138      -1.1822      2.00000
    139      -1.1797      2.00000
    140      -1.1786      2.00000
    141      -1.0700      2.00000
    142      -1.0534      2.00000
    143      -1.0520      2.00000
    144      -0.9324      2.00000
    145      -0.8897      2.00000
    146      -0.8893      2.00000
    147      -0.6250      2.00000
    148      -0.5575      2.00000
    149      -0.4974      2.00000
    150      -0.4703      2.00000
    151      -0.4692      2.00000
    152      -0.4224      2.00000
    153      -0.4211      2.00000
    154      -0.2437      2.00000
    155      -0.2405      2.00000
    156      -0.2358      2.00000
    157      -0.2330      2.00000
    158      -0.0806      2.00000
    159      -0.0776      2.00000
    160      -0.0594      2.00000
    161      -0.0554      2.00000
    162      -0.0546      2.00000
    163       0.0046      2.00000
    164       0.0049      2.00000
    165       0.0701      2.00000
    166       0.1056      2.00000
    167       0.1070      2.00000
    168       0.1089      2.00000
    169       0.1948      2.00000
    170       0.2052      2.00000
    171       0.2055      2.00000
    172       0.3437      2.00000
    173       0.3442      2.00000
    174       0.3650      2.00000
    175       0.3651      2.00000
    176       0.4736      2.00000
    177       0.5400      2.00000
    178       0.5790      2.00000
    179       0.6855      2.00000
    180       0.6859      2.00000
    181       0.6967      2.00000
    182       0.6970      2.00000
    183       0.8156      2.00000
    184       0.9390      2.00000
    185       0.9390      2.00000
    186       0.9534      2.00000
    187       1.0816      2.00000
    188       1.0816      2.00000
    189       1.1842      2.00000
    190       1.1854      2.00000
    191       1.2187      2.00000
    192       1.3399      2.00000
    193       1.3776      2.00000
    194       1.3785      2.00000
    195       1.4051      2.00000
    196       1.5020      2.00000
    197       1.5125      2.00000
    198       1.5128      2.00000
    199       1.6047      2.00000
    200       1.6431      2.00000
    201       1.6431      2.00000
    202       1.7309      2.00000
    203       1.7313      2.00000
    204       1.7518      2.00000
    205       1.8079      2.00000
    206       1.8084      2.00000
    207       1.8172      2.00000
    208       1.9505      2.00000
    209       1.9512      2.00000
    210       2.0281      2.00000
    211       2.0467      2.00000
    212       2.0474      2.00000
    213       2.0901      2.00000
    214       2.0903      2.00000
    215       2.1971      2.00000
    216       2.2007      2.00000
    217       2.2412      2.00000
    218       2.3292      2.00000
    219       2.3727      2.00000
    220       2.3729      2.00000
    221       2.4770      2.00000
    222       2.4786      2.00000
    223       2.6311      2.00000
    224       2.6316      2.00000
    225       2.6885      2.00000
    226       2.8073      2.00000
    227       2.8661      2.00000
    228       2.8668      2.00000
    229       3.0918      2.00000
    230       3.1135      2.00000
    231       3.1135      2.00000
    232       3.2667      2.00000
    233       3.2667      2.00000
    234       3.3976      1.99966
    235       4.0924      0.00000
    236       4.0947      0.00000
    237       4.1668      0.00000
    238       4.2780      0.00000
    239       4.2805      0.00000
    240       4.3594      0.00000
    241       4.4272      0.00000
    242       4.5662      0.00000
    243       4.5672      0.00000
    244       4.5904      0.00000
    245       4.6435      0.00000
    246       4.7300      0.00000
    247       4.7353      0.00000
    248       4.7362      0.00000
    249       4.7716      0.00000
    250       4.8033      0.00000
    251       4.8047      0.00000
    252       4.8139      0.00000
    253       4.8177      0.00000
    254       4.8188      0.00000
    255       4.9499      0.00000
    256       4.9512      0.00000
    257       4.9712      0.00000
    258       4.9738      0.00000
    259       5.1469      0.00000
    260       5.1473      0.00000
    261       5.1493      0.00000
    262       5.1961      0.00000
    263       5.1999      0.00000
    264       5.3879      0.00000
    265       5.3881      0.00000
    266       5.3942      0.00000
    267       5.4392      0.00000
    268       5.4405      0.00000
    269       5.4869      0.00000
    270       5.5540      0.00000
    271       5.5548      0.00000
    272       5.5776      0.00000
    273       5.5782      0.00000
    274       5.5944      0.00000
    275       5.5946      0.00000
    276       5.5962      0.00000
    277       5.6118      0.00000
    278       5.6175      0.00000
    279       5.6177      0.00000
    280       5.7891      0.00000
    281       5.7969      0.00000
    282       5.7975      0.00000
    283       5.8752      0.00000
    284       5.8756      0.00000
    285       5.9865      0.00000
    286       6.0807      0.00000

 k-point    12 :       0.4000   -0.4000    0.0000
  band No.  band energies     occupation 
      1     -58.4823      2.00000
      2     -58.4821      2.00000
      3     -58.4795      2.00000
      4     -58.4735      2.00000
      5     -58.4712      2.00000
      6     -58.4709      2.00000
      7     -58.4700      2.00000
      8     -58.4697      2.00000
      9     -58.4694      2.00000
     10     -57.1497      2.00000
     11     -57.1496      2.00000
     12     -57.1469      2.00000
     13     -57.1409      2.00000
     14     -57.1384      2.00000
     15     -57.1384      2.00000
     16     -57.1373      2.00000
     17     -57.1370      2.00000
     18     -57.1369      2.00000
     19     -32.7018      2.00000
     20     -32.6923      2.00000
     21     -32.6920      2.00000
     22     -32.6656      2.00000
     23     -32.6653      2.00000
     24     -32.6462      2.00000
     25     -32.5881      2.00000
     26     -32.5750      2.00000
     27     -32.5748      2.00000
     28     -32.5694      2.00000
     29     -32.5691      2.00000
     30     -32.5582      2.00000
     31     -32.5578      2.00000
     32     -32.5574      2.00000
     33     -32.5547      2.00000
     34     -32.5271      2.00000
     35     -32.5162      2.00000
     36     -32.5160      2.00000
     37     -32.5040      2.00000
     38     -32.5039      2.00000
     39     -32.4976      2.00000
     40     -32.4837      2.00000
     41     -32.4782      2.00000
     42     -32.4779      2.00000
     43     -32.4754      2.00000
     44     -32.4748      2.00000
     45     -32.4745      2.00000
     46     -31.3970      2.00000
     47     -31.3969      2.00000
     48     -31.3899      2.00000
     49     -31.3746      2.00000
     50     -31.3684      2.00000
     51     -31.3684      2.00000
     52     -31.3655      2.00000
     53     -31.3647      2.00000
     54     -31.3647      2.00000
     55     -31.3364      2.00000
     56     -31.3269      2.00000
     57     -31.3269      2.00000
     58     -31.3009      2.00000
     59     -31.3009      2.00000
     60     -31.2826      2.00000
     61     -31.2266      2.00000
     62     -31.2146      2.00000
     63     -31.2146      2.00000
     64     -31.2090      2.00000
     65     -31.2089      2.00000
     66     -31.1979      2.00000
     67     -31.1973      2.00000
     68     -31.1973      2.00000
     69     -31.1947      2.00000
     70     -31.1679      2.00000
     71     -31.1572      2.00000
     72     -31.1572      2.00000
     73     -10.8673      2.00000
     74     -10.8660      2.00000
     75     -10.6555      2.00000
     76     -10.1608      2.00000
     77      -9.9420      2.00000
     78      -9.9409      2.00000
     79      -9.8242      2.00000
     80      -9.8008      2.00000
     81      -9.7998      2.00000
     82      -9.7175      2.00000
     83      -9.7162      2.00000
     84      -9.6238      2.00000
     85      -9.4257      2.00000
     86      -9.3407      2.00000
     87      -9.3390      2.00000
     88      -9.3080      2.00000
     89      -9.2923      2.00000
     90      -9.2902      2.00000
     91      -9.1926      2.00000
     92      -9.1924      2.00000
     93      -8.8696      2.00000
     94      -8.4926      2.00000
     95      -8.4924      2.00000
     96      -8.2488      2.00000
     97      -7.9838      2.00000
     98      -7.6000      2.00000
     99      -7.5082      2.00000
    100      -7.5081      2.00000
    101      -7.2613      2.00000
    102      -7.2612      2.00000
    103      -7.1654      2.00000
    104      -7.1258      2.00000
    105      -7.1257      2.00000
    106      -7.0510      2.00000
    107      -7.0113      2.00000
    108      -7.0113      2.00000
    109      -2.7426      2.00000
    110      -2.5658      2.00000
    111      -2.5648      2.00000
    112      -2.5242      2.00000
    113      -2.5098      2.00000
    114      -2.5082      2.00000
    115      -2.3404      2.00000
    116      -2.3381      2.00000
    117      -2.3374      2.00000
    118      -2.3040      2.00000
    119      -2.2985      2.00000
    120      -2.2983      2.00000
    121      -1.9356      2.00000
    122      -1.9342      2.00000
    123      -1.8930      2.00000
    124      -1.8346      2.00000
    125      -1.8326      2.00000
    126      -1.7254      2.00000
    127      -1.7252      2.00000
    128      -1.7224      2.00000
    129      -1.5219      2.00000
    130      -1.5216      2.00000
    131      -1.4479      2.00000
    132      -1.3747      2.00000
    133      -1.3506      2.00000
    134      -1.3499      2.00000
    135      -1.3207      2.00000
    136      -1.2221      2.00000
    137      -1.1830      2.00000
    138      -1.1823      2.00000
    139      -1.1800      2.00000
    140      -1.1791      2.00000
    141      -1.0700      2.00000
    142      -1.0525      2.00000
    143      -1.0518      2.00000
    144      -0.9324      2.00000
    145      -0.8899      2.00000
    146      -0.8894      2.00000
    147      -0.6235      2.00000
    148      -0.5567      2.00000
    149      -0.4980      2.00000
    150      -0.4713      2.00000
    151      -0.4700      2.00000
    152      -0.4231      2.00000
    153      -0.4218      2.00000
    154      -0.2435      2.00000
    155      -0.2411      2.00000
    156      -0.2368      2.00000
    157      -0.2346      2.00000
    158      -0.0810      2.00000
    159      -0.0779      2.00000
    160      -0.0594      2.00000
    161      -0.0550      2.00000
    162      -0.0540      2.00000
    163       0.0048      2.00000
    164       0.0049      2.00000
    165       0.0700      2.00000
    166       0.1060      2.00000
    167       0.1079      2.00000
    168       0.1122      2.00000
    169       0.1948      2.00000
    170       0.2052      2.00000
    171       0.2053      2.00000
    172       0.3437      2.00000
    173       0.3445      2.00000
    174       0.3650      2.00000
    175       0.3651      2.00000
    176       0.4737      2.00000
    177       0.5401      2.00000
    178       0.5791      2.00000
    179       0.6856      2.00000
    180       0.6860      2.00000
    181       0.6963      2.00000
    182       0.6971      2.00000
    183       0.8160      2.00000
    184       0.9390      2.00000
    185       0.9391      2.00000
    186       0.9529      2.00000
    187       1.0816      2.00000
    188       1.0816      2.00000
    189       1.1846      2.00000
    190       1.1860      2.00000
    191       1.2183      2.00000
    192       1.3398      2.00000
    193       1.3782      2.00000
    194       1.3788      2.00000
    195       1.4051      2.00000
    196       1.5018      2.00000
    197       1.5127      2.00000
    198       1.5128      2.00000
    199       1.6042      2.00000
    200       1.6431      2.00000
    201       1.6431      2.00000
    202       1.7306      2.00000
    203       1.7313      2.00000
    204       1.7531      2.00000
    205       1.8081      2.00000
    206       1.8084      2.00000
    207       1.8167      2.00000
    208       1.9504      2.00000
    209       1.9508      2.00000
    210       2.0269      2.00000
    211       2.0470      2.00000
    212       2.0476      2.00000
    213       2.0902      2.00000
    214       2.0903      2.00000
    215       2.1985      2.00000
    216       2.2008      2.00000
    217       2.2412      2.00000
    218       2.3291      2.00000
    219       2.3727      2.00000
    220       2.3729      2.00000
    221       2.4763      2.00000
    222       2.4783      2.00000
    223       2.6311      2.00000
    224       2.6314      2.00000
    225       2.6885      2.00000
    226       2.8072      2.00000
    227       2.8659      2.00000
    228       2.8667      2.00000
    229       3.0918      2.00000
    230       3.1135      2.00000
    231       3.1135      2.00000
    232       3.2667      2.00000
    233       3.2668      2.00000
    234       3.3976      1.99966
    235       4.0928      0.00000
    236       4.0950      0.00000
    237       4.1658      0.00000
    238       4.2777      0.00000
    239       4.2802      0.00000
    240       4.3593      0.00000
    241       4.4280      0.00000
    242       4.5660      0.00000
    243       4.5672      0.00000
    244       4.5898      0.00000
    245       4.6430      0.00000
    246       4.7324      0.00000
    247       4.7349      0.00000
    248       4.7366      0.00000
    249       4.7710      0.00000
    250       4.8034      0.00000
    251       4.8050      0.00000
    252       4.8149      0.00000
    253       4.8171      0.00000
    254       4.8197      0.00000
    255       4.9497      0.00000
    256       4.9511      0.00000
    257       4.9714      0.00000
    258       4.9734      0.00000
    259       5.1470      0.00000
    260       5.1472      0.00000
    261       5.1496      0.00000
    262       5.1961      0.00000
    263       5.2005      0.00000
    264       5.3876      0.00000
    265       5.3878      0.00000
    266       5.3943      0.00000
    267       5.4374      0.00000
    268       5.4399      0.00000
    269       5.4869      0.00000
    270       5.5532      0.00000
    271       5.5544      0.00000
    272       5.5772      0.00000
    273       5.5776      0.00000
    274       5.5943      0.00000
    275       5.5944      0.00000
    276       5.5968      0.00000
    277       5.6123      0.00000
    278       5.6174      0.00000
    279       5.6176      0.00000
    280       5.7893      0.00000
    281       5.7969      0.00000
    282       5.7972      0.00000
    283       5.8751      0.00000
    284       5.8756      0.00000
    285       5.9860      0.00000
    286       6.0454      0.00000

 k-point    13 :      -0.2000    0.4000    0.0000
  band No.  band energies     occupation 
      1     -58.4822      2.00000
      2     -58.4822      2.00000
      3     -58.4795      2.00000
      4     -58.4735      2.00000
      5     -58.4711      2.00000
      6     -58.4711      2.00000
      7     -58.4700      2.00000
      8     -58.4696      2.00000
      9     -58.4695      2.00000
     10     -57.1497      2.00000
     11     -57.1496      2.00000
     12     -57.1469      2.00000
     13     -57.1409      2.00000
     14     -57.1384      2.00000
     15     -57.1384      2.00000
     16     -57.1373      2.00000
     17     -57.1370      2.00000
     18     -57.1369      2.00000
     19     -32.7018      2.00000
     20     -32.6922      2.00000
     21     -32.6921      2.00000
     22     -32.6655      2.00000
     23     -32.6654      2.00000
     24     -32.6463      2.00000
     25     -32.5881      2.00000
     26     -32.5750      2.00000
     27     -32.5749      2.00000
     28     -32.5693      2.00000
     29     -32.5692      2.00000
     30     -32.5580      2.00000
     31     -32.5577      2.00000
     32     -32.5576      2.00000
     33     -32.5547      2.00000
     34     -32.5271      2.00000
     35     -32.5162      2.00000
     36     -32.5161      2.00000
     37     -32.5040      2.00000
     38     -32.5039      2.00000
     39     -32.4976      2.00000
     40     -32.4837      2.00000
     41     -32.4781      2.00000
     42     -32.4780      2.00000
     43     -32.4755      2.00000
     44     -32.4747      2.00000
     45     -32.4746      2.00000
     46     -31.3970      2.00000
     47     -31.3969      2.00000
     48     -31.3899      2.00000
     49     -31.3746      2.00000
     50     -31.3684      2.00000
     51     -31.3684      2.00000
     52     -31.3655      2.00000
     53     -31.3647      2.00000
     54     -31.3647      2.00000
     55     -31.3364      2.00000
     56     -31.3269      2.00000
     57     -31.3269      2.00000
     58     -31.3009      2.00000
     59     -31.3009      2.00000
     60     -31.2826      2.00000
     61     -31.2266      2.00000
     62     -31.2146      2.00000
     63     -31.2146      2.00000
     64     -31.2090      2.00000
     65     -31.2090      2.00000
     66     -31.1979      2.00000
     67     -31.1973      2.00000
     68     -31.1973      2.00000
     69     -31.1947      2.00000
     70     -31.1679      2.00000
     71     -31.1572      2.00000
     72     -31.1572      2.00000
     73     -10.8668      2.00000
     74     -10.8665      2.00000
     75     -10.6554      2.00000
     76     -10.1607      2.00000
     77      -9.9418      2.00000
     78      -9.9412      2.00000
     79      -9.8244      2.00000
     80      -9.8005      2.00000
     81      -9.7998      2.00000
     82      -9.7169      2.00000
     83      -9.7166      2.00000
     84      -9.6239      2.00000
     85      -9.4259      2.00000
     86      -9.3401      2.00000
     87      -9.3395      2.00000
     88      -9.3077      2.00000
     89      -9.2918      2.00000
     90      -9.2909      2.00000
     91      -9.1925      2.00000
     92      -9.1924      2.00000
     93      -8.8697      2.00000
     94      -8.4926      2.00000
     95      -8.4924      2.00000
     96      -8.2488      2.00000
     97      -7.9838      2.00000
     98      -7.6000      2.00000
     99      -7.5082      2.00000
    100      -7.5081      2.00000
    101      -7.2613      2.00000
    102      -7.2612      2.00000
    103      -7.1654      2.00000
    104      -7.1258      2.00000
    105      -7.1257      2.00000
    106      -7.0510      2.00000
    107      -7.0113      2.00000
    108      -7.0113      2.00000
    109      -2.7425      2.00000
    110      -2.5656      2.00000
    111      -2.5652      2.00000
    112      -2.5242      2.00000
    113      -2.5094      2.00000
    114      -2.5088      2.00000
    115      -2.3403      2.00000
    116      -2.3381      2.00000
    117      -2.3377      2.00000
    118      -2.3038      2.00000
    119      -2.2985      2.00000
    120      -2.2983      2.00000
    121      -1.9353      2.00000
    122      -1.9344      2.00000
    123      -1.8931      2.00000
    124      -1.8345      2.00000
    125      -1.8332      2.00000
    126      -1.7254      2.00000
    127      -1.7252      2.00000
    128      -1.7227      2.00000
    129      -1.5218      2.00000
    130      -1.5216      2.00000
    131      -1.4471      2.00000
    132      -1.3744      2.00000
    133      -1.3504      2.00000
    134      -1.3500      2.00000
    135      -1.3203      2.00000
    136      -1.2225      2.00000
    137      -1.1828      2.00000
    138      -1.1825      2.00000
    139      -1.1796      2.00000
    140      -1.1790      2.00000
    141      -1.0700      2.00000
    142      -1.0529      2.00000
    143      -1.0520      2.00000
    144      -0.9324      2.00000
    145      -0.8897      2.00000
    146      -0.8895      2.00000
    147      -0.6242      2.00000
    148      -0.5571      2.00000
    149      -0.4977      2.00000
    150      -0.4706      2.00000
    151      -0.4698      2.00000
    152      -0.4224      2.00000
    153      -0.4218      2.00000
    154      -0.2437      2.00000
    155      -0.2409      2.00000
    156      -0.2353      2.00000
    157      -0.2346      2.00000
    158      -0.0802      2.00000
    159      -0.0783      2.00000
    160      -0.0594      2.00000
    161      -0.0550      2.00000
    162      -0.0546      2.00000
    163       0.0047      2.00000
    164       0.0049      2.00000
    165       0.0701      2.00000
    166       0.1059      2.00000
    167       0.1081      2.00000
    168       0.1098      2.00000
    169       0.1948      2.00000
    170       0.2052      2.00000
    171       0.2054      2.00000
    172       0.3438      2.00000
    173       0.3442      2.00000
    174       0.3650      2.00000
    175       0.3651      2.00000
    176       0.4736      2.00000
    177       0.5401      2.00000
    178       0.5791      2.00000
    179       0.6856      2.00000
    180       0.6859      2.00000
    181       0.6965      2.00000
    182       0.6970      2.00000
    183       0.8158      2.00000
    184       0.9390      2.00000
    185       0.9391      2.00000
    186       0.9532      2.00000
    187       1.0816      2.00000
    188       1.0816      2.00000
    189       1.1847      2.00000
    190       1.1854      2.00000
    191       1.2185      2.00000
    192       1.3398      2.00000
    193       1.3781      2.00000
    194       1.3784      2.00000
    195       1.4051      2.00000
    196       1.5019      2.00000
    197       1.5126      2.00000
    198       1.5128      2.00000
    199       1.6044      2.00000
    200       1.6431      2.00000
    201       1.6431      2.00000
    202       1.7307      2.00000
    203       1.7314      2.00000
    204       1.7524      2.00000
    205       1.8081      2.00000
    206       1.8083      2.00000
    207       1.8169      2.00000
    208       1.9504      2.00000
    209       1.9511      2.00000
    210       2.0275      2.00000
    211       2.0467      2.00000
    212       2.0476      2.00000
    213       2.0902      2.00000
    214       2.0903      2.00000
    215       2.1978      2.00000
    216       2.2007      2.00000
    217       2.2412      2.00000
    218       2.3292      2.00000
    219       2.3727      2.00000
    220       2.3729      2.00000
    221       2.4766      2.00000
    222       2.4785      2.00000
    223       2.6311      2.00000
    224       2.6315      2.00000
    225       2.6885      2.00000
    226       2.8073      2.00000
    227       2.8660      2.00000
    228       2.8667      2.00000
    229       3.0918      2.00000
    230       3.1135      2.00000
    231       3.1135      2.00000
    232       3.2667      2.00000
    233       3.2667      2.00000
    234       3.3976      1.99966
    235       4.0932      0.00000
    236       4.0943      0.00000
    237       4.1663      0.00000
    238       4.2786      0.00000
    239       4.2796      0.00000
    240       4.3594      0.00000
    241       4.4276      0.00000
    242       4.5662      0.00000
    243       4.5670      0.00000
    244       4.5901      0.00000
    245       4.6433      0.00000
    246       4.7313      0.00000
    247       4.7353      0.00000
    248       4.7361      0.00000
    249       4.7713      0.00000
    250       4.8038      0.00000
    251       4.8043      0.00000
    252       4.8146      0.00000
    253       4.8175      0.00000
    254       4.8190      0.00000
    255       4.9499      0.00000
    256       4.9511      0.00000
    257       4.9717      0.00000
    258       4.9733      0.00000
    259       5.1470      0.00000
    260       5.1472      0.00000
    261       5.1495      0.00000
    262       5.1961      0.00000
    263       5.2002      0.00000
    264       5.3877      0.00000
    265       5.3880      0.00000
    266       5.3943      0.00000
    267       5.4384      0.00000
    268       5.4401      0.00000
    269       5.4869      0.00000
    270       5.5538      0.00000
    271       5.5544      0.00000
    272       5.5773      0.00000
    273       5.5780      0.00000
    274       5.5943      0.00000
    275       5.5944      0.00000
    276       5.5965      0.00000
    277       5.6120      0.00000
    278       5.6174      0.00000
    279       5.6177      0.00000
    280       5.7892      0.00000
    281       5.7969      0.00000
    282       5.7973      0.00000
    283       5.8752      0.00000
    284       5.8756      0.00000
    285       5.9860      0.00000
    286       6.0469      0.00000


--------------------------------------------------------------------------------------------------------


 soft charge-density along one line, spin component           1
         0         1         2         3         4         5         6         7         8         9
 total charge-density along one line
 
 pseudopotential strength for first ion, spin component:           1
 -4.842  12.187   0.000  -0.001  -0.000   0.000   0.001   0.001
 12.187   3.223   0.000   0.001   0.000  -0.000  -0.000  -0.000
  0.000   0.000 -18.985   0.000   0.000   9.890  -0.000  -0.000
 -0.001   0.001   0.000 -18.965  -0.000  -0.000   9.868   0.000
 -0.000   0.000   0.000  -0.000 -18.985  -0.000   0.000   9.890
  0.000  -0.000   9.890  -0.000  -0.000   5.196   0.000   0.000
  0.001  -0.000  -0.000   9.868   0.000   0.000   5.206  -0.000
  0.001  -0.000  -0.000   0.000   9.890   0.000  -0.000   5.196
  0.000   0.000  -0.000  -0.000  -0.007   0.000   0.000   0.003
  0.000  -0.000  -0.001  -0.000  -0.000   0.001   0.000   0.000
  0.016  -0.009  -0.000  -0.001   0.000  -0.000   0.001  -0.000
 -0.000   0.000  -0.000  -0.000  -0.001   0.000   0.000   0.001
 -0.000   0.000  -0.007  -0.000  -0.000   0.003   0.000   0.000
  0.000   0.000  -0.000  -0.000  -0.007   0.000   0.000   0.003
  0.000  -0.000  -0.001  -0.000  -0.000   0.001   0.000   0.000
  0.016  -0.010  -0.000  -0.001   0.000  -0.000   0.001  -0.000
 -0.000   0.000  -0.000  -0.001  -0.001   0.000   0.000   0.001
 -0.000   0.000  -0.007  -0.000  -0.000   0.003   0.000   0.000
 total augmentation occupancy for first ion, spin component:           1
  1.995  -0.043   0.000   0.000  -0.000   0.000   0.000  -0.000  -0.000  -0.000  -0.022   0.000  -0.000   0.000   0.000   0.019
 -0.043   1.122  -0.000   0.000  -0.000   0.000   0.002   0.001  -0.009  -0.000   0.169  -0.000  -0.000   0.010   0.000  -0.017
  0.000  -0.000   1.997   0.000   0.000  -0.044   0.000  -0.000   0.000  -0.000  -0.000  -0.000  -0.012  -0.000   0.000   0.000
  0.000   0.000   0.000   1.997   0.000   0.000  -0.050   0.000  -0.000  -0.000  -0.000   0.000  -0.000   0.000   0.000   0.000
 -0.000  -0.000   0.000   0.000   1.997  -0.000   0.000  -0.044  -0.012  -0.000  -0.000  -0.000   0.000  -0.002   0.000   0.000
  0.000   0.000  -0.044   0.000  -0.000   0.086   0.000   0.000  -0.001  -0.010  -0.000  -0.000  -0.182   0.002   0.010   0.000
  0.000   0.002   0.000  -0.050   0.000   0.000   0.106   0.000  -0.000  -0.000   0.000  -0.003  -0.000   0.000   0.000   0.000
 -0.000   0.001  -0.000   0.000  -0.044   0.000   0.000   0.086  -0.182  -0.000  -0.000  -0.010  -0.001   0.219   0.000   0.000
 -0.000  -0.009   0.000  -0.000  -0.012  -0.001  -0.000  -0.182   2.178   0.000  -0.005   0.065   0.002  -2.404  -0.000   0.004
 -0.000  -0.000  -0.000  -0.000  -0.000  -0.010  -0.000  -0.000   0.000   2.958   0.000   0.024   0.065  -0.000  -3.722  -0.000
 -0.022   0.169  -0.000  -0.000  -0.000  -0.000   0.000  -0.000  -0.005   0.000   1.593   0.000  -0.000   0.004  -0.000  -1.291
  0.000  -0.000  -0.000   0.000  -0.000  -0.000  -0.003  -0.010   0.065   0.024   0.000   2.958   0.000  -0.062  -0.030  -0.000
 -0.000  -0.000  -0.012  -0.000   0.000  -0.182  -0.000  -0.001   0.002   0.065  -0.000   0.000   2.178  -0.001  -0.062  -0.000
  0.000   0.010  -0.000   0.000  -0.002   0.002   0.000   0.219  -2.404  -0.000   0.004  -0.062  -0.001   3.395   0.000  -0.002
  0.000   0.000   0.000   0.000   0.000   0.010   0.000   0.000  -0.000  -3.722  -0.000  -0.030  -0.062   0.000   5.141   0.000
  0.019  -0.017   0.000   0.000   0.000   0.000   0.000   0.000   0.004  -0.000  -1.291  -0.000  -0.000  -0.002   0.000   1.932
 -0.000   0.000   0.000  -0.000   0.000   0.000   0.004   0.010  -0.062  -0.030  -0.000  -3.723  -0.000   0.062   0.035   0.000
  0.000   0.000  -0.002   0.000  -0.000   0.219   0.000   0.002  -0.001  -0.062  -0.000  -0.000  -2.404  -0.000   0.062   0.000


------------------------ aborting loop because EDIFF is reached ----------------------------------------


    CHARGE:  cpu time      0.7043: real time      0.7072
    FORLOC:  cpu time      0.0275: real time      0.0276
    FORNL :  cpu time      3.5488: real time      3.5619
    STRESS:  cpu time     10.6567: real time     10.6914
    FORCOR:  cpu time      0.1533: real time      0.1543
    FORHAR:  cpu time      0.0576: real time      0.0581
    MIXING:  cpu time      0.0294: real time      0.0295
    OFIELD:  cpu time      0.0001: real time      0.0003

 ---------------------------------------------------------------------------------------------

         DFTD3 V3.0 Rev 1        
 DF pbe       
 parameters
 k1-k3        =   16.0000    1.3333   -4.0000
 Edisp (eV)  -22.78841

 E6    (eV) :   -12.5569
 E8    (eV) :   -10.2315
 % E8        : 44.90
    FORVDW:  cpu time      0.2016: real time      0.2035

  FORCE on cell =-STRESS in cart. coord.  units (eV):
  Direction    XX          YY          ZZ          XY          YZ          ZX
  --------------------------------------------------------------------------------------
  Alpha Z   762.60754   762.60754   762.60754
  Ewald   57791.62626 57791.63104-81643.38906     1.43630     0.00004    -0.00122
  Hartree 68577.14954 68577.15316-63724.09360     0.56035     0.00001    -0.00673
  E(xc)   -2022.32707 -2022.32708 -2028.14482     0.00307    -0.00000    -0.00002
  Local  ************************136932.94617    -1.98085    -0.00005     0.00909
  n-local  2790.76060  2790.76037  2925.36499     0.03904     0.00000     0.00092
  augment  -160.82474  -160.82468  -193.82263     0.00096     0.00000    -0.00005
  Kinetic  6932.12724  6932.12701  6984.56965    -0.04029     0.00000    -0.00097
  Fock        0.00000     0.00000     0.00000     0.00000     0.00000     0.00000
  vdW       -23.28975   -23.28975   -17.23895    -0.00012    -0.00000     0.00001
  -------------------------------------------------------------------------------------
  Total     -26.67643   -26.67684    -1.20073     0.01846    -0.00000     0.00104
  in kB     -24.01444   -24.01482    -1.08091     0.01662    -0.00000     0.00094
  external pressure =      -16.37 kB  Pullay stress =        0.00 kB


 VOLUME and BASIS-vectors are now :
 -----------------------------------------------------------------------------
  energy-cutoff  :      520.00
  volume of cell :     1779.78
      direct lattice vectors                 reciprocal lattice vectors
    10.136838707  0.000000000  0.000000000     0.098650085 -0.056955653  0.000000000
     5.068419354  8.778759834  0.000000000     0.000000000  0.113911306  0.000000000
     0.000000000  0.000000000 20.000000000     0.000000000  0.000000000  0.050000000

  length of vectors
    10.136838707 10.136838707 20.000000000     0.113911306  0.113911306  0.050000000


 FORCES acting on ions
    electron-ion (+dipol)            ewald-force                    non-local-force                 convergence-correction
 -----------------------------------------------------------------------------------------------
   0.242E+01 0.311E-02 0.121E+04   -.245E+01 -.331E-02 -.121E+04   -.549E-01 -.570E-04 0.253E-01   0.136E-03 0.107E-03 0.180E-03
   -.758E+00 -.922E-03 0.122E+04   0.760E+00 0.113E-10 -.122E+04   -.884E-03 0.388E-02 0.191E+00   -.152E-03 0.469E-04 0.170E-03
   -.761E+00 0.243E-03 0.122E+04   0.763E+00 -.267E-10 -.122E+04   0.132E-03 -.348E-02 0.191E+00   0.128E-04 -.184E-05 0.150E-03
   0.147E-01 -.443E+00 0.122E+04   -.141E-01 0.445E+00 -.122E+04   0.419E-03 -.498E-02 0.191E+00   -.602E-04 -.132E-04 0.149E-03
   -.142E+00 -.311E-03 0.122E+04   0.142E+00 0.264E-03 -.122E+04   0.191E-03 -.182E-04 0.182E+00   -.786E-04 0.714E-04 0.166E-03
   0.111E-01 0.448E+00 0.122E+04   -.105E-01 -.449E+00 -.122E+04   0.620E-03 0.380E-02 0.191E+00   0.146E-03 0.830E-04 0.164E-03
   0.106E-01 -.449E+00 0.122E+04   -.105E-01 0.449E+00 -.122E+04   0.111E-02 0.365E-02 0.191E+00   -.239E-04 -.127E-03 0.159E-03
   0.150E-01 0.444E+00 0.122E+04   -.141E-01 -.445E+00 -.122E+04   0.257E-03 -.288E-02 0.191E+00   0.515E-04 -.143E-05 0.157E-03
   -.142E+00 0.394E-03 0.122E+04   0.142E+00 -.264E-03 -.122E+04   0.973E-03 0.235E-04 0.185E+00   -.322E-04 -.177E-03 0.132E-03
   -.315E-01 -.278E-01 -.122E+04   0.318E-01 0.281E-01 0.122E+04   -.747E-03 -.538E-03 0.885E-02   0.325E-04 0.126E-03 0.653E-03
   -.187E-01 -.583E-02 -.122E+04   0.187E-01 0.654E-02 0.122E+04   -.558E-04 -.800E-03 0.924E-02   0.695E-04 0.665E-04 0.663E-03
   0.501E-01 -.194E-01 -.122E+04   -.504E-01 0.194E-01 0.122E+04   0.854E-03 -.408E-03 0.878E-02   -.104E-03 0.152E-03 0.647E-03
   -.695E-02 -.664E-02 -.122E+04   0.759E-02 0.642E-02 0.122E+04   -.666E-03 0.373E-03 0.926E-02   0.124E-04 -.136E-03 0.681E-03
   0.300E-02 0.126E-01 -.122E+04   -.372E-02 -.129E-01 0.122E+04   0.704E-03 0.459E-03 0.920E-02   0.426E-04 -.180E-03 0.661E-03
   0.395E-02 -.331E-01 -.122E+04   -.389E-02 0.333E-01 0.122E+04   -.140E-04 -.487E-03 0.859E-02   -.551E-04 -.623E-04 0.653E-03
   0.166E-01 0.470E-01 -.122E+04   -.168E-01 -.475E-01 0.122E+04   0.166E-03 0.911E-03 0.881E-02   -.641E-05 0.845E-06 0.664E-03
   -.370E-01 0.236E-01 -.122E+04   0.372E-01 -.237E-01 0.122E+04   -.528E-03 0.285E-03 0.845E-02   0.108E-03 -.145E-04 0.676E-03
   0.205E-01 0.951E-02 -.122E+04   -.205E-01 -.960E-02 0.122E+04   0.357E-03 0.201E-03 0.873E-02   -.104E-03 0.603E-04 0.676E-03
   0.712E+00 0.214E+00 0.111E+04   -.723E+00 -.222E+00 -.112E+04   0.688E-02 0.171E-02 0.551E+01   0.967E-04 0.178E-06 -.605E-05
   -.120E+00 0.134E-01 0.111E+04   0.121E+00 -.133E-01 -.112E+04   -.750E-03 -.626E-03 0.551E+01   -.532E-04 -.758E-04 -.304E-04
   -.108E+01 0.819E+00 0.111E+04   0.108E+01 -.817E+00 -.112E+04   0.337E-01 -.172E-01 0.555E+01   -.419E-04 0.807E-04 -.303E-04
   -.443E-02 -.669E-01 0.111E+04   0.502E-02 0.672E-01 -.112E+04   -.960E-03 0.133E-03 0.551E+01   -.472E-04 0.969E-04 -.122E-04
   -.277E-01 0.533E-01 0.111E+04   0.282E-01 -.537E-01 -.112E+04   0.105E-03 0.493E-03 0.551E+01   0.868E-04 0.972E-05 -.346E-04
   0.359E-01 0.124E+00 0.111E+04   -.367E-01 -.127E+00 -.112E+04   -.528E-03 0.199E-02 0.551E+01   -.406E-04 -.331E-04 0.934E-05
   0.340E+00 -.103E+01 0.111E+04   -.337E+00 0.104E+01 -.112E+04   0.391E-02 0.156E-01 0.553E+01   -.531E-04 -.949E-04 -.348E-04
   0.621E-02 0.172E-01 0.111E+04   -.838E-02 -.165E-01 -.112E+04   0.189E-02 -.139E-02 0.551E+01   -.173E-04 0.548E-04 -.963E-05
   -.209E+00 -.141E+00 0.111E+04   0.211E+00 0.143E+00 -.112E+04   -.155E-02 -.593E-03 0.551E+01   0.703E-04 -.382E-04 -.844E-05
   -.109E+01 -.830E+00 -.690E+02   0.109E+01 0.828E+00 0.743E+02   0.343E-01 0.174E-01 -.529E+01   0.973E-04 -.185E-05 0.174E-03
   -.121E+00 -.124E-01 -.684E+02   0.122E+00 0.134E-01 0.737E+02   -.878E-03 0.177E-02 -.533E+01   -.561E-04 -.674E-04 0.185E-03
   0.708E+00 -.210E+00 -.681E+02   -.720E+00 0.219E+00 0.734E+02   0.798E-02 -.220E-02 -.533E+01   -.396E-04 0.841E-04 0.195E-03
   -.270E-01 -.543E-01 -.684E+02   0.283E-01 0.542E-01 0.737E+02   0.117E-02 -.117E-02 -.533E+01   -.401E-04 0.928E-04 0.179E-03
   -.554E-02 0.665E-01 -.684E+02   0.516E-02 -.674E-01 0.737E+02   -.192E-02 -.606E-03 -.533E+01   0.829E-04 0.786E-05 0.205E-03
   0.367E-01 -.124E+00 -.684E+02   -.370E-01 0.126E+00 0.737E+02   -.995E-03 -.352E-03 -.533E+01   -.444E-04 -.396E-04 0.154E-03
   0.345E+00 0.104E+01 -.685E+02   -.342E+00 -.104E+01 0.739E+02   0.416E-02 -.151E-01 -.531E+01   -.489E-04 -.946E-04 0.194E-03
   -.210E+00 0.142E+00 -.684E+02   0.211E+00 -.144E+00 0.737E+02   -.256E-03 -.416E-03 -.533E+01   -.255E-04 0.574E-04 0.165E-03
   0.561E-02 -.177E-01 -.683E+02   -.729E-02 0.170E-01 0.736E+02   0.366E-03 0.780E-03 -.533E+01   0.751E-04 -.369E-04 0.152E-03
   -.565E-01 -.366E-01 0.188E+01   0.551E-01 0.355E-01 -.676E+01   -.213E-02 -.102E-02 0.489E+01   0.198E-04 0.390E-04 0.114E-03
   0.276E-01 -.121E-01 0.192E+01   -.268E-01 0.118E-01 -.680E+01   0.285E-02 -.186E-02 0.489E+01   -.193E-04 0.512E-04 0.133E-03
   0.296E-01 -.892E-01 0.180E+01   -.294E-01 0.882E-01 -.668E+01   -.286E-03 -.431E-02 0.487E+01   -.364E-06 0.388E-04 0.596E-04
   0.679E-02 0.486E-01 0.190E+01   -.640E-02 -.473E-01 -.678E+01   -.359E-03 0.285E-02 0.489E+01   0.750E-05 -.551E-04 0.123E-03
   -.101E-01 0.102E-01 0.192E+01   0.998E-02 -.101E-01 -.679E+01   0.345E-02 0.192E-02 0.488E+01   -.214E-04 -.498E-04 0.112E-03
   0.342E-02 -.178E-01 0.192E+01   -.367E-02 0.180E-01 -.680E+01   -.311E-02 0.184E-02 0.488E+01   0.138E-04 -.315E-04 0.101E-03
   -.644E-01 0.543E-01 0.177E+01   0.636E-01 -.537E-01 -.664E+01   -.375E-02 0.202E-02 0.487E+01   0.163E-05 -.980E-06 0.576E-04
   -.276E-01 0.780E-02 0.192E+01   0.275E-01 -.789E-02 -.680E+01   0.959E-04 -.377E-02 0.488E+01   0.868E-05 0.172E-04 0.111E-03
   0.900E-01 0.348E-01 0.184E+01   -.892E-01 -.345E-01 -.672E+01   0.370E-02 0.233E-02 0.488E+01   -.105E-04 -.898E-05 0.656E-04
   -.401E-02 -.261E-02 -.104E+04   0.414E-02 0.265E-02 0.105E+04   -.349E-02 -.201E-02 -.474E+01   0.288E-04 0.427E-04 0.369E-03
   0.202E-02 -.932E-03 -.104E+04   -.218E-02 0.999E-03 0.105E+04   0.351E-02 -.204E-02 -.474E+01   -.267E-04 0.484E-04 0.361E-03
   0.197E-02 -.490E-02 -.104E+04   -.196E-02 0.475E-02 0.105E+04   -.167E-04 -.465E-02 -.474E+01   -.190E-05 0.355E-04 0.420E-03
   0.463E-03 0.352E-02 -.104E+04   -.454E-03 -.365E-02 0.105E+04   -.176E-04 0.403E-02 -.474E+01   0.497E-05 -.551E-04 0.363E-03
   -.103E-02 0.778E-03 -.104E+04   0.896E-03 -.829E-03 0.105E+04   0.423E-02 0.243E-02 -.474E+01   -.246E-04 -.420E-04 0.370E-03
   0.616E-03 -.168E-02 -.104E+04   -.443E-03 0.160E-02 0.105E+04   -.425E-02 0.244E-02 -.474E+01   0.194E-04 -.238E-04 0.380E-03
   -.306E-02 0.290E-02 -.104E+04   0.294E-02 -.283E-02 0.105E+04   -.401E-02 0.233E-02 -.474E+01   0.170E-05 -.822E-05 0.426E-03
   -.233E-02 0.954E-03 -.104E+04   0.233E-02 -.775E-03 0.105E+04   -.327E-05 -.488E-02 -.474E+01   0.123E-04 0.161E-04 0.380E-03
   0.540E-02 0.197E-02 -.104E+04   -.527E-02 -.191E-02 0.105E+04   0.401E-02 0.235E-02 -.474E+01   -.138E-04 -.137E-04 0.429E-03
 -----------------------------------------------------------------------------------------------
   -.338E-01 -.198E-03 -.460E+01   -.141E-13 -.108E-12 -.273E-11   0.351E-01 0.176E-03 0.463E+01   -.402E-05 0.362E-05 0.132E-01
 
 
 POSITION                                       TOTAL-FORCE (eV/Angst)
 -----------------------------------------------------------------------------------
      0.00452      0.00000     10.08863        -0.079147     -0.000140     -0.177535
      3.37895      0.00000     10.07971         0.001378      0.003009     -0.006685
      6.75789      0.00000     10.07971         0.001641     -0.003241     -0.006696
      1.68947      2.92625     10.07971         0.000980     -0.002996     -0.006828
      5.06842      2.92625     10.07971         0.000293      0.000006      0.003545
      8.44737      2.92625     10.07971         0.001380      0.002884     -0.006555
      3.37895      5.85251     10.07971         0.001137      0.003508     -0.006828
      6.75789      5.85251     10.07971         0.001230     -0.003126     -0.006553
     10.13684      5.85251     10.07971         0.000278     -0.000023      0.003265
      1.68947      0.97542     16.42074        -0.000367     -0.000184      0.000180
      5.06842      0.97542     16.42074         0.000002     -0.000021     -0.000323
      8.44737      0.97542     16.42074         0.000377     -0.000227     -0.000129
      3.37895      3.90167     16.42074        -0.000043      0.000012     -0.000391
      6.75789      3.90167     16.42074         0.000007     -0.000010     -0.000258
     10.13684      3.90167     16.42074        -0.000033     -0.000329     -0.000134
      5.06842      6.82792     16.42074        -0.000033      0.000435      0.000028
      8.44737      6.82792     16.42074        -0.000290      0.000155     -0.000212
     11.82631      6.82792     16.42074         0.000255      0.000173     -0.000061
      1.68947      0.97542      8.58259        -0.003930     -0.006366      0.023682
      5.06842      0.97542      8.58259         0.000417     -0.000598      0.000539
      8.44737      0.97542      8.58259         0.032988     -0.014951      0.042293
      3.37895      3.90167      8.58259        -0.000445      0.000494      0.000608
      6.75789      3.90167      8.58259         0.000600      0.000108      0.000484
     10.13684      3.90167      8.58259        -0.001355     -0.000396      0.000100
      5.06842      6.82792      8.58259         0.007100      0.021378      0.033055
      8.44737      6.82792      8.58259        -0.000315     -0.000611      0.000246
     11.82631      6.82792      8.58259         0.000373      0.000993     -0.000056
      1.68947      0.97542     11.57554         0.034002      0.015451      0.043433
      5.06842      0.97542     11.57554         0.000317      0.002642      0.004761
      8.44737      0.97542     11.57554        -0.004338      0.006682      0.024430
      3.37895      3.90167     11.57554         0.002322     -0.001159      0.004735
      6.75789      3.90167     11.57554        -0.002249     -0.001479      0.004775
     10.13684      3.90167     11.57554        -0.001338      0.001415      0.002653
      5.06842      6.82792     11.57554         0.007242     -0.022066      0.033859
      8.44737      6.82792     11.57554         0.001192     -0.001470      0.002472
     11.82631      6.82792     11.57554        -0.001258      0.000042      0.002841
      3.37895      1.95084     14.55316        -0.003562     -0.002067      0.002877
      6.75789      1.95084     14.55316         0.003660     -0.002109      0.002618
     10.13684      1.95084     14.55316        -0.000062     -0.005253     -0.007735
      5.06842      4.87709     14.55316         0.000012      0.004166      0.002736
      8.44737      4.87709     14.55316         0.003293      0.001904     -0.000373
     11.82631      4.87709     14.55316        -0.003381      0.001939     -0.000310
      6.75789      7.80334     14.55316        -0.004599      0.002627     -0.007782
     10.13684      7.80334     14.55316        -0.000014     -0.003845     -0.000340
     13.51578      7.80334     14.55316         0.004497      0.002639     -0.007711
      3.37895      1.95084     18.28826        -0.003354     -0.001923      0.004544
      6.75789      1.95084     18.28826         0.003305     -0.001928      0.004557
     10.13684      1.95084     18.28826        -0.000035     -0.004762     -0.002395
      5.06842      4.87709     18.28826        -0.000029      0.003841      0.004561
      8.44737      4.87709     18.28826         0.004049      0.002342     -0.001084
     11.82631      4.87709     18.28826        -0.004080      0.002343     -0.001059
      6.75789      7.80334     18.28826        -0.004151      0.002384     -0.002387
     10.13684      7.80334     18.28826        -0.000015     -0.004685     -0.001071
     13.51578      7.80334     18.28826         0.004095      0.002391     -0.002381
 -----------------------------------------------------------------------------------
    total drift:                                0.001370     -0.000018      0.043759


--------------------------------------------------------------------------------------------------------



  FREE ENERGIE OF THE ION-ELECTRON SYSTEM (eV)
  ---------------------------------------------------
  free  energy   TOTEN  =      -376.72610926 eV

  energy  without entropy=     -376.71884494  energy(sigma->0) =     -376.72247710
 


--------------------------------------------------------------------------------------------------------


    POTLOK:  cpu time      0.1749: real time      0.2032


--------------------------------------------------------------------------------------------------------


     LOOP+:  cpu time    485.2331: real time    487.9915
    4ORBIT:  cpu time      0.0000: real time      0.0000

 total amount of memory used by VASP MPI-rank0   149799. kBytes
=======================================================================

   base                                    :      30000. kBytes
   nonlr-proj                              :      18150. kBytes
   fftplans                                :      13426. kBytes
   grid                                    :      21975. kBytes
   one-center                              :        217. kBytes
   wavefun                                 :      66031. kBytes
 
  
  
 General timing and accounting informations for this job:
 ========================================================
  
                  Total CPU time used (sec):      496.531
                            User time (sec):      484.326
                          System time (sec):       12.205
                         Elapsed time (sec):      502.399
  
                   Maximum memory used (kb):      454344.
                   Average memory used (kb):          N/A
  
                          Minor page faults:        47860
                          Major page faults:           62
                 Voluntary context switches:        14919
