       N       E                     dE             d eps       ncg     rms          rms(c)
DAV:   1     0.395690644840E+04    0.39569E+04   -0.24377E+05  9064   0.143E+03
DAV:   2    -0.459161592929E+02   -0.40028E+04   -0.38898E+04  8976   0.336E+02
DAV:   3    -0.359930774570E+03   -0.31401E+03   -0.30699E+03  8987   0.806E+01
DAV:   4    -0.375230272677E+03   -0.15299E+02   -0.15146E+02 10164   0.162E+01
DAV:   5    -0.375747322911E+03   -0.51705E+00   -0.51408E+00 10340   0.297E+00    0.785E+01
DAV:   6    -0.360861599644E+03    0.14886E+02   -0.14596E+02  8393   0.203E+01    0.353E+01
DAV:   7    -0.360074603332E+03    0.78700E+00   -0.10222E+02  8415   0.163E+01    0.223E+01
DAV:   8    -0.354355940491E+03    0.57187E+01   -0.14578E+01  8272   0.704E+00    0.867E+00
DAV:   9    -0.354176370547E+03    0.17957E+00   -0.39105E+00  9779   0.295E+00    0.508E+00
DAV:  10    -0.354060137411E+03    0.11623E+00   -0.36324E-01  8921   0.122E+00    0.283E+00
DAV:  11    -0.354011361341E+03    0.48776E-01   -0.29894E-01  9911   0.166E+00    0.182E+00
DAV:  12    -0.353961929252E+03    0.49432E-01   -0.28391E-01  8833   0.112E+00    0.115E+00
DAV:  13    -0.353954749285E+03    0.71800E-02   -0.41885E-02  9570   0.396E-01    0.837E-01
DAV:  14    -0.353951657127E+03    0.30922E-02   -0.68217E-03  9724   0.237E-01    0.644E-01
DAV:  15    -0.353943473838E+03    0.81833E-02   -0.14511E-02  9438   0.299E-01    0.387E-01
DAV:  16    -0.353934987171E+03    0.84867E-02   -0.11669E-02  9141   0.261E-01    0.385E-01
DAV:  17    -0.353934571250E+03    0.41592E-03   -0.21403E-03  9130   0.121E-01    0.281E-01
DAV:  18    -0.353933391079E+03    0.11802E-02   -0.20304E-03  9394   0.139E-01    0.246E-01
DAV:  19    -0.353932754710E+03    0.63637E-03   -0.43337E-03  8976   0.163E-01    0.211E-01
DAV:  20    -0.353934072693E+03   -0.13180E-02   -0.28021E-03  9174   0.113E-01    0.314E-01
DAV:  21    -0.353934508848E+03   -0.43615E-03   -0.44514E-04  9339   0.631E-02    0.281E-01
DAV:  22    -0.353935583010E+03   -0.10742E-02   -0.15875E-03  8492   0.741E-02    0.888E-02
DAV:  23    -0.353938239054E+03   -0.26560E-02   -0.11784E-03  8690   0.856E-02    0.939E-02
DAV:  24    -0.353939363811E+03   -0.11248E-02   -0.33945E-04  8833   0.558E-02    0.964E-02
DAV:  25    -0.353939773994E+03   -0.41018E-03   -0.57297E-05  8855   0.165E-02    0.865E-02
DAV:  26    -0.353940127359E+03   -0.35337E-03   -0.40777E-05  9163   0.177E-02    0.397E-02
DAV:  27    -0.353940340401E+03   -0.21304E-03   -0.35401E-05  8624   0.130E-02    0.198E-02
DAV:  28    -0.353940358798E+03   -0.18397E-04   -0.56695E-06  8151   0.679E-03    0.175E-02
DAV:  29    -0.353940377308E+03   -0.18510E-04   -0.22693E-06  6336   0.356E-03    0.838E-03
DAV:  30    -0.353940400103E+03   -0.22795E-04   -0.18190E-06  6171   0.240E-03    0.338E-03
DAV:  31    -0.353940410707E+03   -0.10604E-04   -0.14174E-06  6028   0.256E-03    0.338E-03
DAV:  32    -0.353940412706E+03   -0.19989E-05   -0.30337E-07  5533   0.143E-03    0.306E-03
DAV:  33    -0.353940414465E+03   -0.17590E-05   -0.25684E-07  4928   0.708E-04    0.188E-03
DAV:  34    -0.353940415258E+03   -0.79292E-06   -0.33935E-07  5368   0.673E-04
   1 F= -.37672653E+03 E0= -.37672291E+03  d E =-.725401E-02
