  27  27   0   0
  0.5853913E+02  0.9552669E-09  0.9552669E-09  0.2000000E-08  0.5000000E-15
  1.000000000000000E-004
  CAR 
 WS2 phonon                              
      5.88674377    -79.82438918  301     -1.50584144      1.00000000
    -79.824  0.0000E+00  0.0000E+00
    -79.539  0.0000E+00  0.0000E+00
    -79.253  0.0000E+00  0.0000E+00
    -78.967  0.0000E+00  0.0000E+00
    -78.682  0.0000E+00  0.0000E+00
    -78.396  0.0000E+00  0.0000E+00
    -78.110  0.0000E+00  0.0000E+00
    -77.824  0.0000E+00  0.0000E+00
    -77.539  0.0000E+00  0.0000E+00
    -77.253  0.0000E+00  0.0000E+00
    -76.967  0.0000E+00  0.0000E+00
    -76.682  0.0000E+00  0.0000E+00
    -76.396  0.0000E+00  0.0000E+00
    -76.110  0.1783E-05  0.5095E-06
    -75.825  0.6267E+02  0.1791E+02
    -75.539  0.3282E+00  0.1800E+02
    -75.253  0.0000E+00  0.1800E+02
    -74.967  0.0000E+00  0.1800E+02
    -74.682  0.0000E+00  0.1800E+02
    -74.396  0.0000E+00  0.1800E+02
    -74.110  0.0000E+00  0.1800E+02
    -73.825  0.0000E+00  0.1800E+02
    -73.539  0.0000E+00  0.1800E+02
    -73.253  0.0000E+00  0.1800E+02
    -72.967  0.0000E+00  0.1800E+02
    -72.682  0.0000E+00  0.1800E+02
    -72.396  0.0000E+00  0.1800E+02
    -72.110  0.0000E+00  0.1800E+02
    -71.825  0.0000E+00  0.1800E+02
    -71.539  0.0000E+00  0.1800E+02
    -71.253  0.0000E+00  0.1800E+02
    -70.968  0.0000E+00  0.1800E+02
    -70.682  0.0000E+00  0.1800E+02
    -70.396  0.0000E+00  0.1800E+02
    -70.110  0.0000E+00  0.1800E+02
    -69.825  0.0000E+00  0.1800E+02
    -69.539  0.0000E+00  0.1800E+02
    -69.253  0.0000E+00  0.1800E+02
    -68.968  0.0000E+00  0.1800E+02
    -68.682  0.0000E+00  0.1800E+02
    -68.396  0.0000E+00  0.1800E+02
    -68.111  0.0000E+00  0.1800E+02
    -67.825  0.0000E+00  0.1800E+02
    -67.539  0.0000E+00  0.1800E+02
    -67.253  0.0000E+00  0.1800E+02
    -66.968  0.0000E+00  0.1800E+02
    -66.682  0.0000E+00  0.1800E+02
    -66.396  0.0000E+00  0.1800E+02
    -66.111  0.0000E+00  0.1800E+02
    -65.825  0.0000E+00  0.1800E+02
    -65.539  0.0000E+00  0.1800E+02
    -65.253  0.0000E+00  0.1800E+02
    -64.968  0.0000E+00  0.1800E+02
    -64.682  0.0000E+00  0.1800E+02
    -64.396  0.0000E+00  0.1800E+02
    -64.111  0.0000E+00  0.1800E+02
    -63.825  0.0000E+00  0.1800E+02
    -63.539  0.0000E+00  0.1800E+02
    -63.254  0.0000E+00  0.1800E+02
    -62.968  0.0000E+00  0.1800E+02
    -62.682  0.0000E+00  0.1800E+02
    -62.396  0.0000E+00  0.1800E+02
    -62.111  0.0000E+00  0.1800E+02
    -61.825  0.0000E+00  0.1800E+02
    -61.539  0.0000E+00  0.1800E+02
    -61.254  0.0000E+00  0.1800E+02
    -60.968  0.0000E+00  0.1800E+02
    -60.682  0.0000E+00  0.1800E+02
    -60.397  0.0000E+00  0.1800E+02
    -60.111  0.0000E+00  0.1800E+02
    -59.825  0.0000E+00  0.1800E+02
    -59.539  0.0000E+00  0.1800E+02
    -59.254  0.0000E+00  0.1800E+02
    -58.968  0.0000E+00  0.1800E+02
    -58.682  0.0000E+00  0.1800E+02
    -58.397  0.0000E+00  0.1800E+02
    -58.111  0.0000E+00  0.1800E+02
    -57.825  0.0000E+00  0.1800E+02
    -57.539  0.0000E+00  0.1800E+02
    -57.254  0.0000E+00  0.1800E+02
    -56.968  0.0000E+00  0.1800E+02
    -56.682  0.0000E+00  0.1800E+02
    -56.397  0.0000E+00  0.1800E+02
    -56.111  0.0000E+00  0.1800E+02
    -55.825  0.0000E+00  0.1800E+02
    -55.540  0.0000E+00  0.1800E+02
    -55.254  0.0000E+00  0.1800E+02
    -54.968  0.0000E+00  0.1800E+02
    -54.682  0.0000E+00  0.1800E+02
    -54.397  0.0000E+00  0.1800E+02
    -54.111  0.0000E+00  0.1800E+02
    -53.825  0.0000E+00  0.1800E+02
    -53.540  0.0000E+00  0.1800E+02
    -53.254  0.0000E+00  0.1800E+02
    -52.968  0.0000E+00  0.1800E+02
    -52.683  0.0000E+00  0.1800E+02
    -52.397  0.0000E+00  0.1800E+02
    -52.111  0.0000E+00  0.1800E+02
    -51.825  0.0000E+00  0.1800E+02
    -51.540  0.0000E+00  0.1800E+02
    -51.254  0.0000E+00  0.1800E+02
    -50.968  0.0000E+00  0.1800E+02
    -50.683  0.0000E+00  0.1800E+02
    -50.397  0.0000E+00  0.1800E+02
    -50.111  0.0000E+00  0.1800E+02
    -49.825  0.0000E+00  0.1800E+02
    -49.540  0.0000E+00  0.1800E+02
    -49.254  0.0000E+00  0.1800E+02
    -48.968  0.0000E+00  0.1800E+02
    -48.683  0.0000E+00  0.1800E+02
    -48.397  0.0000E+00  0.1800E+02
    -48.111  0.0000E+00  0.1800E+02
    -47.826  0.0000E+00  0.1800E+02
    -47.540  0.0000E+00  0.1800E+02
    -47.254  0.0000E+00  0.1800E+02
    -46.968  0.0000E+00  0.1800E+02
    -46.683  0.0000E+00  0.1800E+02
    -46.397  0.0000E+00  0.1800E+02
    -46.111  0.0000E+00  0.1800E+02
    -45.826  0.0000E+00  0.1800E+02
    -45.540  0.0000E+00  0.1800E+02
    -45.254  0.0000E+00  0.1800E+02
    -44.969  0.0000E+00  0.1800E+02
    -44.683  0.0000E+00  0.1800E+02
    -44.397  0.0000E+00  0.1800E+02
    -44.111  0.0000E+00  0.1800E+02
    -43.826  0.0000E+00  0.1800E+02
    -43.540  0.0000E+00  0.1800E+02
    -43.254  0.0000E+00  0.1800E+02
    -42.969  0.0000E+00  0.1800E+02
    -42.683  0.0000E+00  0.1800E+02
    -42.397  0.0000E+00  0.1800E+02
    -42.111  0.0000E+00  0.1800E+02
    -41.826  0.0000E+00  0.1800E+02
    -41.540  0.0000E+00  0.1800E+02
    -41.254  0.0000E+00  0.1800E+02
    -40.969  0.0000E+00  0.1800E+02
    -40.683  0.0000E+00  0.1800E+02
    -40.397  0.3404E+00  0.1810E+02
    -40.112  0.1119E+03  0.5008E+02
    -39.826  0.7673E+02  0.7200E+02
    -39.540  0.0000E+00  0.7200E+02
    -39.254  0.0000E+00  0.7200E+02
    -38.969  0.0000E+00  0.7200E+02
    -38.683  0.0000E+00  0.7200E+02
    -38.397  0.0000E+00  0.7200E+02
    -38.112  0.0000E+00  0.7200E+02
    -37.826  0.0000E+00  0.7200E+02
    -37.540  0.0000E+00  0.7200E+02
    -37.255  0.0000E+00  0.7200E+02
    -36.969  0.0000E+00  0.7200E+02
    -36.683  0.0000E+00  0.7200E+02
    -36.397  0.0000E+00  0.7200E+02
    -36.112  0.0000E+00  0.7200E+02
    -35.826  0.0000E+00  0.7200E+02
    -35.540  0.0000E+00  0.7200E+02
    -35.255  0.0000E+00  0.7200E+02
    -34.969  0.0000E+00  0.7200E+02
    -34.683  0.0000E+00  0.7200E+02
    -34.397  0.0000E+00  0.7200E+02
    -34.112  0.0000E+00  0.7200E+02
    -33.826  0.0000E+00  0.7200E+02
    -33.540  0.0000E+00  0.7200E+02
    -33.255  0.0000E+00  0.7200E+02
    -32.969  0.0000E+00  0.7200E+02
    -32.683  0.0000E+00  0.7200E+02
    -32.398  0.0000E+00  0.7200E+02
    -32.112  0.0000E+00  0.7200E+02
    -31.826  0.0000E+00  0.7200E+02
    -31.540  0.0000E+00  0.7200E+02
    -31.255  0.0000E+00  0.7200E+02
    -30.969  0.0000E+00  0.7200E+02
    -30.683  0.0000E+00  0.7200E+02
    -30.398  0.0000E+00  0.7200E+02
    -30.112  0.0000E+00  0.7200E+02
    -29.826  0.0000E+00  0.7200E+02
    -29.541  0.0000E+00  0.7200E+02
    -29.255  0.0000E+00  0.7200E+02
    -28.969  0.0000E+00  0.7200E+02
    -28.683  0.0000E+00  0.7200E+02
    -28.398  0.0000E+00  0.7200E+02
    -28.112  0.0000E+00  0.7200E+02
    -27.826  0.0000E+00  0.7200E+02
    -27.541  0.0000E+00  0.7200E+02
    -27.255  0.0000E+00  0.7200E+02
    -26.969  0.0000E+00  0.7200E+02
    -26.683  0.0000E+00  0.7200E+02
    -26.398  0.0000E+00  0.7200E+02
    -26.112  0.0000E+00  0.7200E+02
    -25.826  0.0000E+00  0.7200E+02
    -25.541  0.0000E+00  0.7200E+02
    -25.255  0.0000E+00  0.7200E+02
    -24.969  0.0000E+00  0.7200E+02
    -24.684  0.0000E+00  0.7200E+02
    -24.398  0.0000E+00  0.7200E+02
    -24.112  0.0000E+00  0.7200E+02
    -23.826  0.0000E+00  0.7200E+02
    -23.541  0.0000E+00  0.7200E+02
    -23.255  0.0000E+00  0.7200E+02
    -22.969  0.0000E+00  0.7200E+02
    -22.684  0.0000E+00  0.7200E+02
    -22.398  0.0000E+00  0.7200E+02
    -22.112  0.0000E+00  0.7200E+02
    -21.827  0.0000E+00  0.7200E+02
    -21.541  0.0000E+00  0.7200E+02
    -21.255  0.0000E+00  0.7200E+02
    -20.969  0.0000E+00  0.7200E+02
    -20.684  0.0000E+00  0.7200E+02
    -20.398  0.0000E+00  0.7200E+02
    -20.112  0.0000E+00  0.7200E+02
    -19.827  0.0000E+00  0.7200E+02
    -19.541  0.0000E+00  0.7200E+02
    -19.255  0.0000E+00  0.7200E+02
    -18.969  0.0000E+00  0.7200E+02
    -18.684  0.0000E+00  0.7200E+02
    -18.398  0.0000E+00  0.7200E+02
    -18.112  0.0000E+00  0.7200E+02
    -17.827  0.0000E+00  0.7200E+02
    -17.541  0.0000E+00  0.7200E+02
    -17.255  0.0000E+00  0.7200E+02
    -16.970  0.0000E+00  0.7200E+02
    -16.684  0.3119E-01  0.7201E+02
    -16.398  0.3399E+01  0.7298E+02
    -16.112  0.4819E+01  0.7436E+02
    -15.827  0.3471E+01  0.7535E+02
    -15.541  0.5337E+01  0.7687E+02
    -15.255  0.6754E+01  0.7880E+02
    -14.970  0.8763E+01  0.8131E+02
    -14.684  0.2103E+02  0.8731E+02
    -14.398  0.3451E+02  0.9717E+02
    -14.113  0.3646E+02  0.1076E+03
    -13.827  0.1423E+01  0.1080E+03
    -13.541  0.0000E+00  0.1080E+03
    -13.255  0.0000E+00  0.1080E+03
    -12.970  0.0000E+00  0.1080E+03
    -12.684  0.0000E+00  0.1080E+03
    -12.398  0.0000E+00  0.1080E+03
    -12.113  0.0000E+00  0.1080E+03
    -11.827  0.0000E+00  0.1080E+03
    -11.541  0.0000E+00  0.1080E+03
    -11.255  0.0000E+00  0.1080E+03
    -10.970  0.0000E+00  0.1080E+03
    -10.684  0.0000E+00  0.1080E+03
    -10.398  0.0000E+00  0.1080E+03
    -10.113  0.0000E+00  0.1080E+03
     -9.827  0.0000E+00  0.1080E+03
     -9.541  0.0000E+00  0.1080E+03
     -9.256  0.0000E+00  0.1080E+03
     -8.970  0.0000E+00  0.1080E+03
     -8.684  0.0000E+00  0.1080E+03
     -8.398  0.5431E-01  0.1080E+03
     -8.113  0.8934E+01  0.1106E+03
     -7.827  0.1332E+02  0.1144E+03
     -7.541  0.2116E+02  0.1204E+03
     -7.256  0.2649E+02  0.1280E+03
     -6.970  0.1218E+02  0.1315E+03
     -6.684  0.1017E+02  0.1344E+03
     -6.399  0.1738E+02  0.1393E+03
     -6.113  0.4337E+02  0.1517E+03
     -5.827  0.1304E+02  0.1555E+03
     -5.541  0.9388E+01  0.1581E+03
     -5.256  0.3862E+02  0.1692E+03
     -4.970  0.2351E+02  0.1759E+03
     -4.684  0.1402E+02  0.1799E+03
     -4.399  0.9370E+01  0.1826E+03
     -4.113  0.2926E+02  0.1909E+03
     -3.827  0.3331E+02  0.2004E+03
     -3.541  0.2786E+02  0.2084E+03
     -3.256  0.1756E+02  0.2134E+03
     -2.970  0.1247E+02  0.2170E+03
     -2.684  0.2174E+02  0.2232E+03
     -2.399  0.1903E+02  0.2286E+03
     -2.113  0.1102E+02  0.2318E+03
     -1.827  0.7741E+01  0.2340E+03
     -1.542  0.1454E-01  0.2340E+03
     -1.256  0.0000E+00  0.2340E+03
     -0.970  0.0000E+00  0.2340E+03
     -0.684  0.0000E+00  0.2340E+03
     -0.399  0.0000E+00  0.2340E+03
     -0.113  0.9356E-01  0.2340E+03
      0.173  0.4489E+01  0.2353E+03
      0.458  0.2290E+02  0.2419E+03
      0.744  0.2989E+02  0.2504E+03
      1.030  0.4457E+02  0.2631E+03
      1.315  0.2830E+02  0.2712E+03
      1.601  0.3230E+02  0.2804E+03
      1.887  0.1737E+02  0.2854E+03
      2.173  0.2089E+01  0.2860E+03
      2.458  0.0000E+00  0.2860E+03
      2.744  0.0000E+00  0.2860E+03
      3.030  0.0000E+00  0.2860E+03
      3.315  0.0000E+00  0.2860E+03
      3.601  0.0000E+00  0.2860E+03
      3.887  0.0000E+00  0.2860E+03
      4.173  0.0000E+00  0.2860E+03
      4.458  0.0000E+00  0.2860E+03
      4.744  0.0000E+00  0.2860E+03
      5.030  0.0000E+00  0.2860E+03
      5.315  0.0000E+00  0.2860E+03
      5.601  0.0000E+00  0.2860E+03
      5.887  0.0000E+00  0.2860E+03
