    3    3  400    1
  0.6968258E+02  0.3474101E-09  0.3474101E-09  0.2000000E-08  0.5000000E-15
  1.000000000000000E-004
  CAR 
 TaSe2 relaxation                        
     23     27     22
 
  0.1276756E-14  0.1276756E-14  0.1276756E-14  0.4444444E-02
      1        -37.070763   1.000000
      2        -37.019331   1.000000
      3        -37.019331   1.000000
      4        -16.398014   1.000000
      5        -15.196509   1.000000
      6         -7.802182   1.000000
      7         -4.371997   1.000000
      8         -4.371997   1.000000
      9         -3.937175   1.000000
     10         -3.316235   1.000000
     11         -3.316235   1.000000
     12         -1.691162   0.000000
     13          0.751277   0.000000
     14          0.751277   0.000000
     15          0.872751   0.000000
     16          0.872751   0.000000
     17          1.646302   0.000000
     18          2.703827   0.000000
     19          2.771190   0.000000
     20          3.583483   0.000000
     21          4.522037   0.000000
     22          5.197387   0.000000
 
  0.6666667E-01  0.8391135E-14  0.1276756E-14  0.2666667E-01
      1        -37.069133   1.000000
      2        -37.027609   1.000000
      3        -37.021248   1.000000
      4        -16.343535   1.000000
      5        -15.173144   1.000000
      6         -7.729023   1.000000
      7         -4.583304   1.000000
      8         -4.322958   1.000000
      9         -4.100806   1.000000
     10         -3.420358   1.000000
     11         -3.287617   1.000000
     12         -1.733475   0.000000
     13          0.641543   0.000000
     14          0.659746   0.000000
     15          0.813909   0.000000
     16          0.874220   0.000000
     17          1.982674   0.000000
     18          2.790119   0.000000
     19          2.888630   0.000000
     20          3.683959   0.000000
     21          4.629194   0.000000
     22          5.523989   0.000000
 
  0.1333333E+00  0.8382784E-14  0.1276756E-14  0.2666667E-01
      1        -37.064523   1.000000
      2        -37.050933   1.000000
      3        -37.026667   1.000000
      4        -16.185574   1.000000
      5        -15.105497   1.000000
      6         -7.518953   1.000000
      7         -5.112632   1.000000
      8         -4.474503   1.000000
      9         -4.184717   1.000000
     10         -3.684310   1.000000
     11         -3.328102   1.000000
     12         -1.893787   0.000000
     13          0.368117   0.000000
     14          0.522758   0.000000
     15          0.671146   0.000000
     16          1.184668   0.000000
     17          2.550660   0.000000
     18          3.024233   0.000000
     19          3.269282   0.000000
     20          4.001720   0.000000
     21          4.868619   0.000000
     22          6.044504   0.000000
 
  0.2000000E+00  0.1288603E-14  0.1276756E-14  0.2666667E-01
      1        -37.085078   1.000000
      2        -37.057723   1.000000
      3        -37.034637   1.000000
      4        -15.940887   1.000000
      5        -15.001174   1.000000
      6         -7.207673   1.000000
      7         -5.770500   1.000000
      8         -4.962567   1.000000
      9         -4.015215   1.000000
     10         -3.983829   1.000000
     11         -3.483689   1.000000
     12         -2.202931   0.000000
     13          0.245736   0.000000
     14          0.520091   0.000000
     15          0.616031   0.000000
     16          1.564907   0.000000
     17          3.013484   0.000000
     18          3.383259   0.000000
     19          3.793605   0.000000
     20          4.536893   0.000000
     21          5.204549   0.000000
     22          6.105234   0.000000
 
  0.2666667E+00  0.1265462E-14  0.1276756E-14  0.2666667E-01
      1        -37.123970   1.000000
      2        -37.049902   1.000000
      3        -37.043769   1.000000
      4        -15.638673   1.000000
      5        -14.873624   1.000000
      6         -6.931883   1.000000
      7         -6.344013   1.000000
      8         -5.507372   1.000000
      9         -4.338698   1.000000
     10         -3.762322   1.000000
     11         -3.661355   1.000000
     12         -2.564632   0.999996
     13          0.320740   0.000000
     14          0.433883   0.000000
     15          0.894364   0.000000
     16          1.915225   0.000000
     17          3.407187   0.000000
     18          3.846329   0.000000
     19          4.224988   0.000000
     20          4.792311   0.000000
     21          5.563517   0.000000
     22          5.945320   0.000000
 
  0.3333333E+00  0.8394189E-14  0.1276756E-14  0.2666667E-01
      1        -37.160854   1.000000
      2        -37.052486   1.000000
      3        -37.042415   1.000000
      4        -15.322571   1.000000
      5        -14.742606   1.000000
      6         -7.219685   1.000000
      7         -6.307973   1.000000
      8         -6.024357   1.000000
      9         -4.609172   1.000000
     10         -3.793719   1.000000
     11         -3.567417   1.000000
     12         -2.809634   1.000000
     13          0.450345   0.000000
     14          0.513234   0.000000
     15          1.229564   0.000000
     16          2.180976   0.000000
     17          3.524671   0.000000
     18          4.217284   0.000000
     19          4.357826   0.000000
     20          5.023005   0.000000
     21          5.534378   0.000000
     22          6.181279   0.000000
 
  0.4000000E+00  0.8402453E-14  0.1276756E-14  0.2666667E-01
      1        -37.189468   1.000000
      2        -37.059282   1.000000
      3        -37.036556   1.000000
      4        -15.051457   1.000000
      5        -14.633000   1.000000
      6         -7.657341   1.000000
      7         -6.425170   1.000000
      8         -6.097088   1.000000
      9         -4.800765   1.000000
     10         -3.870596   1.000000
     11         -3.432651   1.000000
     12         -2.846402   1.000000
     13          0.546600   0.000000
     14          0.744033   0.000000
     15          1.500141   0.000000
     16          2.348829   0.000000
     17          2.898264   0.000000
     18          4.420711   0.000000
     19          4.745129   0.000000
     20          5.543829   0.000000
     21          5.654113   0.000000
     22          6.548115   0.000000
 
  0.4666667E+00  0.1316676E-14  0.1276756E-14  0.2666667E-01
      1        -37.205054   1.000000
      2        -37.062999   1.000000
      3        -37.033347   1.000000
      4        -14.891674   1.000000
      5        -14.569931   1.000000
      6         -7.911545   1.000000
      7         -6.643318   1.000000
      8         -5.998888   1.000000
      9         -4.899606   1.000000
     10         -3.903741   1.000000
     11         -3.367199   1.000000
     12         -2.768484   1.000000
     13          0.637931   0.000000
     14          0.942459   0.000000
     15          1.638323   0.000000
     16          2.309451   0.000000
     17          2.427601   0.000000
     18          4.685916   0.000000
     19          4.869466   0.000000
     20          5.905337   0.000000
     21          6.269949   0.000000
     22          6.748593   0.000000
 
  0.1333333E+00  0.6666667E-01  0.1276756E-14  0.2666667E-01
      1        -37.066013   1.000000
      2        -37.043143   1.000000
      3        -37.025184   1.000000
      4        -16.237291   1.000000
      5        -15.127617   1.000000
      6         -7.586990   1.000000
      7         -4.946404   1.000000
      8         -4.346304   1.000000
      9         -4.235373   1.000000
     10         -3.668980   1.000000
     11         -3.249018   1.000000
     12         -1.834287   0.000000
     13          0.437638   0.000000
     14          0.516405   0.000000
     15          0.704097   0.000000
     16          1.107000   0.000000
     17          2.412519   0.000000
     18          2.949126   0.000000
     19          3.142459   0.000000
     20          3.892220   0.000000
     21          4.794917   0.000000
     22          5.980981   0.000000
 
  0.2000000E+00  0.6666667E-01  0.1276756E-14  0.5333333E-01
      1        -37.071159   1.000000
      2        -37.060308   1.000000
      3        -37.032592   1.000000
      4        -16.035766   1.000000
      5        -15.041459   1.000000
      6         -7.321962   1.000000
      7         -5.521111   1.000000
      8         -4.728217   1.000000
      9         -4.088649   1.000000
     10         -4.065037   1.000000
     11         -3.288120   1.000000
     12         -2.066654   0.000000
     13          0.240936   0.000000
     14          0.490400   0.000000
     15          0.564817   0.000000
     16          1.476565   0.000000
     17          2.887516   0.000000
     18          3.245272   0.000000
     19          3.631016   0.000000
     20          4.344929   0.000000
     21          5.078093   0.000000
     22          6.242612   0.000000
 
  0.2666667E+00  0.6666667E-01  0.1276756E-14  0.5333333E-01
      1        -37.106719   1.000000
      2        -37.052998   1.000000
      3        -37.042096   1.000000
      4        -15.761605   1.000000
      5        -14.924978   1.000000
      6         -6.992644   1.000000
      7         -6.140680   1.000000
      8         -5.230603   1.000000
      9         -4.414673   1.000000
     10         -3.930729   1.000000
     11         -3.438777   1.000000
     12         -2.386037   0.281082
     13          0.167130   0.000000
     14          0.517098   0.000000
     15          0.673299   0.000000
     16          1.850654   0.000000
     17          3.313930   0.000000
     18          3.659462   0.000000
     19          4.127249   0.000000
     20          4.820840   0.000000
     21          5.448603   0.000000
     22          6.023513   0.000000
 
  0.3333333E+00  0.6666667E-01  0.1276756E-14  0.5333333E-01
      1        -37.143594   1.000000
      2        -37.052022   1.000000
      3        -37.045343   1.000000
      4        -15.450717   1.000000
      5        -14.794569   1.000000
      6         -6.961372   1.000000
      7         -6.412903   1.000000
      8         -5.778643   1.000000
      9         -4.661586   1.000000
     10         -3.823971   1.000000
     11         -3.624469   1.000000
     12         -2.635941   1.000000
     13          0.221597   0.000000
     14          0.591204   0.000000
     15          0.994698   0.000000
     16          2.138333   0.000000
     17          3.689786   0.000000
     18          4.159570   0.000000
     19          4.358196   0.000000
     20          4.857102   0.000000
     21          5.721809   0.000000
     22          6.118682   0.000000
 
  0.4000000E+00  0.6666667E-01  0.1276756E-14  0.5333333E-01
      1        -37.175459   1.000000
      2        -37.060649   1.000000
      3        -37.038668   1.000000
      4        -15.153986   1.000000
      5        -14.672592   1.000000
      6         -7.412545   1.000000
      7         -6.255140   1.000000
      8         -6.177083   1.000000
      9         -4.827707   1.000000
     10         -3.781493   1.000000
     11         -3.778667   1.000000
     12         -2.696423   1.000000
     13          0.396516   0.000000
     14          0.714869   0.000000
     15          1.342688   0.000000
     16          2.284805   0.000000
     17          3.420211   0.000000
     18          4.340531   0.000000
     19          4.672203   0.000000
     20          5.380798   0.000000
     21          5.660660   0.000000
     22          6.439349   0.000000
 
  0.4666667E+00  0.6666667E-01  0.1276756E-14  0.5333333E-01
      1        -37.196959   1.000000
      2        -37.066497   1.000000
      3        -37.034134   1.000000
      4        -14.934779   1.000000
      5        -14.584605   1.000000
      6         -7.760057   1.000000
      7         -6.574901   1.000000
      8         -6.017706   1.000000
      9         -4.926300   1.000000
     10         -3.873691   1.000000
     11         -3.750427   1.000000
     12         -2.616700   1.000000
     13          0.576681   0.000000
     14          0.867200   0.000000
     15          1.627110   0.000000
     16          2.287401   0.000000
     17          2.701838   0.000000
     18          4.687977   0.000000
     19          5.053553   0.000000
     20          5.824584   0.000000
     21          6.072146   0.000000
     22          6.749568   0.000000
 
 -0.4666667E+00  0.6666667E-01  0.1276756E-14  0.2666667E-01
      1        -37.204540   1.000000
      2        -37.068563   1.000000
      3        -37.032530   1.000000
      4        -14.853047   1.000000
      5        -14.552358   1.000000
      6         -7.886418   1.000000
      7         -6.687269   1.000000
      8         -5.972677   1.000000
      9         -4.959315   1.000000
     10         -3.905084   1.000000
     11         -3.732985   1.000000
     12         -2.556067   0.999988
     13          0.618982   0.000000
     14          0.999351   0.000000
     15          1.752239   0.000000
     16          2.249333   0.000000
     17          2.357592   0.000000
     18          4.883571   0.000000
     19          5.194253   0.000000
     20          6.050619   0.000000
     21          6.408848   0.000000
     22          6.718432   0.000000
 
  0.2666667E+00  0.1333333E+00  0.1276756E-14  0.2666667E-01
      1        -37.099326   1.000000
      2        -37.054093   1.000000
      3        -37.042793   1.000000
      4        -15.804250   1.000000
      5        -14.942728   1.000000
      6         -7.021952   1.000000
      7         -6.038027   1.000000
      8         -5.051242   1.000000
      9         -4.577609   1.000000
     10         -4.030009   1.000000
     11         -3.285543   1.000000
     12         -2.302851   0.001681
     13          0.093278   0.000000
     14          0.539740   0.000000
     15          0.546561   0.000000
     16          1.861250   0.000000
     17          3.297970   0.000000
     18          3.598661   0.000000
     19          4.109760   0.000000
     20          4.842127   0.000000
     21          5.402252   0.000000
     22          6.171230   0.000000
 
  0.3333333E+00  0.1333333E+00  0.1276756E-14  0.5333333E-01
      1        -37.130748   1.000000
      2        -37.055193   1.000000
      3        -37.046946   1.000000
      4        -15.519529   1.000000
      5        -14.822070   1.000000
      6         -6.740909   1.000000
      7         -6.492602   1.000000
      8         -5.548016   1.000000
      9         -4.878204   1.000000
     10         -4.084293   1.000000
     11         -3.411649   1.000000
     12         -2.487755   0.989201
     13          0.046071   0.000000
     14          0.646908   0.000000
     15          0.754718   0.000000
     16          2.180676   0.000000
     17          3.747019   0.000000
     18          4.059741   0.000000
     19          4.588152   0.000000
     20          4.910656   0.000000
     21          5.794131   0.000000
     22          6.229878   0.000000
 
  0.4000000E+00  0.1333333E+00  0.1276756E-14  0.5333333E-01
      1        -37.160298   1.000000
      2        -37.067316   1.000000
      3        -37.040104   1.000000
      4        -15.223733   1.000000
      5        -14.698209   1.000000
      6         -7.105982   1.000000
      7         -6.268217   1.000000
      8         -6.079343   1.000000
      9         -5.000935   1.000000
     10         -4.234707   1.000000
     11         -3.607370   1.000000
     12         -2.534497   0.999852
     13          0.197963   0.000000
     14          0.753860   0.000000
     15          1.080693   0.000000
     16          2.345109   0.000000
     17          4.054813   0.000000
     18          4.376797   0.000000
     19          4.591621   0.000000
     20          5.248632   0.000000
     21          6.048389   0.000000
     22          6.449353   0.000000
 
  0.4666667E+00  0.1333333E+00  0.1276756E-14  0.5333333E-01
      1        -37.183146   1.000000
      2        -37.076875   1.000000
      3        -37.034752   1.000000
      4        -14.972246   1.000000
      5        -14.594669   1.000000
      6         -7.479139   1.000000
      7         -6.489553   1.000000
      8         -6.037419   1.000000
      9         -5.044726   1.000000
     10         -4.359934   1.000000
     11         -3.792765   1.000000
     12         -2.453039   0.905825
     13          0.441022   0.000000
     14          0.834801   0.000000
     15          1.432970   0.000000
     16          2.317208   0.000000
     17          3.371747   0.000000
     18          4.774860   0.000000
     19          5.150524   0.000000
     20          5.894911   0.000000
     21          6.168905   0.000000
     22          6.511462   0.000000
 
 -0.4666667E+00  0.1333333E+00  0.1276756E-14  0.5333333E-01
      1        -37.195577   1.000000
      2        -37.082124   1.000000
      3        -37.031821   1.000000
      4        -14.825249   1.000000
      5        -14.535130   1.000000
      6         -7.688613   1.000000
      7         -6.710382   1.000000
      8         -5.943118   1.000000
      9         -5.052881   1.000000
     10         -4.404718   1.000000
     11         -3.904726   1.000000
     12         -2.336604   0.023975
     13          0.468140   0.000000
     14          1.061181   0.000000
     15          1.741344   0.000000
     16          2.149176   0.000000
     17          2.791225   0.000000
     18          5.207522   0.000000
     19          5.674754   0.000000
     20          6.271766   0.000000
     21          6.298813   0.000000
     22          6.672060   0.000000
 
  0.4000000E+00  0.2000000E+00  0.1276756E-14  0.2666667E-01
      1        -37.153106   1.000000
      2        -37.071520   1.000000
      3        -37.040612   1.000000
      4        -15.248396   1.000000
      5        -14.707038   1.000000
      6         -6.933329   1.000000
      7         -6.334717   1.000000
      8         -5.987833   1.000000
      9         -5.108233   1.000000
     10         -4.431230   1.000000
     11         -3.523030   1.000000
     12         -2.477509   0.977656
     13          0.117055   0.000000
     14          0.769621   0.000000
     15          0.951217   0.000000
     16          2.397764   0.000000
     17          4.207676   0.000000
     18          4.557880   0.000000
     19          4.597817   0.000000
     20          5.212393   0.000000
     21          6.189755   0.000000
     22          6.427617   0.000000
 
  0.4666667E+00  0.2000000E+00  0.1276756E-14  0.5333333E-01
      1        -37.170774   1.000000
      2        -37.087427   1.000000
      3        -37.035093   1.000000
      4        -14.994030   1.000000
      5        -14.599668   1.000000
      6         -7.208378   1.000000
      7         -6.421294   1.000000
      8         -6.068613   1.000000
      9         -5.158715   1.000000
     10         -4.803535   1.000000
     11         -3.717432   1.000000
     12         -2.374889   0.185405
     13          0.327991   0.000000
     14          0.834297   0.000000
     15          1.211208   0.000000
     16          2.469139   0.000000
     17          3.983537   0.000000
     18          4.833613   0.000000
     19          5.118340   0.000000
     20          5.700136   0.000000
     21          6.098651   0.000000
     22          6.503571   0.000000
 
 -0.4666667E+00  0.2000000E+00  0.1276756E-14  0.5333333E-01
      1        -37.181892   1.000000
      2        -37.099035   1.000000
      3        -37.031344   1.000000
      4        -14.809647   1.000000
      5        -14.522381   1.000000
      6         -7.388809   1.000000
      7         -6.719210   1.000000
      8         -5.923573   1.000000
      9         -5.136045   1.000000
     10         -5.045223   1.000000
     11         -3.899288   1.000000
     12         -2.199754   0.000000
     13          0.277873   0.000000
     14          1.106207   0.000000
     15          1.437796   0.000000
     16          2.437264   0.000000
     17          3.407629   0.000000
     18          5.201938   0.000000
     19          5.697392   0.000000
     20          5.782930   0.000000
     21          6.723433   0.000000
     22          6.817492   0.000000
 
 -0.4000000E+00  0.2000000E+00  0.1276756E-14  0.2666667E-01
      1        -37.185660   1.000000
      2        -37.103298   1.000000
      3        -37.030018   1.000000
      4        -14.741805   1.000000
      5        -14.494096   1.000000
      6         -7.451511   1.000000
      7         -6.824255   1.000000
      8         -5.893398   1.000000
      9         -5.115810   1.000000
     10         -5.115001   1.000000
     11         -3.975243   1.000000
     12         -2.095685   0.000000
     13          0.161730   0.000000
     14          1.331183   0.000000
     15          1.532897   0.000000
     16          2.402453   0.000000
     17          3.102028   0.000000
     18          5.280649   0.000000
     19          6.042151   0.000000
     20          6.069013   0.000000
     21          7.020620   0.000000
     22          7.049003   0.000000
 
 -0.4666667E+00  0.2666667E+00  0.1276756E-14  0.2666667E-01
      1        -37.173895   1.000000
      2        -37.108193   1.000000
      3        -37.031175   1.000000
      4        -14.804776   1.000000
      5        -14.517660   1.000000
      6         -7.211540   1.000000
      7         -6.720953   1.000000
      8         -5.922932   1.000000
      9         -5.337772   1.000000
     10         -5.169754   1.000000
     11         -3.894749   1.000000
     12         -2.149852   0.000000
     13          0.193139   0.000000
     14          1.121221   0.000000
     15          1.315730   0.000000
     16          2.574319   0.000000
     17          3.819502   0.000000
     18          4.854091   0.000000
     19          5.673206   0.000000
     20          5.742672   0.000000
     21          6.720851   0.000000
     22          6.926403   0.000000
 
 -0.4000000E+00  0.2666667E+00  0.1276756E-14  0.5333333E-01
      1        -37.172078   1.000000
      2        -37.123085   1.000000
      3        -37.029031   1.000000
      4        -14.697172   1.000000
      5        -14.470686   1.000000
      6         -7.153024   1.000000
      7         -6.891758   1.000000
      8         -5.931328   1.000000
      9         -5.610483   1.000000
     10         -5.131215   1.000000
     11         -4.032637   1.000000
     12         -1.915294   0.000000
     13         -0.111804   0.000000
     14          1.357776   0.000000
     15          1.497428   0.000000
     16          2.654406   0.000000
     17          3.560712   0.000000
     18          4.582381   0.000000
     19          6.131353   0.000000
     20          6.407478   0.000000
     21          7.278398   0.000000
     22          7.477992   0.000000
 
 -0.3333333E+00  0.3333333E+00  0.1276756E-14  0.8888889E-02
      1        -37.161731   1.000000
      2        -37.138476   1.000000
      3        -37.028212   1.000000
      4        -14.657014   1.000000
      5        -14.451847   1.000000
      6         -6.955684   1.000000
      7         -6.955486   1.000000
      8         -6.148817   1.000000
      9         -5.711428   1.000000
     10         -5.113348   1.000000
     11         -4.094753   1.000000
     12         -1.749411   0.000000
     13         -0.338449   0.000000
     14          1.315532   0.000000
     15          1.686132   0.000000
     16          2.759829   0.000000
     17          3.768801   0.000000
     18          4.125590   0.000000
     19          6.299491   0.000000
     20          6.935966   0.000000
     21          7.565662   0.000000
     22          7.851880   0.000000
