Bilayer WTe2/silicene TM_H2 (relaxed mon
   1.00000000000000     
     3.6705664289085038    0.0000000000000000    0.0000000000000000
     1.8352832144542519    3.1788037737130916    0.0000000000000000
     0.0000000000000000    0.0000000000000000   20.0000000000000000
   W    Te   Si
     1     2     2
Direct
    -0.0000000000000000    0.0000000000000000    0.4976427732273259
     0.3333333333333357    0.3333333333333357    0.4094093659671004
     0.3333333333333357    0.3333333333333357    0.5858987088277674
     0.6666666666666643    0.6666666666666643    0.9456870275699809
     0.0000000000000000    0.0000000000000000    0.9128946173317807
 
  0.00000000E+00  0.00000000E+00  0.00000000E+00
  0.00000000E+00  0.00000000E+00  0.00000000E+00
  0.00000000E+00  0.00000000E+00  0.00000000E+00
  0.00000000E+00  0.00000000E+00  0.00000000E+00
  0.00000000E+00  0.00000000E+00  0.00000000E+00
