  27  27   0   0
  0.7340369E+02  0.1069696E-08  0.1069696E-08  0.2000000E-08  0.5000000E-15
  1.000000000000000E-004
  CAR 
 MoTe2 phonon                            
      5.73998062    -64.39682330  301     -0.28009505      1.00000000
    -64.397  0.0000E+00  0.0000E+00
    -64.163  0.0000E+00  0.0000E+00
    -63.929  0.0000E+00  0.0000E+00
    -63.695  0.0000E+00  0.0000E+00
    -63.462  0.0000E+00  0.0000E+00
    -63.228  0.0000E+00  0.0000E+00
    -62.994  0.0000E+00  0.0000E+00
    -62.760  0.0000E+00  0.0000E+00
    -62.527  0.0000E+00  0.0000E+00
    -62.293  0.0000E+00  0.0000E+00
    -62.059  0.0000E+00  0.0000E+00
    -61.825  0.0000E+00  0.0000E+00
    -61.591  0.0000E+00  0.0000E+00
    -61.358  0.4781E-03  0.1118E-03
    -61.124  0.7598E+02  0.1776E+02
    -60.890  0.1007E+01  0.1800E+02
    -60.656  0.0000E+00  0.1800E+02
    -60.422  0.0000E+00  0.1800E+02
    -60.189  0.0000E+00  0.1800E+02
    -59.955  0.0000E+00  0.1800E+02
    -59.721  0.0000E+00  0.1800E+02
    -59.487  0.0000E+00  0.1800E+02
    -59.253  0.0000E+00  0.1800E+02
    -59.020  0.0000E+00  0.1800E+02
    -58.786  0.0000E+00  0.1800E+02
    -58.552  0.0000E+00  0.1800E+02
    -58.318  0.0000E+00  0.1800E+02
    -58.085  0.0000E+00  0.1800E+02
    -57.851  0.0000E+00  0.1800E+02
    -57.617  0.0000E+00  0.1800E+02
    -57.383  0.0000E+00  0.1800E+02
    -57.149  0.0000E+00  0.1800E+02
    -56.916  0.0000E+00  0.1800E+02
    -56.682  0.0000E+00  0.1800E+02
    -56.448  0.0000E+00  0.1800E+02
    -56.214  0.0000E+00  0.1800E+02
    -55.980  0.0000E+00  0.1800E+02
    -55.747  0.0000E+00  0.1800E+02
    -55.513  0.0000E+00  0.1800E+02
    -55.279  0.0000E+00  0.1800E+02
    -55.045  0.0000E+00  0.1800E+02
    -54.811  0.0000E+00  0.1800E+02
    -54.578  0.0000E+00  0.1800E+02
    -54.344  0.0000E+00  0.1800E+02
    -54.110  0.0000E+00  0.1800E+02
    -53.876  0.0000E+00  0.1800E+02
    -53.643  0.0000E+00  0.1800E+02
    -53.409  0.0000E+00  0.1800E+02
    -53.175  0.0000E+00  0.1800E+02
    -52.941  0.0000E+00  0.1800E+02
    -52.707  0.0000E+00  0.1800E+02
    -52.474  0.0000E+00  0.1800E+02
    -52.240  0.0000E+00  0.1800E+02
    -52.006  0.0000E+00  0.1800E+02
    -51.772  0.0000E+00  0.1800E+02
    -51.538  0.0000E+00  0.1800E+02
    -51.305  0.0000E+00  0.1800E+02
    -51.071  0.0000E+00  0.1800E+02
    -50.837  0.0000E+00  0.1800E+02
    -50.603  0.0000E+00  0.1800E+02
    -50.369  0.0000E+00  0.1800E+02
    -50.136  0.0000E+00  0.1800E+02
    -49.902  0.0000E+00  0.1800E+02
    -49.668  0.0000E+00  0.1800E+02
    -49.434  0.0000E+00  0.1800E+02
    -49.201  0.0000E+00  0.1800E+02
    -48.967  0.0000E+00  0.1800E+02
    -48.733  0.0000E+00  0.1800E+02
    -48.499  0.0000E+00  0.1800E+02
    -48.265  0.0000E+00  0.1800E+02
    -48.032  0.0000E+00  0.1800E+02
    -47.798  0.0000E+00  0.1800E+02
    -47.564  0.0000E+00  0.1800E+02
    -47.330  0.0000E+00  0.1800E+02
    -47.096  0.0000E+00  0.1800E+02
    -46.863  0.0000E+00  0.1800E+02
    -46.629  0.0000E+00  0.1800E+02
    -46.395  0.0000E+00  0.1800E+02
    -46.161  0.0000E+00  0.1800E+02
    -45.927  0.0000E+00  0.1800E+02
    -45.694  0.0000E+00  0.1800E+02
    -45.460  0.0000E+00  0.1800E+02
    -45.226  0.0000E+00  0.1800E+02
    -44.992  0.0000E+00  0.1800E+02
    -44.759  0.0000E+00  0.1800E+02
    -44.525  0.0000E+00  0.1800E+02
    -44.291  0.0000E+00  0.1800E+02
    -44.057  0.0000E+00  0.1800E+02
    -43.823  0.0000E+00  0.1800E+02
    -43.590  0.0000E+00  0.1800E+02
    -43.356  0.0000E+00  0.1800E+02
    -43.122  0.0000E+00  0.1800E+02
    -42.888  0.0000E+00  0.1800E+02
    -42.654  0.0000E+00  0.1800E+02
    -42.421  0.0000E+00  0.1800E+02
    -42.187  0.0000E+00  0.1800E+02
    -41.953  0.0000E+00  0.1800E+02
    -41.719  0.0000E+00  0.1800E+02
    -41.485  0.0000E+00  0.1800E+02
    -41.252  0.0000E+00  0.1800E+02
    -41.018  0.0000E+00  0.1800E+02
    -40.784  0.0000E+00  0.1800E+02
    -40.550  0.0000E+00  0.1800E+02
    -40.317  0.0000E+00  0.1800E+02
    -40.083  0.0000E+00  0.1800E+02
    -39.849  0.0000E+00  0.1800E+02
    -39.615  0.0000E+00  0.1800E+02
    -39.381  0.0000E+00  0.1800E+02
    -39.148  0.0000E+00  0.1800E+02
    -38.914  0.0000E+00  0.1800E+02
    -38.680  0.0000E+00  0.1800E+02
    -38.446  0.0000E+00  0.1800E+02
    -38.212  0.0000E+00  0.1800E+02
    -37.979  0.0000E+00  0.1800E+02
    -37.745  0.0000E+00  0.1800E+02
    -37.511  0.0000E+00  0.1800E+02
    -37.277  0.0000E+00  0.1800E+02
    -37.043  0.0000E+00  0.1800E+02
    -36.810  0.0000E+00  0.1800E+02
    -36.576  0.0000E+00  0.1800E+02
    -36.342  0.0000E+00  0.1800E+02
    -36.108  0.0000E+00  0.1800E+02
    -35.875  0.0000E+00  0.1800E+02
    -35.641  0.4141E-13  0.1800E+02
    -35.407  0.4869E+01  0.1914E+02
    -35.173  0.2259E+03  0.7196E+02
    -34.939  0.1663E+00  0.7200E+02
    -34.706  0.0000E+00  0.7200E+02
    -34.472  0.0000E+00  0.7200E+02
    -34.238  0.0000E+00  0.7200E+02
    -34.004  0.0000E+00  0.7200E+02
    -33.770  0.0000E+00  0.7200E+02
    -33.537  0.0000E+00  0.7200E+02
    -33.303  0.0000E+00  0.7200E+02
    -33.069  0.0000E+00  0.7200E+02
    -32.835  0.0000E+00  0.7200E+02
    -32.601  0.0000E+00  0.7200E+02
    -32.368  0.0000E+00  0.7200E+02
    -32.134  0.0000E+00  0.7200E+02
    -31.900  0.0000E+00  0.7200E+02
    -31.666  0.0000E+00  0.7200E+02
    -31.433  0.0000E+00  0.7200E+02
    -31.199  0.0000E+00  0.7200E+02
    -30.965  0.0000E+00  0.7200E+02
    -30.731  0.0000E+00  0.7200E+02
    -30.497  0.0000E+00  0.7200E+02
    -30.264  0.0000E+00  0.7200E+02
    -30.030  0.0000E+00  0.7200E+02
    -29.796  0.0000E+00  0.7200E+02
    -29.562  0.0000E+00  0.7200E+02
    -29.328  0.0000E+00  0.7200E+02
    -29.095  0.0000E+00  0.7200E+02
    -28.861  0.0000E+00  0.7200E+02
    -28.627  0.0000E+00  0.7200E+02
    -28.393  0.0000E+00  0.7200E+02
    -28.159  0.0000E+00  0.7200E+02
    -27.926  0.0000E+00  0.7200E+02
    -27.692  0.0000E+00  0.7200E+02
    -27.458  0.0000E+00  0.7200E+02
    -27.224  0.0000E+00  0.7200E+02
    -26.991  0.0000E+00  0.7200E+02
    -26.757  0.0000E+00  0.7200E+02
    -26.523  0.0000E+00  0.7200E+02
    -26.289  0.0000E+00  0.7200E+02
    -26.055  0.0000E+00  0.7200E+02
    -25.822  0.0000E+00  0.7200E+02
    -25.588  0.0000E+00  0.7200E+02
    -25.354  0.0000E+00  0.7200E+02
    -25.120  0.0000E+00  0.7200E+02
    -24.886  0.0000E+00  0.7200E+02
    -24.653  0.0000E+00  0.7200E+02
    -24.419  0.0000E+00  0.7200E+02
    -24.185  0.0000E+00  0.7200E+02
    -23.951  0.0000E+00  0.7200E+02
    -23.717  0.0000E+00  0.7200E+02
    -23.484  0.0000E+00  0.7200E+02
    -23.250  0.0000E+00  0.7200E+02
    -23.016  0.0000E+00  0.7200E+02
    -22.782  0.0000E+00  0.7200E+02
    -22.549  0.0000E+00  0.7200E+02
    -22.315  0.0000E+00  0.7200E+02
    -22.081  0.0000E+00  0.7200E+02
    -21.847  0.0000E+00  0.7200E+02
    -21.613  0.0000E+00  0.7200E+02
    -21.380  0.0000E+00  0.7200E+02
    -21.146  0.0000E+00  0.7200E+02
    -20.912  0.0000E+00  0.7200E+02
    -20.678  0.0000E+00  0.7200E+02
    -20.444  0.0000E+00  0.7200E+02
    -20.211  0.0000E+00  0.7200E+02
    -19.977  0.0000E+00  0.7200E+02
    -19.743  0.0000E+00  0.7200E+02
    -19.509  0.0000E+00  0.7200E+02
    -19.275  0.0000E+00  0.7200E+02
    -19.042  0.0000E+00  0.7200E+02
    -18.808  0.0000E+00  0.7200E+02
    -18.574  0.0000E+00  0.7200E+02
    -18.340  0.0000E+00  0.7200E+02
    -18.107  0.0000E+00  0.7200E+02
    -17.873  0.0000E+00  0.7200E+02
    -17.639  0.0000E+00  0.7200E+02
    -17.405  0.0000E+00  0.7200E+02
    -17.171  0.0000E+00  0.7200E+02
    -16.938  0.0000E+00  0.7200E+02
    -16.704  0.0000E+00  0.7200E+02
    -16.470  0.0000E+00  0.7200E+02
    -16.236  0.0000E+00  0.7200E+02
    -16.002  0.0000E+00  0.7200E+02
    -15.769  0.0000E+00  0.7200E+02
    -15.535  0.0000E+00  0.7200E+02
    -15.301  0.0000E+00  0.7200E+02
    -15.067  0.0000E+00  0.7200E+02
    -14.833  0.0000E+00  0.7200E+02
    -14.600  0.0000E+00  0.7200E+02
    -14.366  0.0000E+00  0.7200E+02
    -14.132  0.0000E+00  0.7200E+02
    -13.898  0.0000E+00  0.7200E+02
    -13.665  0.0000E+00  0.7200E+02
    -13.431  0.0000E+00  0.7200E+02
    -13.197  0.1062E-05  0.7200E+02
    -12.963  0.1696E+01  0.7240E+02
    -12.729  0.4783E+01  0.7351E+02
    -12.496  0.5778E+01  0.7487E+02
    -12.262  0.6313E+01  0.7634E+02
    -12.028  0.5608E+01  0.7765E+02
    -11.794  0.1410E+02  0.8095E+02
    -11.560  0.1799E+02  0.8516E+02
    -11.327  0.1745E+02  0.8923E+02
    -11.093  0.2696E+02  0.9554E+02
    -10.859  0.3022E+02  0.1026E+03
    -10.625  0.2121E+02  0.1076E+03
    -10.391  0.1884E+01  0.1080E+03
    -10.158  0.0000E+00  0.1080E+03
     -9.924  0.0000E+00  0.1080E+03
     -9.690  0.0000E+00  0.1080E+03
     -9.456  0.0000E+00  0.1080E+03
     -9.223  0.0000E+00  0.1080E+03
     -8.989  0.0000E+00  0.1080E+03
     -8.755  0.0000E+00  0.1080E+03
     -8.521  0.0000E+00  0.1080E+03
     -8.287  0.0000E+00  0.1080E+03
     -8.054  0.0000E+00  0.1080E+03
     -7.820  0.0000E+00  0.1080E+03
     -7.586  0.0000E+00  0.1080E+03
     -7.352  0.0000E+00  0.1080E+03
     -7.118  0.0000E+00  0.1080E+03
     -6.885  0.0000E+00  0.1080E+03
     -6.651  0.0000E+00  0.1080E+03
     -6.417  0.0000E+00  0.1080E+03
     -6.183  0.0000E+00  0.1080E+03
     -5.949  0.6603E-05  0.1080E+03
     -5.716  0.4000E+01  0.1089E+03
     -5.482  0.8535E+01  0.1109E+03
     -5.248  0.1330E+02  0.1140E+03
     -5.014  0.1805E+02  0.1183E+03
     -4.781  0.3546E+02  0.1266E+03
     -4.547  0.2821E+02  0.1331E+03
     -4.313  0.9073E+01  0.1353E+03
     -4.079  0.5992E+01  0.1367E+03
     -3.845  0.2653E+02  0.1429E+03
     -3.612  0.3776E+02  0.1517E+03
     -3.378  0.1780E+02  0.1559E+03
     -3.144  0.2684E+02  0.1621E+03
     -2.910  0.2806E+02  0.1687E+03
     -2.676  0.2735E+02  0.1751E+03
     -2.443  0.1482E+02  0.1786E+03
     -2.209  0.1986E+02  0.1832E+03
     -1.975  0.4330E+02  0.1933E+03
     -1.741  0.3142E+02  0.2007E+03
     -1.507  0.3345E+02  0.2085E+03
     -1.274  0.2402E+02  0.2141E+03
     -1.040  0.3351E+02  0.2219E+03
     -0.806  0.3479E+02  0.2301E+03
     -0.572  0.1580E+02  0.2338E+03
     -0.339  0.1004E+01  0.2340E+03
     -0.105  0.0000E+00  0.2340E+03
      0.129  0.0000E+00  0.2340E+03
      0.363  0.4932E-05  0.2340E+03
      0.597  0.1323E+01  0.2343E+03
      0.830  0.1646E+02  0.2382E+03
      1.064  0.4661E+02  0.2491E+03
      1.298  0.3977E+02  0.2584E+03
      1.532  0.3123E+02  0.2657E+03
      1.766  0.3619E+02  0.2741E+03
      1.999  0.2287E+02  0.2795E+03
      2.233  0.1468E+02  0.2829E+03
      2.467  0.8835E+01  0.2850E+03
      2.701  0.4440E+01  0.2860E+03
      2.935  0.2500E-04  0.2860E+03
      3.168  0.0000E+00  0.2860E+03
      3.402  0.0000E+00  0.2860E+03
      3.636  0.0000E+00  0.2860E+03
      3.870  0.0000E+00  0.2860E+03
      4.103  0.0000E+00  0.2860E+03
      4.337  0.0000E+00  0.2860E+03
      4.571  0.0000E+00  0.2860E+03
      4.805  0.0000E+00  0.2860E+03
      5.039  0.0000E+00  0.2860E+03
      5.272  0.0000E+00  0.2860E+03
      5.506  0.0000E+00  0.2860E+03
      5.740  0.0000E+00  0.2860E+03
