Mo1 W1 Se4                              
   1.00000000000000     
     3.3170046299999996    0.0000000000000000   -0.0000000000000001
     1.6585023150000182    2.8726102740505990    0.0000000000000000
    -0.0000000000000003    0.0000000000000002   20.2202819452995080
   Mo   Se   W 
     1     4     1
Direct
     0.0000000000000000    0.0000000000000000    0.5049077667995603
     0.3333333333333357    0.3333333333333357    0.4225864978066887
     0.3333333333333357    0.3333333333333357    0.5871984958458120
     0.0000000000000000    0.0000000000000000    0.7372428462226650
     0.0000000000000000   -0.0000000000000000    0.9029672138452642
     0.3333333333333357    0.3333333333333357    0.8200971794798118
 
  0.00000000E+00  0.00000000E+00  0.00000000E+00
  0.00000000E+00  0.00000000E+00  0.00000000E+00
  0.00000000E+00  0.00000000E+00  0.00000000E+00
  0.00000000E+00  0.00000000E+00  0.00000000E+00
  0.00000000E+00  0.00000000E+00  0.00000000E+00
  0.00000000E+00  0.00000000E+00  0.00000000E+00
