Bilayer BN/GaN AB (relaxed monolayers)  
   1.00000000000000     
     2.8531607013541604    0.0000000000000000    0.0000000000000000
     1.4265803506770802    2.4709096484521287    0.0000000000000000
     0.0000000000000000    0.0000000000000000   20.0000000000000000
   B    N    Ga
     1     2     1
Direct
    -0.0000000000000000   -0.0000000000000000    0.5051331465499932
     0.3333333333333357    0.3333333333333357    0.5051294135238457
     0.0000000000000000    0.0000000000000000    0.8198623343902883
     0.6666666666666643    0.6666666666666643    0.8198751055357181
 
  0.00000000E+00  0.00000000E+00  0.00000000E+00
  0.00000000E+00  0.00000000E+00  0.00000000E+00
  0.00000000E+00  0.00000000E+00  0.00000000E+00
  0.00000000E+00  0.00000000E+00  0.00000000E+00
