Bilayer BN/GaN AB (relaxed monolayers)
 1.0000000000000000
  2.8531607013541604   0.0000000000000000   0.0000000000000000
  1.4265803506770802   2.4709096484521287   0.0000000000000000
  0.0000000000000000   0.0000000000000000  20.0000000000000000
   B   N   Ga
     1     2     1
Direct
  0.0000000000000000   0.0000000000000000   0.5000000000000000
  0.3333333333333357   0.3333333333333357   0.5000000000000000
  0.0000000000000024   0.0000000000000024   0.8250000000000000
  0.6666666666666667   0.6666666666666667   0.8250000000000000
