Mo S 
 1.0000000000000000
    15.9611895606522634   11.0582365073150726    0.0000000000000000
    -1.5961189560652262   19.3519138878013770    0.0000000000000000
     0.0000000000000000    0.0000000000000000   20.0000000000000000
 Mo  S  
  74 148
Direct
  0.4684684684684687  0.8468468468468464  0.8032973393413674
  0.2162162162162162  0.1621621621621621  0.4999999999999999
  0.4144144144144146  0.4414414414414412  0.8032973393413674
  0.6846846846846849  0.4684684684684681  0.8032973393413674
  0.1081081081081081  0.0810810810810811  0.4999999999999999
  0.8108108108108109  0.1081081081081080  0.4999999999999999
  0.0000000000000000  0.0000000000000000  0.4999999999999999
  0.7657657657657658  0.5765765765765762  0.8032973393413674
  0.7027027027027027  0.0270270270270271  0.4999999999999999
  0.8918918918918918  0.9189189189189184  0.4999999999999999
  0.8468468468468469  0.6846846846846842  0.8032973393413674
  0.7837837837837838  0.8378378378378378  0.4999999999999999
  0.9189189189189190  0.1891891891891891  0.4999999999999999
  0.0630630630630635  0.3063063063063060  0.8032973393413674
  0.6756756756756757  0.7567567567567567  0.4999999999999999
  0.6216216216216217  0.2162162162162163  0.4999999999999999
  0.5675675675675675  0.6756756756756757  0.4999999999999999
  0.3333333333333335  0.3333333333333331  0.8032973393413674
  0.6036036036036038  0.3603603603603601  0.8032973393413674
  0.3243243243243243  0.2432432432432432  0.4999999999999999
  0.4324324324324325  0.3243243243243243  0.4999999999999999
  0.5135135135135133  0.1351351351351351  0.4999999999999999
  0.7387387387387390  0.8738738738738734  0.8032973393413674
  0.4054054054054054  0.0540540540540540  0.4999999999999999
  0.7297297297297298  0.2972972972972971  0.4999999999999999
  0.9729729729729730  0.7297297297297298  0.4999999999999999
  0.8198198198198200  0.9819819819819814  0.8032973393413674
  0.5765765765765768  0.6576576576576575  0.8032973393413674
  0.8648648648648649  0.6486486486486486  0.4999999999999999
  0.3603603603603605  0.0360360360360359  0.8032973393413674
  0.7567567567567568  0.5675675675675675  0.4999999999999999
  0.8378378378378379  0.3783783783783783  0.4999999999999999
  0.6486486486486487  0.4864864864864865  0.4999999999999999
  0.4414414414414415  0.1441441441441439  0.8032973393413674
  0.4954954954954957  0.5495495495495493  0.8032973393413674
  0.5405405405405406  0.4054054054054054  0.4999999999999999
  0.9459459459459461  0.4594594594594595  0.4999999999999999
  0.5225225225225227  0.2522522522522521  0.8032973393413674
  0.1171171171171173  0.7117117117117115  0.8032973393413674
  0.0090090090090094  0.9009009009009002  0.8032973393413674
  0.9279279279279284  0.7927927927927926  0.8032973393413674
  0.6576576576576578  0.7657657657657654  0.8032973393413674
  0.4864864864864865  0.8648648648648644  0.4999999999999999
  0.1441441441441442  0.4144144144144144  0.8032973393413674
  0.9819819819819822  0.1981981981981980  0.8032973393413674
  0.3783783783783784  0.7837837837837835  0.4999999999999999
  0.4594594594594595  0.5945945945945945  0.4999999999999999
  0.5495495495495497  0.9549549549549547  0.8032973393413674
  0.8738738738738738  0.3873873873873868  0.8032973393413674
  0.9549549549549554  0.4954954954954952  0.8032973393413674
  0.2702702702702703  0.7027027027027026  0.4999999999999999
  0.2252252252252254  0.5225225225225223  0.8032973393413674
  0.0360360360360365  0.6036036036036032  0.8032973393413674
  0.1621621621621622  0.6216216216216216  0.4999999999999999
  0.2972972972972974  0.9729729729729731  0.4999999999999999
  0.3063063063063065  0.6306306306306304  0.8032973393413674
  0.0900900900900901  0.0090090090090090  0.8032973393413674
  0.0540540540540540  0.5405405405405403  0.4999999999999999
  0.1891891891891893  0.8918918918918918  0.4999999999999999
  0.9009009009009011  0.0900900900900899  0.8032973393413674
  0.1711711711711712  0.1171171171171170  0.8032973393413674
  0.7927927927927929  0.2792792792792789  0.8032973393413674
  0.0270270270270270  0.2702702702702702  0.4999999999999999
  0.2792792792792795  0.9279279279279277  0.8032973393413674
  0.3873873873873876  0.7387387387387385  0.8032973393413674
  0.1351351351351351  0.3513513513513513  0.4999999999999999
  0.7117117117117118  0.1711711711711709  0.8032973393413674
  0.5945945945945946  0.9459459459459458  0.4999999999999999
  0.2432432432432432  0.4324324324324322  0.4999999999999999
  0.1981981981981984  0.8198198198198198  0.8032973393413674
  0.6306306306306306  0.0630630630630628  0.8032973393413674
  0.0810810810810811  0.8108108108108107  0.4999999999999999
  0.3513513513513514  0.5135135135135135  0.4999999999999999
  0.2522522522522524  0.2252252252252251  0.8032973393413674
  0.4864864864864867  0.6486486486486485  0.7250905082761676
  0.4864864864864867  0.6486486486486485  0.8815041704065675
  0.4594594594594598  0.9459459459459457  0.7250905082761676
  0.5675675675675679  0.7567567567567566  0.7250905082761676
  0.1621621621621623  0.2162162162162161  0.8815041704065675
  0.4054054054054056  0.5405405405405401  0.8815041704065675
  0.0000000000000000  0.0000000000000000  0.7250905082761676
  0.4054054054054056  0.5405405405405401  0.7250905082761676
  0.0000000000000000  0.0000000000000000  0.8815041704065675
  0.0810810810810811  0.1081081081081080  0.7250905082761676
  0.3243243243243246  0.4324324324324322  0.7250905082761676
  0.2432432432432434  0.3243243243243242  0.8815041704065675
  0.0810810810810811  0.1081081081081080  0.8815041704065675
  0.1621621621621623  0.2162162162162161  0.7250905082761676
  0.2432432432432434  0.3243243243243242  0.7250905082761676
  0.4594594594594598  0.9459459459459457  0.8815041704065675
  0.3243243243243246  0.4324324324324322  0.8815041704065675
  0.1801801801801802  0.8018018018018014  0.4217931689348000
  0.6486486486486491  0.8648648648648644  0.7250905082761676
  0.5405405405405408  0.0540540540540540  0.7250905082761676
  0.5405405405405408  0.0540540540540540  0.8815041704065675
  0.6216216216216219  0.1621621621621619  0.7250905082761676
  0.6216216216216219  0.1621621621621619  0.8815041704065675
  0.7027027027027030  0.2702702702702700  0.7250905082761676
  0.7027027027027030  0.2702702702702700  0.8815041704065675
  0.7837837837837841  0.3783783783783781  0.7250905082761676
  0.7837837837837841  0.3783783783783781  0.8815041704065675
  0.8648648648648652  0.4864864864864860  0.7250905082761676
  0.8648648648648652  0.4864864864864860  0.8815041704065675
  0.9459459459459464  0.5945945945945939  0.7250905082761676
  0.9459459459459464  0.5945945945945939  0.8815041704065675
  0.8108108108108110  0.0810810810810808  0.7250905082761676
  0.8108108108108110  0.0810810810810808  0.8815041704065675
  0.8918918918918921  0.1891891891891889  0.7250905082761676
  0.8918918918918921  0.1891891891891889  0.8815041704065675
  0.9729729729729732  0.2972972972972970  0.7250905082761676
  0.9189189189189193  0.8918918918918912  0.8815041704065675
  0.5675675675675679  0.7567567567567566  0.8815041704065675
  0.9189189189189193  0.8918918918918912  0.7250905082761676
  0.8378378378378383  0.7837837837837835  0.7250905082761676
  0.6486486486486491  0.8648648648648644  0.8815041704065675
  0.7297297297297302  0.9729729729729726  0.7250905082761676
  0.7297297297297302  0.9729729729729726  0.8815041704065675
  0.2702702702702704  0.0270270270270270  0.7250905082761676
  0.2702702702702704  0.0270270270270270  0.8815041704065675
  0.3513513513513515  0.1351351351351350  0.7250905082761676
  0.3513513513513515  0.1351351351351350  0.8815041704065675
  0.4324324324324326  0.2432432432432430  0.7250905082761676
  0.3783783783783787  0.8378378378378378  0.8815041704065675
  0.5135135135135136  0.3513513513513511  0.7250905082761676
  0.5135135135135136  0.3513513513513511  0.8815041704065675
  0.5945945945945950  0.4594594594594592  0.7250905082761676
  0.5945945945945950  0.4594594594594592  0.8815041704065675
  0.6756756756756759  0.5675675675675671  0.7250905082761676
  0.6756756756756759  0.5675675675675671  0.8815041704065675
  0.7567567567567571  0.6756756756756751  0.7250905082761676
  0.7567567567567571  0.6756756756756751  0.8815041704065675
  0.8378378378378383  0.7837837837837835  0.8815041704065675
  0.4324324324324326  0.2432432432432430  0.8815041704065675
  0.0180180180180181  0.1801801801801801  0.5782068310652000
  0.2972972972972975  0.7297297297297295  0.8815041704065675
  0.3423423423423423  0.4234234234234232  0.5782068310652000
  0.4504504504504505  0.5045045045045045  0.4217931689348000
  0.4504504504504505  0.5045045045045045  0.5782068310652000
  0.5585585585585586  0.5855855855855856  0.4217931689348000
  0.5585585585585586  0.5855855855855856  0.5782068310652000
  0.6666666666666665  0.6666666666666663  0.4217931689348000
  0.6666666666666665  0.6666666666666663  0.5782068310652000
  0.7747747747747746  0.7477477477477474  0.4217931689348000
  0.3423423423423423  0.4234234234234232  0.4217931689348000
  0.7747747747747746  0.7477477477477474  0.5782068310652000
  0.8828828828828829  0.8288288288288288  0.5782068310652000
  0.9909909909909909  0.9099099099099098  0.4217931689348000
  0.9909909909909909  0.9099099099099098  0.5782068310652000
  0.0990990990990990  0.9909909909909907  0.4217931689348000
  0.0990990990990990  0.9909909909909907  0.5782068310652000
  0.2072072072072072  0.0720720720720721  0.4217931689348000
  0.2072072072072072  0.0720720720720721  0.5782068310652000
  0.3153153153153153  0.1531531531531531  0.4217931689348000
  0.8828828828828829  0.8288288288288288  0.4217931689348000
  0.3153153153153153  0.1531531531531531  0.5782068310652000
  0.2342342342342342  0.3423423423423421  0.5782068310652000
  0.1261261261261261  0.2612612612612612  0.5782068310652000
  0.1801801801801802  0.8018018018018014  0.5782068310652000
  0.2882882882882883  0.8828828828828829  0.4217931689348000
  0.2882882882882883  0.8828828828828829  0.5782068310652000
  0.3963963963963964  0.9639639639639641  0.4217931689348000
  0.3963963963963964  0.9639639639639641  0.5782068310652000
  0.1531531531531531  0.5315315315315314  0.4217931689348000
  0.1531531531531531  0.5315315315315314  0.5782068310652000
  0.2612612612612613  0.6126126126126124  0.4217931689348000
  0.2342342342342342  0.3423423423423421  0.4217931689348000
  0.2612612612612613  0.6126126126126124  0.5782068310652000
  0.3693693693693693  0.6936936936936933  0.5782068310652000
  0.4774774774774775  0.7747747747747747  0.4217931689348000
  0.4774774774774775  0.7747747747747747  0.5782068310652000
  0.5855855855855856  0.8558558558558559  0.4217931689348000
  0.5855855855855856  0.8558558558558559  0.5782068310652000
  0.6936936936936937  0.9369369369369365  0.4217931689348000
  0.6936936936936937  0.9369369369369365  0.5782068310652000
  0.1261261261261261  0.2612612612612612  0.4217931689348000
  0.3693693693693693  0.6936936936936933  0.4217931689348000
  0.4234234234234233  0.2342342342342343  0.4217931689348000
  0.4234234234234233  0.2342342342342343  0.5782068310652000
  0.5315315315315315  0.3153153153153151  0.4217931689348000
  0.8018018018018017  0.0180180180180179  0.4217931689348000
  0.8018018018018017  0.0180180180180179  0.5782068310652000
  0.9099099099099099  0.0990990990990991  0.4217931689348000
  0.9099099099099099  0.0990990990990991  0.5782068310652000
  0.0180180180180181  0.1801801801801801  0.4217931689348000
  0.0270270270270272  0.7027027027027025  0.7250905082761676
  0.0270270270270272  0.7027027027027025  0.8815041704065675
  0.1081081081081083  0.8108108108108107  0.7250905082761676
  0.0450450450450451  0.4504504504504506  0.5782068310652000
  0.1081081081081083  0.8108108108108107  0.8815041704065675
  0.1891891891891894  0.9189189189189186  0.8815041704065675
  0.0540540540540542  0.4054054054054054  0.7250905082761676
  0.0540540540540542  0.4054054054054054  0.8815041704065675
  0.1351351351351353  0.5135135135135135  0.7250905082761676
  0.1351351351351353  0.5135135135135135  0.8815041704065675
  0.2162162162162164  0.6216216216216214  0.7250905082761676
  0.2162162162162164  0.6216216216216214  0.8815041704065675
  0.2972972972972975  0.7297297297297295  0.7250905082761676
  0.1891891891891894  0.9189189189189186  0.7250905082761676
  0.0450450450450451  0.4504504504504506  0.4217931689348000
  0.9369369369369369  0.3693693693693694  0.5782068310652000
  0.9369369369369369  0.3693693693693694  0.4217931689348000
  0.5315315315315315  0.3153153153153151  0.5782068310652000
  0.6396396396396397  0.3963963963963963  0.4217931689348000
  0.6396396396396397  0.3963963963963963  0.5782068310652000
  0.7477477477477478  0.4774774774774775  0.4217931689348000
  0.7477477477477478  0.4774774774774775  0.5782068310652000
  0.8558558558558558  0.5585585585585586  0.4217931689348000
  0.8558558558558558  0.5585585585585586  0.5782068310652000
  0.9639639639639640  0.6396396396396397  0.4217931689348000
  0.9639639639639640  0.6396396396396397  0.5782068310652000
  0.0720720720720720  0.7207207207207207  0.4217931689348000
  0.0720720720720720  0.7207207207207207  0.5782068310652000
  0.5045045045045046  0.0450450450450451  0.4217931689348000
  0.5045045045045046  0.0450450450450451  0.5782068310652000
  0.6126126126126127  0.1261261261261261  0.4217931689348000
  0.6126126126126127  0.1261261261261261  0.5782068310652000
  0.7207207207207207  0.2072072072072071  0.4217931689348000
  0.7207207207207207  0.2072072072072071  0.5782068310652000
  0.8288288288288289  0.2882882882882881  0.4217931689348000
  0.8288288288288289  0.2882882882882881  0.5782068310652000
  0.3783783783783787  0.8378378378378378  0.7250905082761676
  0.9729729729729732  0.2972972972972970  0.8815041704065675
