W1 Se2                                  
   1.00000000000000     
     3.3199329218010143    0.0000000000000000    0.0000000000000000
     1.6599664609005071    2.8751462491399744    0.0000000000000000
     0.0000000000000000    0.0000000000000000   20.0000000000000000
   W    Se
     1     2
Direct
    -0.0000000000000000   -0.0000000000000000    0.5000000000000000
     0.3333333333333357    0.3333333333333357    0.4162347691166733
     0.3333333333333357    0.3333333333333357    0.5837652308833259
 
  0.00000000E+00  0.00000000E+00  0.00000000E+00
  0.00000000E+00  0.00000000E+00  0.00000000E+00
  0.00000000E+00  0.00000000E+00  0.00000000E+00
