 vasp.6.5.1 10Mar25 (build Aug 29 2025 00:30:47) complex                        
  
 executed on             LinuxIFC date 2026.06.04  23:02:51
 running  264 mpi-ranks, with    1 threads/rank, on    6 nodes
 distrk:  each k-point on   44 cores,    6 groups
 distr:  one band on NCORE=   4 cores,   11 groups


--------------------------------------------------------------------------------------------------------


 INCAR:
   SYSTEM = MoSe2_WS2_2H phonon
   PREC = Accurate
   ENCUT = 520
   EDIFF = 1E-6
   ISMEAR = 0
   SIGMA = 0.05
   LREAL = Auto
   ALGO = Normal
   AMIN = 0.01
   NELM = 200
   NSW = 0
   IBRION = -1
   IVDW = 12
   KPAR = 6
   NCORE = 4
   LWAVE = .FALSE.
   LCHARG = .FALSE.

 POTCAR:    PAW_PBE Mo_sv 02Feb2006               
 POTCAR:    PAW_PBE Se 06Sep2000                  
 POTCAR:    PAW_PBE W_sv 04Sep2015                
 POTCAR:    PAW_PBE S 06Sep2000                   
 POTCAR:    PAW_PBE Mo_sv 02Feb2006               
   SHA256 =  2731df97e41766cc617548c5a8267718fdef1f509ac6bafa01e745abea2bdfaa Mo_sv/POTCAR          
   COPYR  = (c) Copyright 02Feb2006 Georg Kresse                                                    
   COPYR  = This file is part of the software VASP. Any use, copying, and all other rights are regul
   COPYR  = If you do not have a valid VASP license, you may not use, copy or distribute this file. 
   VRHFIN =Mo: 4p5s4d                                                                               
   LEXCH  = PE                                                                                      
   EATOM  =  1862.2866 eV,  136.8742 Ry                                                             
                                                                                                    
   TITEL  = PAW_PBE Mo_sv 02Feb2006                                                                 
   LULTRA =        F    use ultrasoft PP ?                                                          
   IUNSCR =        1    unscreen: 0-lin 1-nonlin 2-no                                               
   RPACOR =    2.200    partial core radius                                                         
   POMASS =   95.940; ZVAL   =   14.000    mass and valenz                                          
   RCORE  =    2.500    outmost cutoff radius                                                       
   RWIGS  =    2.750; RWIGS  =    1.455    wigner-seitz radius (au A)                               
   ENMAX  =  242.676; ENMIN  =  182.007 eV                                                          
   ICORE  =        3    local potential                                                             
   LCOR   =        T    correct aug charges                                                         
   LPAW   =        T    paw PP                                                                      
   EAUG   =  446.014                                                                                
   DEXC   =    0.000                                                                                
   RMAX   =    2.563    core radius for proj-oper                                                   
   RAUG   =    1.300    factor for augmentation sphere                                              
   RDEP   =    2.641    radius for radial grids                                                     
   RDEPT  =    2.031    core radius for aug-charge                                                  
                                                                                                    
   Atomic configuration                                                                             
   11 entries                                                                                       
     n  l   j            E        occ.                                                              
     1  0  0.50    -19819.0341   2.0000                                                             
     2  0  0.50     -2799.0127   2.0000                                                             
     2  1  1.50     -2502.0276   6.0000                                                             
     3  0  0.50      -476.4449   2.0000                                                             
     3  1  1.50      -379.1496   6.0000                                                             
     3  2  2.50      -220.9367  10.0000                                                             
     4  0  0.50       -64.3378   2.0000                                                             
     5  0  0.50        -4.0862   1.0000                                                             
     4  1  1.50       -38.4773   6.0000                                                             
     4  2  2.50        -3.7535   5.0000                                                             
     4  3  2.50        -1.3606   0.0000                                                             
   Description                                                                                      
     l       E           TYP  RCUT    TYP  RCUT                                                     
     0    -64.3377829     23  2.100                                                                 
     0     -4.0861640     23  2.400                                                                 
     1    -38.4772993     23  2.100                                                                 
     1     13.6058260     23  2.100                                                                 
     2     -3.7534941     23  2.400                                                                 
     2     -5.1140767     23  2.400                                                                 
     3     -4.0817478     23  2.500                                                                 
  local pseudopotential read in
  partial core-charges read in
  partial kinetic energy density read in
  atomic valenz-charges read in
  non local Contribution for L=           0  read in
    real space projection operators read in
  non local Contribution for L=           0  read in
    real space projection operators read in
  non local Contribution for L=           1  read in
    real space projection operators read in
  non local Contribution for L=           1  read in
    real space projection operators read in
  non local Contribution for L=           2  read in
    real space projection operators read in
  non local Contribution for L=           2  read in
    real space projection operators read in
    PAW grid and wavefunctions read in
 
   number of l-projection  operators is LMAX  =           6
   number of lm-projection operators is LMMAX =          18
 
 POTCAR:    PAW_PBE Se 06Sep2000                  
   SHA256 =  eabb916e6b4c819dc065ce039373bc328651da483898f08fb9e49c498452bf12 Se/POTCAR             
   COPYR  = (c) Copyright 06Sep2000 Georg Kresse                                                    
   COPYR  = This file is part of the software VASP. Any use, copying, and all other rights are regul
   COPYR  = If you do not have a valid VASP license, you may not use, copy or distribute this file. 
   VRHFIN =Se: s2p4                                                                                 
   LEXCH  = PE                                                                                      
   EATOM  =   257.1286 eV,   18.8984 Ry                                                             
                                                                                                    
   TITEL  = PAW_PBE Se 06Sep2000                                                                    
   LULTRA =        F    use ultrasoft PP ?                                                          
   IUNSCR =        1    unscreen: 0-lin 1-nonlin 2-no                                               
   RPACOR =    1.900    partial core radius                                                         
   POMASS =   78.960; ZVAL   =    6.000    mass and valenz                                          
   RCORE  =    2.100    outmost cutoff radius                                                       
   RWIGS  =    2.200; RWIGS  =    1.164    wigner-seitz radius (au A)                               
   ENMAX  =  211.555; ENMIN  =  158.666 eV                                                          
   ICORE  =        3    local potential                                                             
   LCOR   =        T    correct aug charges                                                         
   LPAW   =        T    paw PP                                                                      
   EAUG   =  446.842                                                                                
   DEXC   =    0.000                                                                                
   RMAX   =    2.147    core radius for proj-oper                                                   
   RAUG   =    1.300    factor for augmentation sphere                                              
   RDEP   =    2.177    radius for radial grids                                                     
   RDEPT  =    1.928    core radius for aug-charge                                                  
                                                                                                    
   Atomic configuration                                                                             
   10 entries                                                                                       
     n  l   j            E        occ.                                                              
     1  0  0.50    -12503.4787   2.0000                                                             
     2  0  0.50     -1606.9547   2.0000                                                             
     2  1  1.50     -1413.3140   6.0000                                                             
     3  0  0.50      -213.4885   2.0000                                                             
     3  1  1.50      -152.9538   6.0000                                                             
     3  2  2.50       -53.1221  10.0000                                                             
     4  0  0.50       -17.2865   2.0000                                                             
     4  1  0.50        -6.5110   4.0000                                                             
     4  2  2.50        -6.8029   0.0000                                                             
     4  3  2.50        -6.8029   0.0000                                                             
   Description                                                                                      
     l       E           TYP  RCUT    TYP  RCUT                                                     
     0    -17.2865377     23  2.100                                                                 
     0    -15.3094411     23  2.100                                                                 
     1     -6.5110275     23  2.100                                                                 
     1     -0.0695192     23  2.100                                                                 
     2     -6.8029130     23  2.100                                                                 
     3     -1.3605826      7  2.100                                                                 
  local pseudopotential read in
  partial core-charges read in
  partial kinetic energy density read in
  atomic valenz-charges read in
  non local Contribution for L=           0  read in
    real space projection operators read in
  non local Contribution for L=           0  read in
    real space projection operators read in
  non local Contribution for L=           1  read in
    real space projection operators read in
  non local Contribution for L=           1  read in
    real space projection operators read in
  non local Contribution for L=           2  read in
    real space projection operators read in
    PAW grid and wavefunctions read in
 
   number of l-projection  operators is LMAX  =           5
   number of lm-projection operators is LMMAX =          13
 
 POTCAR:    PAW_PBE W_sv 04Sep2015                
   SHA256 =  931c2d770f65867ef30f3db3421922900fc0890ebac5c3e12f63b6a2064023d7 W_sv/POTCAR           
   COPYR  = (c) Copyright 04Sep2015 Georg Kresse                                                    
   COPYR  = This file is part of the software VASP. Any use, copying, and all other rights are regul
   COPYR  = If you do not have a valid VASP license, you may not use, copy or distribute this file. 
   VRHFIN =W : 5p6s5d                                                                               
   LEXCH  = PE                                                                                      
   EATOM  =  1865.5791 eV,  137.1162 Ry                                                             
                                                                                                    
   TITEL  = PAW_PBE W_sv 04Sep2015                                                                  
   LULTRA =        F    use ultrasoft PP ?                                                          
   IUNSCR =        1    unscreen: 0-lin 1-nonlin 2-no                                               
   RPACOR =    2.330    partial core radius                                                         
   POMASS =  183.850; ZVAL   =   14.000    mass and valenz                                          
   RCORE  =    2.500    outmost cutoff radius                                                       
   RWIGS  =    2.750; RWIGS  =    1.455    wigner-seitz radius (au A)                               
   ENMAX  =  223.057; ENMIN  =  167.293 eV                                                          
   ICORE  =        3    local potential                                                             
   LCOR   =        T    correct aug charges                                                         
   LPAW   =        T    paw PP                                                                      
   EAUG   =  373.438                                                                                
   DEXC   =    0.000                                                                                
   RMAX   =    2.565    core radius for proj-oper                                                   
   RAUG   =    1.300    factor for augmentation sphere                                              
   RDEP   =    2.539    radius for radial grids                                                     
   RDEPT  =    2.126    core radius for aug-charge                                                  
                                                                                                    
   Atomic configuration                                                                             
   15 entries                                                                                       
     n  l   j            E        occ.                                                              
     1  0  0.50    -69465.5834   2.0000                                                             
     2  0  0.50    -11986.2640   2.0000                                                             
     2  1  1.50    -10479.8613   6.0000                                                             
     3  0  0.50     -2759.0756   2.0000                                                             
     3  1  1.50     -2313.1855   6.0000                                                             
     3  2  2.50     -1801.1183  10.0000                                                             
     4  0  0.50      -567.6789   2.0000                                                             
     4  1  1.50      -421.4692   6.0000                                                             
     4  2  2.50      -236.3471  10.0000                                                             
     4  3  3.50       -31.2665  14.0000                                                             
     5  0  0.50       -77.1084   2.0000                                                             
     6  0  0.50        -5.1438   1.0000                                                             
     5  1  1.50       -41.3856   6.0000                                                             
     5  2  2.50        -3.3185   5.0000                                                             
     5  3  2.50        -1.3606   0.0000                                                             
   Description                                                                                      
     l       E           TYP  RCUT    TYP  RCUT                                                     
     0    -77.1084470     23  2.100                                                                 
     0     -5.1437956     23  2.300                                                                 
     1    -41.3855615     23  2.500                                                                 
     1     -2.7211652     23  2.500                                                                 
     2     -3.3185025     23  2.500                                                                 
     2     -1.5965151     23  2.500                                                                 
     3     -1.3605826     23  2.500                                                                 
  local pseudopotential read in
  partial core-charges read in
  partial kinetic energy density read in
  kinetic energy density of atom read in
  atomic valenz-charges read in
  non local Contribution for L=           0  read in
    real space projection operators read in
  non local Contribution for L=           0  read in
    real space projection operators read in
  non local Contribution for L=           1  read in
    real space projection operators read in
  non local Contribution for L=           1  read in
    real space projection operators read in
  non local Contribution for L=           2  read in
    real space projection operators read in
  non local Contribution for L=           2  read in
    real space projection operators read in
    PAW grid and wavefunctions read in
 
   number of l-projection  operators is LMAX  =           6
   number of lm-projection operators is LMMAX =          18
 
 POTCAR:    PAW_PBE S 06Sep2000                   
   SHA256 =  0fc7481fb0695f01bdc6462160264c5c84044ae9ec85a907d398b887a2bc3132 S/POTCAR              
   COPYR  = (c) Copyright 06Sep2000 Georg Kresse                                                    
   COPYR  = This file is part of the software VASP. Any use, copying, and all other rights are regul
   COPYR  = If you do not have a valid VASP license, you may not use, copy or distribute this file. 
   VRHFIN =S : s2p4                                                                                 
   LEXCH  = PE                                                                                      
   EATOM  =   276.8230 eV,   20.3459 Ry                                                             
                                                                                                    
   TITEL  = PAW_PBE S 06Sep2000                                                                     
   LULTRA =        F    use ultrasoft PP ?                                                          
   IUNSCR =        1    unscreen: 0-lin 1-nonlin 2-no                                               
   RPACOR =    1.500    partial core radius                                                         
   POMASS =   32.066; ZVAL   =    6.000    mass and valenz                                          
   RCORE  =    1.900    outmost cutoff radius                                                       
   RWIGS  =    2.200; RWIGS  =    1.164    wigner-seitz radius (au A)                               
   ENMAX  =  258.689; ENMIN  =  194.016 eV                                                          
   ICORE  =        2    local potential                                                             
   LCOR   =        T    correct aug charges                                                         
   LPAW   =        T    paw PP                                                                      
   EAUG   =  335.092                                                                                
   DEXC   =    0.000                                                                                
   RMAX   =    1.942    core radius for proj-oper                                                   
   RAUG   =    1.300    factor for augmentation sphere                                              
   RDEP   =    1.954    radius for radial grids                                                     
   RDEPT  =    1.744    core radius for aug-charge                                                  
                                                                                                    
   Atomic configuration                                                                             
    6 entries                                                                                       
     n  l   j            E        occ.                                                              
     1  0  0.50     -2405.8406   2.0000                                                             
     2  0  0.50      -211.7007   2.0000                                                             
     2  1  1.50      -156.4958   6.0000                                                             
     3  0  0.50       -17.2562   2.0000                                                             
     3  1  0.50        -7.0085   4.0000                                                             
     3  2  1.50        -6.8029   0.0000                                                             
   Description                                                                                      
     l       E           TYP  RCUT    TYP  RCUT                                                     
     0    -17.2561641     23  1.900                                                                 
     0    -15.8743224     23  1.900                                                                 
     1     -7.0085400     23  1.900                                                                 
     1     -2.7779785     23  1.900                                                                 
     2     -6.8029130     23  1.900                                                                 
  local pseudopotential read in
  partial core-charges read in
  partial kinetic energy density read in
  atomic valenz-charges read in
  non local Contribution for L=           0  read in
    real space projection operators read in
  non local Contribution for L=           0  read in
    real space projection operators read in
  non local Contribution for L=           1  read in
    real space projection operators read in
  non local Contribution for L=           1  read in
    real space projection operators read in
    PAW grid and wavefunctions read in
 
   number of l-projection  operators is LMAX  =           4
   number of lm-projection operators is LMMAX =           8
 
 Optimization of the real space projectors (new method)

 maximal supplied QI-value         = 15.12
 optimisation between [QCUT,QGAM] = [ 11.64, 23.28] = [ 37.95,151.78] Ry 
 Optimized for a Real-space Cutoff    1.53 Angstroem

   l    n(q)    QCUT    max X(q) W(low)/X(q) W(high)/X(q)  e(spline) 
   0     11    11.641     3.559    0.80E-05    0.27E-04    0.27E-06
   0     11    11.641    20.730    0.39E-04    0.26E-04    0.29E-06
   1     10    11.641     3.279    0.18E-05    0.27E-05    0.28E-07
   1     10    11.641     4.693    0.11E-03    0.12E-04    0.28E-06
   2     10    11.641    67.616    0.19E-03    0.29E-03    0.91E-06
   2     10    11.641    62.420    0.19E-03    0.29E-03    0.92E-06
 Optimization of the real space projectors (new method)

 maximal supplied QI-value         = 17.95
 optimisation between [QCUT,QGAM] = [ 11.67, 23.34] = [ 38.13,152.52] Ry 
 Optimized for a Real-space Cutoff    1.25 Angstroem

   l    n(q)    QCUT    max X(q) W(low)/X(q) W(high)/X(q)  e(spline) 
   0      9    11.669   133.320    0.17E-03    0.44E-04    0.69E-07
   0      9    11.669   111.601    0.18E-03    0.46E-04    0.72E-07
   1      8    11.669    47.222    0.22E-03    0.37E-03    0.10E-06
   1      8    11.669    33.775    0.22E-03    0.36E-03    0.10E-06
   2      8    11.669     3.720    0.19E-03    0.46E-04    0.50E-07
 Optimization of the real space projectors (new method)

 maximal supplied QI-value         = 15.12
 optimisation between [QCUT,QGAM] = [ 11.64, 23.28] = [ 37.95,151.78] Ry 
 Optimized for a Real-space Cutoff    1.53 Angstroem

   l    n(q)    QCUT    max X(q) W(low)/X(q) W(high)/X(q)  e(spline) 
   0     11    11.641     3.377    0.18E-04    0.34E-04    0.29E-06
   0     11    11.641    17.603    0.39E-04    0.41E-04    0.35E-06
   1     10    11.641     4.278    0.12E-04    0.15E-04    0.63E-07
   1     10    11.641     5.278    0.15E-04    0.52E-04    0.18E-06
   2     10    11.641    67.938    0.89E-04    0.14E-03    0.15E-06
   2     10    11.641    59.529    0.87E-04    0.14E-03    0.15E-06
 Optimization of the real space projectors (new method)

 maximal supplied QI-value         = 19.84
 optimisation between [QCUT,QGAM] = [ 11.51, 23.22] = [ 37.09,150.92] Ry 
 Optimized for a Real-space Cutoff    1.21 Angstroem

   l    n(q)    QCUT    max X(q) W(low)/X(q) W(high)/X(q)  e(spline) 
   0      8    11.508   187.594    0.96E-04    0.18E-03    0.54E-07
   0      8    11.508   164.243    0.96E-04    0.18E-03    0.54E-07
   1      8    11.508    67.533    0.18E-03    0.65E-04    0.94E-07
   1      8    11.508    50.729    0.18E-03    0.63E-04    0.92E-07
  PAW_PBE Mo_sv 02Feb2006               :
 energy of atom  1       EATOM=-1862.2866
 kinetic energy error for atom=    0.0070 (will be added to EATOM!!)
  PAW_PBE Se 06Sep2000                  :
 energy of atom  2       EATOM= -257.1286
 kinetic energy error for atom=    0.0007 (will be added to EATOM!!)
  PAW_PBE W_sv 04Sep2015                :
 energy of atom  3       EATOM=-1865.5791
 kinetic energy error for atom=    0.0026 (will be added to EATOM!!)
  PAW_PBE S 06Sep2000                   :
 energy of atom  4       EATOM= -276.8230
 kinetic energy error for atom=    0.0016 (will be added to EATOM!!)
 
 
 POSCAR: generated by phonopy
  positions in direct lattice
  No initial velocities read in
 IVDW         = 12
 VDW_S6       =    1.0000
 VDW_S8       =    0.7875
 VDW_A1       =    0.4289
 VDW_A2       =    4.4407
 VDW_RADIUS   =   50.2022 A
 VDW_CNRADIUS =   21.1671 A


 exchange-correlation table for PE
   RHO(1)=    0.500       N(1)  =     2000
   RHO(2)=  100.500       N(2)  =     4000
 


--------------------------------------------------------------------------------------------------------


 ion  position               nearest neighbor table
   1  0.000  0.000  0.507-  21 2.52  25 2.52  19 2.52  16 2.52  12 2.52  10 2.52   2 3.25   3 3.25
                             4 3.25   6 3.25   7 3.25   8 3.25
   2  0.333  0.000  0.507-  19 2.52  20 2.52  26 2.52  10 2.52  11 2.52  17 2.52   3 3.25   9 3.25
                             8 3.25   1 3.25   4 3.25   5 3.25
   3  0.667  0.000  0.507-  20 2.52  27 2.52  21 2.52  18 2.52  11 2.52  12 2.52   2 3.25   5 3.25
                             7 3.25   9 3.25   1 3.25   6 3.25
   4  0.000  0.333  0.507-  19 2.52  22 2.52  24 2.52  10 2.52  13 2.52  15 2.52   7 3.25   9 3.25
                             1 3.25   2 3.25   5 3.25   6 3.25
   5  0.333  0.333  0.507-  23 2.52  22 2.52  20 2.52  14 2.52  11 2.52  13 2.52   8 3.25   6 3.25
                             7 3.25   3 3.25   4 3.25   2 3.25
   6  0.667  0.333  0.507-  21 2.52  23 2.52  24 2.52  12 2.52  14 2.52  15 2.52   8 3.25   9 3.25
                             5 3.25   1 3.25   3 3.25   4 3.25
   7  0.000  0.667  0.507-  22 2.52  27 2.52  25 2.52  18 2.52  13 2.52  16 2.52   4 3.25   5 3.25
                             8 3.25   9 3.25   1 3.25   3 3.25
   8  0.333  0.667  0.507-  23 2.52  25 2.52  26 2.52  14 2.52  16 2.52  17 2.52   5 3.25   6 3.25
                             9 3.25   2 3.25   7 3.25   1 3.25
   9  0.667  0.667  0.507-  24 2.52  26 2.52  27 2.52  17 2.52  15 2.52  18 2.52   6 3.25   8 3.25
                             2 3.25   4 3.25   7 3.25   3 3.25
  10  0.111  0.111  0.422-   2 2.52   4 2.52   1 2.52
  11  0.444  0.111  0.422-   2 2.52   3 2.52   5 2.52
  12  0.778  0.111  0.422-   1 2.52   6 2.52   3 2.52
  13  0.111  0.444  0.422-   4 2.52   5 2.52   7 2.52
  14  0.444  0.444  0.422-   5 2.52   6 2.52   8 2.52
  15  0.778  0.444  0.422-   4 2.52   6 2.52   9 2.52
  16  0.111  0.778  0.422-   1 2.52   8 2.52   7 2.52
  17  0.444  0.778  0.422-   2 2.52   8 2.52   9 2.52
  18  0.778  0.778  0.422-   3 2.52   7 2.52   9 2.52
  19  0.111  0.111  0.591-   2 2.52   4 2.52   1 2.52
  20  0.444  0.111  0.591-   2 2.52   3 2.52   5 2.52
  21  0.778  0.111  0.591-   1 2.52   6 2.52   3 2.52
  22  0.111  0.444  0.591-   4 2.52   5 2.52   7 2.52
  23  0.444  0.444  0.591-   5 2.52   6 2.52   8 2.52
  24  0.778  0.444  0.591-   4 2.52   6 2.52   9 2.52
  25  0.111  0.778  0.591-   1 2.52   8 2.52   7 2.52
  26  0.444  0.778  0.591-   2 2.52   8 2.52   9 2.52
  27  0.778  0.778  0.591-   3 2.52   7 2.52   9 2.52
  28  0.111  0.111  0.818-  38 2.43  40 2.43  47 2.43  49 2.43  46 2.43  37 2.44  31 3.25  29 3.25
                            33 3.25  35 3.25  34 3.25  30 3.25
  29  0.444  0.111  0.818-  38 2.43  39 2.43  41 2.43  47 2.43  48 2.43  50 2.43  31 3.25  32 3.25
                            28 3.25  30 3.25  35 3.25  36 3.25
  30  0.778  0.111  0.818-  42 2.43  39 2.43  46 2.43  51 2.43  48 2.43  37 2.43  33 3.25  32 3.25
                            34 3.25  36 3.25  28 3.25  29 3.25
  31  0.111  0.444  0.818-  40 2.43  41 2.43  43 2.43  49 2.43  50 2.43  52 2.43  28 3.25  29 3.25
                            32 3.25  33 3.25  34 3.25  36 3.25
  32  0.444  0.444  0.818-  41 2.43  42 2.43  44 2.43  50 2.43  51 2.43  53 2.43  29 3.25  31 3.25
                            30 3.25  34 3.25  33 3.25  35 3.25
  33  0.778  0.444  0.818-  40 2.43  42 2.43  45 2.43  49 2.43  51 2.43  54 2.43  30 3.25  28 3.25
                            35 3.25  36 3.25  31 3.25  32 3.25
  34  0.111  0.778  0.818-  44 2.43  43 2.43  46 2.43  53 2.43  52 2.43  37 2.44  35 3.25  32 3.25
                            30 3.25  36 3.25  31 3.25  28 3.25
  35  0.444  0.778  0.818-  38 2.43  44 2.43  45 2.43  47 2.43  53 2.43  54 2.43  34 3.25  28 3.25
                            29 3.25  36 3.25  32 3.25  33 3.25
  36  0.778  0.778  0.818-  39 2.43  43 2.43  45 2.43  48 2.43  52 2.43  54 2.43  29 3.25  30 3.25
                            31 3.25  33 3.25  34 3.25  35 3.25
  37  1.000  0.000  0.741-  30 2.43  34 2.44  28 2.44
  38  0.333  0.000  0.741-  28 2.43  29 2.43  35 2.43
  39  0.667  0.000  0.741-  29 2.43  36 2.43  30 2.43
  40  0.000  0.333  0.741-  28 2.43  31 2.43  33 2.43
  41  0.333  0.333  0.741-  32 2.43  31 2.43  29 2.43
  42  0.667  0.333  0.741-  30 2.43  32 2.43  33 2.43
  43  0.000  0.667  0.741-  31 2.43  36 2.43  34 2.43
  44  0.333  0.667  0.741-  32 2.43  34 2.43  35 2.43
  45  0.667  0.667  0.741-  33 2.43  35 2.43  36 2.43
  46  0.000  0.000  0.895-  30 2.43  34 2.43  28 2.43
  47  0.333  0.000  0.895-  28 2.43  29 2.43  35 2.43
  48  0.667  0.000  0.895-  29 2.43  36 2.43  30 2.43
  49  0.000  0.333  0.895-  28 2.43  31 2.43  33 2.43
  50  0.333  0.333  0.895-  32 2.43  31 2.43  29 2.43
  51  0.667  0.333  0.895-  30 2.43  32 2.43  33 2.43
  52  0.000  0.667  0.895-  31 2.43  36 2.43  34 2.43
  53  0.333  0.667  0.895-  32 2.43  34 2.43  35 2.43
  54  0.667  0.667  0.895-  33 2.43  35 2.43  36 2.43
 
  LATTYP: Found a hexagonal cell.
 ALAT       =     9.7597246245
 C/A-ratio  =     2.0492381465
  
  Lattice vectors:
  
 A1 = (  -4.8798623122,  -8.4521694587,   0.0000000000)
 A2 = (   9.7597246245,   0.0000000000,   0.0000000000)
 A3 = (   0.0000000000,   0.0000000000,  20.0000000000)


Analysis of symmetry for initial positions (statically):
=====================================================================
 Subroutine PRICEL returns:
 Original cell was already a primitive cell.
 

 Routine SETGRP: Setting up the symmetry group for a 
 hexagonal supercell.


 Subroutine GETGRP returns: Found  1 space group operations
 (whereof  1 operations were pure point group operations)
 out of a pool of 24 trial point group operations.


The static configuration has the point symmetry C_1 .


Analysis of symmetry for dynamics (positions and initial velocities):
=====================================================================
 Subroutine PRICEL returns:
 Original cell was already a primitive cell.
 

 Routine SETGRP: Setting up the symmetry group for a 
 hexagonal supercell.


 Subroutine GETGRP returns: Found  1 space group operations
 (whereof  1 operations were pure point group operations)
 out of a pool of 24 trial point group operations.


The dynamic configuration has the point symmetry C_1 .


 Subroutine INISYM returns: Found  1 space group operations
 (whereof  1 operations are pure point group operations),
 and found     1 'primitive' translations


----------------------------------------------------------------------------------------

                                     Primitive cell                                     

  volume of cell :    1649.8169

  direct lattice vectors                    reciprocal lattice vectors
     9.759724624  0.000000000  0.000000000     0.102461907 -0.059156410  0.000000000
     4.879862312  8.452169459  0.000000000     0.000000000  0.118312820  0.000000000
     0.000000000  0.000000000 20.000000000     0.000000000  0.000000000  0.050000000

  length of vectors
     9.759724624  9.759724624 20.000000000     0.118312820  0.118312820  0.050000000

  position of ions in fractional coordinates (direct lattice)
     0.000000000  0.000000000  0.506830194
     0.333333333  0.000000000  0.506830194
     0.666666667  0.000000000  0.506830194
     0.000000000  0.333333333  0.506830194
     0.333333333  0.333333333  0.506830194
     0.666666667  0.333333333  0.506830194
     0.000000000  0.666666667  0.506830194
     0.333333333  0.666666667  0.506830194
     0.666666667  0.666666667  0.506830194
     0.111111111  0.111111111  0.422478775
     0.444444444  0.111111111  0.422478775
     0.777777778  0.111111111  0.422478775
     0.111111111  0.444444444  0.422478775
     0.444444444  0.444444444  0.422478775
     0.777777778  0.444444444  0.422478775
     0.111111111  0.777777778  0.422478775
     0.444444444  0.777777778  0.422478775
     0.777777778  0.777777778  0.422478775
     0.111111111  0.111111111  0.591115511
     0.444444444  0.111111111  0.591115511
     0.777777778  0.111111111  0.591115511
     0.111111111  0.444444444  0.591115511
     0.444444444  0.444444444  0.591115511
     0.777777778  0.444444444  0.591115511
     0.111111111  0.777777778  0.591115511
     0.444444444  0.777777778  0.591115511
     0.777777778  0.777777778  0.591115511
     0.111111111  0.111111111  0.818182132
     0.444444444  0.111111111  0.818182132
     0.777777778  0.111111111  0.818182132
     0.111111111  0.444444444  0.818182132
     0.444444444  0.444444444  0.818182132
     0.777777778  0.444444444  0.818182132
     0.111111111  0.777777778  0.818182132
     0.444444444  0.777777778  0.818182132
     0.777777778  0.777777778  0.818182132
     0.999550648  0.000000000  0.740599858
     0.333333333  0.000000000  0.741049210
     0.666666667  0.000000000  0.741049210
     0.000000000  0.333333333  0.741049210
     0.333333333  0.333333333  0.741049210
     0.666666667  0.333333333  0.741049210
     0.000000000  0.666666667  0.741049210
     0.333333333  0.666666667  0.741049210
     0.666666667  0.666666667  0.741049210
     0.000000000  0.000000000  0.895344178
     0.333333333  0.000000000  0.895344178
     0.666666667  0.000000000  0.895344178
     0.000000000  0.333333333  0.895344178
     0.333333333  0.333333333  0.895344178
     0.666666667  0.333333333  0.895344178
     0.000000000  0.666666667  0.895344178
     0.333333333  0.666666667  0.895344178
     0.666666667  0.666666667  0.895344178

  ion indices of the primitive-cell ions
   primitive index   ion index
                 1           1
                 2           2
                 3           3
                 4           4
                 5           5
                 6           6
                 7           7
                 8           8
                 9           9
                10          10
                11          11
                12          12
                13          13
                14          14
                15          15
                16          16
                17          17
                18          18
                19          19
                20          20
                21          21
                22          22
                23          23
                24          24
                25          25
                26          26
                27          27
                28          28
                29          29
                30          30
                31          31
                32          32
                33          33
                34          34
                35          35
                36          36
                37          37
                38          38
                39          39
                40          40
                41          41
                42          42
                43          43
                44          44
                45          45
                46          46
                47          47
                48          48
                49          49
                50          50
                51          51
                52          52
                53          53
                54          54

----------------------------------------------------------------------------------------

 
 
 KPOINTS: Automatic mesh                          

Automatic generation of k-mesh.
 Grid dimensions read from file:
 generate k-points for:    5    5    1

 Generating k-lattice:

  Cartesian coordinates                     Fractional coordinates (reciprocal lattice)
     0.020492381 -0.011831282  0.000000000     0.200000000  0.000000000  0.000000000
     0.000000000  0.023662564  0.000000000     0.000000000  0.200000000  0.000000000
     0.000000000  0.000000000  0.050000000     0.000000000  0.000000000  1.000000000

  Length of vectors
     0.023662564  0.023662564  0.050000000

  Shift w.r.t. Gamma in fractional coordinates (k-lattice)
     0.000000000  0.000000000  0.000000000

 
 Subroutine IBZKPT returns following result:
 ===========================================
 
 Found     13 irreducible k-points:
 
 Following reciprocal coordinates:
            Coordinates               Weight
  0.000000  0.000000  0.000000      1.000000
  0.200000  0.000000  0.000000      2.000000
  0.200000  0.200000  0.000000      2.000000
  0.000000  0.200000  0.000000      2.000000
  0.400000  0.000000  0.000000      2.000000
  0.400000  0.400000  0.000000      2.000000
  0.000000  0.400000  0.000000      2.000000
  0.400000  0.200000  0.000000      2.000000
  0.200000  0.400000  0.000000      2.000000
 -0.200000  0.200000  0.000000      2.000000
 -0.400000  0.200000  0.000000      2.000000
  0.400000 -0.400000  0.000000      2.000000
 -0.200000  0.400000  0.000000      2.000000
 
 Following cartesian coordinates:
            Coordinates               Weight
  0.000000  0.000000  0.000000      1.000000
  0.020492 -0.011831  0.000000      2.000000
  0.020492  0.011831  0.000000      2.000000
  0.000000  0.023663  0.000000      2.000000
  0.040985 -0.023663  0.000000      2.000000
  0.040985  0.023663  0.000000      2.000000
  0.000000  0.047325  0.000000      2.000000
  0.040985  0.000000  0.000000      2.000000
  0.020492  0.035494  0.000000      2.000000
 -0.020492  0.035494  0.000000      2.000000
 -0.040985  0.047325  0.000000      2.000000
  0.040985 -0.070988  0.000000      2.000000
 -0.020492  0.059156  0.000000      2.000000
 


--------------------------------------------------------------------------------------------------------




 Dimension of arrays:
   k-points           NKPTS =     13   k-points in BZ     NKDIM =     13   number of bands    NBANDS=    286
   number of dos      NEDOS =    301   number of ions     NIONS =     54
   non local maximal  LDIM  =      6   non local SUM 2l+1 LMDIM =     18
   total plane-waves  NPLWV = 960000
   max r-space proj   IRMAX =   8845   max aug-charges    IRDMAX=  33410
   dimension x,y,z NGX =    80 NGY =   80 NGZ =  150
   dimension x,y,z NGXF=   160 NGYF=  160 NGZF=  300
   support grid    NGXF=   160 NGYF=  160 NGZF=  300
   ions per type =               9  18   9  18
   NGX,Y,Z   is equivalent  to a cutoff of  13.63, 13.63, 12.47 a.u.
   NGXF,Y,Z  is equivalent  to a cutoff of  27.25, 27.25, 24.94 a.u.

 SYSTEM =  MoSe2_WS2_2H phonon                     
 POSCAR =  generated by phonopy                    

 Startparameter for this run:
   NWRITE =      2    write-flag & timer
   PREC   = accura    normal or accurate (medium, high low for compatibility)
   ISTART =      0    job   : 0-new  1-cont  2-samecut
   ICHARG =      2    charge: 1-file 2-atom 10-const
   ISPIN  =      1    spin polarized calculation?
   LNONCOLLINEAR =      F non collinear calculations
   LSORBIT =      F    spin-orbit coupling
   INIWAV =      1    electr: 0-lowe 1-rand  2-diag
   LASPH  =      F    aspherical Exc in radial PAW
 Electronic Relaxation 1
   ENCUT  =  520.0 eV  38.22 Ry    6.18 a.u.  18.15 18.15 37.19*2*pi/ulx,y,z
   ENINI  =  520.0     initial cutoff
   ENAUG  =  446.8 eV  augmentation charge cutoff
   NELM   =    200;   NELMIN=  2; NELMDL= -5     # of ELM steps 
   EDIFF  = 0.1E-05   stopping-criterion for ELM
   LREAL  =      T    real-space projection
   NLSPLINE    = F    spline interpolate recip. space projectors
   LCOMPAT=      F    compatible to vasp.4.4
   GGA_COMPAT  = T    GGA compatible to vasp.4.4-vasp.4.6
   LMAXPAW     = -100 max onsite density
   LMAXMIX     =    2 max onsite mixed and CHGCAR
   VOSKOWN=      0    Vosko Wilk Nusair interpolation
   ROPT   =   -0.00025  -0.00025  -0.00025  -0.00025
 Ionic relaxation
   EDIFFG = 0.1E-04   stopping-criterion for IOM
   NSW    =      0    number of steps for IOM
   NBLOCK =      1;   KBLOCK =      1    inner block; outer block 
   IBRION =     -1    ionic relax: 0-MD 1-quasi-New 2-CG
   NFREE  =      0    steps in history (QN), initial steepest desc. (CG)
   ISIF   =      2    stress and relaxation
   IWAVPR =     10    prediction:  0-non 1-charg 2-wave 3-comb
   ISYM   =      2    0-nonsym 1-usesym 2-fastsym
   LCORR  =      T    Harris-Foulkes like correction to forces

   POTIM  = 0.5000    time-step for ionic-motion
   TEIN   =    0.0    initial temperature
   TEBEG  =    0.0;   TEEND  =   0.0 temperature during run
   SMASS  =  -3.00    Nose mass-parameter (am)
   estimated Nose-frequenzy (Omega)   =  0.10E-29 period in steps = 0.13E+47 mass=  -0.218E-26a.u.
   SCALEE = 1.0000    scale energy and forces
   NPACO  =    256;   APACO  = 10.0  distance and # of slots for P.C.
   PSTRESS=    0.0 pullay stress

  Mass of Ions in am
   POMASS =  95.94 78.96183.85 32.07
  Ionic Valenz
   ZVAL   =  14.00  6.00 14.00  6.00
  Atomic Wigner-Seitz radii
   RWIGS  =  -1.00 -1.00 -1.00 -1.00
  virtual crystal weights 
   VCA    =   1.00  1.00  1.00  1.00
   NELECT =     468.0000    total number of electrons
   NUPDOWN=      -1.0000    fix difference up-down

 DOS related values:
   EMIN   =  10.00;   EMAX   =-10.00  energy-range for DOS
   EFERMI =   0.00;   METHOD = LEGACY      
   ISMEAR =     0;   SIGMA  =   0.05  broadening in eV -4-tet -1-fermi 0-gaus
   EFERMI_NEDOS =   21; number of points for ismear=-14 and -15

 Electronic relaxation 2 (details)
   IALGO  =     38    algorithm
   LDIAG  =      T    sub-space diagonalisation (order eigenvalues)
   LSUBROT=      F    optimize rotation matrix (better conditioning)
   LROBUST=      F    robust break criterion during scf (extrapolated energy error)
   ISEARCH=      0    line search for conjugate gradient (0, 1=use gradient)
   TURBO    =      0    0=normal 1=particle mesh
   IRESTART =      0    0=no restart 2=restart with 2 vectors
   NREBOOT  =      0    no. of reboots
   NMIN     =      0    reboot dimension
   EREF     =   0.00    reference energy to select bands
   IMIX   =      4    mixing-type and parameters
     AMIX     =   0.40;   BMIX     =  1.00
     AMIX_MAG =   1.60;   BMIX_MAG =  1.00
     AMIN     =   0.01
     WC   =   100.;   INIMIX=   1;  MIXPRE=   1;  MAXMIX= -45

 Intra band minimization:
   WEIMIN = 0.0000     energy-eigenvalue tresh-hold
   EBREAK =  0.87E-09  absolut break condition
   DEPER  =   0.30     relativ break condition  

   TIME   =   0.40     timestep for ELM

  volume/ion in A,a.u.               =      30.55       206.18
  Fermi-wavevector in a.u.,A,eV,Ry     =   1.075668  2.032718 15.742776  1.157061
  Thomas-Fermi vector in A             =   2.211531
 
 Write flags
   LWAVE        =      F    write WAVECAR
   LDOWNSAMPLE  =      F    k-point downsampling of WAVECAR
   LCHARG       =      F    write CHGCAR
   LVTOT        =      F    write LOCPOT, total local potential
   LVHAR        =      F    write LOCPOT, Hartree potential only
   WRT_POTENTIAL= false  ! write potential to hdf5 file
   LELF         =      F    write electronic localiz. function (ELF)
   LORBIT       =      0    0 simple, 1 ext, 2 COOP (PROOUT), +10 PAW based schemes


 Python interface
   PLUGINS active      =      F    recompile with -DPLUGINS to activate
 
 Dipole corrections
   LMONO      =      F    monopole corrections only (constant potential shift)
   LDIPOL     =      F    correct potential (dipole corrections)
   IDIPOL     =      0    1-x, 2-y, 3-z, 4-all directions 
   EPSILON    =  1.0000000 bulk dielectric constant
   LVACPOTAV  =      F  vacuum potentials using an averaging scheme for the charge density
   VACPOTFLAT =  0.1000000 required flatness to determine vacuum potential
 
Coulomb truncation method
  LTRUNCATE          =      F  Coulomb kernel truncation to be used

 
 Exchange correlation treatment:
   GGA     = PE    functional components
   XC_C    = 1    coefficients multiplying the functional components
   LIBXC   =     F    Libxc                    
   VOSKOWN =     0    Vosko Wilk Nusair interpolation
   LHFCALC =     F    Hartree Fock is set to
   LHFONE  =     F    Hartree Fock one center treatment
   AEXX    =    0.0000 exact exchange contribution

 Parameters of functionals:
   PE:
     No parameter
 
 Van der Waals corrections
   IVDW    =    12    specifies the selected vdW correction

 Linear response parameters
   LEPSILON=     F    determine dielectric tensor
   LRPA    =     F    only Hartree local field effects (RPA)
   LNABLA  =     F    use nabla operator in PAW spheres
   LVEL    =     F    velocity operator in full k-point grid
   CSHIFT  =0.1000    complex shift for real part using Kramers Kronig
   OMEGAMAX=  -1.0    maximum frequency
   DEG_THRESHOLD= 0.2000000E-02 threshold for treating states as degnerate
   RTIME   =   -0.100 relaxation time in fs
  (WPLASMAI=    0.000 imaginary part of plasma frequency in eV, 0.658/RTIME)
   DFIELD  = 0.0000000 0.0000000 0.0000000 field for delta impulse in time
 
  Optional k-point grid parameters
   LKPOINTS_OPT  =     F    use optional k-point grid
   KPOINTS_OPT_MODE=     1    mode for optional k-point grid
 
 Orbital magnetization related:
   ORBITALMAG=     F  switch on orbital magnetization
   LCHIMAG   =     F  perturbation theory with respect to B field
   DQ        =  0.001000  dq finite difference perturbation B field
   LLRAUG    =     F  two centre corrections for induced B field
   LBONE     =     F  B-component reconstruction in AE one-centre
   LVGVCALC  =     T  calculate vGv susceptibility
   LVGVAPPL  =     F  apply vGv susceptibility instead of pGv for G=0

 Random number generation:
   RANDOM_GENERATOR = DEFAULT
   PCG_SEED         = not used


--------------------------------------------------------------------------------------------------------


 Static calculation
 charge density and potential will be updated during run
 non-spin polarized calculation
 Variant of blocked Davidson
 Davidson routine will perform the subspace rotation
 perform sub-space diagonalisation
    after iterative eigenvector-optimisation
 modified Broyden-mixing scheme, WC =      100.0
 initial mixing is a Kerker type mixing with AMIX =  0.4000 and BMIX =      1.0000
 Hartree-type preconditioning will be used
 using additional bands           52
 real space projection scheme for non local part
 use partial core corrections
 calculate Harris-corrections to forces 
   (improved forces if not selfconsistent)
 use gradient corrections 
 use of overlap-Matrix (Vanderbilt PP)
 Gauss-broadening in eV      SIGMA  =   0.05


--------------------------------------------------------------------------------------------------------


  energy-cutoff  :      520.00
  volume of cell :     1649.82
      direct lattice vectors                 reciprocal lattice vectors
     9.759724624  0.000000000  0.000000000     0.102461907 -0.059156410  0.000000000
     4.879862312  8.452169459  0.000000000     0.000000000  0.118312820  0.000000000
     0.000000000  0.000000000 20.000000000     0.000000000  0.000000000  0.050000000

  length of vectors
     9.759724624  9.759724624 20.000000000     0.118312820  0.118312820  0.050000000


 
 k-points in units of 2pi/SCALE and weight: Automatic mesh                          
   0.00000000  0.00000000  0.00000000       0.040
   0.02049238 -0.01183128  0.00000000       0.080
   0.02049238  0.01183128  0.00000000       0.080
   0.00000000  0.02366256  0.00000000       0.080
   0.04098476 -0.02366256  0.00000000       0.080
   0.04098476  0.02366256  0.00000000       0.080
   0.00000000  0.04732513  0.00000000       0.080
   0.04098476  0.00000000  0.00000000       0.080
   0.02049238  0.03549385  0.00000000       0.080
  -0.02049238  0.03549385  0.00000000       0.080
  -0.04098476  0.04732513  0.00000000       0.080
   0.04098476 -0.07098769  0.00000000       0.080
  -0.02049238  0.05915641  0.00000000       0.080
 
 k-points in reciprocal lattice and weights: Automatic mesh                          
   0.00000000  0.00000000  0.00000000       0.040
   0.20000000  0.00000000  0.00000000       0.080
   0.20000000  0.20000000  0.00000000       0.080
   0.00000000  0.20000000  0.00000000       0.080
   0.40000000  0.00000000  0.00000000       0.080
   0.40000000  0.40000000  0.00000000       0.080
   0.00000000  0.40000000  0.00000000       0.080
   0.40000000  0.20000000  0.00000000       0.080
   0.20000000  0.40000000  0.00000000       0.080
  -0.20000000  0.20000000  0.00000000       0.080
  -0.40000000  0.20000000  0.00000000       0.080
   0.40000000 -0.40000000  0.00000000       0.080
  -0.20000000  0.40000000  0.00000000       0.080
 
 position of ions in fractional coordinates (direct lattice) 
   0.00000000  0.00000000  0.50683019
   0.33333333  0.00000000  0.50683019
   0.66666667  0.00000000  0.50683019
   0.00000000  0.33333333  0.50683019
   0.33333333  0.33333333  0.50683019
   0.66666667  0.33333333  0.50683019
   0.00000000  0.66666667  0.50683019
   0.33333333  0.66666667  0.50683019
   0.66666667  0.66666667  0.50683019
   0.11111111  0.11111111  0.42247878
   0.44444444  0.11111111  0.42247878
   0.77777778  0.11111111  0.42247878
   0.11111111  0.44444444  0.42247878
   0.44444444  0.44444444  0.42247878
   0.77777778  0.44444444  0.42247878
   0.11111111  0.77777778  0.42247878
   0.44444444  0.77777778  0.42247878
   0.77777778  0.77777778  0.42247878
   0.11111111  0.11111111  0.59111551
   0.44444444  0.11111111  0.59111551
   0.77777778  0.11111111  0.59111551
   0.11111111  0.44444444  0.59111551
   0.44444444  0.44444444  0.59111551
   0.77777778  0.44444444  0.59111551
   0.11111111  0.77777778  0.59111551
   0.44444444  0.77777778  0.59111551
   0.77777778  0.77777778  0.59111551
   0.11111111  0.11111111  0.81818213
   0.44444444  0.11111111  0.81818213
   0.77777778  0.11111111  0.81818213
   0.11111111  0.44444444  0.81818213
   0.44444444  0.44444444  0.81818213
   0.77777778  0.44444444  0.81818213
   0.11111111  0.77777778  0.81818213
   0.44444444  0.77777778  0.81818213
   0.77777778  0.77777778  0.81818213
   0.99955065  0.00000000  0.74059986
   0.33333333  0.00000000  0.74104921
   0.66666667  0.00000000  0.74104921
   0.00000000  0.33333333  0.74104921
   0.33333333  0.33333333  0.74104921
   0.66666667  0.33333333  0.74104921
   0.00000000  0.66666667  0.74104921
   0.33333333  0.66666667  0.74104921
   0.66666667  0.66666667  0.74104921
   0.00000000  0.00000000  0.89534418
   0.33333333  0.00000000  0.89534418
   0.66666667  0.00000000  0.89534418
   0.00000000  0.33333333  0.89534418
   0.33333333  0.33333333  0.89534418
   0.66666667  0.33333333  0.89534418
   0.00000000  0.66666667  0.89534418
   0.33333333  0.66666667  0.89534418
   0.66666667  0.66666667  0.89534418
 
 position of ions in cartesian coordinates  (Angst):
   0.00000000  0.00000000 10.13660389
   3.25324154  0.00000000 10.13660389
   6.50648308  0.00000000 10.13660389
   1.62662077  2.81738982 10.13660389
   4.87986231  2.81738982 10.13660389
   8.13310385  2.81738982 10.13660389
   3.25324154  5.63477964 10.13660389
   6.50648308  5.63477964 10.13660389
   9.75972462  5.63477964 10.13660389
   1.62662077  0.93912994  8.44957550
   4.87986231  0.93912994  8.44957550
   8.13310385  0.93912994  8.44957550
   3.25324154  3.75651976  8.44957550
   6.50648308  3.75651976  8.44957550
   9.75972462  3.75651976  8.44957550
   4.87986231  6.57390958  8.44957550
   8.13310385  6.57390958  8.44957550
  11.38634540  6.57390958  8.44957550
   1.62662077  0.93912994 11.82231022
   4.87986231  0.93912994 11.82231022
   8.13310385  0.93912994 11.82231022
   3.25324154  3.75651976 11.82231022
   6.50648308  3.75651976 11.82231022
   9.75972462  3.75651976 11.82231022
   4.87986231  6.57390958 11.82231022
   8.13310385  6.57390958 11.82231022
  11.38634540  6.57390958 11.82231022
   1.62662077  0.93912994 16.36364264
   4.87986231  0.93912994 16.36364264
   8.13310385  0.93912994 16.36364264
   3.25324154  3.75651976 16.36364264
   6.50648308  3.75651976 16.36364264
   9.75972462  3.75651976 16.36364264
   4.87986231  6.57390958 16.36364264
   8.13310385  6.57390958 16.36364264
  11.38634540  6.57390958 16.36364264
   9.75533907  0.00000000 14.81199716
   3.25324154  0.00000000 14.82098420
   6.50648308  0.00000000 14.82098420
   1.62662077  2.81738982 14.82098420
   4.87986231  2.81738982 14.82098420
   8.13310385  2.81738982 14.82098420
   3.25324154  5.63477964 14.82098420
   6.50648308  5.63477964 14.82098420
   9.75972462  5.63477964 14.82098420
   0.00000000  0.00000000 17.90688355
   3.25324154  0.00000000 17.90688355
   6.50648308  0.00000000 17.90688355
   1.62662077  2.81738982 17.90688355
   4.87986231  2.81738982 17.90688355
   8.13310385  2.81738982 17.90688355
   3.25324154  5.63477964 17.90688355
   6.50648308  5.63477964 17.90688355
   9.75972462  5.63477964 17.90688355
 


--------------------------------------------------------------------------------------------------------


 k-point     1 :   0.0000 0.0000 0.0000  plane waves:   44367
 k-point     2 :   0.2000 0.0000 0.0000  plane waves:   44431
 k-point     3 :   0.2000 0.2000 0.0000  plane waves:   44431
 k-point     4 :   0.0000 0.2000 0.0000  plane waves:   44431
 k-point     5 :   0.4000 0.0000 0.0000  plane waves:   44438
 k-point     6 :   0.4000 0.4000 0.0000  plane waves:   44438
 k-point     7 :   0.0000 0.4000 0.0000  plane waves:   44438
 k-point     8 :   0.4000 0.2000 0.0000  plane waves:   44408
 k-point     9 :   0.2000 0.4000 0.0000  plane waves:   44408
 k-point    10 :  -0.2000 0.2000 0.0000  plane waves:   44408
 k-point    11 :  -0.4000 0.2000 0.0000  plane waves:   44432
 k-point    12 :   0.4000-0.4000 0.0000  plane waves:   44432
 k-point    13 :  -0.2000 0.4000 0.0000  plane waves:   44432

 maximum and minimum number of plane-waves per node :     11147    11056

 maximum number of plane-waves:     44438
 maximum index in each direction: 
   IXMAX=   18   IYMAX=   18   IZMAX=   37
   IXMIN=  -18   IYMIN=  -18   IZMIN=  -37


 real space projection operators:
  total allocation   :      34708.74 KBytes
  max/ min on nodes  :       8683.26       8672.95


 parallel 3D FFT for wavefunctions:
    minimum data exchange during FFTs selected (reduces bandwidth)
 parallel 3D FFT for charge:
    minimum data exchange during FFTs selected (reduces bandwidth)


 total amount of memory used by VASP MPI-rank0   147274. kBytes
=======================================================================

   base                                    :      30000. kBytes
   nonlr-proj                              :      18792. kBytes
   fftplans                                :      13412. kBytes
   grid                                    :      23521. kBytes
   one-center                              :        217. kBytes
   wavefun                                 :      61332. kBytes
 
     INWAV:  cpu time      0.0000: real time      0.0000
 Broyden mixing: mesh for mixing (old mesh)
   NGX = 37   NGY = 37   NGZ = 75
  (NGX  =160   NGY  =160   NGZ  =300)
  gives a total of 102675 points

 initial charge density was supplied:
 charge density of overlapping atoms calculated
 number of electron     468.0000000 magnetization 
 keeping initial charge density in first step


--------------------------------------------------------------------------------------------------------


 Maximum index for non-local projection operator         2151
 Maximum index for augmentation-charges          964 (set IRDMAX)


--------------------------------------------------------------------------------------------------------


 First call to EWALD:  gamma=   0.150
 Maximum number of real-space cells   4x   4x   2
 Maximum number of reciprocal cells   2x   2x   4

    FEWALD:  cpu time      0.1584: real time      0.1587


--------------------------------------- Ionic step        1  -------------------------------------------




--------------------------------------- Iteration      1(   1)  ---------------------------------------


    POTLOK:  cpu time      0.1304: real time      0.1311
    SETDIJ:  cpu time      0.2080: real time      0.2084
     EDDAV:  cpu time      6.9797: real time      7.0327
       DOS:  cpu time      0.0025: real time      0.0025
    --------------------------------------------
      LOOP:  cpu time      7.3207: real time      7.3748

 eigenvalue-minimisations  :  8855
 total energy-change (2. order) : 0.4573642E+04  (-0.2473772E+05)
 number of electron     468.0000000 magnetization 
 augmentation part      468.0000000 magnetization 

 Free energy of the ion-electron system (eV)
  ---------------------------------------------------
  alpha Z        PSCENC =      1198.06820637
  Ewald energy   TEWEN  =     42449.18756494
  -Hartree energ DENC   =    -82137.63661350
  -exchange      EXHF   =         0.00000000
  -V(xc)+E(xc)   XCENC  =      1333.17471851
  PAW double counting   =     34351.68047665   -33677.40238700
  entropy T*S    EENTRO =        -0.02491342
  eigenvalues    EBANDS =     -2105.19733704
  atomic energy  EATOM  =     43161.79194098
  Solvation  Ediel_sol  =         0.00000000
  ---------------------------------------------------
  free energy    TOTEN  =      4573.64165649 eV

  energy without entropy =     4573.66656991  energy(sigma->0) =     4573.65411320


--------------------------------------------------------------------------------------------------------




--------------------------------------- Iteration      1(   2)  ---------------------------------------


     EDDAV:  cpu time      6.9036: real time      6.9562
       DOS:  cpu time      0.0021: real time      0.0021
    --------------------------------------------
      LOOP:  cpu time      6.9057: real time      6.9583

 eigenvalue-minimisations  :  8822
 total energy-change (2. order) :-0.4610133E+04  (-0.4480994E+04)
 number of electron     468.0000000 magnetization 
 augmentation part      468.0000000 magnetization 

 Free energy of the ion-electron system (eV)
  ---------------------------------------------------
  alpha Z        PSCENC =      1198.06820637
  Ewald energy   TEWEN  =     42449.18756494
  -Hartree energ DENC   =    -82137.63661350
  -exchange      EXHF   =         0.00000000
  -V(xc)+E(xc)   XCENC  =      1333.17471851
  PAW double counting   =     34351.68047665   -33677.40238700
  entropy T*S    EENTRO =        -0.00000000
  eigenvalues    EBANDS =     -6715.35564577
  atomic energy  EATOM  =     43161.79194098
  Solvation  Ediel_sol  =         0.00000000
  ---------------------------------------------------
  free energy    TOTEN  =       -36.49173882 eV

  energy without entropy =      -36.49173882  energy(sigma->0) =      -36.49173882


--------------------------------------------------------------------------------------------------------




--------------------------------------- Iteration      1(   3)  ---------------------------------------


     EDDAV:  cpu time      6.8787: real time      6.9331
       DOS:  cpu time      0.0016: real time      0.0016
    --------------------------------------------
      LOOP:  cpu time      6.8804: real time      6.9347

 eigenvalue-minimisations  :  8833
 total energy-change (2. order) :-0.3606239E+03  (-0.3538652E+03)
 number of electron     468.0000000 magnetization 
 augmentation part      468.0000000 magnetization 

 Free energy of the ion-electron system (eV)
  ---------------------------------------------------
  alpha Z        PSCENC =      1198.06820637
  Ewald energy   TEWEN  =     42449.18756494
  -Hartree energ DENC   =    -82137.63661350
  -exchange      EXHF   =         0.00000000
  -V(xc)+E(xc)   XCENC  =      1333.17471851
  PAW double counting   =     34351.68047665   -33677.40238700
  entropy T*S    EENTRO =        -0.00000000
  eigenvalues    EBANDS =     -7075.97955323
  atomic energy  EATOM  =     43161.79194098
  Solvation  Ediel_sol  =         0.00000000
  ---------------------------------------------------
  free energy    TOTEN  =      -397.11564628 eV

  energy without entropy =     -397.11564628  energy(sigma->0) =     -397.11564628


--------------------------------------------------------------------------------------------------------




--------------------------------------- Iteration      1(   4)  ---------------------------------------


     EDDAV:  cpu time      7.5489: real time      7.6067
       DOS:  cpu time      0.0018: real time      0.0018
    --------------------------------------------
      LOOP:  cpu time      7.5507: real time      7.6085

 eigenvalue-minimisations  :  9900
 total energy-change (2. order) :-0.1625839E+02  (-0.1613307E+02)
 number of electron     468.0000000 magnetization 
 augmentation part      468.0000000 magnetization 

 Free energy of the ion-electron system (eV)
  ---------------------------------------------------
  alpha Z        PSCENC =      1198.06820637
  Ewald energy   TEWEN  =     42449.18756494
  -Hartree energ DENC   =    -82137.63661350
  -exchange      EXHF   =         0.00000000
  -V(xc)+E(xc)   XCENC  =      1333.17471851
  PAW double counting   =     34351.68047665   -33677.40238700
  entropy T*S    EENTRO =        -0.00000000
  eigenvalues    EBANDS =     -7092.23794814
  atomic energy  EATOM  =     43161.79194098
  Solvation  Ediel_sol  =         0.00000000
  ---------------------------------------------------
  free energy    TOTEN  =      -413.37404119 eV

  energy without entropy =     -413.37404119  energy(sigma->0) =     -413.37404119


--------------------------------------------------------------------------------------------------------




--------------------------------------- Iteration      1(   5)  ---------------------------------------


     EDDAV:  cpu time      7.7132: real time      7.7726
       DOS:  cpu time      0.0017: real time      0.0017
    CHARGE:  cpu time      0.4588: real time      0.4707
    MIXING:  cpu time      0.0313: real time      0.0314
    --------------------------------------------
      LOOP:  cpu time      8.2050: real time      8.2764

 eigenvalue-minimisations  : 10175
 total energy-change (2. order) :-0.4812556E+00  (-0.4794273E+00)
 number of electron     468.0000032 magnetization 
 augmentation part       18.7482578 magnetization 

 Broyden mixing:
  rms(total) = 0.91890E+01    rms(broyden)= 0.91890E+01
  rms(prec ) = 0.92967E+01
  weight for this iteration     100.00

 Free energy of the ion-electron system (eV)
  ---------------------------------------------------
  alpha Z        PSCENC =      1198.06820637
  Ewald energy   TEWEN  =     42449.18756494
  -Hartree energ DENC   =    -82137.63661350
  -exchange      EXHF   =         0.00000000
  -V(xc)+E(xc)   XCENC  =      1333.17471851
  PAW double counting   =     34351.68047665   -33677.40238700
  entropy T*S    EENTRO =        -0.00000000
  eigenvalues    EBANDS =     -7092.71920373
  atomic energy  EATOM  =     43161.79194098
  Solvation  Ediel_sol  =         0.00000000
  ---------------------------------------------------
  free energy    TOTEN  =      -413.85529678 eV

  energy without entropy =     -413.85529678  energy(sigma->0) =     -413.85529678


--------------------------------------------------------------------------------------------------------




--------------------------------------- Iteration      1(   6)  ---------------------------------------


    POTLOK:  cpu time      0.1275: real time      0.1287
    SETDIJ:  cpu time      0.0169: real time      0.0172
     EDDAV:  cpu time      6.8697: real time      6.9227
       DOS:  cpu time      0.0298: real time      0.0298
    CHARGE:  cpu time      0.4638: real time      0.4677
    MIXING:  cpu time      0.0298: real time      0.0299
    --------------------------------------------
      LOOP:  cpu time      7.5375: real time      7.5960

 eigenvalue-minimisations  :  8800
 total energy-change (2. order) : 0.1741889E+02  (-0.1178302E+02)
 number of electron     468.0000033 magnetization 
 augmentation part       27.4378571 magnetization 

 Broyden mixing:
  rms(total) = 0.37349E+01    rms(broyden)= 0.37349E+01
  rms(prec ) = 0.38313E+01
  weight for this iteration     100.00

 eigenvalues of (default mixing * dielectric matrix)
  average eigenvalue GAMMA=   1.2554
  1.2554

 Free energy of the ion-electron system (eV)
  ---------------------------------------------------
  alpha Z        PSCENC =      1198.06820637
  Ewald energy   TEWEN  =     42449.18756494
  -Hartree energ DENC   =    -81689.71222932
  -exchange      EXHF   =         0.00000000
  -V(xc)+E(xc)   XCENC  =      1320.98592351
  PAW double counting   =     42000.31990287   -41382.87885551
  entropy T*S    EENTRO =        -0.00000000
  eigenvalues    EBANDS =     -7454.19886449
  atomic energy  EATOM  =     43161.79194098
  Solvation  Ediel_sol  =         0.00000000
  ---------------------------------------------------
  free energy    TOTEN  =      -396.43641064 eV

  energy without entropy =     -396.43641064  energy(sigma->0) =     -396.43641064


--------------------------------------------------------------------------------------------------------




--------------------------------------- Iteration      1(   7)  ---------------------------------------


    POTLOK:  cpu time      0.1256: real time      0.1267
    SETDIJ:  cpu time      0.0153: real time      0.0154
     EDDAV:  cpu time      6.7866: real time      6.8392
       DOS:  cpu time      0.0089: real time      0.0090
    CHARGE:  cpu time      0.4518: real time      0.4555
    MIXING:  cpu time      0.0298: real time      0.0299
    --------------------------------------------
      LOOP:  cpu time      7.4181: real time      7.4756

 eigenvalue-minimisations  :  8679
 total energy-change (2. order) : 0.1453200E+01  (-0.5039458E+01)
 number of electron     468.0000033 magnetization 
 augmentation part       23.0204657 magnetization 

 Broyden mixing:
  rms(total) = 0.20581E+01    rms(broyden)= 0.20581E+01
  rms(prec ) = 0.21642E+01
  weight for this iteration     100.00

 eigenvalues of (default mixing * dielectric matrix)
  average eigenvalue GAMMA=   1.2629
  1.8485  0.6772

 Free energy of the ion-electron system (eV)
  ---------------------------------------------------
  alpha Z        PSCENC =      1198.06820637
  Ewald energy   TEWEN  =     42449.18756494
  -Hartree energ DENC   =    -81974.91665868
  -exchange      EXHF   =         0.00000000
  -V(xc)+E(xc)   XCENC  =      1325.06249192
  PAW double counting   =     48679.00499980   -48061.85108399
  entropy T*S    EENTRO =        -0.00000000
  eigenvalues    EBANDS =     -7171.33067205
  atomic energy  EATOM  =     43161.79194098
  Solvation  Ediel_sol  =         0.00000000
  ---------------------------------------------------
  free energy    TOTEN  =      -394.98321070 eV

  energy without entropy =     -394.98321070  energy(sigma->0) =     -394.98321070


--------------------------------------------------------------------------------------------------------




--------------------------------------- Iteration      1(   8)  ---------------------------------------


    POTLOK:  cpu time      0.1222: real time      0.1237
    SETDIJ:  cpu time      0.0143: real time      0.0143
     EDDAV:  cpu time      6.7759: real time      6.8277
       DOS:  cpu time      0.0020: real time      0.0020
    CHARGE:  cpu time      0.4602: real time      0.4641
    MIXING:  cpu time      0.0307: real time      0.0308
    --------------------------------------------
      LOOP:  cpu time      7.4053: real time      7.4626

 eigenvalue-minimisations  :  8492
 total energy-change (2. order) : 0.3167439E+01  (-0.1209356E+01)
 number of electron     468.0000033 magnetization 
 augmentation part       25.1889955 magnetization 

 Broyden mixing:
  rms(total) = 0.53710E+00    rms(broyden)= 0.53710E+00
  rms(prec ) = 0.56299E+00
  weight for this iteration     100.00

 eigenvalues of (default mixing * dielectric matrix)
  average eigenvalue GAMMA=   1.2086
  2.1379  0.8681  0.6199

 Free energy of the ion-electron system (eV)
  ---------------------------------------------------
  alpha Z        PSCENC =      1198.06820637
  Ewald energy   TEWEN  =     42449.18756494
  -Hartree energ DENC   =    -81831.74601277
  -exchange      EXHF   =         0.00000000
  -V(xc)+E(xc)   XCENC  =      1321.58468241
  PAW double counting   =     52810.55604885   -52213.43844763
  entropy T*S    EENTRO =        -0.00000000
  eigenvalues    EBANDS =     -7287.81975468
  atomic energy  EATOM  =     43161.79194098
  Solvation  Ediel_sol  =         0.00000000
  ---------------------------------------------------
  free energy    TOTEN  =      -391.81577153 eV

  energy without entropy =     -391.81577153  energy(sigma->0) =     -391.81577153


--------------------------------------------------------------------------------------------------------




--------------------------------------- Iteration      1(   9)  ---------------------------------------


    POTLOK:  cpu time      0.1224: real time      0.1237
    SETDIJ:  cpu time      0.0147: real time      0.0147
     EDDAV:  cpu time      7.1362: real time      7.1909
       DOS:  cpu time      0.0021: real time      0.0021
    CHARGE:  cpu time      0.4550: real time      0.4586
    MIXING:  cpu time      0.0267: real time      0.0267
    --------------------------------------------
      LOOP:  cpu time      7.7570: real time      7.8168

 eigenvalue-minimisations  :  9273
 total energy-change (2. order) : 0.9115257E-01  (-0.1269091E+00)
 number of electron     468.0000033 magnetization 
 augmentation part       25.4314113 magnetization 

 Broyden mixing:
  rms(total) = 0.22805E+00    rms(broyden)= 0.22805E+00
  rms(prec ) = 0.24345E+00
  weight for this iteration     100.00

 eigenvalues of (default mixing * dielectric matrix)
  average eigenvalue GAMMA=   1.1612
  2.2136  1.1530  0.6391  0.6391

 Free energy of the ion-electron system (eV)
  ---------------------------------------------------
  alpha Z        PSCENC =      1198.06820637
  Ewald energy   TEWEN  =     42449.18756494
  -Hartree energ DENC   =    -81838.15875727
  -exchange      EXHF   =         0.00000000
  -V(xc)+E(xc)   XCENC  =      1321.86590939
  PAW double counting   =     54222.92558709   -53629.20890452
  entropy T*S    EENTRO =        -0.00000000
  eigenvalues    EBANDS =     -7278.19616595
  atomic energy  EATOM  =     43161.79194098
  Solvation  Ediel_sol  =         0.00000000
  ---------------------------------------------------
  free energy    TOTEN  =      -391.72461896 eV

  energy without entropy =     -391.72461896  energy(sigma->0) =     -391.72461896


--------------------------------------------------------------------------------------------------------




--------------------------------------- Iteration      1(  10)  ---------------------------------------


    POTLOK:  cpu time      0.1228: real time      0.1238
    SETDIJ:  cpu time      0.0141: real time      0.0141
     EDDAV:  cpu time      7.3494: real time      7.4066
       DOS:  cpu time      0.0020: real time      0.0020
    CHARGE:  cpu time      0.4585: real time      0.4624
    MIXING:  cpu time      0.0256: real time      0.0257
    --------------------------------------------
      LOOP:  cpu time      7.9724: real time      8.0345

 eigenvalue-minimisations  :  9416
 total energy-change (2. order) : 0.2578888E-01  (-0.1163038E-01)
 number of electron     468.0000033 magnetization 
 augmentation part       25.3358223 magnetization 

 Broyden mixing:
  rms(total) = 0.11157E+00    rms(broyden)= 0.11157E+00
  rms(prec ) = 0.12849E+00
  weight for this iteration     100.00

 eigenvalues of (default mixing * dielectric matrix)
  average eigenvalue GAMMA=   1.2084
  2.2364  1.5960  0.7645  0.7645  0.6805

 Free energy of the ion-electron system (eV)
  ---------------------------------------------------
  alpha Z        PSCENC =      1198.06820637
  Ewald energy   TEWEN  =     42449.18756494
  -Hartree energ DENC   =    -81855.20832178
  -exchange      EXHF   =         0.00000000
  -V(xc)+E(xc)   XCENC  =      1322.35514229
  PAW double counting   =     54477.51404790   -53883.80609045
  entropy T*S    EENTRO =        -0.00000000
  eigenvalues    EBANDS =     -7261.60132033
  atomic energy  EATOM  =     43161.79194098
  Solvation  Ediel_sol  =         0.00000000
  ---------------------------------------------------
  free energy    TOTEN  =      -391.69883008 eV

  energy without entropy =     -391.69883008  energy(sigma->0) =     -391.69883008


--------------------------------------------------------------------------------------------------------




--------------------------------------- Iteration      1(  11)  ---------------------------------------


    POTLOK:  cpu time      0.1224: real time      0.1237
    SETDIJ:  cpu time      0.0145: real time      0.0145
     EDDAV:  cpu time      7.4785: real time      7.5370
       DOS:  cpu time      0.0019: real time      0.0019
    CHARGE:  cpu time      0.4527: real time      0.4564
    MIXING:  cpu time      0.0263: real time      0.0263
    --------------------------------------------
      LOOP:  cpu time      8.0961: real time      8.1598

 eigenvalue-minimisations  :  9801
 total energy-change (2. order) : 0.1837709E-01  (-0.3514593E-02)
 number of electron     468.0000033 magnetization 
 augmentation part       25.2345299 magnetization 

 Broyden mixing:
  rms(total) = 0.44047E-01    rms(broyden)= 0.44047E-01
  rms(prec ) = 0.67475E-01
  weight for this iteration     100.00

 eigenvalues of (default mixing * dielectric matrix)
  average eigenvalue GAMMA=   1.1920
  2.2468  1.8583  0.9738  0.7119  0.7119  0.6493

 Free energy of the ion-electron system (eV)
  ---------------------------------------------------
  alpha Z        PSCENC =      1198.06820637
  Ewald energy   TEWEN  =     42449.18756494
  -Hartree energ DENC   =    -81872.29379884
  -exchange      EXHF   =         0.00000000
  -V(xc)+E(xc)   XCENC  =      1322.74124983
  PAW double counting   =     54506.78070809   -53912.58083014
  entropy T*S    EENTRO =        -0.00000000
  eigenvalues    EBANDS =     -7245.37549422
  atomic energy  EATOM  =     43161.79194098
  Solvation  Ediel_sol  =         0.00000000
  ---------------------------------------------------
  free energy    TOTEN  =      -391.68045298 eV

  energy without entropy =     -391.68045298  energy(sigma->0) =     -391.68045298


--------------------------------------------------------------------------------------------------------




--------------------------------------- Iteration      1(  12)  ---------------------------------------


    POTLOK:  cpu time      0.1227: real time      0.1239
    SETDIJ:  cpu time      0.0142: real time      0.0142
     EDDAV:  cpu time      6.9876: real time      7.0412
       DOS:  cpu time      0.0019: real time      0.0019
    CHARGE:  cpu time      0.4582: real time      0.4621
    MIXING:  cpu time      0.0267: real time      0.0268
    --------------------------------------------
      LOOP:  cpu time      7.6114: real time      7.6701

 eigenvalue-minimisations  :  8965
 total energy-change (2. order) : 0.7481447E-02  (-0.1760920E-02)
 number of electron     468.0000033 magnetization 
 augmentation part       25.2249386 magnetization 

 Broyden mixing:
  rms(total) = 0.33141E-01    rms(broyden)= 0.33140E-01
  rms(prec ) = 0.56911E-01
  weight for this iteration     100.00

 eigenvalues of (default mixing * dielectric matrix)
  average eigenvalue GAMMA=   1.2024
  2.2759  2.2759  1.2698  0.7573  0.7573  0.6700  0.4107

 Free energy of the ion-electron system (eV)
  ---------------------------------------------------
  alpha Z        PSCENC =      1198.06820637
  Ewald energy   TEWEN  =     42449.18756494
  -Hartree energ DENC   =    -81879.92624088
  -exchange      EXHF   =         0.00000000
  -V(xc)+E(xc)   XCENC  =      1322.85273080
  PAW double counting   =     54508.27248971   -53913.99140583
  entropy T*S    EENTRO =        -0.00000000
  eigenvalues    EBANDS =     -7237.92825762
  atomic energy  EATOM  =     43161.79194098
  Solvation  Ediel_sol  =         0.00000000
  ---------------------------------------------------
  free energy    TOTEN  =      -391.67297153 eV

  energy without entropy =     -391.67297153  energy(sigma->0) =     -391.67297153


--------------------------------------------------------------------------------------------------------




--------------------------------------- Iteration      1(  13)  ---------------------------------------


    POTLOK:  cpu time      0.1229: real time      0.1244
    SETDIJ:  cpu time      0.0137: real time      0.0137
     EDDAV:  cpu time      7.2443: real time      7.2996
       DOS:  cpu time      0.0018: real time      0.0018
    CHARGE:  cpu time      0.4526: real time      0.4563
    MIXING:  cpu time      0.0262: real time      0.0263
    --------------------------------------------
      LOOP:  cpu time      7.8615: real time      7.9221

 eigenvalue-minimisations  :  9680
 total energy-change (2. order) : 0.1007234E-01  (-0.6948597E-03)
 number of electron     468.0000033 magnetization 
 augmentation part       25.2306122 magnetization 

 Broyden mixing:
  rms(total) = 0.15552E-01    rms(broyden)= 0.15551E-01
  rms(prec ) = 0.39493E-01
  weight for this iteration     100.00

 eigenvalues of (default mixing * dielectric matrix)
  average eigenvalue GAMMA=   1.2335
  2.4059  2.4059  1.4944  0.9668  0.7868  0.7084  0.7084  0.3912

 Free energy of the ion-electron system (eV)
  ---------------------------------------------------
  alpha Z        PSCENC =      1198.06820637
  Ewald energy   TEWEN  =     42449.18756494
  -Hartree energ DENC   =    -81889.33079567
  -exchange      EXHF   =         0.00000000
  -V(xc)+E(xc)   XCENC  =      1322.95114932
  PAW double counting   =     54490.43454363   -53896.11249858
  entropy T*S    EENTRO =        -0.00000000
  eigenvalues    EBANDS =     -7228.65301019
  atomic energy  EATOM  =     43161.79194098
  Solvation  Ediel_sol  =         0.00000000
  ---------------------------------------------------
  free energy    TOTEN  =      -391.66289920 eV

  energy without entropy =     -391.66289920  energy(sigma->0) =     -391.66289920


--------------------------------------------------------------------------------------------------------




--------------------------------------- Iteration      1(  14)  ---------------------------------------


    POTLOK:  cpu time      0.1228: real time      0.1240
    SETDIJ:  cpu time      0.0138: real time      0.0138
     EDDAV:  cpu time      7.2236: real time      7.2797
       DOS:  cpu time      0.0018: real time      0.0018
    CHARGE:  cpu time      0.4580: real time      0.4618
    MIXING:  cpu time      0.0264: real time      0.0265
    --------------------------------------------
      LOOP:  cpu time      7.8464: real time      7.9077

 eigenvalue-minimisations  :  9438
 total energy-change (2. order) : 0.7085159E-02  (-0.5483195E-03)
 number of electron     468.0000033 magnetization 
 augmentation part       25.2395341 magnetization 

 Broyden mixing:
  rms(total) = 0.15756E-01    rms(broyden)= 0.15756E-01
  rms(prec ) = 0.33317E-01
  weight for this iteration     100.00

 eigenvalues of (default mixing * dielectric matrix)
  average eigenvalue GAMMA=   1.2159
  2.5537  2.5537  1.6708  1.1281  0.7248  0.7248  0.7156  0.4856  0.3860

 Free energy of the ion-electron system (eV)
  ---------------------------------------------------
  alpha Z        PSCENC =      1198.06820637
  Ewald energy   TEWEN  =     42449.18756494
  -Hartree energ DENC   =    -81901.23710147
  -exchange      EXHF   =         0.00000000
  -V(xc)+E(xc)   XCENC  =      1323.02166939
  PAW double counting   =     54461.56296473   -53867.23860788
  entropy T*S    EENTRO =        -0.00000000
  eigenvalues    EBANDS =     -7216.81245110
  atomic energy  EATOM  =     43161.79194098
  Solvation  Ediel_sol  =         0.00000000
  ---------------------------------------------------
  free energy    TOTEN  =      -391.65581404 eV

  energy without entropy =     -391.65581404  energy(sigma->0) =     -391.65581404


--------------------------------------------------------------------------------------------------------




--------------------------------------- Iteration      1(  15)  ---------------------------------------


    POTLOK:  cpu time      0.1227: real time      0.1246
    SETDIJ:  cpu time      0.0129: real time      0.0130
     EDDAV:  cpu time      7.0197: real time      7.0739
       DOS:  cpu time      0.0021: real time      0.0021
    CHARGE:  cpu time      0.4528: real time      0.4565
    MIXING:  cpu time      0.0255: real time      0.0255
    --------------------------------------------
      LOOP:  cpu time      7.6357: real time      7.6956

 eigenvalue-minimisations  :  9240
 total energy-change (2. order) : 0.4150336E-02  (-0.5338810E-03)
 number of electron     468.0000033 magnetization 
 augmentation part       25.2460481 magnetization 

 Broyden mixing:
  rms(total) = 0.12857E-01    rms(broyden)= 0.12857E-01
  rms(prec ) = 0.25522E-01
  weight for this iteration     100.00

 eigenvalues of (default mixing * dielectric matrix)
  average eigenvalue GAMMA=   1.2274
  3.0766  2.4500  1.8342  1.2237  0.7609  0.7609  0.6713  0.6713  0.3814  0.4438

 Free energy of the ion-electron system (eV)
  ---------------------------------------------------
  alpha Z        PSCENC =      1198.06820637
  Ewald energy   TEWEN  =     42449.18756494
  -Hartree energ DENC   =    -81912.15064051
  -exchange      EXHF   =         0.00000000
  -V(xc)+E(xc)   XCENC  =      1323.08520724
  PAW double counting   =     54448.26559118   -53853.95524450
  entropy T*S    EENTRO =        -0.00000000
  eigenvalues    EBANDS =     -7205.94428941
  atomic energy  EATOM  =     43161.79194098
  Solvation  Ediel_sol  =         0.00000000
  ---------------------------------------------------
  free energy    TOTEN  =      -391.65166370 eV

  energy without entropy =     -391.65166370  energy(sigma->0) =     -391.65166370


--------------------------------------------------------------------------------------------------------




--------------------------------------- Iteration      1(  16)  ---------------------------------------


    POTLOK:  cpu time      0.1226: real time      0.1238
    SETDIJ:  cpu time      0.0140: real time      0.0141
     EDDAV:  cpu time      7.0845: real time      7.1384
       DOS:  cpu time      0.0020: real time      0.0020
    CHARGE:  cpu time      0.4585: real time      0.4622
    MIXING:  cpu time      0.0267: real time      0.0268
    --------------------------------------------
      LOOP:  cpu time      7.7084: real time      7.7674

 eigenvalue-minimisations  :  9229
 total energy-change (2. order) : 0.1636361E-02  (-0.3459087E-03)
 number of electron     468.0000033 magnetization 
 augmentation part       25.2505211 magnetization 

 Broyden mixing:
  rms(total) = 0.10729E-01    rms(broyden)= 0.10729E-01
  rms(prec ) = 0.17875E-01
  weight for this iteration     100.00

 eigenvalues of (default mixing * dielectric matrix)
  average eigenvalue GAMMA=   1.3122
  3.6437  2.2355  2.2355  1.1381  1.1381  1.1039  0.7298  0.7298  0.6797  0.3858
  0.4137

 Free energy of the ion-electron system (eV)
  ---------------------------------------------------
  alpha Z        PSCENC =      1198.06820637
  Ewald energy   TEWEN  =     42449.18756494
  -Hartree energ DENC   =    -81925.19883003
  -exchange      EXHF   =         0.00000000
  -V(xc)+E(xc)   XCENC  =      1323.15870638
  PAW double counting   =     54453.15909694   -53858.89380592
  entropy T*S    EENTRO =        -0.00000000
  eigenvalues    EBANDS =     -7192.92290701
  atomic energy  EATOM  =     43161.79194098
  Solvation  Ediel_sol  =         0.00000000
  ---------------------------------------------------
  free energy    TOTEN  =      -391.65002734 eV

  energy without entropy =     -391.65002734  energy(sigma->0) =     -391.65002734


--------------------------------------------------------------------------------------------------------




--------------------------------------- Iteration      1(  17)  ---------------------------------------


    POTLOK:  cpu time      0.1227: real time      0.1241
    SETDIJ:  cpu time      0.0135: real time      0.0136
     EDDAV:  cpu time      6.9771: real time      7.0306
       DOS:  cpu time      0.0017: real time      0.0017
    CHARGE:  cpu time      0.4520: real time      0.4557
    MIXING:  cpu time      0.0264: real time      0.0265
    --------------------------------------------
      LOOP:  cpu time      7.5935: real time      7.6522

 eigenvalue-minimisations  :  8965
 total energy-change (2. order) :-0.1996820E-02  (-0.2849261E-03)
 number of electron     468.0000033 magnetization 
 augmentation part       25.2532288 magnetization 

 Broyden mixing:
  rms(total) = 0.10115E-01    rms(broyden)= 0.10115E-01
  rms(prec ) = 0.13811E-01
  weight for this iteration     100.00

 eigenvalues of (default mixing * dielectric matrix)
  average eigenvalue GAMMA=   1.3532
  4.0215  2.4474  2.4474  1.4585  1.4585  0.8822  0.7451  0.7451  0.6708  0.5683
  0.4098  0.3837

 Free energy of the ion-electron system (eV)
  ---------------------------------------------------
  alpha Z        PSCENC =      1198.06820637
  Ewald energy   TEWEN  =     42449.18756494
  -Hartree energ DENC   =    -81935.00075556
  -exchange      EXHF   =         0.00000000
  -V(xc)+E(xc)   XCENC  =      1323.19102989
  PAW double counting   =     54468.55487571   -53874.33900991
  entropy T*S    EENTRO =        -0.00000000
  eigenvalues    EBANDS =     -7183.10587659
  atomic energy  EATOM  =     43161.79194098
  Solvation  Ediel_sol  =         0.00000000
  ---------------------------------------------------
  free energy    TOTEN  =      -391.65202416 eV

  energy without entropy =     -391.65202416  energy(sigma->0) =     -391.65202416


--------------------------------------------------------------------------------------------------------




--------------------------------------- Iteration      1(  18)  ---------------------------------------


    POTLOK:  cpu time      0.1224: real time      0.1237
    SETDIJ:  cpu time      0.0139: real time      0.0140
     EDDAV:  cpu time      7.1961: real time      7.2532
       DOS:  cpu time      0.0014: real time      0.0014
    CHARGE:  cpu time      0.4586: real time      0.4625
    MIXING:  cpu time      0.0264: real time      0.0265
    --------------------------------------------
      LOOP:  cpu time      7.8187: real time      7.8812

 eigenvalue-minimisations  :  9306
 total energy-change (2. order) :-0.2103658E-02  (-0.7456817E-04)
 number of electron     468.0000033 magnetization 
 augmentation part       25.2494884 magnetization 

 Broyden mixing:
  rms(total) = 0.73281E-02    rms(broyden)= 0.73280E-02
  rms(prec ) = 0.99010E-02
  weight for this iteration     100.00

 eigenvalues of (default mixing * dielectric matrix)
  average eigenvalue GAMMA=   1.4055
  5.0948  2.6831  2.1159  1.5337  1.5337  0.8872  0.8872  0.7440  0.7440  0.7234
  0.5272  0.3839  0.4141

 Free energy of the ion-electron system (eV)
  ---------------------------------------------------
  alpha Z        PSCENC =      1198.06820637
  Ewald energy   TEWEN  =     42449.18756494
  -Hartree energ DENC   =    -81939.86356642
  -exchange      EXHF   =         0.00000000
  -V(xc)+E(xc)   XCENC  =      1323.20176974
  PAW double counting   =     54466.57389980   -53872.35168073
  entropy T*S    EENTRO =        -0.00000000
  eigenvalues    EBANDS =     -7178.26226249
  atomic energy  EATOM  =     43161.79194098
  Solvation  Ediel_sol  =         0.00000000
  ---------------------------------------------------
  free energy    TOTEN  =      -391.65412782 eV

  energy without entropy =     -391.65412782  energy(sigma->0) =     -391.65412782


--------------------------------------------------------------------------------------------------------




--------------------------------------- Iteration      1(  19)  ---------------------------------------


    POTLOK:  cpu time      0.1230: real time      0.1242
    SETDIJ:  cpu time      0.0137: real time      0.0137
     EDDAV:  cpu time      6.8409: real time      6.8926
       DOS:  cpu time      0.0019: real time      0.0019
    CHARGE:  cpu time      0.4529: real time      0.4566
    MIXING:  cpu time      0.0256: real time      0.0257
    --------------------------------------------
      LOOP:  cpu time      7.4580: real time      7.5147

 eigenvalue-minimisations  :  8701
 total energy-change (2. order) :-0.1799739E-02  (-0.2216378E-04)
 number of electron     468.0000033 magnetization 
 augmentation part       25.2465954 magnetization 

 Broyden mixing:
  rms(total) = 0.44498E-02    rms(broyden)= 0.44498E-02
  rms(prec ) = 0.66197E-02
  weight for this iteration     100.00

 eigenvalues of (default mixing * dielectric matrix)
  average eigenvalue GAMMA=   1.6382
  7.7643  2.6837  2.1713  2.1713  1.7546  1.0491  1.0491  0.7460  0.7460  0.7826
  0.7071  0.5138  0.3839  0.4123

 Free energy of the ion-electron system (eV)
  ---------------------------------------------------
  alpha Z        PSCENC =      1198.06820637
  Ewald energy   TEWEN  =     42449.18756494
  -Hartree energ DENC   =    -81943.57941913
  -exchange      EXHF   =         0.00000000
  -V(xc)+E(xc)   XCENC  =      1323.21448519
  PAW double counting   =     54447.30731505   -53853.04734146
  entropy T*S    EENTRO =        -0.00000000
  eigenvalues    EBANDS =     -7174.59867951
  atomic energy  EATOM  =     43161.79194098
  Solvation  Ediel_sol  =         0.00000000
  ---------------------------------------------------
  free energy    TOTEN  =      -391.65592756 eV

  energy without entropy =     -391.65592756  energy(sigma->0) =     -391.65592756


--------------------------------------------------------------------------------------------------------




--------------------------------------- Iteration      1(  20)  ---------------------------------------


    POTLOK:  cpu time      0.1231: real time      0.1242
    SETDIJ:  cpu time      0.0132: real time      0.0133
     EDDAV:  cpu time      6.7045: real time      6.7550
       DOS:  cpu time      0.0019: real time      0.0019
    CHARGE:  cpu time      0.4589: real time      0.4628
    MIXING:  cpu time      0.0266: real time      0.0268
    --------------------------------------------
      LOOP:  cpu time      7.3282: real time      7.3840

 eigenvalue-minimisations  :  8602
 total energy-change (2. order) :-0.2668640E-02  (-0.2702369E-04)
 number of electron     468.0000033 magnetization 
 augmentation part       25.2472874 magnetization 

 Broyden mixing:
  rms(total) = 0.29216E-02    rms(broyden)= 0.29216E-02
  rms(prec ) = 0.41137E-02
  weight for this iteration     100.00

 eigenvalues of (default mixing * dielectric matrix)
  average eigenvalue GAMMA=   1.7023
  9.3787  2.7833  2.2995  2.2995  1.6060  1.1927  0.9894  0.7697  0.7697  0.7201
  0.7201  0.6912  0.5193  0.3839  0.4122

 Free energy of the ion-electron system (eV)
  ---------------------------------------------------
  alpha Z        PSCENC =      1198.06820637
  Ewald energy   TEWEN  =     42449.18756494
  -Hartree energ DENC   =    -81947.66130544
  -exchange      EXHF   =         0.00000000
  -V(xc)+E(xc)   XCENC  =      1323.22409499
  PAW double counting   =     54442.06037783   -53847.80421471
  entropy T*S    EENTRO =        -0.00000000
  eigenvalues    EBANDS =     -7170.52526118
  atomic energy  EATOM  =     43161.79194098
  Solvation  Ediel_sol  =         0.00000000
  ---------------------------------------------------
  free energy    TOTEN  =      -391.65859620 eV

  energy without entropy =     -391.65859620  energy(sigma->0) =     -391.65859620


--------------------------------------------------------------------------------------------------------




--------------------------------------- Iteration      1(  21)  ---------------------------------------


    POTLOK:  cpu time      0.1227: real time      0.1240
    SETDIJ:  cpu time      0.0136: real time      0.0136
     EDDAV:  cpu time      6.9470: real time      7.0002
       DOS:  cpu time      0.0017: real time      0.0017
    CHARGE:  cpu time      0.4521: real time      0.4556
    MIXING:  cpu time      0.0267: real time      0.0268
    --------------------------------------------
      LOOP:  cpu time      7.5638: real time      7.6220

 eigenvalue-minimisations  :  8910
 total energy-change (2. order) :-0.8546538E-03  (-0.6910848E-05)
 number of electron     468.0000033 magnetization 
 augmentation part       25.2466580 magnetization 

 Broyden mixing:
  rms(total) = 0.21847E-02    rms(broyden)= 0.21847E-02
  rms(prec ) = 0.30664E-02
  weight for this iteration     100.00

 eigenvalues of (default mixing * dielectric matrix)
  average eigenvalue GAMMA=   1.7054
 10.0340  2.9866  2.5026  2.0851  1.4043  1.4043  1.0693  0.9076  0.9076  0.7335
  0.7335  0.6885  0.3839  0.4123  0.5427  0.4901

 Free energy of the ion-electron system (eV)
  ---------------------------------------------------
  alpha Z        PSCENC =      1198.06820637
  Ewald energy   TEWEN  =     42449.18756494
  -Hartree energ DENC   =    -81948.72585781
  -exchange      EXHF   =         0.00000000
  -V(xc)+E(xc)   XCENC  =      1323.22522554
  PAW double counting   =     54446.04874157   -53851.79944747
  entropy T*S    EENTRO =        -0.00000000
  eigenvalues    EBANDS =     -7169.45582498
  atomic energy  EATOM  =     43161.79194098
  Solvation  Ediel_sol  =         0.00000000
  ---------------------------------------------------
  free energy    TOTEN  =      -391.65945085 eV

  energy without entropy =     -391.65945085  energy(sigma->0) =     -391.65945085


--------------------------------------------------------------------------------------------------------




--------------------------------------- Iteration      1(  22)  ---------------------------------------


    POTLOK:  cpu time      0.1228: real time      0.1243
    SETDIJ:  cpu time      0.0138: real time      0.0138
     EDDAV:  cpu time      6.6312: real time      6.6832
       DOS:  cpu time      0.0019: real time      0.0019
    CHARGE:  cpu time      0.4580: real time      0.4620
    MIXING:  cpu time      0.0266: real time      0.0267
    --------------------------------------------
      LOOP:  cpu time      7.2544: real time      7.3120

 eigenvalue-minimisations  :  8459
 total energy-change (2. order) :-0.4309264E-03  (-0.3220195E-05)
 number of electron     468.0000033 magnetization 
 augmentation part       25.2461613 magnetization 

 Broyden mixing:
  rms(total) = 0.13240E-02    rms(broyden)= 0.13240E-02
  rms(prec ) = 0.20854E-02
  weight for this iteration     100.00

 eigenvalues of (default mixing * dielectric matrix)
  average eigenvalue GAMMA=   1.7676
 10.9064  3.3381  2.5325  2.0056  1.7573  1.7573  1.1709  0.9482  0.9482  0.7526
  0.7526  0.6901  0.6901  0.3839  0.4123  0.5213  0.4807

 Free energy of the ion-electron system (eV)
  ---------------------------------------------------
  alpha Z        PSCENC =      1198.06820637
  Ewald energy   TEWEN  =     42449.18756494
  -Hartree energ DENC   =    -81949.18472777
  -exchange      EXHF   =         0.00000000
  -V(xc)+E(xc)   XCENC  =      1323.22438666
  PAW double counting   =     54451.15645386   -53856.91289400
  entropy T*S    EENTRO =        -0.00000000
  eigenvalues    EBANDS =     -7168.99081282
  atomic energy  EATOM  =     43161.79194098
  Solvation  Ediel_sol  =         0.00000000
  ---------------------------------------------------
  free energy    TOTEN  =      -391.65988178 eV

  energy without entropy =     -391.65988178  energy(sigma->0) =     -391.65988178


--------------------------------------------------------------------------------------------------------




--------------------------------------- Iteration      1(  23)  ---------------------------------------


    POTLOK:  cpu time      0.1231: real time      0.1243
    SETDIJ:  cpu time      0.0134: real time      0.0134
     EDDAV:  cpu time      6.8372: real time      6.8888
       DOS:  cpu time      0.0018: real time      0.0018
    CHARGE:  cpu time      0.4525: real time      0.4562
    MIXING:  cpu time      0.0262: real time      0.0263
    --------------------------------------------
      LOOP:  cpu time      7.4543: real time      7.5108

 eigenvalue-minimisations  :  8767
 total energy-change (2. order) :-0.3033214E-03  (-0.3657347E-05)
 number of electron     468.0000033 magnetization 
 augmentation part       25.2463238 magnetization 

 Broyden mixing:
  rms(total) = 0.15180E-02    rms(broyden)= 0.15180E-02
  rms(prec ) = 0.18989E-02
  weight for this iteration     100.00

 eigenvalues of (default mixing * dielectric matrix)
  average eigenvalue GAMMA=   1.8733
 12.5910  4.1728  2.4131  2.4131  1.9988  1.7252  1.2351  0.8911  0.8911  0.8887
  0.7395  0.7395  0.7253  0.5594  0.5130  0.3839  0.4124  0.4260

 Free energy of the ion-electron system (eV)
  ---------------------------------------------------
  alpha Z        PSCENC =      1198.06820637
  Ewald energy   TEWEN  =     42449.18756494
  -Hartree energ DENC   =    -81949.72404325
  -exchange      EXHF   =         0.00000000
  -V(xc)+E(xc)   XCENC  =      1323.22371289
  PAW double counting   =     54451.70165510   -53857.45776106
  entropy T*S    EENTRO =        -0.00000000
  eigenvalues    EBANDS =     -7168.45146107
  atomic energy  EATOM  =     43161.79194098
  Solvation  Ediel_sol  =         0.00000000
  ---------------------------------------------------
  free energy    TOTEN  =      -391.66018510 eV

  energy without entropy =     -391.66018510  energy(sigma->0) =     -391.66018510


--------------------------------------------------------------------------------------------------------




--------------------------------------- Iteration      1(  24)  ---------------------------------------


    POTLOK:  cpu time      0.1226: real time      0.1237
    SETDIJ:  cpu time      0.0138: real time      0.0139
     EDDAV:  cpu time      6.1685: real time      6.2158
       DOS:  cpu time      0.0016: real time      0.0016
    CHARGE:  cpu time      0.4587: real time      0.4625
    MIXING:  cpu time      0.0253: real time      0.0254
    --------------------------------------------
      LOOP:  cpu time      6.7905: real time      6.8429

 eigenvalue-minimisations  :  7634
 total energy-change (2. order) :-0.2930682E-04  (-0.5657935E-05)
 number of electron     468.0000033 magnetization 
 augmentation part       25.2468405 magnetization 

 Broyden mixing:
  rms(total) = 0.13892E-02    rms(broyden)= 0.13892E-02
  rms(prec ) = 0.15379E-02
  weight for this iteration     100.00

 eigenvalues of (default mixing * dielectric matrix)
  average eigenvalue GAMMA=   1.8527
 12.8966  4.2925  2.5656  2.5656  1.9921  1.5897  1.0806  1.0806  1.0009  1.0009
  0.7354  0.7354  0.6987  0.6987  0.5465  0.5040  0.3839  0.4123  0.4214

 Free energy of the ion-electron system (eV)
  ---------------------------------------------------
  alpha Z        PSCENC =      1198.06820637
  Ewald energy   TEWEN  =     42449.18756494
  -Hartree energ DENC   =    -81950.20146244
  -exchange      EXHF   =         0.00000000
  -V(xc)+E(xc)   XCENC  =      1323.22433914
  PAW double counting   =     54449.22111178   -53854.97443047
  entropy T*S    EENTRO =        -0.00000000
  eigenvalues    EBANDS =     -7167.97748471
  atomic energy  EATOM  =     43161.79194098
  Solvation  Ediel_sol  =         0.00000000
  ---------------------------------------------------
  free energy    TOTEN  =      -391.66021441 eV

  energy without entropy =     -391.66021441  energy(sigma->0) =     -391.66021441


--------------------------------------------------------------------------------------------------------




--------------------------------------- Iteration      1(  25)  ---------------------------------------


    POTLOK:  cpu time      0.1224: real time      0.1237
    SETDIJ:  cpu time      0.0142: real time      0.0142
     EDDAV:  cpu time      6.6427: real time      6.6931
       DOS:  cpu time      0.0015: real time      0.0015
    CHARGE:  cpu time      0.4527: real time      0.4565
    MIXING:  cpu time      0.0270: real time      0.0271
    --------------------------------------------
      LOOP:  cpu time      7.2605: real time      7.3161

 eigenvalue-minimisations  :  8371
 total energy-change (2. order) : 0.1545157E-04  (-0.1360449E-05)
 number of electron     468.0000033 magnetization 
 augmentation part       25.2471192 magnetization 

 Broyden mixing:
  rms(total) = 0.76968E-03    rms(broyden)= 0.76968E-03
  rms(prec ) = 0.93067E-03
  weight for this iteration     100.00

 eigenvalues of (default mixing * dielectric matrix)
  average eigenvalue GAMMA=   1.8534
 13.1438  4.4794  2.7153  2.7153  2.1222  1.5749  1.2030  1.2030  1.0914  1.0914
  0.7466  0.7466  0.6903  0.6903  0.5738  0.5738  0.4905  0.3839  0.4123  0.4210

 Free energy of the ion-electron system (eV)
  ---------------------------------------------------
  alpha Z        PSCENC =      1198.06820637
  Ewald energy   TEWEN  =     42449.18756494
  -Hartree energ DENC   =    -81950.43109234
  -exchange      EXHF   =         0.00000000
  -V(xc)+E(xc)   XCENC  =      1323.22601563
  PAW double counting   =     54446.99983442   -53852.75212783
  entropy T*S    EENTRO =        -0.00000000
  eigenvalues    EBANDS =     -7167.75054113
  atomic energy  EATOM  =     43161.79194098
  Solvation  Ediel_sol  =         0.00000000
  ---------------------------------------------------
  free energy    TOTEN  =      -391.66019896 eV

  energy without entropy =     -391.66019896  energy(sigma->0) =     -391.66019896


--------------------------------------------------------------------------------------------------------




--------------------------------------- Iteration      1(  26)  ---------------------------------------


    POTLOK:  cpu time      0.1225: real time      0.1237
    SETDIJ:  cpu time      0.0143: real time      0.0143
     EDDAV:  cpu time      5.3353: real time      5.3767
       DOS:  cpu time      0.0020: real time      0.0020
    CHARGE:  cpu time      0.4588: real time      0.4626
    MIXING:  cpu time      0.0270: real time      0.0271
    --------------------------------------------
      LOOP:  cpu time      5.9599: real time      6.0064

 eigenvalue-minimisations  :  6259
 total energy-change (2. order) : 0.4918926E-05  (-0.1546647E-06)
 number of electron     468.0000033 magnetization 
 augmentation part       25.2471774 magnetization 

 Broyden mixing:
  rms(total) = 0.39224E-03    rms(broyden)= 0.39223E-03
  rms(prec ) = 0.55552E-03
  weight for this iteration     100.00

 eigenvalues of (default mixing * dielectric matrix)
  average eigenvalue GAMMA=   1.8698
 13.5076  4.9989  2.9382  2.4881  2.3112  1.6614  1.3377  1.3377  1.0999  1.0999
  0.7949  0.7949  0.7246  0.7246  0.6887  0.5671  0.5037  0.4831  0.3839  0.4122
  0.4081

 Free energy of the ion-electron system (eV)
  ---------------------------------------------------
  alpha Z        PSCENC =      1198.06820637
  Ewald energy   TEWEN  =     42449.18756494
  -Hartree energ DENC   =    -81950.52822907
  -exchange      EXHF   =         0.00000000
  -V(xc)+E(xc)   XCENC  =      1323.22712997
  PAW double counting   =     54446.70778084   -53852.46085069
  entropy T*S    EENTRO =        -0.00000000
  eigenvalues    EBANDS =     -7167.65373738
  atomic energy  EATOM  =     43161.79194098
  Solvation  Ediel_sol  =         0.00000000
  ---------------------------------------------------
  free energy    TOTEN  =      -391.66019404 eV

  energy without entropy =     -391.66019404  energy(sigma->0) =     -391.66019404


--------------------------------------------------------------------------------------------------------




--------------------------------------- Iteration      1(  27)  ---------------------------------------


    POTLOK:  cpu time      0.1222: real time      0.1234
    SETDIJ:  cpu time      0.0144: real time      0.0144
     EDDAV:  cpu time      5.2633: real time      5.3051
       DOS:  cpu time      0.0018: real time      0.0018
    --------------------------------------------
      LOOP:  cpu time      5.4018: real time      5.4448

 eigenvalue-minimisations  :  6028
 total energy-change (2. order) :-0.3108435E-06  (-0.9018878E-07)
 number of electron     468.0000033 magnetization 
 augmentation part       25.2471774 magnetization 

 Free energy of the ion-electron system (eV)
  ---------------------------------------------------
  alpha Z        PSCENC =      1198.06820637
  Ewald energy   TEWEN  =     42449.18756494
  -Hartree energ DENC   =    -81950.55928457
  -exchange      EXHF   =         0.00000000
  -V(xc)+E(xc)   XCENC  =      1323.22780630
  PAW double counting   =     54447.03992068   -53852.79385897
  entropy T*S    EENTRO =        -0.00000000
  eigenvalues    EBANDS =     -7167.62249009
  atomic energy  EATOM  =     43161.79194098
  Solvation  Ediel_sol  =         0.00000000
  ---------------------------------------------------
  free energy    TOTEN  =      -391.66019435 eV

  energy without entropy =     -391.66019435  energy(sigma->0) =     -391.66019435


--------------------------------------------------------------------------------------------------------




 average (electrostatic) potential at core
  the test charge radii are     1.0818  1.0808  1.1823  0.9698
  (the norm of the test charge is              1.0000)
       1 -79.3922       2 -79.3921       3 -79.3922       4 -79.3921       5 -79.3921
       6 -79.3920       7 -79.3922       8 -79.3923       9 -79.3921      10 -55.9791
      11 -55.9791      12 -55.9791      13 -55.9791      14 -55.9791      15 -55.9791
      16 -55.9791      17 -55.9791      18 -55.9791      19 -55.9929      20 -55.9927
      21 -55.9931      22 -55.9927      23 -55.9927      24 -55.9927      25 -55.9930
      26 -55.9927      27 -55.9927      28 -70.5086      29 -70.5061      30 -70.5072
      31 -70.5061      32 -70.5061      33 -70.5059      34 -70.5079      35 -70.5059
      36 -70.5059      37 -89.8151      38 -89.8199      39 -89.8205      40 -89.8200
      41 -89.8198      42 -89.8204      43 -89.8203      44 -89.8200      45 -89.8198
      46 -89.7907      47 -89.7904      48 -89.7898      49 -89.7905      50 -89.7900
      51 -89.7897      52 -89.7902      53 -89.7899      54 -89.7897
 
 
 
 E-fermi :   2.6485     XC(G=0):  -7.2332     alpha+bet : -7.8559

 val. band max:        2.3045554136   @ k =   0.0000   0.0000   0.0000
 cond. band min:       3.1660391560   @ k =   0.0000   0.0000   0.0000
 fundamental gap:      0.8614837424
 Fermi energy:         2.6485414158

 k-point     1 :       0.0000    0.0000    0.0000
  band No.  band energies     occupation 
      1     -72.4553      2.00000
      2     -72.4473      2.00000
      3     -72.4468      2.00000
      4     -72.4464      2.00000
      5     -72.4457      2.00000
      6     -72.4457      2.00000
      7     -72.4457      2.00000
      8     -72.4417      2.00000
      9     -72.4415      2.00000
     10     -58.6508      2.00000
     11     -58.6298      2.00000
     12     -58.6297      2.00000
     13     -58.6297      2.00000
     14     -58.6297      2.00000
     15     -58.6296      2.00000
     16     -58.6296      2.00000
     17     -58.6192      2.00000
     18     -58.6191      2.00000
     19     -36.7618      2.00000
     20     -36.7616      2.00000
     21     -36.7612      2.00000
     22     -36.7611      2.00000
     23     -36.7610      2.00000
     24     -36.7610      2.00000
     25     -36.7607      2.00000
     26     -36.7603      2.00000
     27     -36.7325      2.00000
     28     -36.7324      2.00000
     29     -36.6402      2.00000
     30     -36.6107      2.00000
     31     -36.6100      2.00000
     32     -36.6099      2.00000
     33     -36.6099      2.00000
     34     -36.6098      2.00000
     35     -36.6096      2.00000
     36     -36.6048      2.00000
     37     -36.6048      2.00000
     38     -36.6047      2.00000
     39     -36.6040      2.00000
     40     -36.6040      2.00000
     41     -36.6040      2.00000
     42     -36.5864      2.00000
     43     -36.5864      2.00000
     44     -36.5631      2.00000
     45     -36.5630      2.00000
     46     -32.8378      2.00000
     47     -32.8307      2.00000
     48     -32.8307      2.00000
     49     -32.8307      2.00000
     50     -32.8307      2.00000
     51     -32.8306      2.00000
     52     -32.8306      2.00000
     53     -32.8299      2.00000
     54     -32.8299      2.00000
     55     -32.7969      2.00000
     56     -32.7969      2.00000
     57     -32.7909      2.00000
     58     -32.7908      2.00000
     59     -32.7908      2.00000
     60     -32.7907      2.00000
     61     -32.7907      2.00000
     62     -32.7907      2.00000
     63     -32.7672      2.00000
     64     -32.7672      2.00000
     65     -32.6601      2.00000
     66     -32.6601      2.00000
     67     -32.6601      2.00000
     68     -32.6600      2.00000
     69     -32.6600      2.00000
     70     -32.6600      2.00000
     71     -32.6087      2.00000
     72     -32.6087      2.00000
     73     -12.9417      2.00000
     74     -12.2485      2.00000
     75     -11.6083      2.00000
     76     -11.6082      2.00000
     77     -11.6081      2.00000
     78     -11.6080      2.00000
     79     -11.6079      2.00000
     80     -11.5973      2.00000
     81     -11.3839      2.00000
     82     -11.1377      2.00000
     83     -10.9552      2.00000
     84     -10.9547      2.00000
     85     -10.9547      2.00000
     86     -10.9546      2.00000
     87     -10.9546      2.00000
     88     -10.9545      2.00000
     89     -10.8029      2.00000
     90     -10.8028      2.00000
     91     -10.8027      2.00000
     92     -10.8026      2.00000
     93     -10.8026      2.00000
     94     -10.8001      2.00000
     95     -10.7558      2.00000
     96     -10.7515      2.00000
     97     -10.5145      2.00000
     98     -10.5132      2.00000
     99     -10.4983      2.00000
    100     -10.4982      2.00000
    101     -10.4982      2.00000
    102     -10.4982      2.00000
    103     -10.4981      2.00000
    104     -10.4974      2.00000
    105     -10.0387      2.00000
    106     -10.0387      2.00000
    107      -9.9985      2.00000
    108      -9.9985      2.00000
    109      -4.5910      2.00000
    110      -4.0381      2.00000
    111      -4.0372      2.00000
    112      -4.0372      2.00000
    113      -4.0340      2.00000
    114      -4.0332      2.00000
    115      -4.0321      2.00000
    116      -3.9265      2.00000
    117      -3.9253      2.00000
    118      -3.5957      2.00000
    119      -3.5933      2.00000
    120      -3.3775      2.00000
    121      -3.0553      2.00000
    122      -3.0553      2.00000
    123      -3.0336      2.00000
    124      -3.0319      2.00000
    125      -3.0314      2.00000
    126      -3.0303      2.00000
    127      -3.0301      2.00000
    128      -3.0299      2.00000
    129      -2.8035      2.00000
    130      -2.8030      2.00000
    131      -2.8028      2.00000
    132      -2.8018      2.00000
    133      -2.8016      2.00000
    134      -2.8011      2.00000
    135      -2.7146      2.00000
    136      -2.7125      2.00000
    137      -2.6755      2.00000
    138      -2.6753      2.00000
    139      -2.6752      2.00000
    140      -2.6746      2.00000
    141      -2.6738      2.00000
    142      -2.6737      2.00000
    143      -2.6453      2.00000
    144      -2.6452      2.00000
    145      -2.2057      2.00000
    146      -2.2040      2.00000
    147      -2.0153      2.00000
    148      -2.0152      2.00000
    149      -2.0152      2.00000
    150      -2.0152      2.00000
    151      -2.0151      2.00000
    152      -2.0149      2.00000
    153      -1.9503      2.00000
    154      -1.9503      2.00000
    155      -1.7005      2.00000
    156      -1.7005      2.00000
    157      -1.7004      2.00000
    158      -1.7003      2.00000
    159      -1.7002      2.00000
    160      -1.6999      2.00000
    161      -1.6410      2.00000
    162      -1.6398      2.00000
    163      -1.4892      2.00000
    164      -1.4890      2.00000
    165      -1.4889      2.00000
    166      -1.4886      2.00000
    167      -1.4843      2.00000
    168      -1.4812      2.00000
    169      -1.3457      2.00000
    170      -1.3452      2.00000
    171      -1.1524      2.00000
    172      -1.1518      2.00000
    173      -1.0416      2.00000
    174      -1.0408      2.00000
    175      -0.6422      2.00000
    176      -0.4323      2.00000
    177      -0.4313      2.00000
    178      -0.2768      2.00000
    179      -0.2767      2.00000
    180      -0.2767      2.00000
    181      -0.2767      2.00000
    182      -0.2764      2.00000
    183      -0.2764      2.00000
    184      -0.1757      2.00000
    185      -0.1755      2.00000
    186      -0.1755      2.00000
    187      -0.1754      2.00000
    188      -0.1705      2.00000
    189      -0.1701      2.00000
    190      -0.1475      2.00000
    191      -0.1460      2.00000
    192      -0.1437      2.00000
    193      -0.1411      2.00000
    194      -0.1410      2.00000
    195      -0.1402      2.00000
    196      -0.1397      2.00000
    197      -0.1395      2.00000
    198      -0.0917      2.00000
    199      -0.0915      2.00000
    200       0.0938      2.00000
    201       0.0938      2.00000
    202       0.3432      2.00000
    203       0.3433      2.00000
    204       0.3435      2.00000
    205       0.3438      2.00000
    206       0.3440      2.00000
    207       0.3444      2.00000
    208       0.5667      2.00000
    209       0.6052      2.00000
    210       0.6070      2.00000
    211       0.6074      2.00000
    212       0.6076      2.00000
    213       0.6079      2.00000
    214       0.6093      2.00000
    215       1.0756      2.00000
    216       1.0757      2.00000
    217       1.0757      2.00000
    218       1.0757      2.00000
    219       1.0759      2.00000
    220       1.0759      2.00000
    221       1.1034      2.00000
    222       1.1034      2.00000
    223       1.2635      2.00000
    224       1.2635      2.00000
    225       1.2635      2.00000
    226       1.2635      2.00000
    227       1.2635      2.00000
    228       1.2635      2.00000
    229       1.5976      2.00000
    230       1.6011      2.00000
    231       1.6017      2.00000
    232       2.1408      2.00000
    233       2.1409      2.00000
    234       2.3046      2.00000
    235       3.1660      0.00000
    236       3.1662      0.00000
    237       3.7980      0.00000
    238       3.7981      0.00000
    239       3.9848      0.00000
    240       3.9852      0.00000
    241       3.9855      0.00000
    242       3.9864      0.00000
    243       3.9864      0.00000
    244       3.9865      0.00000
    245       4.0294      0.00000
    246       4.0299      0.00000
    247       4.0321      0.00000
    248       4.0325      0.00000
    249       4.0331      0.00000
    250       4.0333      0.00000
    251       4.2497      0.00000
    252       4.2497      0.00000
    253       4.2497      0.00000
    254       4.2498      0.00000
    255       4.2498      0.00000
    256       4.2498      0.00000
    257       4.3622      0.00000
    258       4.3652      0.00000
    259       4.3739      0.00000
    260       4.3748      0.00000
    261       4.3753      0.00000
    262       4.3762      0.00000
    263       4.3767      0.00000
    264       4.3771      0.00000
    265       4.4498      0.00000
    266       4.4500      0.00000
    267       4.5865      0.00000
    268       4.5878      0.00000
    269       5.0341      0.00000
    270       5.0356      0.00000
    271       5.0361      0.00000
    272       5.0367      0.00000
    273       5.0373      0.00000
    274       5.0376      0.00000
    275       5.1327      0.00000
    276       5.1328      0.00000
    277       5.2503      0.00000
    278       5.2513      0.00000
    279       5.2782      0.00000
    280       5.2783      0.00000
    281       5.3475      0.00000
    282       5.3475      0.00000
    283       5.5380      0.00000
    284       5.5395      0.00000
    285       5.5407      0.00000
    286       5.5409      0.00000

 k-point     2 :       0.2000    0.0000    0.0000
  band No.  band energies     occupation 
      1     -72.4548      2.00000
      2     -72.4488      2.00000
      3     -72.4476      2.00000
      4     -72.4470      2.00000
      5     -72.4452      2.00000
      6     -72.4450      2.00000
      7     -72.4441      2.00000
      8     -72.4419      2.00000
      9     -72.4418      2.00000
     10     -58.6496      2.00000
     11     -58.6353      2.00000
     12     -58.6319      2.00000
     13     -58.6319      2.00000
     14     -58.6270      2.00000
     15     -58.6269      2.00000
     16     -58.6254      2.00000
     17     -58.6198      2.00000
     18     -58.6197      2.00000
     19     -36.8012      2.00000
     20     -36.7818      2.00000
     21     -36.7814      2.00000
     22     -36.7766      2.00000
     23     -36.7761      2.00000
     24     -36.7372      2.00000
     25     -36.7369      2.00000
     26     -36.7099      2.00000
     27     -36.7098      2.00000
     28     -36.7095      2.00000
     29     -36.6381      2.00000
     30     -36.6217      2.00000
     31     -36.6213      2.00000
     32     -36.6196      2.00000
     33     -36.6139      2.00000
     34     -36.6095      2.00000
     35     -36.6091      2.00000
     36     -36.6081      2.00000
     37     -36.6080      2.00000
     38     -36.5997      2.00000
     39     -36.5996      2.00000
     40     -36.5976      2.00000
     41     -36.5969      2.00000
     42     -36.5874      2.00000
     43     -36.5874      2.00000
     44     -36.5747      2.00000
     45     -36.5658      2.00000
     46     -32.8754      2.00000
     47     -32.8535      2.00000
     48     -32.8535      2.00000
     49     -32.8472      2.00000
     50     -32.8472      2.00000
     51     -32.8351      2.00000
     52     -32.8036      2.00000
     53     -32.8036      2.00000
     54     -32.8032      2.00000
     55     -32.7956      2.00000
     56     -32.7956      2.00000
     57     -32.7846      2.00000
     58     -32.7845      2.00000
     59     -32.7810      2.00000
     60     -32.7730      2.00000
     61     -32.7717      2.00000
     62     -32.7717      2.00000
     63     -32.7686      2.00000
     64     -32.7685      2.00000
     65     -32.6728      2.00000
     66     -32.6728      2.00000
     67     -32.6706      2.00000
     68     -32.6595      2.00000
     69     -32.6594      2.00000
     70     -32.6466      2.00000
     71     -32.6217      2.00000
     72     -32.6117      2.00000
     73     -12.8745      2.00000
     74     -12.1840      2.00000
     75     -12.0016      2.00000
     76     -11.7685      2.00000
     77     -11.7651      2.00000
     78     -11.3950      2.00000
     79     -11.3916      2.00000
     80     -11.3520      2.00000
     81     -11.3336      2.00000
     82     -11.2631      2.00000
     83     -11.1094      2.00000
     84     -11.1048      2.00000
     85     -11.1046      2.00000
     86     -10.9707      2.00000
     87     -10.8737      2.00000
     88     -10.8727      2.00000
     89     -10.8079      2.00000
     90     -10.8043      2.00000
     91     -10.7997      2.00000
     92     -10.7987      2.00000
     93     -10.7403      2.00000
     94     -10.7025      2.00000
     95     -10.6624      2.00000
     96     -10.6617      2.00000
     97     -10.5811      2.00000
     98     -10.5808      2.00000
     99     -10.5439      2.00000
    100     -10.5377      2.00000
    101     -10.5362      2.00000
    102     -10.3836      2.00000
    103     -10.3834      2.00000
    104     -10.3164      2.00000
    105     -10.0896      2.00000
    106     -10.0895      2.00000
    107     -10.0348      2.00000
    108     -10.0348      2.00000
    109      -4.5116      2.00000
    110      -4.4072      2.00000
    111      -4.1865      2.00000
    112      -4.1860      2.00000
    113      -3.8440      2.00000
    114      -3.8430      2.00000
    115      -3.8259      2.00000
    116      -3.8250      2.00000
    117      -3.8015      2.00000
    118      -3.8004      2.00000
    119      -3.7787      2.00000
    120      -3.3700      2.00000
    121      -3.2997      2.00000
    122      -3.1375      2.00000
    123      -3.1373      2.00000
    124      -3.0988      2.00000
    125      -3.0156      2.00000
    126      -3.0137      2.00000
    127      -2.9950      2.00000
    128      -2.9949      2.00000
    129      -2.9811      2.00000
    130      -2.9584      2.00000
    131      -2.9574      2.00000
    132      -2.8729      2.00000
    133      -2.8728      2.00000
    134      -2.8134      2.00000
    135      -2.7749      2.00000
    136      -2.7743      2.00000
    137      -2.6526      2.00000
    138      -2.6524      2.00000
    139      -2.6061      2.00000
    140      -2.5163      2.00000
    141      -2.5153      2.00000
    142      -2.4506      2.00000
    143      -2.4502      2.00000
    144      -2.4319      2.00000
    145      -2.2559      2.00000
    146      -2.2557      2.00000
    147      -2.1946      2.00000
    148      -2.1277      2.00000
    149      -2.1261      2.00000
    150      -1.7614      2.00000
    151      -1.7610      2.00000
    152      -1.7558      2.00000
    153      -1.7557      2.00000
    154      -1.7461      2.00000
    155      -1.7454      2.00000
    156      -1.7109      2.00000
    157      -1.7108      2.00000
    158      -1.6947      2.00000
    159      -1.6859      2.00000
    160      -1.6033      2.00000
    161      -1.5686      2.00000
    162      -1.5682      2.00000
    163      -1.5425      2.00000
    164      -1.5418      2.00000
    165      -1.5266      2.00000
    166      -1.4459      2.00000
    167      -1.4335      2.00000
    168      -1.4321      2.00000
    169      -1.2800      2.00000
    170      -1.2047      2.00000
    171      -1.1121      2.00000
    172      -1.1119      2.00000
    173      -0.9987      2.00000
    174      -0.9982      2.00000
    175      -0.8463      2.00000
    176      -0.6102      2.00000
    177      -0.6101      2.00000
    178      -0.4928      2.00000
    179      -0.4917      2.00000
    180      -0.4880      2.00000
    181      -0.4754      2.00000
    182      -0.4039      2.00000
    183      -0.4034      2.00000
    184      -0.4020      2.00000
    185      -0.4016      2.00000
    186      -0.3135      2.00000
    187      -0.3115      2.00000
    188      -0.2595      2.00000
    189      -0.2515      2.00000
    190      -0.1728      2.00000
    191      -0.1149      2.00000
    192      -0.1140      2.00000
    193      -0.0736      2.00000
    194       0.0249      2.00000
    195       0.0250      2.00000
    196       0.0255      2.00000
    197       0.0425      2.00000
    198       0.0556      2.00000
    199       0.0924      2.00000
    200       0.0942      2.00000
    201       0.1590      2.00000
    202       0.1684      2.00000
    203       0.3641      2.00000
    204       0.3645      2.00000
    205       0.4895      2.00000
    206       0.6178      2.00000
    207       0.6182      2.00000
    208       0.6201      2.00000
    209       0.6548      2.00000
    210       0.6693      2.00000
    211       0.6708      2.00000
    212       0.7378      2.00000
    213       0.7380      2.00000
    214       0.8154      2.00000
    215       0.8159      2.00000
    216       0.8239      2.00000
    217       0.8243      2.00000
    218       0.8430      2.00000
    219       0.9562      2.00000
    220       0.9953      2.00000
    221       1.1860      2.00000
    222       1.1910      2.00000
    223       1.1944      2.00000
    224       1.3363      2.00000
    225       1.3363      2.00000
    226       1.4281      2.00000
    227       1.4287      2.00000
    228       1.4854      2.00000
    229       1.5139      2.00000
    230       1.5140      2.00000
    231       1.5898      2.00000
    232       2.0346      2.00000
    233       2.0346      2.00000
    234       2.2008      2.00000
    235       3.4191      0.00000
    236       3.4193      0.00000
    237       3.7288      0.00000
    238       3.7295      0.00000
    239       3.8310      0.00000
    240       3.8979      0.00000
    241       3.8989      0.00000
    242       3.9094      0.00000
    243       3.9094      0.00000
    244       4.0297      0.00000
    245       4.0305      0.00000
    246       4.0532      0.00000
    247       4.1018      0.00000
    248       4.1244      0.00000
    249       4.1247      0.00000
    250       4.1979      0.00000
    251       4.2537      0.00000
    252       4.2593      0.00000
    253       4.2703      0.00000
    254       4.2713      0.00000
    255       4.3127      0.00000
    256       4.3395      0.00000
    257       4.3397      0.00000
    258       4.4162      0.00000
    259       4.4178      0.00000
    260       4.4182      0.00000
    261       4.4700      0.00000
    262       4.4702      0.00000
    263       4.4802      0.00000
    264       4.4868      0.00000
    265       4.5316      0.00000
    266       4.5332      0.00000
    267       4.5336      0.00000
    268       4.5347      0.00000
    269       4.6985      0.00000
    270       4.7655      0.00000
    271       4.7659      0.00000
    272       4.9349      0.00000
    273       5.0553      0.00000
    274       5.0979      0.00000
    275       5.0983      0.00000
    276       5.1105      0.00000
    277       5.1126      0.00000
    278       5.1546      0.00000
    279       5.2210      0.00000
    280       5.2221      0.00000
    281       5.2272      0.00000
    282       5.2501      0.00000
    283       5.2858      0.00000
    284       5.2872      0.00000
    285       5.3032      0.00000
    286       5.3650      0.00000

 k-point     3 :       0.2000    0.2000    0.0000
  band No.  band energies     occupation 
      1     -72.4548      2.00000
      2     -72.4489      2.00000
      3     -72.4472      2.00000
      4     -72.4471      2.00000
      5     -72.4454      2.00000
      6     -72.4449      2.00000
      7     -72.4441      2.00000
      8     -72.4419      2.00000
      9     -72.4418      2.00000
     10     -58.6496      2.00000
     11     -58.6353      2.00000
     12     -58.6319      2.00000
     13     -58.6319      2.00000
     14     -58.6270      2.00000
     15     -58.6269      2.00000
     16     -58.6254      2.00000
     17     -58.6198      2.00000
     18     -58.6197      2.00000
     19     -36.8012      2.00000
     20     -36.7818      2.00000
     21     -36.7814      2.00000
     22     -36.7766      2.00000
     23     -36.7761      2.00000
     24     -36.7373      2.00000
     25     -36.7369      2.00000
     26     -36.7098      2.00000
     27     -36.7098      2.00000
     28     -36.7095      2.00000
     29     -36.6381      2.00000
     30     -36.6217      2.00000
     31     -36.6214      2.00000
     32     -36.6196      2.00000
     33     -36.6139      2.00000
     34     -36.6094      2.00000
     35     -36.6092      2.00000
     36     -36.6081      2.00000
     37     -36.6081      2.00000
     38     -36.5997      2.00000
     39     -36.5996      2.00000
     40     -36.5977      2.00000
     41     -36.5969      2.00000
     42     -36.5874      2.00000
     43     -36.5874      2.00000
     44     -36.5747      2.00000
     45     -36.5658      2.00000
     46     -32.8754      2.00000
     47     -32.8535      2.00000
     48     -32.8535      2.00000
     49     -32.8472      2.00000
     50     -32.8472      2.00000
     51     -32.8351      2.00000
     52     -32.8036      2.00000
     53     -32.8036      2.00000
     54     -32.8032      2.00000
     55     -32.7956      2.00000
     56     -32.7956      2.00000
     57     -32.7846      2.00000
     58     -32.7845      2.00000
     59     -32.7810      2.00000
     60     -32.7730      2.00000
     61     -32.7717      2.00000
     62     -32.7717      2.00000
     63     -32.7686      2.00000
     64     -32.7685      2.00000
     65     -32.6728      2.00000
     66     -32.6728      2.00000
     67     -32.6706      2.00000
     68     -32.6595      2.00000
     69     -32.6594      2.00000
     70     -32.6466      2.00000
     71     -32.6217      2.00000
     72     -32.6117      2.00000
     73     -12.8745      2.00000
     74     -12.1840      2.00000
     75     -12.0017      2.00000
     76     -11.7686      2.00000
     77     -11.7648      2.00000
     78     -11.3951      2.00000
     79     -11.3913      2.00000
     80     -11.3520      2.00000
     81     -11.3336      2.00000
     82     -11.2634      2.00000
     83     -11.1094      2.00000
     84     -11.1048      2.00000
     85     -11.1046      2.00000
     86     -10.9705      2.00000
     87     -10.8737      2.00000
     88     -10.8731      2.00000
     89     -10.8079      2.00000
     90     -10.8042      2.00000
     91     -10.7997      2.00000
     92     -10.7990      2.00000
     93     -10.7399      2.00000
     94     -10.7024      2.00000
     95     -10.6624      2.00000
     96     -10.6618      2.00000
     97     -10.5811      2.00000
     98     -10.5808      2.00000
     99     -10.5438      2.00000
    100     -10.5377      2.00000
    101     -10.5362      2.00000
    102     -10.3836      2.00000
    103     -10.3834      2.00000
    104     -10.3164      2.00000
    105     -10.0896      2.00000
    106     -10.0895      2.00000
    107     -10.0348      2.00000
    108     -10.0348      2.00000
    109      -4.5116      2.00000
    110      -4.4069      2.00000
    111      -4.1867      2.00000
    112      -4.1861      2.00000
    113      -3.8442      2.00000
    114      -3.8429      2.00000
    115      -3.8255      2.00000
    116      -3.8251      2.00000
    117      -3.8017      2.00000
    118      -3.8004      2.00000
    119      -3.7788      2.00000
    120      -3.3700      2.00000
    121      -3.2997      2.00000
    122      -3.1375      2.00000
    123      -3.1373      2.00000
    124      -3.0992      2.00000
    125      -3.0153      2.00000
    126      -3.0136      2.00000
    127      -2.9950      2.00000
    128      -2.9949      2.00000
    129      -2.9812      2.00000
    130      -2.9581      2.00000
    131      -2.9578      2.00000
    132      -2.8729      2.00000
    133      -2.8728      2.00000
    134      -2.8136      2.00000
    135      -2.7749      2.00000
    136      -2.7742      2.00000
    137      -2.6525      2.00000
    138      -2.6524      2.00000
    139      -2.6060      2.00000
    140      -2.5159      2.00000
    141      -2.5152      2.00000
    142      -2.4504      2.00000
    143      -2.4502      2.00000
    144      -2.4321      2.00000
    145      -2.2560      2.00000
    146      -2.2555      2.00000
    147      -2.1943      2.00000
    148      -2.1274      2.00000
    149      -2.1267      2.00000
    150      -1.7615      2.00000
    151      -1.7603      2.00000
    152      -1.7557      2.00000
    153      -1.7556      2.00000
    154      -1.7462      2.00000
    155      -1.7453      2.00000
    156      -1.7108      2.00000
    157      -1.7106      2.00000
    158      -1.6947      2.00000
    159      -1.6867      2.00000
    160      -1.6033      2.00000
    161      -1.5687      2.00000
    162      -1.5674      2.00000
    163      -1.5423      2.00000
    164      -1.5418      2.00000
    165      -1.5270      2.00000
    166      -1.4460      2.00000
    167      -1.4341      2.00000
    168      -1.4314      2.00000
    169      -1.2796      2.00000
    170      -1.2058      2.00000
    171      -1.1120      2.00000
    172      -1.1119      2.00000
    173      -0.9986      2.00000
    174      -0.9984      2.00000
    175      -0.8458      2.00000
    176      -0.6103      2.00000
    177      -0.6102      2.00000
    178      -0.4929      2.00000
    179      -0.4914      2.00000
    180      -0.4878      2.00000
    181      -0.4754      2.00000
    182      -0.4038      2.00000
    183      -0.4032      2.00000
    184      -0.4023      2.00000
    185      -0.4016      2.00000
    186      -0.3138      2.00000
    187      -0.3120      2.00000
    188      -0.2587      2.00000
    189      -0.2534      2.00000
    190      -0.1717      2.00000
    191      -0.1159      2.00000
    192      -0.1139      2.00000
    193      -0.0736      2.00000
    194       0.0249      2.00000
    195       0.0251      2.00000
    196       0.0255      2.00000
    197       0.0424      2.00000
    198       0.0557      2.00000
    199       0.0925      2.00000
    200       0.0943      2.00000
    201       0.1590      2.00000
    202       0.1684      2.00000
    203       0.3642      2.00000
    204       0.3645      2.00000
    205       0.4896      2.00000
    206       0.6175      2.00000
    207       0.6179      2.00000
    208       0.6209      2.00000
    209       0.6547      2.00000
    210       0.6697      2.00000
    211       0.6705      2.00000
    212       0.7377      2.00000
    213       0.7379      2.00000
    214       0.8152      2.00000
    215       0.8154      2.00000
    216       0.8241      2.00000
    217       0.8243      2.00000
    218       0.8439      2.00000
    219       0.9562      2.00000
    220       0.9953      2.00000
    221       1.1860      2.00000
    222       1.1910      2.00000
    223       1.1944      2.00000
    224       1.3363      2.00000
    225       1.3363      2.00000
    226       1.4281      2.00000
    227       1.4286      2.00000
    228       1.4854      2.00000
    229       1.5139      2.00000
    230       1.5139      2.00000
    231       1.5898      2.00000
    232       2.0346      2.00000
    233       2.0346      2.00000
    234       2.2010      2.00000
    235       3.4190      0.00000
    236       3.4194      0.00000
    237       3.7292      0.00000
    238       3.7296      0.00000
    239       3.8309      0.00000
    240       3.8978      0.00000
    241       3.8989      0.00000
    242       3.9094      0.00000
    243       3.9094      0.00000
    244       4.0302      0.00000
    245       4.0306      0.00000
    246       4.0529      0.00000
    247       4.1020      0.00000
    248       4.1242      0.00000
    249       4.1245      0.00000
    250       4.1980      0.00000
    251       4.2536      0.00000
    252       4.2593      0.00000
    253       4.2702      0.00000
    254       4.2712      0.00000
    255       4.3108      0.00000
    256       4.3396      0.00000
    257       4.3398      0.00000
    258       4.4162      0.00000
    259       4.4176      0.00000
    260       4.4180      0.00000
    261       4.4704      0.00000
    262       4.4704      0.00000
    263       4.4809      0.00000
    264       4.4888      0.00000
    265       4.5309      0.00000
    266       4.5329      0.00000
    267       4.5337      0.00000
    268       4.5347      0.00000
    269       4.6981      0.00000
    270       4.7655      0.00000
    271       4.7657      0.00000
    272       4.9349      0.00000
    273       5.0552      0.00000
    274       5.0980      0.00000
    275       5.0983      0.00000
    276       5.1116      0.00000
    277       5.1125      0.00000
    278       5.1538      0.00000
    279       5.2215      0.00000
    280       5.2219      0.00000
    281       5.2273      0.00000
    282       5.2501      0.00000
    283       5.2855      0.00000
    284       5.2879      0.00000
    285       5.3027      0.00000
    286       5.3659      0.00000

 k-point     4 :       0.0000    0.2000    0.0000
  band No.  band energies     occupation 
      1     -72.4548      2.00000
      2     -72.4489      2.00000
      3     -72.4474      2.00000
      4     -72.4470      2.00000
      5     -72.4453      2.00000
      6     -72.4449      2.00000
      7     -72.4441      2.00000
      8     -72.4419      2.00000
      9     -72.4418      2.00000
     10     -58.6496      2.00000
     11     -58.6353      2.00000
     12     -58.6319      2.00000
     13     -58.6319      2.00000
     14     -58.6270      2.00000
     15     -58.6269      2.00000
     16     -58.6254      2.00000
     17     -58.6198      2.00000
     18     -58.6197      2.00000
     19     -36.8012      2.00000
     20     -36.7818      2.00000
     21     -36.7814      2.00000
     22     -36.7766      2.00000
     23     -36.7761      2.00000
     24     -36.7373      2.00000
     25     -36.7369      2.00000
     26     -36.7099      2.00000
     27     -36.7098      2.00000
     28     -36.7095      2.00000
     29     -36.6381      2.00000
     30     -36.6217      2.00000
     31     -36.6214      2.00000
     32     -36.6196      2.00000
     33     -36.6139      2.00000
     34     -36.6095      2.00000
     35     -36.6092      2.00000
     36     -36.6081      2.00000
     37     -36.6080      2.00000
     38     -36.5997      2.00000
     39     -36.5996      2.00000
     40     -36.5977      2.00000
     41     -36.5969      2.00000
     42     -36.5874      2.00000
     43     -36.5874      2.00000
     44     -36.5747      2.00000
     45     -36.5658      2.00000
     46     -32.8754      2.00000
     47     -32.8535      2.00000
     48     -32.8535      2.00000
     49     -32.8472      2.00000
     50     -32.8472      2.00000
     51     -32.8351      2.00000
     52     -32.8036      2.00000
     53     -32.8036      2.00000
     54     -32.8032      2.00000
     55     -32.7956      2.00000
     56     -32.7956      2.00000
     57     -32.7846      2.00000
     58     -32.7845      2.00000
     59     -32.7810      2.00000
     60     -32.7730      2.00000
     61     -32.7717      2.00000
     62     -32.7717      2.00000
     63     -32.7686      2.00000
     64     -32.7685      2.00000
     65     -32.6728      2.00000
     66     -32.6728      2.00000
     67     -32.6706      2.00000
     68     -32.6595      2.00000
     69     -32.6594      2.00000
     70     -32.6466      2.00000
     71     -32.6217      2.00000
     72     -32.6117      2.00000
     73     -12.8745      2.00000
     74     -12.1840      2.00000
     75     -12.0017      2.00000
     76     -11.7686      2.00000
     77     -11.7649      2.00000
     78     -11.3951      2.00000
     79     -11.3914      2.00000
     80     -11.3520      2.00000
     81     -11.3336      2.00000
     82     -11.2633      2.00000
     83     -11.1094      2.00000
     84     -11.1048      2.00000
     85     -11.1046      2.00000
     86     -10.9706      2.00000
     87     -10.8738      2.00000
     88     -10.8728      2.00000
     89     -10.8079      2.00000
     90     -10.8043      2.00000
     91     -10.7997      2.00000
     92     -10.7988      2.00000
     93     -10.7401      2.00000
     94     -10.7025      2.00000
     95     -10.6624      2.00000
     96     -10.6617      2.00000
     97     -10.5811      2.00000
     98     -10.5808      2.00000
     99     -10.5438      2.00000
    100     -10.5377      2.00000
    101     -10.5362      2.00000
    102     -10.3836      2.00000
    103     -10.3834      2.00000
    104     -10.3164      2.00000
    105     -10.0896      2.00000
    106     -10.0895      2.00000
    107     -10.0348      2.00000
    108     -10.0348      2.00000
    109      -4.5116      2.00000
    110      -4.4071      2.00000
    111      -4.1867      2.00000
    112      -4.1860      2.00000
    113      -3.8443      2.00000
    114      -3.8427      2.00000
    115      -3.8257      2.00000
    116      -3.8250      2.00000
    117      -3.8017      2.00000
    118      -3.8003      2.00000
    119      -3.7787      2.00000
    120      -3.3700      2.00000
    121      -3.2997      2.00000
    122      -3.1375      2.00000
    123      -3.1373      2.00000
    124      -3.0990      2.00000
    125      -3.0155      2.00000
    126      -3.0136      2.00000
    127      -2.9950      2.00000
    128      -2.9949      2.00000
    129      -2.9812      2.00000
    130      -2.9583      2.00000
    131      -2.9575      2.00000
    132      -2.8729      2.00000
    133      -2.8728      2.00000
    134      -2.8135      2.00000
    135      -2.7749      2.00000
    136      -2.7742      2.00000
    137      -2.6526      2.00000
    138      -2.6524      2.00000
    139      -2.6061      2.00000
    140      -2.5163      2.00000
    141      -2.5150      2.00000
    142      -2.4506      2.00000
    143      -2.4501      2.00000
    144      -2.4320      2.00000
    145      -2.2560      2.00000
    146      -2.2556      2.00000
    147      -2.1945      2.00000
    148      -2.1278      2.00000
    149      -2.1261      2.00000
    150      -1.7615      2.00000
    151      -1.7606      2.00000
    152      -1.7558      2.00000
    153      -1.7556      2.00000
    154      -1.7463      2.00000
    155      -1.7453      2.00000
    156      -1.7109      2.00000
    157      -1.7107      2.00000
    158      -1.6947      2.00000
    159      -1.6863      2.00000
    160      -1.6033      2.00000
    161      -1.5688      2.00000
    162      -1.5677      2.00000
    163      -1.5423      2.00000
    164      -1.5419      2.00000
    165      -1.5268      2.00000
    166      -1.4459      2.00000
    167      -1.4338      2.00000
    168      -1.4317      2.00000
    169      -1.2798      2.00000
    170      -1.2053      2.00000
    171      -1.1121      2.00000
    172      -1.1119      2.00000
    173      -0.9987      2.00000
    174      -0.9982      2.00000
    175      -0.8461      2.00000
    176      -0.6103      2.00000
    177      -0.6101      2.00000
    178      -0.4929      2.00000
    179      -0.4915      2.00000
    180      -0.4879      2.00000
    181      -0.4754      2.00000
    182      -0.4039      2.00000
    183      -0.4031      2.00000
    184      -0.4023      2.00000
    185      -0.4016      2.00000
    186      -0.3139      2.00000
    187      -0.3115      2.00000
    188      -0.2591      2.00000
    189      -0.2524      2.00000
    190      -0.1722      2.00000
    191      -0.1154      2.00000
    192      -0.1139      2.00000
    193      -0.0736      2.00000
    194       0.0249      2.00000
    195       0.0251      2.00000
    196       0.0255      2.00000
    197       0.0424      2.00000
    198       0.0557      2.00000
    199       0.0925      2.00000
    200       0.0942      2.00000
    201       0.1590      2.00000
    202       0.1684      2.00000
    203       0.3641      2.00000
    204       0.3645      2.00000
    205       0.4895      2.00000
    206       0.6176      2.00000
    207       0.6181      2.00000
    208       0.6205      2.00000
    209       0.6548      2.00000
    210       0.6694      2.00000
    211       0.6707      2.00000
    212       0.7377      2.00000
    213       0.7380      2.00000
    214       0.8152      2.00000
    215       0.8157      2.00000
    216       0.8240      2.00000
    217       0.8243      2.00000
    218       0.8435      2.00000
    219       0.9562      2.00000
    220       0.9953      2.00000
    221       1.1860      2.00000
    222       1.1910      2.00000
    223       1.1944      2.00000
    224       1.3363      2.00000
    225       1.3363      2.00000
    226       1.4281      2.00000
    227       1.4287      2.00000
    228       1.4854      2.00000
    229       1.5139      2.00000
    230       1.5140      2.00000
    231       1.5898      2.00000
    232       2.0346      2.00000
    233       2.0346      2.00000
    234       2.2009      2.00000
    235       3.4189      0.00000
    236       3.4194      0.00000
    237       3.7289      0.00000
    238       3.7295      0.00000
    239       3.8310      0.00000
    240       3.8978      0.00000
    241       3.8989      0.00000
    242       3.9094      0.00000
    243       3.9094      0.00000
    244       4.0299      0.00000
    245       4.0306      0.00000
    246       4.0530      0.00000
    247       4.1019      0.00000
    248       4.1243      0.00000
    249       4.1246      0.00000
    250       4.1979      0.00000
    251       4.2536      0.00000
    252       4.2593      0.00000
    253       4.2703      0.00000
    254       4.2713      0.00000
    255       4.3117      0.00000
    256       4.3395      0.00000
    257       4.3398      0.00000
    258       4.4162      0.00000
    259       4.4177      0.00000
    260       4.4181      0.00000
    261       4.4702      0.00000
    262       4.4703      0.00000
    263       4.4806      0.00000
    264       4.4878      0.00000
    265       4.5313      0.00000
    266       4.5331      0.00000
    267       4.5336      0.00000
    268       4.5347      0.00000
    269       4.6983      0.00000
    270       4.7654      0.00000
    271       4.7659      0.00000
    272       4.9349      0.00000
    273       5.0553      0.00000
    274       5.0979      0.00000
    275       5.0983      0.00000
    276       5.1111      0.00000
    277       5.1126      0.00000
    278       5.1542      0.00000
    279       5.2211      0.00000
    280       5.2221      0.00000
    281       5.2273      0.00000
    282       5.2501      0.00000
    283       5.2852      0.00000
    284       5.2884      0.00000
    285       5.3030      0.00000
    286       5.3649      0.00000

 k-point     5 :       0.4000    0.0000    0.0000
  band No.  band energies     occupation 
      1     -72.4534      2.00000
      2     -72.4511      2.00000
      3     -72.4480      2.00000
      4     -72.4475      2.00000
      5     -72.4441      2.00000
      6     -72.4439      2.00000
      7     -72.4431      2.00000
      8     -72.4425      2.00000
      9     -72.4424      2.00000
     10     -58.6461      2.00000
     11     -58.6411      2.00000
     12     -58.6331      2.00000
     13     -58.6331      2.00000
     14     -58.6240      2.00000
     15     -58.6240      2.00000
     16     -58.6230      2.00000
     17     -58.6215      2.00000
     18     -58.6215      2.00000
     19     -36.8229      2.00000
     20     -36.7925      2.00000
     21     -36.7921      2.00000
     22     -36.7906      2.00000
     23     -36.7902      2.00000
     24     -36.7192      2.00000
     25     -36.7189      2.00000
     26     -36.6758      2.00000
     27     -36.6755      2.00000
     28     -36.6552      2.00000
     29     -36.6446      2.00000
     30     -36.6442      2.00000
     31     -36.6323      2.00000
     32     -36.6248      2.00000
     33     -36.6237      2.00000
     34     -36.6140      2.00000
     35     -36.6136      2.00000
     36     -36.6101      2.00000
     37     -36.6101      2.00000
     38     -36.6074      2.00000
     39     -36.5947      2.00000
     40     -36.5947      2.00000
     41     -36.5929      2.00000
     42     -36.5903      2.00000
     43     -36.5903      2.00000
     44     -36.5847      2.00000
     45     -36.5734      2.00000
     46     -32.8997      2.00000
     47     -32.8653      2.00000
     48     -32.8653      2.00000
     49     -32.8631      2.00000
     50     -32.8631      2.00000
     51     -32.8274      2.00000
     52     -32.8161      2.00000
     53     -32.7983      2.00000
     54     -32.7983      2.00000
     55     -32.7835      2.00000
     56     -32.7834      2.00000
     57     -32.7781      2.00000
     58     -32.7780      2.00000
     59     -32.7757      2.00000
     60     -32.7724      2.00000
     61     -32.7724      2.00000
     62     -32.7334      2.00000
     63     -32.7334      2.00000
     64     -32.7120      2.00000
     65     -32.6984      2.00000
     66     -32.6984      2.00000
     67     -32.6763      2.00000
     68     -32.6646      2.00000
     69     -32.6646      2.00000
     70     -32.6584      2.00000
     71     -32.6324      2.00000
     72     -32.6201      2.00000
     73     -12.6794      2.00000
     74     -12.3767      2.00000
     75     -11.9961      2.00000
     76     -11.8541      2.00000
     77     -11.8508      2.00000
     78     -11.7019      2.00000
     79     -11.2613      2.00000
     80     -11.1887      2.00000
     81     -11.1885      2.00000
     82     -11.1630      2.00000
     83     -11.1595      2.00000
     84     -11.1269      2.00000
     85     -11.0585      2.00000
     86     -11.0250      2.00000
     87     -10.9535      2.00000
     88     -10.9497      2.00000
     89     -10.9074      2.00000
     90     -10.9064      2.00000
     91     -10.8864      2.00000
     92     -10.6898      2.00000
     93     -10.6887      2.00000
     94     -10.6639      2.00000
     95     -10.6241      2.00000
     96     -10.6238      2.00000
     97     -10.6007      2.00000
     98     -10.5994      2.00000
     99     -10.4464      2.00000
    100     -10.4462      2.00000
    101     -10.3384      2.00000
    102     -10.2527      2.00000
    103     -10.2526      2.00000
    104     -10.2364      2.00000
    105     -10.2364      2.00000
    106     -10.2072      2.00000
    107     -10.1278      2.00000
    108     -10.1278      2.00000
    109      -4.6349      2.00000
    110      -4.2874      2.00000
    111      -4.2145      2.00000
    112      -4.2140      2.00000
    113      -4.0855      2.00000
    114      -4.0847      2.00000
    115      -3.9754      2.00000
    116      -3.6680      2.00000
    117      -3.6621      2.00000
    118      -3.6601      2.00000
    119      -3.5841      2.00000
    120      -3.5833      2.00000
    121      -3.2840      2.00000
    122      -3.2717      2.00000
    123      -3.2712      2.00000
    124      -3.1833      2.00000
    125      -3.1827      2.00000
    126      -3.1278      2.00000
    127      -3.1275      2.00000
    128      -3.0838      2.00000
    129      -3.0233      2.00000
    130      -3.0197      2.00000
    131      -2.9251      2.00000
    132      -2.8262      2.00000
    133      -2.8261      2.00000
    134      -2.8075      2.00000
    135      -2.7535      2.00000
    136      -2.7533      2.00000
    137      -2.5869      2.00000
    138      -2.5330      2.00000
    139      -2.5326      2.00000
    140      -2.5308      2.00000
    141      -2.5137      2.00000
    142      -2.5127      2.00000
    143      -2.4486      2.00000
    144      -2.4480      2.00000
    145      -2.2551      2.00000
    146      -2.2545      2.00000
    147      -1.9846      2.00000
    148      -1.8679      2.00000
    149      -1.8673      2.00000
    150      -1.8472      2.00000
    151      -1.8462      2.00000
    152      -1.7890      2.00000
    153      -1.7837      2.00000
    154      -1.7826      2.00000
    155      -1.7167      2.00000
    156      -1.7149      2.00000
    157      -1.5749      2.00000
    158      -1.5747      2.00000
    159      -1.5248      2.00000
    160      -1.5232      2.00000
    161      -1.5099      2.00000
    162      -1.5097      2.00000
    163      -1.4424      2.00000
    164      -1.4420      2.00000
    165      -1.3487      2.00000
    166      -1.3485      2.00000
    167      -1.2512      2.00000
    168      -1.1036      2.00000
    169      -1.0923      2.00000
    170      -0.9897      2.00000
    171      -0.9894      2.00000
    172      -0.9502      2.00000
    173      -0.9496      2.00000
    174      -0.9004      2.00000
    175      -0.8700      2.00000
    176      -0.8097      2.00000
    177      -0.7819      2.00000
    178      -0.7810      2.00000
    179      -0.7765      2.00000
    180      -0.7758      2.00000
    181      -0.6764      2.00000
    182      -0.6736      2.00000
    183      -0.5819      2.00000
    184      -0.5436      2.00000
    185      -0.5435      2.00000
    186      -0.5245      2.00000
    187      -0.5227      2.00000
    188      -0.4412      2.00000
    189      -0.3044      2.00000
    190      -0.2553      2.00000
    191      -0.2543      2.00000
    192      -0.1554      2.00000
    193      -0.1545      2.00000
    194       0.0875      2.00000
    195       0.1566      2.00000
    196       0.2227      2.00000
    197       0.2228      2.00000
    198       0.2261      2.00000
    199       0.2264      2.00000
    200       0.2758      2.00000
    201       0.3107      2.00000
    202       0.3127      2.00000
    203       0.3460      2.00000
    204       0.3620      2.00000
    205       0.3623      2.00000
    206       0.3695      2.00000
    207       0.4195      2.00000
    208       0.4911      2.00000
    209       0.4912      2.00000
    210       0.6282      2.00000
    211       0.7193      2.00000
    212       0.7609      2.00000
    213       0.8211      2.00000
    214       0.8216      2.00000
    215       0.9132      2.00000
    216       0.9147      2.00000
    217       1.0022      2.00000
    218       1.0400      2.00000
    219       1.0400      2.00000
    220       1.1428      2.00000
    221       1.1437      2.00000
    222       1.2107      2.00000
    223       1.2572      2.00000
    224       1.3446      2.00000
    225       1.4041      2.00000
    226       1.4041      2.00000
    227       1.4805      2.00000
    228       1.5236      2.00000
    229       1.5939      2.00000
    230       1.6849      2.00000
    231       1.6849      2.00000
    232       1.8417      2.00000
    233       1.8417      2.00000
    234       1.8810      2.00000
    235       3.5362      0.00000
    236       3.5371      0.00000
    237       3.8447      0.00000
    238       3.8459      0.00000
    239       3.9196      0.00000
    240       3.9204      0.00000
    241       3.9212      0.00000
    242       3.9295      0.00000
    243       3.9299      0.00000
    244       4.0801      0.00000
    245       4.0802      0.00000
    246       4.1775      0.00000
    247       4.1794      0.00000
    248       4.2080      0.00000
    249       4.2090      0.00000
    250       4.2114      0.00000
    251       4.2199      0.00000
    252       4.2324      0.00000
    253       4.2778      0.00000
    254       4.2961      0.00000
    255       4.2979      0.00000
    256       4.3588      0.00000
    257       4.4308      0.00000
    258       4.4457      0.00000
    259       4.4460      0.00000
    260       4.4835      0.00000
    261       4.4841      0.00000
    262       4.4929      0.00000
    263       4.4938      0.00000
    264       4.5007      0.00000
    265       4.5291      0.00000
    266       4.5764      0.00000
    267       4.5765      0.00000
    268       4.6649      0.00000
    269       4.6653      0.00000
    270       4.6732      0.00000
    271       4.6826      0.00000
    272       4.7123      0.00000
    273       4.8158      0.00000
    274       4.8280      0.00000
    275       4.8409      0.00000
    276       4.8409      0.00000
    277       4.9212      0.00000
    278       4.9225      0.00000
    279       4.9508      0.00000
    280       4.9517      0.00000
    281       5.0079      0.00000
    282       5.0541      0.00000
    283       5.0552      0.00000
    284       5.2651      0.00000
    285       5.4286      0.00000
    286       5.4588      0.00000

 k-point     6 :       0.4000    0.4000    0.0000
  band No.  band energies     occupation 
      1     -72.4534      2.00000
      2     -72.4512      2.00000
      3     -72.4478      2.00000
      4     -72.4477      2.00000
      5     -72.4444      2.00000
      6     -72.4438      2.00000
      7     -72.4431      2.00000
      8     -72.4425      2.00000
      9     -72.4424      2.00000
     10     -58.6461      2.00000
     11     -58.6411      2.00000
     12     -58.6331      2.00000
     13     -58.6331      2.00000
     14     -58.6240      2.00000
     15     -58.6240      2.00000
     16     -58.6230      2.00000
     17     -58.6215      2.00000
     18     -58.6215      2.00000
     19     -36.8229      2.00000
     20     -36.7925      2.00000
     21     -36.7921      2.00000
     22     -36.7906      2.00000
     23     -36.7902      2.00000
     24     -36.7193      2.00000
     25     -36.7189      2.00000
     26     -36.6757      2.00000
     27     -36.6755      2.00000
     28     -36.6552      2.00000
     29     -36.6445      2.00000
     30     -36.6443      2.00000
     31     -36.6323      2.00000
     32     -36.6249      2.00000
     33     -36.6237      2.00000
     34     -36.6139      2.00000
     35     -36.6137      2.00000
     36     -36.6101      2.00000
     37     -36.6101      2.00000
     38     -36.6074      2.00000
     39     -36.5948      2.00000
     40     -36.5947      2.00000
     41     -36.5929      2.00000
     42     -36.5903      2.00000
     43     -36.5903      2.00000
     44     -36.5847      2.00000
     45     -36.5734      2.00000
     46     -32.8997      2.00000
     47     -32.8653      2.00000
     48     -32.8653      2.00000
     49     -32.8631      2.00000
     50     -32.8631      2.00000
     51     -32.8274      2.00000
     52     -32.8161      2.00000
     53     -32.7983      2.00000
     54     -32.7983      2.00000
     55     -32.7835      2.00000
     56     -32.7834      2.00000
     57     -32.7781      2.00000
     58     -32.7780      2.00000
     59     -32.7757      2.00000
     60     -32.7724      2.00000
     61     -32.7724      2.00000
     62     -32.7334      2.00000
     63     -32.7334      2.00000
     64     -32.7120      2.00000
     65     -32.6984      2.00000
     66     -32.6984      2.00000
     67     -32.6763      2.00000
     68     -32.6646      2.00000
     69     -32.6646      2.00000
     70     -32.6584      2.00000
     71     -32.6324      2.00000
     72     -32.6201      2.00000
     73     -12.6794      2.00000
     74     -12.3768      2.00000
     75     -11.9961      2.00000
     76     -11.8542      2.00000
     77     -11.8504      2.00000
     78     -11.7019      2.00000
     79     -11.2612      2.00000
     80     -11.1887      2.00000
     81     -11.1885      2.00000
     82     -11.1630      2.00000
     83     -11.1593      2.00000
     84     -11.1268      2.00000
     85     -11.0589      2.00000
     86     -11.0250      2.00000
     87     -10.9535      2.00000
     88     -10.9496      2.00000
     89     -10.9074      2.00000
     90     -10.9068      2.00000
     91     -10.8864      2.00000
     92     -10.6897      2.00000
     93     -10.6889      2.00000
     94     -10.6634      2.00000
     95     -10.6242      2.00000
     96     -10.6238      2.00000
     97     -10.6007      2.00000
     98     -10.5995      2.00000
     99     -10.4464      2.00000
    100     -10.4462      2.00000
    101     -10.3384      2.00000
    102     -10.2527      2.00000
    103     -10.2526      2.00000
    104     -10.2364      2.00000
    105     -10.2363      2.00000
    106     -10.2072      2.00000
    107     -10.1278      2.00000
    108     -10.1278      2.00000
    109      -4.6346      2.00000
    110      -4.2875      2.00000
    111      -4.2147      2.00000
    112      -4.2141      2.00000
    113      -4.0857      2.00000
    114      -4.0849      2.00000
    115      -3.9755      2.00000
    116      -3.6679      2.00000
    117      -3.6622      2.00000
    118      -3.6600      2.00000
    119      -3.5842      2.00000
    120      -3.5833      2.00000
    121      -3.2844      2.00000
    122      -3.2717      2.00000
    123      -3.2714      2.00000
    124      -3.1833      2.00000
    125      -3.1827      2.00000
    126      -3.1278      2.00000
    127      -3.1276      2.00000
    128      -3.0837      2.00000
    129      -3.0231      2.00000
    130      -3.0193      2.00000
    131      -2.9253      2.00000
    132      -2.8261      2.00000
    133      -2.8261      2.00000
    134      -2.8074      2.00000
    135      -2.7536      2.00000
    136      -2.7528      2.00000
    137      -2.5873      2.00000
    138      -2.5329      2.00000
    139      -2.5327      2.00000
    140      -2.5311      2.00000
    141      -2.5139      2.00000
    142      -2.5120      2.00000
    143      -2.4487      2.00000
    144      -2.4476      2.00000
    145      -2.2547      2.00000
    146      -2.2542      2.00000
    147      -1.9849      2.00000
    148      -1.8679      2.00000
    149      -1.8664      2.00000
    150      -1.8470      2.00000
    151      -1.8458      2.00000
    152      -1.7898      2.00000
    153      -1.7837      2.00000
    154      -1.7826      2.00000
    155      -1.7168      2.00000
    156      -1.7141      2.00000
    157      -1.5750      2.00000
    158      -1.5749      2.00000
    159      -1.5249      2.00000
    160      -1.5238      2.00000
    161      -1.5101      2.00000
    162      -1.5093      2.00000
    163      -1.4422      2.00000
    164      -1.4420      2.00000
    165      -1.3491      2.00000
    166      -1.3483      2.00000
    167      -1.2504      2.00000
    168      -1.1036      2.00000
    169      -1.0919      2.00000
    170      -0.9896      2.00000
    171      -0.9895      2.00000
    172      -0.9504      2.00000
    173      -0.9498      2.00000
    174      -0.9004      2.00000
    175      -0.8714      2.00000
    176      -0.8093      2.00000
    177      -0.7819      2.00000
    178      -0.7812      2.00000
    179      -0.7764      2.00000
    180      -0.7759      2.00000
    181      -0.6766      2.00000
    182      -0.6735      2.00000
    183      -0.5819      2.00000
    184      -0.5436      2.00000
    185      -0.5435      2.00000
    186      -0.5260      2.00000
    187      -0.5227      2.00000
    188      -0.4409      2.00000
    189      -0.3034      2.00000
    190      -0.2558      2.00000
    191      -0.2545      2.00000
    192      -0.1563      2.00000
    193      -0.1546      2.00000
    194       0.0873      2.00000
    195       0.1564      2.00000
    196       0.2227      2.00000
    197       0.2228      2.00000
    198       0.2262      2.00000
    199       0.2263      2.00000
    200       0.2758      2.00000
    201       0.3113      2.00000
    202       0.3125      2.00000
    203       0.3460      2.00000
    204       0.3621      2.00000
    205       0.3622      2.00000
    206       0.3695      2.00000
    207       0.4197      2.00000
    208       0.4911      2.00000
    209       0.4913      2.00000
    210       0.6282      2.00000
    211       0.7193      2.00000
    212       0.7617      2.00000
    213       0.8202      2.00000
    214       0.8208      2.00000
    215       0.9137      2.00000
    216       0.9144      2.00000
    217       1.0022      2.00000
    218       1.0398      2.00000
    219       1.0400      2.00000
    220       1.1431      2.00000
    221       1.1434      2.00000
    222       1.2107      2.00000
    223       1.2578      2.00000
    224       1.3446      2.00000
    225       1.4040      2.00000
    226       1.4041      2.00000
    227       1.4806      2.00000
    228       1.5237      2.00000
    229       1.5939      2.00000
    230       1.6849      2.00000
    231       1.6849      2.00000
    232       1.8417      2.00000
    233       1.8417      2.00000
    234       1.8813      2.00000
    235       3.5367      0.00000
    236       3.5371      0.00000
    237       3.8446      0.00000
    238       3.8459      0.00000
    239       3.9194      0.00000
    240       3.9205      0.00000
    241       3.9212      0.00000
    242       3.9300      0.00000
    243       3.9301      0.00000
    244       4.0801      0.00000
    245       4.0802      0.00000
    246       4.1770      0.00000
    247       4.1795      0.00000
    248       4.2077      0.00000
    249       4.2089      0.00000
    250       4.2115      0.00000
    251       4.2205      0.00000
    252       4.2327      0.00000
    253       4.2762      0.00000
    254       4.2961      0.00000
    255       4.2974      0.00000
    256       4.3581      0.00000
    257       4.4301      0.00000
    258       4.4458      0.00000
    259       4.4460      0.00000
    260       4.4829      0.00000
    261       4.4838      0.00000
    262       4.4932      0.00000
    263       4.4941      0.00000
    264       4.5007      0.00000
    265       4.5290      0.00000
    266       4.5765      0.00000
    267       4.5766      0.00000
    268       4.6650      0.00000
    269       4.6656      0.00000
    270       4.6733      0.00000
    271       4.6825      0.00000
    272       4.7122      0.00000
    273       4.8152      0.00000
    274       4.8295      0.00000
    275       4.8409      0.00000
    276       4.8409      0.00000
    277       4.9217      0.00000
    278       4.9221      0.00000
    279       4.9507      0.00000
    280       4.9518      0.00000
    281       5.0081      0.00000
    282       5.0545      0.00000
    283       5.0554      0.00000
    284       5.2683      0.00000
    285       5.4248      0.00000
    286       5.4594      0.00000

 k-point     7 :       0.0000    0.4000    0.0000
  band No.  band energies     occupation 
      1     -72.4534      2.00000
      2     -72.4512      2.00000
      3     -72.4479      2.00000
      4     -72.4476      2.00000
      5     -72.4443      2.00000
      6     -72.4438      2.00000
      7     -72.4431      2.00000
      8     -72.4425      2.00000
      9     -72.4424      2.00000
     10     -58.6461      2.00000
     11     -58.6411      2.00000
     12     -58.6331      2.00000
     13     -58.6331      2.00000
     14     -58.6240      2.00000
     15     -58.6240      2.00000
     16     -58.6230      2.00000
     17     -58.6215      2.00000
     18     -58.6215      2.00000
     19     -36.8229      2.00000
     20     -36.7925      2.00000
     21     -36.7921      2.00000
     22     -36.7906      2.00000
     23     -36.7902      2.00000
     24     -36.7193      2.00000
     25     -36.7189      2.00000
     26     -36.6758      2.00000
     27     -36.6755      2.00000
     28     -36.6552      2.00000
     29     -36.6445      2.00000
     30     -36.6442      2.00000
     31     -36.6323      2.00000
     32     -36.6249      2.00000
     33     -36.6237      2.00000
     34     -36.6139      2.00000
     35     -36.6136      2.00000
     36     -36.6101      2.00000
     37     -36.6101      2.00000
     38     -36.6074      2.00000
     39     -36.5948      2.00000
     40     -36.5947      2.00000
     41     -36.5929      2.00000
     42     -36.5903      2.00000
     43     -36.5903      2.00000
     44     -36.5847      2.00000
     45     -36.5734      2.00000
     46     -32.8997      2.00000
     47     -32.8653      2.00000
     48     -32.8653      2.00000
     49     -32.8631      2.00000
     50     -32.8631      2.00000
     51     -32.8274      2.00000
     52     -32.8161      2.00000
     53     -32.7983      2.00000
     54     -32.7983      2.00000
     55     -32.7835      2.00000
     56     -32.7834      2.00000
     57     -32.7781      2.00000
     58     -32.7780      2.00000
     59     -32.7757      2.00000
     60     -32.7724      2.00000
     61     -32.7724      2.00000
     62     -32.7334      2.00000
     63     -32.7334      2.00000
     64     -32.7120      2.00000
     65     -32.6984      2.00000
     66     -32.6984      2.00000
     67     -32.6763      2.00000
     68     -32.6646      2.00000
     69     -32.6646      2.00000
     70     -32.6584      2.00000
     71     -32.6324      2.00000
     72     -32.6201      2.00000
     73     -12.6794      2.00000
     74     -12.3768      2.00000
     75     -11.9961      2.00000
     76     -11.8543      2.00000
     77     -11.8505      2.00000
     78     -11.7019      2.00000
     79     -11.2612      2.00000
     80     -11.1887      2.00000
     81     -11.1885      2.00000
     82     -11.1630      2.00000
     83     -11.1594      2.00000
     84     -11.1269      2.00000
     85     -11.0587      2.00000
     86     -11.0250      2.00000
     87     -10.9535      2.00000
     88     -10.9496      2.00000
     89     -10.9075      2.00000
     90     -10.9065      2.00000
     91     -10.8864      2.00000
     92     -10.6898      2.00000
     93     -10.6887      2.00000
     94     -10.6636      2.00000
     95     -10.6242      2.00000
     96     -10.6238      2.00000
     97     -10.6008      2.00000
     98     -10.5994      2.00000
     99     -10.4464      2.00000
    100     -10.4462      2.00000
    101     -10.3384      2.00000
    102     -10.2527      2.00000
    103     -10.2526      2.00000
    104     -10.2364      2.00000
    105     -10.2364      2.00000
    106     -10.2072      2.00000
    107     -10.1278      2.00000
    108     -10.1278      2.00000
    109      -4.6348      2.00000
    110      -4.2875      2.00000
    111      -4.2149      2.00000
    112      -4.2138      2.00000
    113      -4.0860      2.00000
    114      -4.0844      2.00000
    115      -3.9754      2.00000
    116      -3.6679      2.00000
    117      -3.6622      2.00000
    118      -3.6600      2.00000
    119      -3.5842      2.00000
    120      -3.5833      2.00000
    121      -3.2842      2.00000
    122      -3.2718      2.00000
    123      -3.2712      2.00000
    124      -3.1833      2.00000
    125      -3.1827      2.00000
    126      -3.1278      2.00000
    127      -3.1275      2.00000
    128      -3.0837      2.00000
    129      -3.0232      2.00000
    130      -3.0195      2.00000
    131      -2.9252      2.00000
    132      -2.8261      2.00000
    133      -2.8261      2.00000
    134      -2.8075      2.00000
    135      -2.7536      2.00000
    136      -2.7530      2.00000
    137      -2.5871      2.00000
    138      -2.5330      2.00000
    139      -2.5326      2.00000
    140      -2.5310      2.00000
    141      -2.5138      2.00000
    142      -2.5123      2.00000
    143      -2.4487      2.00000
    144      -2.4478      2.00000
    145      -2.2551      2.00000
    146      -2.2541      2.00000
    147      -1.9848      2.00000
    148      -1.8680      2.00000
    149      -1.8667      2.00000
    150      -1.8472      2.00000
    151      -1.8459      2.00000
    152      -1.7894      2.00000
    153      -1.7838      2.00000
    154      -1.7825      2.00000
    155      -1.7168      2.00000
    156      -1.7145      2.00000
    157      -1.5750      2.00000
    158      -1.5748      2.00000
    159      -1.5253      2.00000
    160      -1.5231      2.00000
    161      -1.5101      2.00000
    162      -1.5095      2.00000
    163      -1.4423      2.00000
    164      -1.4419      2.00000
    165      -1.3489      2.00000
    166      -1.3484      2.00000
    167      -1.2508      2.00000
    168      -1.1036      2.00000
    169      -1.0921      2.00000
    170      -0.9897      2.00000
    171      -0.9894      2.00000
    172      -0.9505      2.00000
    173      -0.9495      2.00000
    174      -0.9004      2.00000
    175      -0.8707      2.00000
    176      -0.8095      2.00000
    177      -0.7822      2.00000
    178      -0.7808      2.00000
    179      -0.7764      2.00000
    180      -0.7758      2.00000
    181      -0.6765      2.00000
    182      -0.6735      2.00000
    183      -0.5819      2.00000
    184      -0.5436      2.00000
    185      -0.5435      2.00000
    186      -0.5253      2.00000
    187      -0.5227      2.00000
    188      -0.4411      2.00000
    189      -0.3039      2.00000
    190      -0.2556      2.00000
    191      -0.2544      2.00000
    192      -0.1559      2.00000
    193      -0.1545      2.00000
    194       0.0874      2.00000
    195       0.1565      2.00000
    196       0.2227      2.00000
    197       0.2228      2.00000
    198       0.2262      2.00000
    199       0.2264      2.00000
    200       0.2758      2.00000
    201       0.3110      2.00000
    202       0.3126      2.00000
    203       0.3460      2.00000
    204       0.3620      2.00000
    205       0.3623      2.00000
    206       0.3695      2.00000
    207       0.4196      2.00000
    208       0.4911      2.00000
    209       0.4913      2.00000
    210       0.6282      2.00000
    211       0.7193      2.00000
    212       0.7613      2.00000
    213       0.8205      2.00000
    214       0.8213      2.00000
    215       0.9133      2.00000
    216       0.9147      2.00000
    217       1.0022      2.00000
    218       1.0399      2.00000
    219       1.0400      2.00000
    220       1.1428      2.00000
    221       1.1437      2.00000
    222       1.2107      2.00000
    223       1.2575      2.00000
    224       1.3446      2.00000
    225       1.4041      2.00000
    226       1.4041      2.00000
    227       1.4805      2.00000
    228       1.5237      2.00000
    229       1.5939      2.00000
    230       1.6849      2.00000
    231       1.6849      2.00000
    232       1.8417      2.00000
    233       1.8417      2.00000
    234       1.8811      2.00000
    235       3.5364      0.00000
    236       3.5371      0.00000
    237       3.8446      0.00000
    238       3.8459      0.00000
    239       3.9196      0.00000
    240       3.9203      0.00000
    241       3.9212      0.00000
    242       3.9297      0.00000
    243       3.9300      0.00000
    244       4.0801      0.00000
    245       4.0803      0.00000
    246       4.1773      0.00000
    247       4.1794      0.00000
    248       4.2078      0.00000
    249       4.2090      0.00000
    250       4.2114      0.00000
    251       4.2202      0.00000
    252       4.2326      0.00000
    253       4.2770      0.00000
    254       4.2961      0.00000
    255       4.2977      0.00000
    256       4.3584      0.00000
    257       4.4305      0.00000
    258       4.4457      0.00000
    259       4.4460      0.00000
    260       4.4835      0.00000
    261       4.4837      0.00000
    262       4.4930      0.00000
    263       4.4939      0.00000
    264       4.5007      0.00000
    265       4.5290      0.00000
    266       4.5764      0.00000
    267       4.5765      0.00000
    268       4.6648      0.00000
    269       4.6655      0.00000
    270       4.6733      0.00000
    271       4.6826      0.00000
    272       4.7123      0.00000
    273       4.8155      0.00000
    274       4.8287      0.00000
    275       4.8409      0.00000
    276       4.8409      0.00000
    277       4.9214      0.00000
    278       4.9223      0.00000
    279       4.9507      0.00000
    280       4.9518      0.00000
    281       5.0080      0.00000
    282       5.0543      0.00000
    283       5.0553      0.00000
    284       5.2657      0.00000
    285       5.4297      0.00000
    286       5.4615      0.00000

 k-point     8 :       0.4000    0.2000    0.0000
  band No.  band energies     occupation 
      1     -72.4539      2.00000
      2     -72.4500      2.00000
      3     -72.4493      2.00000
      4     -72.4460      2.00000
      5     -72.4452      2.00000
      6     -72.4440      2.00000
      7     -72.4433      2.00000
      8     -72.4424      2.00000
      9     -72.4421      2.00000
     10     -58.6472      2.00000
     11     -58.6376      2.00000
     12     -58.6375      2.00000
     13     -58.6280      2.00000
     14     -58.6280      2.00000
     15     -58.6236      2.00000
     16     -58.6235      2.00000
     17     -58.6214      2.00000
     18     -58.6205      2.00000
     19     -36.8117      2.00000
     20     -36.8115      2.00000
     21     -36.7957      2.00000
     22     -36.7791      2.00000
     23     -36.7606      2.00000
     24     -36.7602      2.00000
     25     -36.6886      2.00000
     26     -36.6856      2.00000
     27     -36.6854      2.00000
     28     -36.6816      2.00000
     29     -36.6342      2.00000
     30     -36.6311      2.00000
     31     -36.6308      2.00000
     32     -36.6299      2.00000
     33     -36.6296      2.00000
     34     -36.6180      2.00000
     35     -36.6175      2.00000
     36     -36.6017      2.00000
     37     -36.6012      2.00000
     38     -36.5965      2.00000
     39     -36.5954      2.00000
     40     -36.5951      2.00000
     41     -36.5942      2.00000
     42     -36.5937      2.00000
     43     -36.5901      2.00000
     44     -36.5887      2.00000
     45     -36.5713      2.00000
     46     -32.8871      2.00000
     47     -32.8870      2.00000
     48     -32.8689      2.00000
     49     -32.8504      2.00000
     50     -32.8299      2.00000
     51     -32.8297      2.00000
     52     -32.8296      2.00000
     53     -32.8083      2.00000
     54     -32.8083      2.00000
     55     -32.7870      2.00000
     56     -32.7869      2.00000
     57     -32.7770      2.00000
     58     -32.7770      2.00000
     59     -32.7721      2.00000
     60     -32.7702      2.00000
     61     -32.7480      2.00000
     62     -32.7459      2.00000
     63     -32.7459      2.00000
     64     -32.7401      2.00000
     65     -32.6835      2.00000
     66     -32.6835      2.00000
     67     -32.6819      2.00000
     68     -32.6819      2.00000
     69     -32.6462      2.00000
     70     -32.6441      2.00000
     71     -32.6441      2.00000
     72     -32.6178      2.00000
     73     -12.7433      2.00000
     74     -12.1561      2.00000
     75     -12.1526      2.00000
     76     -12.0578      2.00000
     77     -11.4842      2.00000
     78     -11.4840      2.00000
     79     -11.4825      2.00000
     80     -11.4790      2.00000
     81     -11.2906      2.00000
     82     -11.1157      2.00000
     83     -11.1120      2.00000
     84     -11.0530      2.00000
     85     -11.0328      2.00000
     86     -11.0325      2.00000
     87     -10.9452      2.00000
     88     -10.8638      2.00000
     89     -10.8534      2.00000
     90     -10.8532      2.00000
     91     -10.7786      2.00000
     92     -10.7782      2.00000
     93     -10.7268      2.00000
     94     -10.7259      2.00000
     95     -10.6799      2.00000
     96     -10.6788      2.00000
     97     -10.5930      2.00000
     98     -10.5672      2.00000
     99     -10.4267      2.00000
    100     -10.4264      2.00000
    101     -10.3962      2.00000
    102     -10.3960      2.00000
    103     -10.2337      2.00000
    104     -10.2337      2.00000
    105     -10.2312      2.00000
    106     -10.1464      2.00000
    107     -10.1203      2.00000
    108     -10.0765      2.00000
    109      -4.4884      2.00000
    110      -4.4864      2.00000
    111      -4.3592      2.00000
    112      -4.1241      2.00000
    113      -3.9181      2.00000
    114      -3.9173      2.00000
    115      -3.9162      2.00000
    116      -3.7910      2.00000
    117      -3.7885      2.00000
    118      -3.6973      2.00000
    119      -3.6261      2.00000
    120      -3.4968      2.00000
    121      -3.4967      2.00000
    122      -3.2538      2.00000
    123      -3.2521      2.00000
    124      -3.1927      2.00000
    125      -3.1520      2.00000
    126      -2.9778      2.00000
    127      -2.9767      2.00000
    128      -2.9674      2.00000
    129      -2.9499      2.00000
    130      -2.8627      2.00000
    131      -2.8623      2.00000
    132      -2.8541      2.00000
    133      -2.8537      2.00000
    134      -2.8202      2.00000
    135      -2.8173      2.00000
    136      -2.7737      2.00000
    137      -2.6661      2.00000
    138      -2.6655      2.00000
    139      -2.6172      2.00000
    140      -2.6169      2.00000
    141      -2.5612      2.00000
    142      -2.5374      2.00000
    143      -2.5360      2.00000
    144      -2.4304      2.00000
    145      -2.0511      2.00000
    146      -2.0507      2.00000
    147      -1.9497      2.00000
    148      -1.9486      2.00000
    149      -1.9323      2.00000
    150      -1.8508      2.00000
    151      -1.8499      2.00000
    152      -1.8421      2.00000
    153      -1.8181      2.00000
    154      -1.8167      2.00000
    155      -1.8157      2.00000
    156      -1.7684      2.00000
    157      -1.6274      2.00000
    158      -1.6265      2.00000
    159      -1.5713      2.00000
    160      -1.5032      2.00000
    161      -1.5024      2.00000
    162      -1.4649      2.00000
    163      -1.4206      2.00000
    164      -1.4204      2.00000
    165      -1.3588      2.00000
    166      -1.2934      2.00000
    167      -1.2923      2.00000
    168      -1.1572      2.00000
    169      -1.1188      2.00000
    170      -1.0808      2.00000
    171      -1.0801      2.00000
    172      -1.0496      2.00000
    173      -0.9599      2.00000
    174      -0.9445      2.00000
    175      -0.9089      2.00000
    176      -0.9084      2.00000
    177      -0.7504      2.00000
    178      -0.7481      2.00000
    179      -0.6784      2.00000
    180      -0.6775      2.00000
    181      -0.6772      2.00000
    182      -0.6770      2.00000
    183      -0.5666      2.00000
    184      -0.4952      2.00000
    185      -0.3802      2.00000
    186      -0.3484      2.00000
    187      -0.3126      2.00000
    188      -0.2574      2.00000
    189      -0.2548      2.00000
    190      -0.2527      2.00000
    191      -0.2080      2.00000
    192      -0.2070      2.00000
    193      -0.1406      2.00000
    194      -0.1405      2.00000
    195       0.0640      2.00000
    196       0.0663      2.00000
    197       0.0967      2.00000
    198       0.1800      2.00000
    199       0.1804      2.00000
    200       0.2544      2.00000
    201       0.2804      2.00000
    202       0.2986      2.00000
    203       0.2989      2.00000
    204       0.3129      2.00000
    205       0.3151      2.00000
    206       0.4690      2.00000
    207       0.6494      2.00000
    208       0.6498      2.00000
    209       0.7162      2.00000
    210       0.7162      2.00000
    211       0.7405      2.00000
    212       0.8076      2.00000
    213       0.8093      2.00000
    214       0.8188      2.00000
    215       0.8200      2.00000
    216       0.9281      2.00000
    217       0.9283      2.00000
    218       0.9809      2.00000
    219       0.9818      2.00000
    220       1.0593      2.00000
    221       1.0601      2.00000
    222       1.1667      2.00000
    223       1.2713      2.00000
    224       1.2791      2.00000
    225       1.3496      2.00000
    226       1.3497      2.00000
    227       1.5229      2.00000
    228       1.5229      2.00000
    229       1.5551      2.00000
    230       1.6833      2.00000
    231       1.6833      2.00000
    232       1.8361      2.00000
    233       1.9516      2.00000
    234       1.9904      2.00000
    235       3.6483      0.00000
    236       3.6488      0.00000
    237       3.7114      0.00000
    238       3.7379      0.00000
    239       3.7394      0.00000
    240       3.7628      0.00000
    241       4.0343      0.00000
    242       4.0442      0.00000
    243       4.0451      0.00000
    244       4.0473      0.00000
    245       4.0592      0.00000
    246       4.0602      0.00000
    247       4.1137      0.00000
    248       4.1145      0.00000
    249       4.1911      0.00000
    250       4.1914      0.00000
    251       4.2353      0.00000
    252       4.2519      0.00000
    253       4.2535      0.00000
    254       4.2945      0.00000
    255       4.3826      0.00000
    256       4.3836      0.00000
    257       4.4192      0.00000
    258       4.4451      0.00000
    259       4.4456      0.00000
    260       4.4701      0.00000
    261       4.4706      0.00000
    262       4.4980      0.00000
    263       4.4984      0.00000
    264       4.5043      0.00000
    265       4.5044      0.00000
    266       4.5563      0.00000
    267       4.6162      0.00000
    268       4.6175      0.00000
    269       4.6401      0.00000
    270       4.7469      0.00000
    271       4.7550      0.00000
    272       4.7552      0.00000
    273       4.7600      0.00000
    274       4.7762      0.00000
    275       4.8266      0.00000
    276       4.8790      0.00000
    277       4.8798      0.00000
    278       4.9573      0.00000
    279       4.9607      0.00000
    280       5.0571      0.00000
    281       5.1208      0.00000
    282       5.2067      0.00000
    283       5.2073      0.00000
    284       5.3407      0.00000
    285       5.4007      0.00000
    286       5.4050      0.00000

 k-point     9 :       0.2000    0.4000    0.0000
  band No.  band energies     occupation 
      1     -72.4539      2.00000
      2     -72.4501      2.00000
      3     -72.4492      2.00000
      4     -72.4460      2.00000
      5     -72.4451      2.00000
      6     -72.4441      2.00000
      7     -72.4432      2.00000
      8     -72.4424      2.00000
      9     -72.4421      2.00000
     10     -58.6472      2.00000
     11     -58.6376      2.00000
     12     -58.6376      2.00000
     13     -58.6280      2.00000
     14     -58.6280      2.00000
     15     -58.6236      2.00000
     16     -58.6235      2.00000
     17     -58.6214      2.00000
     18     -58.6205      2.00000
     19     -36.8117      2.00000
     20     -36.8115      2.00000
     21     -36.7957      2.00000
     22     -36.7791      2.00000
     23     -36.7607      2.00000
     24     -36.7601      2.00000
     25     -36.6886      2.00000
     26     -36.6856      2.00000
     27     -36.6854      2.00000
     28     -36.6816      2.00000
     29     -36.6342      2.00000
     30     -36.6310      2.00000
     31     -36.6308      2.00000
     32     -36.6299      2.00000
     33     -36.6295      2.00000
     34     -36.6180      2.00000
     35     -36.6175      2.00000
     36     -36.6017      2.00000
     37     -36.6012      2.00000
     38     -36.5964      2.00000
     39     -36.5954      2.00000
     40     -36.5951      2.00000
     41     -36.5942      2.00000
     42     -36.5936      2.00000
     43     -36.5901      2.00000
     44     -36.5887      2.00000
     45     -36.5713      2.00000
     46     -32.8871      2.00000
     47     -32.8870      2.00000
     48     -32.8689      2.00000
     49     -32.8504      2.00000
     50     -32.8299      2.00000
     51     -32.8296      2.00000
     52     -32.8296      2.00000
     53     -32.8083      2.00000
     54     -32.8083      2.00000
     55     -32.7869      2.00000
     56     -32.7869      2.00000
     57     -32.7770      2.00000
     58     -32.7770      2.00000
     59     -32.7721      2.00000
     60     -32.7702      2.00000
     61     -32.7480      2.00000
     62     -32.7459      2.00000
     63     -32.7459      2.00000
     64     -32.7401      2.00000
     65     -32.6835      2.00000
     66     -32.6835      2.00000
     67     -32.6819      2.00000
     68     -32.6819      2.00000
     69     -32.6462      2.00000
     70     -32.6441      2.00000
     71     -32.6441      2.00000
     72     -32.6178      2.00000
     73     -12.7433      2.00000
     74     -12.1561      2.00000
     75     -12.1525      2.00000
     76     -12.0578      2.00000
     77     -11.4842      2.00000
     78     -11.4840      2.00000
     79     -11.4825      2.00000
     80     -11.4787      2.00000
     81     -11.2906      2.00000
     82     -11.1156      2.00000
     83     -11.1122      2.00000
     84     -11.0530      2.00000
     85     -11.0329      2.00000
     86     -11.0324      2.00000
     87     -10.9452      2.00000
     88     -10.8637      2.00000
     89     -10.8534      2.00000
     90     -10.8532      2.00000
     91     -10.7786      2.00000
     92     -10.7782      2.00000
     93     -10.7268      2.00000
     94     -10.7261      2.00000
     95     -10.6799      2.00000
     96     -10.6786      2.00000
     97     -10.5929      2.00000
     98     -10.5673      2.00000
     99     -10.4267      2.00000
    100     -10.4265      2.00000
    101     -10.3962      2.00000
    102     -10.3960      2.00000
    103     -10.2337      2.00000
    104     -10.2337      2.00000
    105     -10.2312      2.00000
    106     -10.1464      2.00000
    107     -10.1203      2.00000
    108     -10.0765      2.00000
    109      -4.4881      2.00000
    110      -4.4865      2.00000
    111      -4.3592      2.00000
    112      -4.1243      2.00000
    113      -3.9180      2.00000
    114      -3.9171      2.00000
    115      -3.9166      2.00000
    116      -3.7910      2.00000
    117      -3.7886      2.00000
    118      -3.6971      2.00000
    119      -3.6264      2.00000
    120      -3.4968      2.00000
    121      -3.4967      2.00000
    122      -3.2539      2.00000
    123      -3.2523      2.00000
    124      -3.1928      2.00000
    125      -3.1520      2.00000
    126      -2.9775      2.00000
    127      -2.9768      2.00000
    128      -2.9674      2.00000
    129      -2.9499      2.00000
    130      -2.8626      2.00000
    131      -2.8625      2.00000
    132      -2.8542      2.00000
    133      -2.8535      2.00000
    134      -2.8203      2.00000
    135      -2.8171      2.00000
    136      -2.7736      2.00000
    137      -2.6660      2.00000
    138      -2.6654      2.00000
    139      -2.6172      2.00000
    140      -2.6170      2.00000
    141      -2.5610      2.00000
    142      -2.5373      2.00000
    143      -2.5363      2.00000
    144      -2.4303      2.00000
    145      -2.0511      2.00000
    146      -2.0507      2.00000
    147      -1.9499      2.00000
    148      -1.9481      2.00000
    149      -1.9323      2.00000
    150      -1.8509      2.00000
    151      -1.8497      2.00000
    152      -1.8422      2.00000
    153      -1.8179      2.00000
    154      -1.8170      2.00000
    155      -1.8155      2.00000
    156      -1.7685      2.00000
    157      -1.6274      2.00000
    158      -1.6265      2.00000
    159      -1.5714      2.00000
    160      -1.5033      2.00000
    161      -1.5023      2.00000
    162      -1.4648      2.00000
    163      -1.4206      2.00000
    164      -1.4203      2.00000
    165      -1.3587      2.00000
    166      -1.2937      2.00000
    167      -1.2922      2.00000
    168      -1.1569      2.00000
    169      -1.1185      2.00000
    170      -1.0807      2.00000
    171      -1.0804      2.00000
    172      -1.0496      2.00000
    173      -0.9598      2.00000
    174      -0.9446      2.00000
    175      -0.9089      2.00000
    176      -0.9084      2.00000
    177      -0.7503      2.00000
    178      -0.7483      2.00000
    179      -0.6784      2.00000
    180      -0.6774      2.00000
    181      -0.6772      2.00000
    182      -0.6770      2.00000
    183      -0.5666      2.00000
    184      -0.4959      2.00000
    185      -0.3802      2.00000
    186      -0.3487      2.00000
    187      -0.3124      2.00000
    188      -0.2570      2.00000
    189      -0.2549      2.00000
    190      -0.2527      2.00000
    191      -0.2081      2.00000
    192      -0.2071      2.00000
    193      -0.1406      2.00000
    194      -0.1405      2.00000
    195       0.0637      2.00000
    196       0.0662      2.00000
    197       0.0968      2.00000
    198       0.1800      2.00000
    199       0.1803      2.00000
    200       0.2544      2.00000
    201       0.2804      2.00000
    202       0.2986      2.00000
    203       0.2990      2.00000
    204       0.3131      2.00000
    205       0.3150      2.00000
    206       0.4691      2.00000
    207       0.6493      2.00000
    208       0.6498      2.00000
    209       0.7162      2.00000
    210       0.7162      2.00000
    211       0.7405      2.00000
    212       0.8077      2.00000
    213       0.8095      2.00000
    214       0.8188      2.00000
    215       0.8195      2.00000
    216       0.9282      2.00000
    217       0.9284      2.00000
    218       0.9810      2.00000
    219       0.9816      2.00000
    220       1.0593      2.00000
    221       1.0601      2.00000
    222       1.1668      2.00000
    223       1.2712      2.00000
    224       1.2791      2.00000
    225       1.3496      2.00000
    226       1.3497      2.00000
    227       1.5229      2.00000
    228       1.5229      2.00000
    229       1.5551      2.00000
    230       1.6833      2.00000
    231       1.6833      2.00000
    232       1.8360      2.00000
    233       1.9516      2.00000
    234       1.9905      2.00000
    235       3.6482      0.00000
    236       3.6490      0.00000
    237       3.7113      0.00000
    238       3.7379      0.00000
    239       3.7395      0.00000
    240       3.7629      0.00000
    241       4.0344      0.00000
    242       4.0446      0.00000
    243       4.0451      0.00000
    244       4.0473      0.00000
    245       4.0591      0.00000
    246       4.0602      0.00000
    247       4.1137      0.00000
    248       4.1146      0.00000
    249       4.1911      0.00000
    250       4.1915      0.00000
    251       4.2348      0.00000
    252       4.2515      0.00000
    253       4.2534      0.00000
    254       4.2944      0.00000
    255       4.3827      0.00000
    256       4.3834      0.00000
    257       4.4190      0.00000
    258       4.4450      0.00000
    259       4.4457      0.00000
    260       4.4701      0.00000
    261       4.4706      0.00000
    262       4.4981      0.00000
    263       4.4984      0.00000
    264       4.5042      0.00000
    265       4.5043      0.00000
    266       4.5564      0.00000
    267       4.6162      0.00000
    268       4.6177      0.00000
    269       4.6401      0.00000
    270       4.7468      0.00000
    271       4.7550      0.00000
    272       4.7553      0.00000
    273       4.7608      0.00000
    274       4.7761      0.00000
    275       4.8266      0.00000
    276       4.8787      0.00000
    277       4.8800      0.00000
    278       4.9573      0.00000
    279       4.9607      0.00000
    280       5.0571      0.00000
    281       5.1208      0.00000
    282       5.2066      0.00000
    283       5.2075      0.00000
    284       5.3243      0.00000
    285       5.4008      0.00000
    286       5.4048      0.00000

 k-point    10 :      -0.2000    0.2000    0.0000
  band No.  band energies     occupation 
      1     -72.4539      2.00000
      2     -72.4499      2.00000
      3     -72.4494      2.00000
      4     -72.4459      2.00000
      5     -72.4453      2.00000
      6     -72.4439      2.00000
      7     -72.4433      2.00000
      8     -72.4424      2.00000
      9     -72.4421      2.00000
     10     -58.6472      2.00000
     11     -58.6376      2.00000
     12     -58.6375      2.00000
     13     -58.6280      2.00000
     14     -58.6280      2.00000
     15     -58.6236      2.00000
     16     -58.6235      2.00000
     17     -58.6214      2.00000
     18     -58.6205      2.00000
     19     -36.8117      2.00000
     20     -36.8115      2.00000
     21     -36.7957      2.00000
     22     -36.7792      2.00000
     23     -36.7605      2.00000
     24     -36.7602      2.00000
     25     -36.6886      2.00000
     26     -36.6856      2.00000
     27     -36.6854      2.00000
     28     -36.6816      2.00000
     29     -36.6342      2.00000
     30     -36.6311      2.00000
     31     -36.6308      2.00000
     32     -36.6298      2.00000
     33     -36.6296      2.00000
     34     -36.6180      2.00000
     35     -36.6175      2.00000
     36     -36.6017      2.00000
     37     -36.6012      2.00000
     38     -36.5965      2.00000
     39     -36.5954      2.00000
     40     -36.5952      2.00000
     41     -36.5941      2.00000
     42     -36.5937      2.00000
     43     -36.5901      2.00000
     44     -36.5887      2.00000
     45     -36.5713      2.00000
     46     -32.8871      2.00000
     47     -32.8870      2.00000
     48     -32.8689      2.00000
     49     -32.8504      2.00000
     50     -32.8299      2.00000
     51     -32.8297      2.00000
     52     -32.8296      2.00000
     53     -32.8083      2.00000
     54     -32.8083      2.00000
     55     -32.7869      2.00000
     56     -32.7869      2.00000
     57     -32.7770      2.00000
     58     -32.7770      2.00000
     59     -32.7721      2.00000
     60     -32.7702      2.00000
     61     -32.7480      2.00000
     62     -32.7459      2.00000
     63     -32.7459      2.00000
     64     -32.7401      2.00000
     65     -32.6835      2.00000
     66     -32.6835      2.00000
     67     -32.6819      2.00000
     68     -32.6819      2.00000
     69     -32.6462      2.00000
     70     -32.6441      2.00000
     71     -32.6441      2.00000
     72     -32.6178      2.00000
     73     -12.7433      2.00000
     74     -12.1562      2.00000
     75     -12.1525      2.00000
     76     -12.0578      2.00000
     77     -11.4842      2.00000
     78     -11.4840      2.00000
     79     -11.4825      2.00000
     80     -11.4791      2.00000
     81     -11.2906      2.00000
     82     -11.1157      2.00000
     83     -11.1118      2.00000
     84     -11.0530      2.00000
     85     -11.0329      2.00000
     86     -11.0324      2.00000
     87     -10.9451      2.00000
     88     -10.8640      2.00000
     89     -10.8534      2.00000
     90     -10.8530      2.00000
     91     -10.7786      2.00000
     92     -10.7782      2.00000
     93     -10.7268      2.00000
     94     -10.7258      2.00000
     95     -10.6799      2.00000
     96     -10.6791      2.00000
     97     -10.5931      2.00000
     98     -10.5670      2.00000
     99     -10.4267      2.00000
    100     -10.4264      2.00000
    101     -10.3962      2.00000
    102     -10.3960      2.00000
    103     -10.2337      2.00000
    104     -10.2337      2.00000
    105     -10.2312      2.00000
    106     -10.1464      2.00000
    107     -10.1203      2.00000
    108     -10.0765      2.00000
    109      -4.4886      2.00000
    110      -4.4862      2.00000
    111      -4.3591      2.00000
    112      -4.1240      2.00000
    113      -3.9183      2.00000
    114      -3.9174      2.00000
    115      -3.9159      2.00000
    116      -3.7911      2.00000
    117      -3.7884      2.00000
    118      -3.6975      2.00000
    119      -3.6259      2.00000
    120      -3.4968      2.00000
    121      -3.4967      2.00000
    122      -3.2537      2.00000
    123      -3.2519      2.00000
    124      -3.1927      2.00000
    125      -3.1520      2.00000
    126      -2.9781      2.00000
    127      -2.9766      2.00000
    128      -2.9674      2.00000
    129      -2.9499      2.00000
    130      -2.8627      2.00000
    131      -2.8622      2.00000
    132      -2.8543      2.00000
    133      -2.8536      2.00000
    134      -2.8202      2.00000
    135      -2.8175      2.00000
    136      -2.7737      2.00000
    137      -2.6662      2.00000
    138      -2.6656      2.00000
    139      -2.6172      2.00000
    140      -2.6169      2.00000
    141      -2.5614      2.00000
    142      -2.5376      2.00000
    143      -2.5357      2.00000
    144      -2.4304      2.00000
    145      -2.0512      2.00000
    146      -2.0507      2.00000
    147      -1.9496      2.00000
    148      -1.9490      2.00000
    149      -1.9323      2.00000
    150      -1.8509      2.00000
    151      -1.8499      2.00000
    152      -1.8419      2.00000
    153      -1.8182      2.00000
    154      -1.8165      2.00000
    155      -1.8159      2.00000
    156      -1.7684      2.00000
    157      -1.6274      2.00000
    158      -1.6264      2.00000
    159      -1.5713      2.00000
    160      -1.5032      2.00000
    161      -1.5026      2.00000
    162      -1.4651      2.00000
    163      -1.4206      2.00000
    164      -1.4204      2.00000
    165      -1.3588      2.00000
    166      -1.2934      2.00000
    167      -1.2921      2.00000
    168      -1.1575      2.00000
    169      -1.1191      2.00000
    170      -1.0808      2.00000
    171      -1.0797      2.00000
    172      -1.0496      2.00000
    173      -0.9599      2.00000
    174      -0.9445      2.00000
    175      -0.9090      2.00000
    176      -0.9084      2.00000
    177      -0.7505      2.00000
    178      -0.7479      2.00000
    179      -0.6784      2.00000
    180      -0.6776      2.00000
    181      -0.6771      2.00000
    182      -0.6770      2.00000
    183      -0.5666      2.00000
    184      -0.4944      2.00000
    185      -0.3802      2.00000
    186      -0.3481      2.00000
    187      -0.3128      2.00000
    188      -0.2574      2.00000
    189      -0.2551      2.00000
    190      -0.2527      2.00000
    191      -0.2080      2.00000
    192      -0.2068      2.00000
    193      -0.1407      2.00000
    194      -0.1404      2.00000
    195       0.0643      2.00000
    196       0.0662      2.00000
    197       0.0966      2.00000
    198       0.1800      2.00000
    199       0.1805      2.00000
    200       0.2545      2.00000
    201       0.2804      2.00000
    202       0.2986      2.00000
    203       0.2988      2.00000
    204       0.3128      2.00000
    205       0.3151      2.00000
    206       0.4689      2.00000
    207       0.6495      2.00000
    208       0.6498      2.00000
    209       0.7162      2.00000
    210       0.7162      2.00000
    211       0.7405      2.00000
    212       0.8075      2.00000
    213       0.8090      2.00000
    214       0.8188      2.00000
    215       0.8204      2.00000
    216       0.9279      2.00000
    217       0.9282      2.00000
    218       0.9808      2.00000
    219       0.9821      2.00000
    220       1.0593      2.00000
    221       1.0601      2.00000
    222       1.1666      2.00000
    223       1.2714      2.00000
    224       1.2791      2.00000
    225       1.3497      2.00000
    226       1.3497      2.00000
    227       1.5229      2.00000
    228       1.5229      2.00000
    229       1.5551      2.00000
    230       1.6833      2.00000
    231       1.6833      2.00000
    232       1.8361      2.00000
    233       1.9516      2.00000
    234       1.9903      2.00000
    235       3.6483      0.00000
    236       3.6487      0.00000
    237       3.7116      0.00000
    238       3.7378      0.00000
    239       3.7394      0.00000
    240       3.7627      0.00000
    241       4.0343      0.00000
    242       4.0438      0.00000
    243       4.0452      0.00000
    244       4.0473      0.00000
    245       4.0591      0.00000
    246       4.0603      0.00000
    247       4.1137      0.00000
    248       4.1145      0.00000
    249       4.1912      0.00000
    250       4.1913      0.00000
    251       4.2358      0.00000
    252       4.2522      0.00000
    253       4.2536      0.00000
    254       4.2946      0.00000
    255       4.3825      0.00000
    256       4.3837      0.00000
    257       4.4194      0.00000
    258       4.4451      0.00000
    259       4.4455      0.00000
    260       4.4701      0.00000
    261       4.4705      0.00000
    262       4.4980      0.00000
    263       4.4985      0.00000
    264       4.5043      0.00000
    265       4.5044      0.00000
    266       4.5562      0.00000
    267       4.6163      0.00000
    268       4.6173      0.00000
    269       4.6401      0.00000
    270       4.7470      0.00000
    271       4.7550      0.00000
    272       4.7552      0.00000
    273       4.7591      0.00000
    274       4.7763      0.00000
    275       4.8266      0.00000
    276       4.8793      0.00000
    277       4.8797      0.00000
    278       4.9573      0.00000
    279       4.9606      0.00000
    280       5.0570      0.00000
    281       5.1209      0.00000
    282       5.2067      0.00000
    283       5.2073      0.00000
    284       5.3302      0.00000
    285       5.4007      0.00000
    286       5.4047      0.00000

 k-point    11 :      -0.4000    0.2000    0.0000
  band No.  band energies     occupation 
      1     -72.4525      2.00000
      2     -72.4516      2.00000
      3     -72.4500      2.00000
      4     -72.4459      2.00000
      5     -72.4443      2.00000
      6     -72.4437      2.00000
      7     -72.4432      2.00000
      8     -72.4426      2.00000
      9     -72.4424      2.00000
     10     -58.6430      2.00000
     11     -58.6430      2.00000
     12     -58.6384      2.00000
     13     -58.6284      2.00000
     14     -58.6243      2.00000
     15     -58.6243      2.00000
     16     -58.6224      2.00000
     17     -58.6219      2.00000
     18     -58.6218      2.00000
     19     -36.8222      2.00000
     20     -36.8098      2.00000
     21     -36.8095      2.00000
     22     -36.7751      2.00000
     23     -36.7748      2.00000
     24     -36.7503      2.00000
     25     -36.6751      2.00000
     26     -36.6594      2.00000
     27     -36.6592      2.00000
     28     -36.6520      2.00000
     29     -36.6516      2.00000
     30     -36.6369      2.00000
     31     -36.6360      2.00000
     32     -36.6354      2.00000
     33     -36.6327      2.00000
     34     -36.6272      2.00000
     35     -36.6268      2.00000
     36     -36.6191      2.00000
     37     -36.6021      2.00000
     38     -36.5963      2.00000
     39     -36.5954      2.00000
     40     -36.5949      2.00000
     41     -36.5920      2.00000
     42     -36.5911      2.00000
     43     -36.5907      2.00000
     44     -36.5819      2.00000
     45     -36.5818      2.00000
     46     -32.8989      2.00000
     47     -32.8847      2.00000
     48     -32.8847      2.00000
     49     -32.8458      2.00000
     50     -32.8458      2.00000
     51     -32.8204      2.00000
     52     -32.8204      2.00000
     53     -32.8183      2.00000
     54     -32.8101      2.00000
     55     -32.7878      2.00000
     56     -32.7786      2.00000
     57     -32.7786      2.00000
     58     -32.7743      2.00000
     59     -32.7732      2.00000
     60     -32.7732      2.00000
     61     -32.7343      2.00000
     62     -32.7152      2.00000
     63     -32.7152      2.00000
     64     -32.7066      2.00000
     65     -32.7066      2.00000
     66     -32.6902      2.00000
     67     -32.6901      2.00000
     68     -32.6901      2.00000
     69     -32.6851      2.00000
     70     -32.6452      2.00000
     71     -32.6293      2.00000
     72     -32.6293      2.00000
     73     -12.4960      2.00000
     74     -12.4923      2.00000
     75     -12.2072      2.00000
     76     -11.8165      2.00000
     77     -11.8164      2.00000
     78     -11.5362      2.00000
     79     -11.5116      2.00000
     80     -11.1902      2.00000
     81     -11.1867      2.00000
     82     -11.1782      2.00000
     83     -11.1776      2.00000
     84     -11.0542      2.00000
     85     -11.0085      2.00000
     86     -10.9741      2.00000
     87     -10.9702      2.00000
     88     -10.9414      2.00000
     89     -10.9408      2.00000
     90     -10.8763      2.00000
     91     -10.8040      2.00000
     92     -10.7446      2.00000
     93     -10.6946      2.00000
     94     -10.6938      2.00000
     95     -10.6424      2.00000
     96     -10.6194      2.00000
     97     -10.6179      2.00000
     98     -10.4752      2.00000
     99     -10.4749      2.00000
    100     -10.4413      2.00000
    101     -10.2882      2.00000
    102     -10.2624      2.00000
    103     -10.2622      2.00000
    104     -10.2542      2.00000
    105     -10.2540      2.00000
    106     -10.1768      2.00000
    107     -10.1483      2.00000
    108     -10.1483      2.00000
    109      -4.6006      2.00000
    110      -4.3898      2.00000
    111      -4.3887      2.00000
    112      -4.0850      2.00000
    113      -4.0829      2.00000
    114      -3.9656      2.00000
    115      -3.9645      2.00000
    116      -3.8013      2.00000
    117      -3.7809      2.00000
    118      -3.6485      2.00000
    119      -3.4898      2.00000
    120      -3.4881      2.00000
    121      -3.4207      2.00000
    122      -3.4196      2.00000
    123      -3.3556      2.00000
    124      -3.2639      2.00000
    125      -3.2607      2.00000
    126      -2.9711      2.00000
    127      -2.9705      2.00000
    128      -2.9484      2.00000
    129      -2.9425      2.00000
    130      -2.9129      2.00000
    131      -2.9128      2.00000
    132      -2.8949      2.00000
    133      -2.8948      2.00000
    134      -2.7791      2.00000
    135      -2.7743      2.00000
    136      -2.6387      2.00000
    137      -2.6025      2.00000
    138      -2.6017      2.00000
    139      -2.5953      2.00000
    140      -2.5724      2.00000
    141      -2.5708      2.00000
    142      -2.5605      2.00000
    143      -2.3640      2.00000
    144      -2.3636      2.00000
    145      -2.3404      2.00000
    146      -2.3363      2.00000
    147      -1.9719      2.00000
    148      -1.9252      2.00000
    149      -1.9249      2.00000
    150      -1.8592      2.00000
    151      -1.8566      2.00000
    152      -1.8561      2.00000
    153      -1.8413      2.00000
    154      -1.7835      2.00000
    155      -1.6532      2.00000
    156      -1.5475      2.00000
    157      -1.5470      2.00000
    158      -1.4989      2.00000
    159      -1.4983      2.00000
    160      -1.4820      2.00000
    161      -1.4294      2.00000
    162      -1.4289      2.00000
    163      -1.4175      2.00000
    164      -1.3117      2.00000
    165      -1.3110      2.00000
    166      -1.3102      2.00000
    167      -1.0637      2.00000
    168      -1.0323      2.00000
    169      -1.0320      2.00000
    170      -0.9459      2.00000
    171      -0.9404      2.00000
    172      -0.9351      2.00000
    173      -0.9294      2.00000
    174      -0.9280      2.00000
    175      -0.9142      2.00000
    176      -0.8950      2.00000
    177      -0.8922      2.00000
    178      -0.8750      2.00000
    179      -0.8745      2.00000
    180      -0.7726      2.00000
    181      -0.7624      2.00000
    182      -0.7615      2.00000
    183      -0.6930      2.00000
    184      -0.6418      2.00000
    185      -0.6407      2.00000
    186      -0.3900      2.00000
    187      -0.3899      2.00000
    188      -0.3243      2.00000
    189      -0.3036      2.00000
    190      -0.2973      2.00000
    191      -0.2966      2.00000
    192      -0.1621      2.00000
    193      -0.0206      2.00000
    194      -0.0191      2.00000
    195      -0.0098      2.00000
    196       0.1133      2.00000
    197       0.1662      2.00000
    198       0.1666      2.00000
    199       0.2331      2.00000
    200       0.2365      2.00000
    201       0.2366      2.00000
    202       0.2861      2.00000
    203       0.2865      2.00000
    204       0.4534      2.00000
    205       0.4560      2.00000
    206       0.4572      2.00000
    207       0.4974      2.00000
    208       0.4976      2.00000
    209       0.5124      2.00000
    210       0.5129      2.00000
    211       0.6042      2.00000
    212       0.7482      2.00000
    213       0.8914      2.00000
    214       0.9195      2.00000
    215       0.9346      2.00000
    216       0.9358      2.00000
    217       0.9664      2.00000
    218       1.0696      2.00000
    219       1.0711      2.00000
    220       1.0893      2.00000
    221       1.2455      2.00000
    222       1.2458      2.00000
    223       1.2593      2.00000
    224       1.4053      2.00000
    225       1.4062      2.00000
    226       1.4152      2.00000
    227       1.5165      2.00000
    228       1.6256      2.00000
    229       1.6259      2.00000
    230       1.6496      2.00000
    231       1.6496      2.00000
    232       1.7598      2.00000
    233       1.8364      2.00000
    234       1.8364      2.00000
    235       3.5505      0.00000
    236       3.6753      0.00000
    237       3.7814      0.00000
    238       3.7826      0.00000
    239       3.9720      0.00000
    240       3.9735      0.00000
    241       4.0100      0.00000
    242       4.0162      0.00000
    243       4.0320      0.00000
    244       4.0330      0.00000
    245       4.1739      0.00000
    246       4.1740      0.00000
    247       4.1785      0.00000
    248       4.1936      0.00000
    249       4.1947      0.00000
    250       4.2055      0.00000
    251       4.2061      0.00000
    252       4.2109      0.00000
    253       4.2524      0.00000
    254       4.2542      0.00000
    255       4.2597      0.00000
    256       4.2937      0.00000
    257       4.3533      0.00000
    258       4.3538      0.00000
    259       4.3925      0.00000
    260       4.4549      0.00000
    261       4.4551      0.00000
    262       4.4959      0.00000
    263       4.5135      0.00000
    264       4.5665      0.00000
    265       4.5833      0.00000
    266       4.5997      0.00000
    267       4.5997      0.00000
    268       4.6551      0.00000
    269       4.6556      0.00000
    270       4.6642      0.00000
    271       4.6645      0.00000
    272       4.7291      0.00000
    273       4.7416      0.00000
    274       4.7422      0.00000
    275       4.7435      0.00000
    276       4.7599      0.00000
    277       4.7600      0.00000
    278       4.8142      0.00000
    279       4.8148      0.00000
    280       5.0415      0.00000
    281       5.1860      0.00000
    282       5.1888      0.00000
    283       5.2445      0.00000
    284       5.2470      0.00000
    285       5.2598      0.00000
    286       5.2608      0.00000

 k-point    12 :       0.4000   -0.4000    0.0000
  band No.  band energies     occupation 
      1     -72.4524      2.00000
      2     -72.4517      2.00000
      3     -72.4499      2.00000
      4     -72.4458      2.00000
      5     -72.4443      2.00000
      6     -72.4438      2.00000
      7     -72.4431      2.00000
      8     -72.4426      2.00000
      9     -72.4424      2.00000
     10     -58.6430      2.00000
     11     -58.6430      2.00000
     12     -58.6384      2.00000
     13     -58.6284      2.00000
     14     -58.6243      2.00000
     15     -58.6242      2.00000
     16     -58.6224      2.00000
     17     -58.6219      2.00000
     18     -58.6218      2.00000
     19     -36.8222      2.00000
     20     -36.8098      2.00000
     21     -36.8095      2.00000
     22     -36.7751      2.00000
     23     -36.7748      2.00000
     24     -36.7503      2.00000
     25     -36.6752      2.00000
     26     -36.6594      2.00000
     27     -36.6592      2.00000
     28     -36.6519      2.00000
     29     -36.6517      2.00000
     30     -36.6368      2.00000
     31     -36.6359      2.00000
     32     -36.6355      2.00000
     33     -36.6327      2.00000
     34     -36.6272      2.00000
     35     -36.6268      2.00000
     36     -36.6191      2.00000
     37     -36.6021      2.00000
     38     -36.5963      2.00000
     39     -36.5954      2.00000
     40     -36.5949      2.00000
     41     -36.5920      2.00000
     42     -36.5911      2.00000
     43     -36.5907      2.00000
     44     -36.5819      2.00000
     45     -36.5817      2.00000
     46     -32.8989      2.00000
     47     -32.8847      2.00000
     48     -32.8847      2.00000
     49     -32.8458      2.00000
     50     -32.8458      2.00000
     51     -32.8205      2.00000
     52     -32.8204      2.00000
     53     -32.8183      2.00000
     54     -32.8101      2.00000
     55     -32.7878      2.00000
     56     -32.7786      2.00000
     57     -32.7786      2.00000
     58     -32.7743      2.00000
     59     -32.7732      2.00000
     60     -32.7731      2.00000
     61     -32.7343      2.00000
     62     -32.7152      2.00000
     63     -32.7152      2.00000
     64     -32.7066      2.00000
     65     -32.7066      2.00000
     66     -32.6902      2.00000
     67     -32.6901      2.00000
     68     -32.6901      2.00000
     69     -32.6851      2.00000
     70     -32.6452      2.00000
     71     -32.6293      2.00000
     72     -32.6293      2.00000
     73     -12.4960      2.00000
     74     -12.4924      2.00000
     75     -12.2071      2.00000
     76     -11.8165      2.00000
     77     -11.8164      2.00000
     78     -11.5362      2.00000
     79     -11.5114      2.00000
     80     -11.1902      2.00000
     81     -11.1868      2.00000
     82     -11.1781      2.00000
     83     -11.1776      2.00000
     84     -11.0543      2.00000
     85     -11.0089      2.00000
     86     -10.9741      2.00000
     87     -10.9700      2.00000
     88     -10.9415      2.00000
     89     -10.9408      2.00000
     90     -10.8764      2.00000
     91     -10.8041      2.00000
     92     -10.7447      2.00000
     93     -10.6946      2.00000
     94     -10.6937      2.00000
     95     -10.6420      2.00000
     96     -10.6193      2.00000
     97     -10.6182      2.00000
     98     -10.4752      2.00000
     99     -10.4749      2.00000
    100     -10.4413      2.00000
    101     -10.2882      2.00000
    102     -10.2624      2.00000
    103     -10.2622      2.00000
    104     -10.2542      2.00000
    105     -10.2540      2.00000
    106     -10.1768      2.00000
    107     -10.1483      2.00000
    108     -10.1483      2.00000
    109      -4.6002      2.00000
    110      -4.3903      2.00000
    111      -4.3886      2.00000
    112      -4.0849      2.00000
    113      -4.0831      2.00000
    114      -3.9654      2.00000
    115      -3.9648      2.00000
    116      -3.8012      2.00000
    117      -3.7808      2.00000
    118      -3.6485      2.00000
    119      -3.4897      2.00000
    120      -3.4880      2.00000
    121      -3.4206      2.00000
    122      -3.4197      2.00000
    123      -3.3561      2.00000
    124      -3.2639      2.00000
    125      -3.2612      2.00000
    126      -2.9711      2.00000
    127      -2.9706      2.00000
    128      -2.9485      2.00000
    129      -2.9422      2.00000
    130      -2.9130      2.00000
    131      -2.9127      2.00000
    132      -2.8949      2.00000
    133      -2.8948      2.00000
    134      -2.7788      2.00000
    135      -2.7735      2.00000
    136      -2.6388      2.00000
    137      -2.6024      2.00000
    138      -2.6015      2.00000
    139      -2.5958      2.00000
    140      -2.5726      2.00000
    141      -2.5701      2.00000
    142      -2.5605      2.00000
    143      -2.3640      2.00000
    144      -2.3635      2.00000
    145      -2.3403      2.00000
    146      -2.3369      2.00000
    147      -1.9723      2.00000
    148      -1.9250      2.00000
    149      -1.9243      2.00000
    150      -1.8592      2.00000
    151      -1.8565      2.00000
    152      -1.8555      2.00000
    153      -1.8419      2.00000
    154      -1.7839      2.00000
    155      -1.6534      2.00000
    156      -1.5475      2.00000
    157      -1.5468      2.00000
    158      -1.4990      2.00000
    159      -1.4968      2.00000
    160      -1.4821      2.00000
    161      -1.4294      2.00000
    162      -1.4290      2.00000
    163      -1.4168      2.00000
    164      -1.3118      2.00000
    165      -1.3110      2.00000
    166      -1.3103      2.00000
    167      -1.0638      2.00000
    168      -1.0323      2.00000
    169      -1.0320      2.00000
    170      -0.9458      2.00000
    171      -0.9403      2.00000
    172      -0.9349      2.00000
    173      -0.9296      2.00000
    174      -0.9281      2.00000
    175      -0.9143      2.00000
    176      -0.8948      2.00000
    177      -0.8938      2.00000
    178      -0.8749      2.00000
    179      -0.8748      2.00000
    180      -0.7727      2.00000
    181      -0.7625      2.00000
    182      -0.7615      2.00000
    183      -0.6930      2.00000
    184      -0.6418      2.00000
    185      -0.6409      2.00000
    186      -0.3902      2.00000
    187      -0.3899      2.00000
    188      -0.3243      2.00000
    189      -0.3026      2.00000
    190      -0.2983      2.00000
    191      -0.2967      2.00000
    192      -0.1623      2.00000
    193      -0.0208      2.00000
    194      -0.0192      2.00000
    195      -0.0098      2.00000
    196       0.1131      2.00000
    197       0.1663      2.00000
    198       0.1667      2.00000
    199       0.2332      2.00000
    200       0.2365      2.00000
    201       0.2367      2.00000
    202       0.2861      2.00000
    203       0.2866      2.00000
    204       0.4535      2.00000
    205       0.4560      2.00000
    206       0.4573      2.00000
    207       0.4974      2.00000
    208       0.4976      2.00000
    209       0.5125      2.00000
    210       0.5128      2.00000
    211       0.6042      2.00000
    212       0.7479      2.00000
    213       0.8911      2.00000
    214       0.9200      2.00000
    215       0.9349      2.00000
    216       0.9358      2.00000
    217       0.9665      2.00000
    218       1.0695      2.00000
    219       1.0710      2.00000
    220       1.0884      2.00000
    221       1.2456      2.00000
    222       1.2457      2.00000
    223       1.2592      2.00000
    224       1.4052      2.00000
    225       1.4068      2.00000
    226       1.4151      2.00000
    227       1.5165      2.00000
    228       1.6258      2.00000
    229       1.6261      2.00000
    230       1.6496      2.00000
    231       1.6496      2.00000
    232       1.7598      2.00000
    233       1.8364      2.00000
    234       1.8364      2.00000
    235       3.5506      0.00000
    236       3.6756      0.00000
    237       3.7818      0.00000
    238       3.7822      0.00000
    239       3.9719      0.00000
    240       3.9734      0.00000
    241       4.0106      0.00000
    242       4.0164      0.00000
    243       4.0321      0.00000
    244       4.0327      0.00000
    245       4.1739      0.00000
    246       4.1740      0.00000
    247       4.1788      0.00000
    248       4.1930      0.00000
    249       4.1944      0.00000
    250       4.2054      0.00000
    251       4.2062      0.00000
    252       4.2110      0.00000
    253       4.2524      0.00000
    254       4.2544      0.00000
    255       4.2589      0.00000
    256       4.2940      0.00000
    257       4.3525      0.00000
    258       4.3539      0.00000
    259       4.3921      0.00000
    260       4.4551      0.00000
    261       4.4556      0.00000
    262       4.4959      0.00000
    263       4.5135      0.00000
    264       4.5665      0.00000
    265       4.5831      0.00000
    266       4.5997      0.00000
    267       4.5997      0.00000
    268       4.6552      0.00000
    269       4.6556      0.00000
    270       4.6635      0.00000
    271       4.6646      0.00000
    272       4.7292      0.00000
    273       4.7418      0.00000
    274       4.7424      0.00000
    275       4.7435      0.00000
    276       4.7599      0.00000
    277       4.7600      0.00000
    278       4.8142      0.00000
    279       4.8150      0.00000
    280       5.0412      0.00000
    281       5.1877      0.00000
    282       5.1890      0.00000
    283       5.2455      0.00000
    284       5.2469      0.00000
    285       5.2599      0.00000
    286       5.2609      0.00000

 k-point    13 :      -0.2000    0.4000    0.0000
  band No.  band energies     occupation 
      1     -72.4524      2.00000
      2     -72.4517      2.00000
      3     -72.4499      2.00000
      4     -72.4459      2.00000
      5     -72.4443      2.00000
      6     -72.4438      2.00000
      7     -72.4431      2.00000
      8     -72.4426      2.00000
      9     -72.4424      2.00000
     10     -58.6430      2.00000
     11     -58.6430      2.00000
     12     -58.6384      2.00000
     13     -58.6284      2.00000
     14     -58.6243      2.00000
     15     -58.6242      2.00000
     16     -58.6224      2.00000
     17     -58.6219      2.00000
     18     -58.6218      2.00000
     19     -36.8222      2.00000
     20     -36.8098      2.00000
     21     -36.8095      2.00000
     22     -36.7751      2.00000
     23     -36.7748      2.00000
     24     -36.7503      2.00000
     25     -36.6751      2.00000
     26     -36.6594      2.00000
     27     -36.6592      2.00000
     28     -36.6519      2.00000
     29     -36.6516      2.00000
     30     -36.6369      2.00000
     31     -36.6359      2.00000
     32     -36.6355      2.00000
     33     -36.6327      2.00000
     34     -36.6272      2.00000
     35     -36.6268      2.00000
     36     -36.6191      2.00000
     37     -36.6021      2.00000
     38     -36.5963      2.00000
     39     -36.5954      2.00000
     40     -36.5949      2.00000
     41     -36.5920      2.00000
     42     -36.5911      2.00000
     43     -36.5907      2.00000
     44     -36.5819      2.00000
     45     -36.5817      2.00000
     46     -32.8989      2.00000
     47     -32.8847      2.00000
     48     -32.8847      2.00000
     49     -32.8458      2.00000
     50     -32.8458      2.00000
     51     -32.8205      2.00000
     52     -32.8204      2.00000
     53     -32.8183      2.00000
     54     -32.8101      2.00000
     55     -32.7878      2.00000
     56     -32.7786      2.00000
     57     -32.7786      2.00000
     58     -32.7743      2.00000
     59     -32.7732      2.00000
     60     -32.7731      2.00000
     61     -32.7343      2.00000
     62     -32.7152      2.00000
     63     -32.7152      2.00000
     64     -32.7066      2.00000
     65     -32.7066      2.00000
     66     -32.6902      2.00000
     67     -32.6902      2.00000
     68     -32.6901      2.00000
     69     -32.6851      2.00000
     70     -32.6452      2.00000
     71     -32.6293      2.00000
     72     -32.6293      2.00000
     73     -12.4959      2.00000
     74     -12.4924      2.00000
     75     -12.2071      2.00000
     76     -11.8165      2.00000
     77     -11.8164      2.00000
     78     -11.5362      2.00000
     79     -11.5115      2.00000
     80     -11.1902      2.00000
     81     -11.1868      2.00000
     82     -11.1779      2.00000
     83     -11.1778      2.00000
     84     -11.0542      2.00000
     85     -11.0087      2.00000
     86     -10.9741      2.00000
     87     -10.9701      2.00000
     88     -10.9414      2.00000
     89     -10.9408      2.00000
     90     -10.8763      2.00000
     91     -10.8040      2.00000
     92     -10.7447      2.00000
     93     -10.6946      2.00000
     94     -10.6937      2.00000
     95     -10.6422      2.00000
     96     -10.6194      2.00000
     97     -10.6181      2.00000
     98     -10.4752      2.00000
     99     -10.4749      2.00000
    100     -10.4413      2.00000
    101     -10.2882      2.00000
    102     -10.2624      2.00000
    103     -10.2622      2.00000
    104     -10.2542      2.00000
    105     -10.2540      2.00000
    106     -10.1768      2.00000
    107     -10.1483      2.00000
    108     -10.1483      2.00000
    109      -4.6004      2.00000
    110      -4.3900      2.00000
    111      -4.3886      2.00000
    112      -4.0849      2.00000
    113      -4.0831      2.00000
    114      -3.9655      2.00000
    115      -3.9647      2.00000
    116      -3.8012      2.00000
    117      -3.7808      2.00000
    118      -3.6485      2.00000
    119      -3.4898      2.00000
    120      -3.4881      2.00000
    121      -3.4206      2.00000
    122      -3.4197      2.00000
    123      -3.3558      2.00000
    124      -3.2639      2.00000
    125      -3.2610      2.00000
    126      -2.9711      2.00000
    127      -2.9706      2.00000
    128      -2.9485      2.00000
    129      -2.9423      2.00000
    130      -2.9129      2.00000
    131      -2.9127      2.00000
    132      -2.8949      2.00000
    133      -2.8948      2.00000
    134      -2.7789      2.00000
    135      -2.7739      2.00000
    136      -2.6387      2.00000
    137      -2.6024      2.00000
    138      -2.6016      2.00000
    139      -2.5956      2.00000
    140      -2.5725      2.00000
    141      -2.5705      2.00000
    142      -2.5605      2.00000
    143      -2.3640      2.00000
    144      -2.3635      2.00000
    145      -2.3403      2.00000
    146      -2.3366      2.00000
    147      -1.9721      2.00000
    148      -1.9251      2.00000
    149      -1.9246      2.00000
    150      -1.8592      2.00000
    151      -1.8566      2.00000
    152      -1.8558      2.00000
    153      -1.8416      2.00000
    154      -1.7837      2.00000
    155      -1.6533      2.00000
    156      -1.5475      2.00000
    157      -1.5469      2.00000
    158      -1.4990      2.00000
    159      -1.4975      2.00000
    160      -1.4821      2.00000
    161      -1.4294      2.00000
    162      -1.4290      2.00000
    163      -1.4172      2.00000
    164      -1.3118      2.00000
    165      -1.3110      2.00000
    166      -1.3103      2.00000
    167      -1.0638      2.00000
    168      -1.0322      2.00000
    169      -1.0320      2.00000
    170      -0.9458      2.00000
    171      -0.9403      2.00000
    172      -0.9351      2.00000
    173      -0.9296      2.00000
    174      -0.9281      2.00000
    175      -0.9143      2.00000
    176      -0.8948      2.00000
    177      -0.8931      2.00000
    178      -0.8750      2.00000
    179      -0.8746      2.00000
    180      -0.7726      2.00000
    181      -0.7624      2.00000
    182      -0.7615      2.00000
    183      -0.6930      2.00000
    184      -0.6417      2.00000
    185      -0.6408      2.00000
    186      -0.3901      2.00000
    187      -0.3899      2.00000
    188      -0.3243      2.00000
    189      -0.3031      2.00000
    190      -0.2979      2.00000
    191      -0.2966      2.00000
    192      -0.1622      2.00000
    193      -0.0207      2.00000
    194      -0.0192      2.00000
    195      -0.0098      2.00000
    196       0.1132      2.00000
    197       0.1663      2.00000
    198       0.1666      2.00000
    199       0.2332      2.00000
    200       0.2365      2.00000
    201       0.2366      2.00000
    202       0.2861      2.00000
    203       0.2865      2.00000
    204       0.4535      2.00000
    205       0.4560      2.00000
    206       0.4572      2.00000
    207       0.4974      2.00000
    208       0.4976      2.00000
    209       0.5124      2.00000
    210       0.5129      2.00000
    211       0.6042      2.00000
    212       0.7481      2.00000
    213       0.8913      2.00000
    214       0.9197      2.00000
    215       0.9347      2.00000
    216       0.9358      2.00000
    217       0.9665      2.00000
    218       1.0696      2.00000
    219       1.0711      2.00000
    220       1.0888      2.00000
    221       1.2456      2.00000
    222       1.2457      2.00000
    223       1.2592      2.00000
    224       1.4052      2.00000
    225       1.4065      2.00000
    226       1.4152      2.00000
    227       1.5165      2.00000
    228       1.6257      2.00000
    229       1.6260      2.00000
    230       1.6496      2.00000
    231       1.6496      2.00000
    232       1.7598      2.00000
    233       1.8364      2.00000
    234       1.8364      2.00000
    235       3.5505      0.00000
    236       3.6754      0.00000
    237       3.7816      0.00000
    238       3.7824      0.00000
    239       3.9720      0.00000
    240       3.9734      0.00000
    241       4.0103      0.00000
    242       4.0163      0.00000
    243       4.0320      0.00000
    244       4.0329      0.00000
    245       4.1739      0.00000
    246       4.1740      0.00000
    247       4.1786      0.00000
    248       4.1931      0.00000
    249       4.1948      0.00000
    250       4.2055      0.00000
    251       4.2061      0.00000
    252       4.2110      0.00000
    253       4.2523      0.00000
    254       4.2544      0.00000
    255       4.2593      0.00000
    256       4.2939      0.00000
    257       4.3528      0.00000
    258       4.3539      0.00000
    259       4.3923      0.00000
    260       4.4550      0.00000
    261       4.4554      0.00000
    262       4.4959      0.00000
    263       4.5135      0.00000
    264       4.5665      0.00000
    265       4.5832      0.00000
    266       4.5997      0.00000
    267       4.5997      0.00000
    268       4.6552      0.00000
    269       4.6556      0.00000
    270       4.6639      0.00000
    271       4.6645      0.00000
    272       4.7291      0.00000
    273       4.7418      0.00000
    274       4.7423      0.00000
    275       4.7434      0.00000
    276       4.7600      0.00000
    277       4.7600      0.00000
    278       4.8142      0.00000
    279       4.8149      0.00000
    280       5.0413      0.00000
    281       5.1870      0.00000
    282       5.1888      0.00000
    283       5.2450      0.00000
    284       5.2469      0.00000
    285       5.2599      0.00000
    286       5.2608      0.00000


--------------------------------------------------------------------------------------------------------


 soft charge-density along one line, spin component           1
         0         1         2         3         4         5         6         7         8         9
 total charge-density along one line
 
 pseudopotential strength for first ion, spin component:           1
 -4.876  12.211   0.000  -0.000  -0.000  -0.000   0.000   0.000
 12.211   3.227  -0.000   0.000   0.000   0.000  -0.000  -0.000
  0.000  -0.000 -19.014  -0.000   0.000   9.912   0.000  -0.000
 -0.000   0.000  -0.000 -19.018   0.000   0.000   9.917  -0.000
 -0.000   0.000   0.000   0.000 -19.014  -0.000  -0.000   9.912
 -0.000   0.000   9.912   0.000  -0.000   5.190  -0.000   0.000
  0.000  -0.000   0.000   9.917  -0.000  -0.000   5.187   0.000
  0.000  -0.000  -0.000  -0.000   9.912   0.000   0.000   5.190
  0.000  -0.000  -0.000  -0.000  -0.008   0.000   0.000   0.004
 -0.000   0.000  -0.000   0.000  -0.000   0.000  -0.000   0.000
 -0.002   0.001  -0.000  -0.000  -0.000   0.000   0.000   0.000
  0.000  -0.000  -0.000  -0.000  -0.000   0.000   0.000   0.000
  0.000  -0.000  -0.008   0.000   0.000   0.004  -0.000  -0.000
  0.000  -0.000  -0.000  -0.000  -0.008   0.000   0.000   0.004
 -0.000   0.000  -0.000   0.000  -0.000   0.000  -0.000   0.000
 -0.002   0.001  -0.000  -0.000  -0.000   0.000   0.000   0.000
  0.000  -0.000  -0.000  -0.000  -0.000   0.000   0.000   0.000
  0.000  -0.000  -0.008   0.000   0.000   0.004  -0.000  -0.000
 total augmentation occupancy for first ion, spin component:           1
  1.996  -0.036  -0.000   0.000  -0.000  -0.000   0.000  -0.000  -0.000  -0.000  -0.004  -0.000   0.000   0.000   0.000   0.003
 -0.036   1.136  -0.000   0.000  -0.000   0.000   0.000   0.000  -0.000  -0.000  -0.136   0.000   0.000   0.000   0.000   0.223
 -0.000  -0.000   1.998   0.000  -0.000  -0.039   0.000  -0.000   0.000  -0.000  -0.000  -0.000  -0.010  -0.000   0.000   0.000
  0.000   0.000   0.000   1.999  -0.000   0.000  -0.043  -0.000  -0.000   0.000   0.000   0.000   0.000  -0.000  -0.000  -0.000
 -0.000  -0.000  -0.000  -0.000   1.998  -0.000  -0.000  -0.039  -0.010  -0.000  -0.000  -0.000   0.000   0.001   0.000   0.000
 -0.000   0.000  -0.039   0.000  -0.000   0.090  -0.000   0.000   0.000  -0.001   0.000   0.000  -0.147  -0.000   0.000  -0.000
  0.000   0.000   0.000  -0.043  -0.000  -0.000   0.111   0.000  -0.000  -0.000   0.000   0.000  -0.000   0.000   0.000   0.000
 -0.000   0.000  -0.000  -0.000  -0.039   0.000   0.000   0.090  -0.147   0.000   0.000  -0.001   0.000   0.172  -0.000  -0.000
 -0.000  -0.000   0.000  -0.000  -0.010   0.000  -0.000  -0.147   1.934  -0.000  -0.000   0.003  -0.000  -2.198   0.000   0.000
 -0.000  -0.000  -0.000   0.000  -0.000  -0.001  -0.000   0.000  -0.000   3.117   0.000  -0.000   0.003   0.000  -3.921  -0.000
 -0.004  -0.136  -0.000   0.000  -0.000   0.000   0.000   0.000  -0.000   0.000   1.519   0.000  -0.000   0.000  -0.000  -1.679
 -0.000   0.000  -0.000   0.000  -0.000   0.000   0.000  -0.001   0.003  -0.000   0.000   3.117  -0.000  -0.003   0.000   0.000
  0.000   0.000  -0.010   0.000   0.000  -0.147  -0.000   0.000  -0.000   0.003  -0.000  -0.000   1.934   0.000  -0.003   0.000
  0.000   0.000  -0.000  -0.000   0.001  -0.000   0.000   0.172  -2.198   0.000   0.000  -0.003   0.000   3.266  -0.000  -0.000
  0.000   0.000   0.000  -0.000   0.000   0.000   0.000  -0.000   0.000  -3.921  -0.000   0.000  -0.003  -0.000   5.416   0.000
  0.003   0.223   0.000  -0.000   0.000  -0.000   0.000  -0.000   0.000  -0.000  -1.679   0.000   0.000  -0.000   0.000   2.683
  0.000  -0.000   0.000  -0.000   0.000  -0.000  -0.000   0.000  -0.003   0.000   0.000  -3.921   0.000   0.002  -0.000  -0.000
 -0.000  -0.000   0.001  -0.000  -0.000   0.172   0.000  -0.000   0.000  -0.003   0.000   0.000  -2.198  -0.000   0.002   0.000


------------------------ aborting loop because EDIFF is reached ----------------------------------------


    CHARGE:  cpu time      0.4520: real time      0.4556
    FORLOC:  cpu time      0.0296: real time      0.0298
    FORNL :  cpu time      1.9372: real time      1.9492
    STRESS:  cpu time      5.8218: real time      5.8583
    FORCOR:  cpu time      0.1308: real time      0.1315
    FORHAR:  cpu time      0.0511: real time      0.0513
    MIXING:  cpu time      0.0378: real time      0.0379
    OFIELD:  cpu time      0.0001: real time      0.0001

 ---------------------------------------------------------------------------------------------

         DFTD3 V3.0 Rev 1        
 DF pbe       
 parameters
 k1-k3        =   16.0000    1.3333   -4.0000
 Edisp (eV)  -20.73874

 E6    (eV) :   -11.6365
 E8    (eV) :    -9.1022
 % E8        : 43.89
    FORVDW:  cpu time      0.1507: real time      0.1514

  FORCE on cell =-STRESS in cart. coord.  units (eV):
  Direction    XX          YY          ZZ          XY          YZ          ZX
  --------------------------------------------------------------------------------------
  Alpha Z  1198.06821  1198.06821  1198.06821
  Ewald   67172.91898 67172.92064-91896.78534    -0.64993     0.00217    -0.42824
  Hartree 77581.40472 77581.40575-73211.99052    -0.23738     0.00057    -0.12840
  E(xc)   -1989.28179 -1989.28179 -1993.01267    -0.00097    -0.00000    -0.00018
  Local  ************************156916.06930     0.86842    -0.00262     0.56357
  n-local  1792.86959  1792.86887  1886.09498    -0.01700     0.00014    -0.03674
  augment   514.75257   514.75267   499.86997    -0.00101    -0.00002     0.00008
  Kinetic  6582.38731  6582.38725  6616.02099     0.02490    -0.00003    -0.03111
  Fock        0.00000     0.00000     0.00000     0.00000     0.00000     0.00000
  vdW       -21.42557   -21.42557   -15.49539     0.00006    -0.00000     0.00012
  -------------------------------------------------------------------------------------
  Total     -19.53652   -19.53742    -1.16048    -0.01291     0.00020    -0.06090
  in kB     -18.97239   -18.97326    -1.12697    -0.01253     0.00020    -0.05915
  external pressure =      -13.02 kB  Pullay stress =        0.00 kB


 VOLUME and BASIS-vectors are now :
 -----------------------------------------------------------------------------
  energy-cutoff  :      520.00
  volume of cell :     1649.82
      direct lattice vectors                 reciprocal lattice vectors
     9.759724624  0.000000000  0.000000000     0.102461907 -0.059156410  0.000000000
     4.879862312  8.452169459  0.000000000     0.000000000  0.118312820  0.000000000
     0.000000000  0.000000000 20.000000000     0.000000000  0.000000000  0.050000000

  length of vectors
     9.759724624  9.759724624 20.000000000     0.118312820  0.118312820  0.050000000


 FORCES acting on ions
    electron-ion (+dipol)            ewald-force                    non-local-force                 convergence-correction
 -----------------------------------------------------------------------------------------------
   -.340E-01 -.248E-02 0.136E+04   0.340E-01 -.299E-11 -.136E+04   -.175E-03 -.569E-04 0.703E-02   0.138E-04 0.254E-02 -.914E-02
   -.374E-01 -.189E-02 0.136E+04   0.368E-01 0.128E-10 -.136E+04   0.503E-04 0.482E-04 0.854E-02   0.856E-03 0.176E-02 -.912E-02
   0.701E-01 -.161E-02 0.136E+04   -.697E-01 -.279E-10 -.136E+04   0.674E-04 0.585E-04 0.867E-02   -.885E-03 0.149E-02 -.914E-02
   -.318E-01 -.330E-01 0.136E+04   0.321E-01 0.335E-01 -.136E+04   0.129E-03 0.310E-04 0.857E-02   -.328E-03 -.189E-03 -.913E-02
   0.114E-01 0.139E-02 0.136E+04   -.112E-01 0.177E-04 -.136E+04   0.611E-05 0.557E-04 0.938E-02   -.259E-03 -.150E-02 -.914E-02
   0.205E-01 -.580E-01 0.136E+04   -.211E-01 0.588E-01 -.136E+04   -.836E-04 -.587E-04 0.864E-02   0.574E-03 -.299E-03 -.910E-02
   0.221E-01 0.600E-01 0.136E+04   -.211E-01 -.588E-01 -.136E+04   0.111E-03 -.383E-04 0.864E-02   -.134E-02 -.142E-02 -.913E-02
   -.329E-01 0.346E-01 0.136E+04   0.321E-01 -.335E-01 -.136E+04   -.102E-03 -.508E-04 0.857E-02   0.114E-02 -.125E-02 -.909E-02
   0.110E-01 0.116E-02 0.136E+04   -.112E-01 -.177E-04 -.136E+04   0.235E-04 0.119E-04 0.926E-02   0.214E-03 -.112E-02 -.909E-02
   -.863E-02 -.386E-02 0.119E+04   0.847E-02 0.331E-02 -.120E+04   0.157E-02 0.899E-03 0.241E+01   0.857E-05 0.474E-03 -.375E-02
   0.333E-02 -.207E-02 0.119E+04   -.308E-02 0.114E-02 -.120E+04   0.123E-04 -.911E-03 0.241E+01   -.237E-03 0.768E-03 -.364E-02
   0.533E-02 -.554E-02 0.119E+04   -.540E-02 0.469E-02 -.120E+04   -.158E-02 0.899E-03 0.241E+01   0.229E-03 0.734E-03 -.387E-02
   -.955E-03 0.316E-02 0.119E+04   0.674E-03 -.217E-02 -.120E+04   -.782E-03 0.470E-03 0.241E+01   0.140E-03 -.946E-03 -.372E-02
   0.147E-02 0.374E-03 0.119E+04   -.131E-02 0.103E-02 -.120E+04   0.779E-03 0.472E-03 0.241E+01   -.318E-04 -.132E-02 -.389E-02
   -.512E-03 -.594E-02 0.119E+04   0.633E-03 0.573E-02 -.120E+04   0.238E-04 0.119E-02 0.241E+01   -.108E-03 -.579E-04 -.328E-02
   -.244E-02 0.766E-02 0.119E+04   0.273E-02 -.801E-02 -.120E+04   0.793E-05 -.183E-02 0.241E+01   -.269E-03 0.545E-03 -.493E-02
   -.486E-02 0.173E-02 0.119E+04   0.360E-02 -.172E-02 -.120E+04   0.102E-02 -.594E-03 0.241E+01   0.102E-02 0.115E-03 -.429E-02
   0.729E-02 0.448E-02 0.119E+04   -.632E-02 -.402E-02 -.120E+04   -.101E-02 -.598E-03 0.241E+01   -.756E-03 -.313E-03 -.426E-02
   -.124E+00 -.486E-01 -.320E+02   0.126E+00 0.489E-01 0.345E+02   -.770E-03 -.417E-03 -.247E+01   0.662E-05 0.466E-03 -.469E-02
   0.285E-01 -.745E-02 -.321E+02   -.284E-01 0.637E-02 0.346E+02   0.396E-04 -.371E-02 -.248E+01   -.227E-03 0.747E-03 -.476E-02
   0.107E+00 -.863E-01 -.319E+02   -.109E+00 0.868E-01 0.344E+02   0.654E-03 -.428E-03 -.247E+01   0.223E-03 0.735E-03 -.455E-02
   -.243E-02 0.185E-01 -.321E+02   0.195E-02 -.175E-01 0.346E+02   -.318E-02 0.187E-02 -.248E+01   0.136E-03 -.923E-03 -.469E-02
   0.931E-02 -.966E-02 -.321E+02   -.905E-02 0.112E-01 0.346E+02   0.323E-02 0.187E-02 -.248E+01   -.130E-04 -.130E-02 -.451E-02
   -.716E-02 -.460E-01 -.321E+02   0.742E-02 0.461E-01 0.345E+02   -.364E-04 0.187E-02 -.248E+01   -.123E-03 -.167E-04 -.508E-02
   -.404E-01 0.133E+00 -.320E+02   0.409E-01 -.136E+00 0.344E+02   -.544E-04 0.815E-03 -.247E+01   -.270E-03 0.535E-03 -.347E-02
   -.232E-01 0.853E-02 -.321E+02   0.222E-01 -.854E-02 0.346E+02   0.164E-02 -.983E-03 -.248E+01   0.105E-02 0.908E-04 -.406E-02
   0.583E-01 0.378E-01 -.321E+02   -.576E-01 -.376E-01 0.345E+02   -.156E-02 -.880E-03 -.248E+01   -.781E-03 -.325E-03 -.408E-02
   0.107E+01 0.813E+00 -.136E+04   -.111E+01 -.833E+00 0.136E+04   -.726E-02 -.166E-02 -.637E-01   0.141E-03 0.126E-03 -.501E-02
   0.128E+00 0.154E-01 -.136E+04   -.128E+00 -.155E-01 0.136E+04   -.753E-03 0.874E-03 -.473E-01   0.275E-03 -.291E-03 -.503E-02
   -.782E+00 0.255E+00 -.136E+04   0.799E+00 -.266E+00 0.136E+04   -.795E-02 0.205E-02 -.525E-01   -.426E-03 0.784E-04 -.503E-02
   0.305E-01 0.559E-01 -.136E+04   -.309E-01 -.557E-01 0.136E+04   0.789E-03 -.892E-03 -.471E-01   -.156E-03 0.339E-03 -.496E-02
   0.382E-02 -.717E-01 -.136E+04   -.387E-02 0.715E-01 0.136E+04   -.727E-03 0.130E-04 -.475E-01   0.236E-03 0.118E-03 -.493E-02
   -.366E-01 0.142E+00 -.136E+04   0.382E-01 -.145E+00 0.136E+04   0.269E-03 0.618E-03 -.480E-01   -.811E-04 0.672E-03 -.507E-02
   -.338E+00 -.107E+01 -.136E+04   0.336E+00 0.110E+01 0.136E+04   -.440E-02 -.395E-03 -.581E-01   -.123E-03 -.373E-03 -.487E-02
   0.227E+00 -.152E+00 -.136E+04   -.230E+00 0.155E+00 0.136E+04   0.733E-03 -.261E-03 -.478E-01   0.572E-03 -.461E-03 -.500E-02
   -.193E-01 0.101E-01 -.136E+04   0.212E-01 -.995E-02 0.136E+04   -.330E-03 -.343E-03 -.483E-01   -.431E-03 -.215E-03 -.486E-02
   -.653E+00 0.151E-02 0.571E+02   0.651E+00 -.148E-02 -.620E+02   0.517E-01 -.179E-03 0.508E+01   -.106E-03 0.271E-04 -.356E-02
   0.151E+00 0.796E-03 0.569E+02   -.152E+00 0.189E-11 -.618E+02   -.150E-02 -.532E-03 0.497E+01   0.230E-03 -.160E-03 -.345E-02
   0.151E+00 0.683E-03 0.569E+02   -.152E+00 -.112E-10 -.618E+02   -.208E-02 -.181E-03 0.497E+01   -.125E-03 -.157E-03 -.335E-02
   -.113E-02 0.880E-01 0.569E+02   0.208E-02 -.896E-01 -.618E+02   -.103E-02 -.592E-04 0.497E+01   -.115E-03 0.264E-03 -.350E-02
   0.282E-01 -.244E-04 0.570E+02   -.283E-01 0.531E-04 -.619E+02   0.143E-03 0.104E-04 0.496E+01   0.557E-04 -.382E-04 -.350E-02
   -.278E-02 -.886E-01 0.569E+02   0.283E-02 0.887E-01 -.618E+02   -.724E-03 0.903E-03 0.497E+01   0.581E-04 0.172E-03 -.345E-02
   -.157E-02 0.877E-01 0.569E+02   0.283E-02 -.887E-01 -.618E+02   -.122E-02 -.715E-03 0.497E+01   -.277E-03 -.641E-05 -.326E-02
   -.257E-02 -.886E-01 0.569E+02   0.208E-02 0.896E-01 -.618E+02   -.315E-03 0.566E-03 0.497E+01   0.227E-03 -.985E-04 -.325E-02
   0.282E-01 0.502E-04 0.570E+02   -.283E-01 -.531E-04 -.619E+02   0.184E-03 0.111E-04 0.497E+01   0.486E-04 -.735E-05 -.321E-02
   -.654E-01 0.871E-04 -.122E+04   0.663E-01 -.140E-11 0.122E+04   0.117E-03 -.343E-05 -.497E+01   -.969E-04 -.672E-04 -.163E-03
   0.879E-01 -.135E-02 -.122E+04   -.893E-01 0.201E-11 0.122E+04   -.188E-02 0.339E-02 -.496E+01   0.202E-03 -.205E-03 -.306E-03
   -.351E-01 -.873E-03 -.122E+04   0.363E-01 -.955E-11 0.122E+04   0.167E-03 0.147E-02 -.496E+01   -.110E-03 -.239E-03 -.405E-03
   0.244E-01 0.734E-01 -.122E+04   -.262E-01 -.727E-01 0.122E+04   0.227E-02 -.493E-02 -.496E+01   -.100E-03 0.288E-03 -.315E-03
   0.118E-01 -.512E-04 -.122E+04   -.119E-01 0.202E-04 0.122E+04   -.704E-05 0.104E-04 -.495E+01   0.490E-04 0.258E-04 -.344E-03
   -.352E-01 0.342E-01 -.122E+04   0.367E-01 -.361E-01 0.122E+04   -.932E-03 0.742E-03 -.495E+01   0.500E-04 0.203E-03 -.405E-03
   -.381E-01 -.351E-01 -.122E+04   0.367E-01 0.361E-01 0.122E+04   0.415E-02 0.236E-03 -.496E+01   -.249E-03 0.360E-04 -.386E-03
   0.255E-01 -.704E-01 -.122E+04   -.262E-01 0.727E-01 0.122E+04   -.109E-02 -.907E-03 -.495E+01   0.169E-03 -.610E-04 -.375E-03
   0.117E-01 -.640E-05 -.122E+04   -.119E-01 -.202E-04 0.122E+04   0.240E-04 0.513E-05 -.495E+01   0.795E-04 0.262E-04 -.584E-03
 -----------------------------------------------------------------------------------------------
   -.275E-01 0.165E-03 0.103E+01   0.154E-12 -.601E-13 -.273E-11   0.283E-01 -.154E-03 -.785E+00   -.267E-04 0.672E-05 -.236E+00
 
 
 POSITION                                       TOTAL-FORCE (eV/Angst)
 -----------------------------------------------------------------------------------
      0.00000      0.00000     10.13660        -0.000149     -0.000002     -0.002947
      3.25324      0.00000     10.13660         0.000288     -0.000077     -0.001981
      6.50648      0.00000     10.13660        -0.000400     -0.000062     -0.001996
      1.62662      2.81739     10.13660         0.000049      0.000277     -0.001911
      4.87986      2.81739     10.13660        -0.000011     -0.000041     -0.000875
      8.13310      2.81739     10.13660        -0.000140      0.000321     -0.002041
      3.25324      5.63478     10.13660        -0.000268     -0.000225     -0.001944
      6.50648      5.63478     10.13660         0.000214     -0.000214     -0.002044
      9.75972      5.63478     10.13660         0.000006      0.000031     -0.001055
      1.62662      0.93913      8.44958         0.001400      0.000831      0.000118
      4.87986      0.93913      8.44958         0.000011     -0.001065     -0.000163
      8.13310      0.93913      8.44958        -0.001429      0.000788      0.000129
      3.25324      3.75652      8.44958        -0.000937      0.000520     -0.000190
      6.50648      3.75652      8.44958         0.000895      0.000553     -0.000179
      9.75972      3.75652      8.44958         0.000022      0.000915     -0.000992
      4.87986      6.57391      8.44958         0.000009     -0.001632      0.000137
      8.13310      6.57391      8.44958         0.000767     -0.000465     -0.000958
     11.38635      6.57391      8.44958        -0.000807     -0.000443     -0.000960
      1.62662      0.93913     11.82231         0.000738      0.000384      0.005320
      4.87986      0.93913     11.82231        -0.000018     -0.004060      0.003756
      8.13310      0.93913     11.82231        -0.001238      0.000744      0.004198
      3.25324      3.75652     11.82231        -0.003548      0.002010      0.003748
      6.50648      3.75652     11.82231         0.003468      0.002059      0.003808
      9.75972      3.75652     11.82231         0.000080      0.001840      0.001016
      4.87986      6.57391     11.82231         0.000129     -0.001142      0.004740
      8.13310      6.57391     11.82231         0.001560     -0.000894      0.001024
     11.38635      6.57391     11.82231        -0.001611     -0.000940      0.000935
      1.62662      0.93913     16.36364        -0.044127     -0.021687     -0.058306
      4.87986      0.93913     16.36364        -0.000373      0.000501     -0.009718
      8.13310      0.93913     16.36364         0.008377     -0.008611     -0.033360
      3.25324      3.75652     16.36364         0.000300     -0.000400     -0.009817
      6.50648      3.75652     16.36364        -0.000547     -0.000116     -0.009642
      9.75972      3.75652     16.36364         0.001776     -0.001816     -0.009797
      4.87986      6.57391     16.36364        -0.006553      0.030434     -0.045924
      8.13310      6.57391     16.36364        -0.001991      0.002176     -0.010618
     11.38635      6.57391     16.36364         0.001133     -0.000373     -0.009004
      9.75534      0.00000     14.81200         0.049560     -0.000121      0.143980
      3.25324      0.00000     14.82098        -0.002972      0.000103      0.008029
      6.50648      0.00000     14.82098        -0.003058      0.000345      0.009021
      1.62662      2.81739     14.82098        -0.000233     -0.001448      0.008411
      4.87986      2.81739     14.82098         0.000134      0.000001      0.003607
      8.13310      2.81739     14.82098        -0.000655      0.001276      0.008647
      3.25324      5.63478     14.82098        -0.000276     -0.001752      0.008898
      6.50648      5.63478     14.82098        -0.000613      0.001459      0.008139
      9.75972      5.63478     14.82098         0.000133      0.000001      0.003762
      0.00000      0.00000     17.90688         0.000886      0.000016     -0.021036
      3.25324      0.00000     17.90688        -0.002979      0.001838     -0.000182
      6.50648      0.00000     17.90688         0.001259      0.000359      0.001153
      1.62662      2.81739     17.90688         0.000374     -0.003870     -0.000357
      4.87986      2.81739     17.90688        -0.000073      0.000005      0.001521
      8.13310      2.81739     17.90688         0.000583     -0.000885      0.001318
      3.25324      5.63478     17.90688         0.002461      0.001232      0.000321
      6.50648      5.63478     17.90688        -0.001539      0.001319      0.000658
      9.75972      5.63478     17.90688        -0.000067      0.000004      0.001599
 -----------------------------------------------------------------------------------
    total drift:                                0.000759      0.000018      0.010414


--------------------------------------------------------------------------------------------------------



  FREE ENERGIE OF THE ION-ELECTRON SYSTEM (eV)
  ---------------------------------------------------
  free  energy   TOTEN  =      -412.39893069 eV

  energy  without entropy=     -412.39893069  energy(sigma->0) =     -412.39893069
 


--------------------------------------------------------------------------------------------------------


    POTLOK:  cpu time      0.1604: real time      0.1612


--------------------------------------------------------------------------------------------------------


     LOOP+:  cpu time    208.4063: real time    210.0157
    4ORBIT:  cpu time      0.0000: real time      0.0000

 total amount of memory used by VASP MPI-rank0   147274. kBytes
=======================================================================

   base                                    :      30000. kBytes
   nonlr-proj                              :      18792. kBytes
   fftplans                                :      13412. kBytes
   grid                                    :      23521. kBytes
   one-center                              :        217. kBytes
   wavefun                                 :      61332. kBytes
 
  
  
 General timing and accounting informations for this job:
 ========================================================
  
                  Total CPU time used (sec):      218.268
                            User time (sec):      213.030
                          System time (sec):        5.237
                         Elapsed time (sec):      221.103
  
                   Maximum memory used (kb):      448984.
                   Average memory used (kb):          N/A
  
                          Minor page faults:        47587
                          Major page faults:           62
                 Voluntary context switches:         1840
