cpu-bind=MASK - c132, task  0  0 [262240]: mask 0x7ffefffefffe set
 running  264 mpi-ranks, with    1 threads/rank, on    6 nodes
 distrk:  each k-point on   44 cores,    6 groups
 distr:  one band on    4 cores,   11 groups
 vasp.6.5.1 10Mar25 (build Aug 29 2025 00:30:47) complex                        
  
 POSCAR found type information on POSCAR MoSeW S 
 POSCAR found :  4 types and      54 ions
 scaLAPACK will be used
 LDA part: xc-table for (Slater+PW92), standard interpolation
 POSCAR, INCAR and KPOINTS ok, starting setup
 FFT: planning ... GRIDC
 FFT: planning ... GRID_SOFT
 FFT: planning ... GRID
 WAVECAR not read
 entering main loop
       N       E                     dE             d eps       ncg     rms          rms(c)
DAV:   1     0.457364165649E+04    0.45736E+04   -0.24738E+05  8855   0.147E+03
DAV:   2    -0.364917388207E+02   -0.46101E+04   -0.44810E+04  8822   0.375E+02
DAV:   3    -0.397115646283E+03   -0.36062E+03   -0.35387E+03  8833   0.986E+01
DAV:   4    -0.413374041188E+03   -0.16258E+02   -0.16133E+02  9900   0.192E+01
DAV:   5    -0.413855296779E+03   -0.48126E+00   -0.47943E+00 10175   0.338E+00    0.919E+01
DAV:   6    -0.396436410644E+03    0.17419E+02   -0.11783E+02  8800   0.211E+01    0.373E+01
DAV:   7    -0.394983210704E+03    0.14532E+01   -0.50395E+01  8679   0.126E+01    0.206E+01
DAV:   8    -0.391815771526E+03    0.31674E+01   -0.12094E+01  8492   0.664E+00    0.537E+00
DAV:   9    -0.391724618960E+03    0.91153E-01   -0.12691E+00  9273   0.193E+00    0.228E+00
DAV:  10    -0.391698830077E+03    0.25789E-01   -0.11630E-01  9416   0.656E-01    0.112E+00
DAV:  11    -0.391680452982E+03    0.18377E-01   -0.35146E-02  9801   0.460E-01    0.440E-01
DAV:  12    -0.391672971535E+03    0.74814E-02   -0.17609E-02  8965   0.359E-01    0.331E-01
DAV:  13    -0.391662899199E+03    0.10072E-01   -0.69486E-03  9680   0.231E-01    0.156E-01
DAV:  14    -0.391655814040E+03    0.70852E-02   -0.54832E-03  9438   0.212E-01    0.158E-01
DAV:  15    -0.391651663703E+03    0.41503E-02   -0.53388E-03  9240   0.206E-01    0.129E-01
DAV:  16    -0.391650027342E+03    0.16364E-02   -0.34591E-03  9229   0.168E-01    0.107E-01
DAV:  17    -0.391652024162E+03   -0.19968E-02   -0.28493E-03  8965   0.126E-01    0.101E-01
DAV:  18    -0.391654127820E+03   -0.21037E-02   -0.74568E-04  9306   0.691E-02    0.733E-02
DAV:  19    -0.391655927560E+03   -0.17997E-02   -0.22164E-04  8701   0.315E-02    0.445E-02
DAV:  20    -0.391658596200E+03   -0.26686E-02   -0.27024E-04  8602   0.387E-02    0.292E-02
DAV:  21    -0.391659450854E+03   -0.85465E-03   -0.69108E-05  8910   0.302E-02    0.218E-02
DAV:  22    -0.391659881780E+03   -0.43093E-03   -0.32202E-05  8459   0.210E-02    0.132E-02
DAV:  23    -0.391660185102E+03   -0.30332E-03   -0.36573E-05  8767   0.215E-02    0.152E-02
DAV:  24    -0.391660214408E+03   -0.29307E-04   -0.56579E-05  7634   0.156E-02    0.139E-02
DAV:  25    -0.391660198957E+03    0.15452E-04   -0.13604E-05  8371   0.644E-03    0.770E-03
DAV:  26    -0.391660194038E+03    0.49189E-05   -0.15466E-06  6259   0.496E-03    0.392E-03
DAV:  27    -0.391660194349E+03   -0.31084E-06   -0.90189E-07  6028   0.423E-03
   1 F= -.41239893E+03 E0= -.41239893E+03  d E =-.314094E-23
