generated by phonopy
   1.0
     7.4018737848092480    0.0000000000000000    0.0000000000000000
     3.7009368924046240    6.4102107332508798    0.0000000000000000
     0.0000000000000000    0.0000000000000000   20.0000000000000000
C
  18
Direct
  0.0000000000000000  0.0000000000000000  0.5000000000000000
  0.3333333333333333  0.0000000000000000  0.5000000000000000
  0.6666666666666666  0.0000000000000000  0.5000000000000000
  0.0000000000000000  0.3333333333333333  0.5000000000000000
  0.3333333333333333  0.3333333333333333  0.5000000000000000
  0.6666666666666666  0.3333333333333333  0.5000000000000000
  0.0000000000000000  0.6666666666666666  0.5000000000000000
  0.3333333333333333  0.6666666666666666  0.5000000000000000
  0.6666666666666666  0.6666666666666666  0.5000000000000000
  0.1111111111111119  0.1111111111111119  0.5000000000000000
  0.4444444444444452  0.1111111111111119  0.5000000000000000
  0.7777777777777786  0.1111111111111119  0.5000000000000000
  0.1111111111111119  0.4444444444444452  0.5000000000000000
  0.4444444444444452  0.4444444444444452  0.5000000000000000
  0.7777777777777786  0.4444444444444452  0.5000000000000000
  0.1111111111111119  0.7777777777777786  0.5000000000000000
  0.4444444444444452  0.7777777777777786  0.5000000000000000
  0.7777777777777786  0.7777777777777786  0.5000000000000000
