cpu-bind=MASK - c028, task  0  0 [1932605]: mask 0xfffffffffff0 set
 running  264 mpi-ranks, with    1 threads/rank, on    6 nodes
 distrk:  each k-point on   44 cores,    6 groups
 distr:  one band on    4 cores,   11 groups
 vasp.6.5.1 10Mar25 (build Aug 29 2025 00:30:47) complex                        
  
 POSCAR found type information on POSCAR B N Ga
 POSCAR found :  3 types and      36 ions
 scaLAPACK will be used
 LDA part: xc-table for (Slater+PW92), standard interpolation
 POSCAR, INCAR and KPOINTS ok, starting setup
 FFT: planning ... GRIDC
 FFT: planning ... GRID_SOFT
 FFT: planning ... GRID
 WAVECAR not read
 entering main loop
       N       E                     dE             d eps       ncg     rms          rms(c)
DAV:   1     0.125511189007E+04    0.12551E+04   -0.54286E+04  2596   0.113E+03
DAV:   2    -0.144648327184E+02   -0.12696E+04   -0.12199E+04  3828   0.257E+02
DAV:   3    -0.261346948887E+03   -0.24688E+03   -0.24481E+03  3047   0.121E+02
DAV:   4    -0.272378668208E+03   -0.11032E+02   -0.11005E+02  3311   0.313E+01
DAV:   5    -0.272668053349E+03   -0.28939E+00   -0.28909E+00  3443   0.433E+00    0.463E+01
DAV:   6    -0.225380048743E+03    0.47288E+02   -0.16607E+02  3025   0.320E+01    0.192E+01
DAV:   7    -0.223094210775E+03    0.22858E+01   -0.11225E+01  3223   0.742E+00    0.975E+00
DAV:   8    -0.221849891852E+03    0.12443E+01   -0.10620E+00  3289   0.297E+00    0.376E+00
DAV:   9    -0.221526556554E+03    0.32334E+00   -0.30227E-01  3278   0.144E+00    0.714E-01
DAV:  10    -0.221501832266E+03    0.24724E-01   -0.39039E-02  3256   0.415E-01    0.463E-01
DAV:  11    -0.221449173535E+03    0.52659E-01   -0.45214E-02  3179   0.529E-01    0.277E-01
DAV:  12    -0.221434811352E+03    0.14362E-01   -0.16980E-02  3212   0.279E-01    0.205E-01
DAV:  13    -0.221372849225E+03    0.61962E-01   -0.26105E-02  3091   0.297E-01    0.159E-01
DAV:  14    -0.221354198835E+03    0.18650E-01   -0.76778E-03  3245   0.195E-01    0.147E-01
DAV:  15    -0.221390534856E+03   -0.36336E-01   -0.24173E-02  2981   0.264E-01    0.886E-02
DAV:  16    -0.221395146443E+03   -0.46116E-02   -0.29300E-03  3256   0.113E-01    0.575E-02
DAV:  17    -0.221395995016E+03   -0.84857E-03   -0.54789E-04  3179   0.616E-02    0.327E-02
DAV:  18    -0.221397970515E+03   -0.19755E-02   -0.46723E-04  2992   0.421E-02    0.241E-02
DAV:  19    -0.221398881946E+03   -0.91143E-03   -0.11107E-04  3025   0.267E-02    0.116E-02
DAV:  20    -0.221399209331E+03   -0.32738E-03   -0.30836E-05  2981   0.135E-02    0.742E-03
DAV:  21    -0.221399324244E+03   -0.11491E-03   -0.17330E-05  2893   0.801E-03    0.383E-03
DAV:  22    -0.221399288193E+03    0.36051E-04   -0.16355E-05  2629   0.672E-03    0.279E-03
DAV:  23    -0.221399264008E+03    0.24185E-04   -0.37237E-06  2805   0.392E-03    0.268E-03
DAV:  24    -0.221399254143E+03    0.98651E-05   -0.32475E-06  2497   0.389E-03    0.300E-03
DAV:  25    -0.221399283216E+03   -0.29073E-04   -0.62424E-06  2651   0.472E-03    0.188E-03
DAV:  26    -0.221399322706E+03   -0.39490E-04   -0.49844E-06  2486   0.333E-03    0.693E-04
DAV:  27    -0.221399327162E+03   -0.44558E-05   -0.40280E-07  2277   0.131E-03    0.498E-04
DAV:  28    -0.221399328567E+03   -0.14047E-05   -0.22475E-07  2057   0.787E-04    0.305E-04
DAV:  29    -0.221399328841E+03   -0.27460E-06   -0.56207E-08  2090   0.440E-04
   1 F= -.22467690E+03 E0= -.22467690E+03  d E =-.237723E-12
