Bilayer WSe2/WTe2 3R (relaxed monolayers
   1.00000000000000     
     3.3947340000000001    0.0000000000000000    0.0000000000000000
     1.6973670000000001    2.9399258830907624    0.0000000000000000
     0.0000000000000000    0.0000000000000000   20.0000000000000000
   W    Se   Te
     2     2     2
Direct
     0.0000000000000000   -0.0000000000000000    0.4992514058326364
     0.3333333333333357    0.3333333333333357    0.8311815198314282
     0.3333333333333357    0.3333333333333357    0.4168442653227415
     0.3333333333333357    0.3333333333333357    0.5815380506053387
     0.6666666666666714    0.6666666666666714    0.7375868491005168
     0.6666666666666714    0.6666666666666714    0.9247798841340058
 
  0.00000000E+00  0.00000000E+00  0.00000000E+00
  0.00000000E+00  0.00000000E+00  0.00000000E+00
  0.00000000E+00  0.00000000E+00  0.00000000E+00
  0.00000000E+00  0.00000000E+00  0.00000000E+00
  0.00000000E+00  0.00000000E+00  0.00000000E+00
  0.00000000E+00  0.00000000E+00  0.00000000E+00
