       N       E                     dE             d eps       ncg     rms          rms(c)
DAV:   1     0.505500758799E+02    0.50550E+02   -0.34833E+03   616   0.520E+02
DAV:   2    -0.153298811999E+02   -0.65880E+02   -0.57727E+02   671   0.114E+02
DAV:   3    -0.195322347797E+02   -0.42024E+01   -0.42024E+01   935   0.414E+01
DAV:   4    -0.195497164690E+02   -0.17482E-01   -0.17482E-01   891   0.254E+00
DAV:   5    -0.195497267885E+02   -0.10319E-04   -0.10319E-04   913   0.686E-02    0.804E+00
DAV:   6    -0.178996898896E+02    0.16500E+01   -0.63960E+00   924   0.128E+01    0.373E+00
DAV:   7    -0.177022298167E+02    0.19746E+00   -0.20844E-01  1034   0.277E+00    0.225E+00
DAV:   8    -0.176078134317E+02    0.94416E-01   -0.22980E-01   957   0.248E+00    0.301E-01
DAV:   9    -0.176053910916E+02    0.24223E-02   -0.21247E-03   902   0.326E-01    0.170E-01
DAV:  10    -0.175997197879E+02    0.56713E-02   -0.20445E-03   924   0.239E-01    0.728E-02
DAV:  11    -0.175941789479E+02    0.55408E-02   -0.35014E-03   792   0.234E-01    0.434E-02
DAV:  12    -0.175938308153E+02    0.34813E-03   -0.17669E-04   748   0.568E-02    0.392E-02
DAV:  13    -0.175947526013E+02   -0.92179E-03   -0.66088E-04   671   0.968E-02    0.299E-02
DAV:  14    -0.175951378588E+02   -0.38526E-03   -0.65401E-04   726   0.909E-02    0.287E-02
DAV:  15    -0.175952307618E+02   -0.92903E-04   -0.23014E-04   660   0.733E-02    0.244E-02
DAV:  16    -0.175955741126E+02   -0.34335E-03   -0.37993E-05   715   0.385E-02    0.912E-03
DAV:  17    -0.175957011043E+02   -0.12699E-03   -0.38366E-06   781   0.136E-02    0.408E-03
DAV:  18    -0.175958496507E+02   -0.14855E-03   -0.68894E-06   715   0.113E-02    0.261E-03
DAV:  19    -0.175958740787E+02   -0.24428E-04   -0.38101E-07   726   0.273E-03    0.316E-04
DAV:  20    -0.175958767968E+02   -0.27181E-05   -0.38051E-08   715   0.794E-04    0.350E-04
DAV:  21    -0.175958777912E+02   -0.99443E-06   -0.12973E-08   770   0.360E-04
   1 F= -.17750960E+02 E0= -.17750960E+02  d E =-.177510E+02
