  36  36   0   0
  0.3524951E+02  0.8559482E-09  0.8559482E-09  0.2000000E-08  0.5000000E-15
  1.000000000000000E-004
  CAR 
 BN_GaN_AB phonon                        
      4.72270468    -20.56842539  301     -1.51050509      1.00000000
    -20.568  0.0000E+00  0.0000E+00
    -20.484  0.0000E+00  0.0000E+00
    -20.400  0.0000E+00  0.0000E+00
    -20.316  0.0000E+00  0.0000E+00
    -20.231  0.0000E+00  0.0000E+00
    -20.147  0.0000E+00  0.0000E+00
    -20.063  0.0000E+00  0.0000E+00
    -19.978  0.0000E+00  0.0000E+00
    -19.894  0.0000E+00  0.0000E+00
    -19.810  0.0000E+00  0.0000E+00
    -19.725  0.0000E+00  0.0000E+00
    -19.641  0.1542E-09  0.1300E-10
    -19.557  0.4534E-04  0.3822E-05
    -19.472  0.6437E-01  0.5430E-02
    -19.388  0.1781E+01  0.1556E+00
    -19.304  0.4569E+01  0.5407E+00
    -19.220  0.4640E+01  0.9319E+00
    -19.135  0.6223E+01  0.1457E+01
    -19.051  0.1521E+01  0.1585E+01
    -18.967  0.8547E+01  0.2305E+01
    -18.882  0.4990E+01  0.2726E+01
    -18.798  0.2788E+01  0.2961E+01
    -18.714  0.3757E+01  0.3278E+01
    -18.629  0.1122E+02  0.4224E+01
    -18.545  0.2804E+01  0.4460E+01
    -18.461  0.4810E+01  0.4865E+01
    -18.377  0.6584E+01  0.5421E+01
    -18.292  0.1299E+02  0.6515E+01
    -18.208  0.1353E+02  0.7656E+01
    -18.124  0.7384E+01  0.8279E+01
    -18.039  0.5775E+01  0.8765E+01
    -17.955  0.1214E+02  0.9789E+01
    -17.871  0.1825E+02  0.1133E+02
    -17.786  0.1220E+02  0.1236E+02
    -17.702  0.5063E+01  0.1278E+02
    -17.618  0.9597E+01  0.1359E+02
    -17.533  0.2483E+02  0.1568E+02
    -17.449  0.2124E+02  0.1748E+02
    -17.365  0.1152E+02  0.1845E+02
    -17.281  0.2795E+02  0.2080E+02
    -17.196  0.9042E+01  0.2157E+02
    -17.112  0.1384E+02  0.2273E+02
    -17.028  0.1308E+02  0.2384E+02
    -16.943  0.8927E+01  0.2459E+02
    -16.859  0.2508E+01  0.2480E+02
    -16.775  0.5785E+00  0.2485E+02
    -16.690  0.4324E+01  0.2521E+02
    -16.606  0.2604E+01  0.2543E+02
    -16.522  0.1094E+02  0.2635E+02
    -16.438  0.5204E+01  0.2679E+02
    -16.353  0.8628E+01  0.2752E+02
    -16.269  0.1893E+01  0.2768E+02
    -16.185  0.1436E+01  0.2780E+02
    -16.100  0.4472E+01  0.2818E+02
    -16.016  0.1015E+02  0.2903E+02
    -15.932  0.1269E+02  0.3010E+02
    -15.847  0.9661E+01  0.3092E+02
    -15.763  0.5029E+01  0.3134E+02
    -15.679  0.5106E+01  0.3177E+02
    -15.595  0.1539E+02  0.3307E+02
    -15.510  0.1518E+02  0.3435E+02
    -15.426  0.1463E+01  0.3447E+02
    -15.342  0.4553E+01  0.3486E+02
    -15.257  0.7380E+01  0.3548E+02
    -15.173  0.4738E+01  0.3588E+02
    -15.089  0.1362E+01  0.3599E+02
    -15.004  0.7720E-01  0.3600E+02
    -14.920  0.3595E-04  0.3600E+02
    -14.836  0.7740E-10  0.3600E+02
    -14.751  0.0000E+00  0.3600E+02
    -14.667  0.0000E+00  0.3600E+02
    -14.583  0.0000E+00  0.3600E+02
    -14.499  0.0000E+00  0.3600E+02
    -14.414  0.0000E+00  0.3600E+02
    -14.330  0.0000E+00  0.3600E+02
    -14.246  0.0000E+00  0.3600E+02
    -14.161  0.0000E+00  0.3600E+02
    -14.077  0.0000E+00  0.3600E+02
    -13.993  0.0000E+00  0.3600E+02
    -13.908  0.0000E+00  0.3600E+02
    -13.824  0.0000E+00  0.3600E+02
    -13.740  0.0000E+00  0.3600E+02
    -13.656  0.0000E+00  0.3600E+02
    -13.571  0.0000E+00  0.3600E+02
    -13.487  0.0000E+00  0.3600E+02
    -13.403  0.0000E+00  0.3600E+02
    -13.318  0.0000E+00  0.3600E+02
    -13.234  0.0000E+00  0.3600E+02
    -13.150  0.0000E+00  0.3600E+02
    -13.065  0.0000E+00  0.3600E+02
    -12.981  0.0000E+00  0.3600E+02
    -12.897  0.0000E+00  0.3600E+02
    -12.812  0.0000E+00  0.3600E+02
    -12.728  0.0000E+00  0.3600E+02
    -12.644  0.0000E+00  0.3600E+02
    -12.560  0.0000E+00  0.3600E+02
    -12.475  0.0000E+00  0.3600E+02
    -12.391  0.0000E+00  0.3600E+02
    -12.307  0.0000E+00  0.3600E+02
    -12.222  0.0000E+00  0.3600E+02
    -12.138  0.0000E+00  0.3600E+02
    -12.054  0.0000E+00  0.3600E+02
    -11.969  0.0000E+00  0.3600E+02
    -11.885  0.0000E+00  0.3600E+02
    -11.801  0.0000E+00  0.3600E+02
    -11.717  0.0000E+00  0.3600E+02
    -11.632  0.0000E+00  0.3600E+02
    -11.548  0.7427E-13  0.3600E+02
    -11.464  0.4966E-06  0.3600E+02
    -11.379  0.1451E-01  0.3600E+02
    -11.295  0.2716E+01  0.3623E+02
    -11.211  0.8030E+01  0.3691E+02
    -11.126  0.2317E+01  0.3710E+02
    -11.042  0.1338E+02  0.3823E+02
    -10.958  0.8878E+01  0.3898E+02
    -10.873  0.4273E+01  0.3934E+02
    -10.789  0.4659E+01  0.3973E+02
    -10.705  0.1387E+02  0.4090E+02
    -10.621  0.1818E+02  0.4243E+02
    -10.536  0.6914E+01  0.4302E+02
    -10.452  0.3979E+01  0.4335E+02
    -10.368  0.6860E+01  0.4393E+02
    -10.283  0.1239E+02  0.4498E+02
    -10.199  0.3584E+01  0.4528E+02
    -10.115  0.2290E-01  0.4528E+02
    -10.030  0.4812E-01  0.4528E+02
     -9.946  0.5587E+01  0.4576E+02
     -9.862  0.1116E+02  0.4670E+02
     -9.778  0.1991E+01  0.4686E+02
     -9.693  0.2920E+01  0.4711E+02
     -9.609  0.2913E+01  0.4736E+02
     -9.525  0.1803E+01  0.4751E+02
     -9.440  0.1950E+02  0.4915E+02
     -9.356  0.1278E+02  0.5023E+02
     -9.272  0.4782E+01  0.5063E+02
     -9.187  0.7302E+01  0.5125E+02
     -9.103  0.1250E+02  0.5230E+02
     -9.019  0.1648E+02  0.5369E+02
     -8.935  0.5178E+01  0.5413E+02
     -8.850  0.9587E+01  0.5494E+02
     -8.766  0.1848E+02  0.5649E+02
     -8.682  0.2136E+02  0.5829E+02
     -8.597  0.9150E+01  0.5907E+02
     -8.513  0.5809E+01  0.5955E+02
     -8.429  0.9854E+01  0.6039E+02
     -8.344  0.1523E+02  0.6167E+02
     -8.260  0.3055E+01  0.6193E+02
     -8.176  0.7785E+01  0.6258E+02
     -8.091  0.2549E+02  0.6473E+02
     -8.007  0.1125E+02  0.6568E+02
     -7.923  0.9177E+01  0.6645E+02
     -7.839  0.4706E+01  0.6685E+02
     -7.754  0.2918E+01  0.6710E+02
     -7.670  0.1025E+02  0.6796E+02
     -7.586  0.1312E+02  0.6907E+02
     -7.501  0.2415E+02  0.7110E+02
     -7.417  0.1254E+02  0.7216E+02
     -7.333  0.1642E+02  0.7354E+02
     -7.248  0.2585E+02  0.7572E+02
     -7.164  0.1665E+02  0.7713E+02
     -7.080  0.7558E+01  0.7776E+02
     -6.996  0.1625E+02  0.7913E+02
     -6.911  0.1050E+02  0.8002E+02
     -6.827  0.1520E+02  0.8130E+02
     -6.743  0.7566E+01  0.8194E+02
     -6.658  0.1849E+02  0.8350E+02
     -6.574  0.1971E+02  0.8516E+02
     -6.490  0.8656E+01  0.8589E+02
     -6.405  0.1630E+02  0.8726E+02
     -6.321  0.2091E+02  0.8903E+02
     -6.237  0.1586E+02  0.9036E+02
     -6.152  0.1935E+02  0.9199E+02
     -6.068  0.1436E+02  0.9320E+02
     -5.984  0.8882E+01  0.9395E+02
     -5.900  0.1174E+02  0.9494E+02
     -5.815  0.2313E+02  0.9689E+02
     -5.731  0.1754E+02  0.9837E+02
     -5.647  0.1320E+02  0.9948E+02
     -5.562  0.8195E+01  0.1002E+03
     -5.478  0.1310E+02  0.1013E+03
     -5.394  0.2270E+02  0.1032E+03
     -5.309  0.2207E+02  0.1051E+03
     -5.225  0.1287E+02  0.1061E+03
     -5.141  0.1038E+02  0.1070E+03
     -5.057  0.9884E+01  0.1078E+03
     -4.972  0.1718E+02  0.1093E+03
     -4.888  0.1445E+02  0.1105E+03
     -4.804  0.1767E+02  0.1120E+03
     -4.719  0.2098E+02  0.1138E+03
     -4.635  0.2349E+02  0.1158E+03
     -4.551  0.2078E+02  0.1175E+03
     -4.466  0.1076E+02  0.1184E+03
     -4.382  0.1160E+02  0.1194E+03
     -4.298  0.3402E+02  0.1223E+03
     -4.213  0.9865E+01  0.1231E+03
     -4.129  0.1512E+02  0.1244E+03
     -4.045  0.2987E+02  0.1269E+03
     -3.961  0.1852E+02  0.1284E+03
     -3.876  0.8367E+01  0.1291E+03
     -3.792  0.1521E+01  0.1293E+03
     -3.708  0.3034E+01  0.1295E+03
     -3.623  0.5559E+01  0.1300E+03
     -3.539  0.2026E+02  0.1317E+03
     -3.455  0.1981E+02  0.1334E+03
     -3.370  0.1264E+02  0.1344E+03
     -3.286  0.5928E+01  0.1349E+03
     -3.202  0.8899E+01  0.1357E+03
     -3.118  0.1865E+02  0.1373E+03
     -3.033  0.1323E+02  0.1384E+03
     -2.949  0.4320E+01  0.1387E+03
     -2.865  0.1396E+02  0.1399E+03
     -2.780  0.1812E+02  0.1414E+03
     -2.696  0.4923E+01  0.1419E+03
     -2.612  0.6513E+00  0.1419E+03
     -2.527  0.4979E-02  0.1419E+03
     -2.443  0.1483E-01  0.1419E+03
     -2.359  0.1928E+01  0.1421E+03
     -2.275  0.4567E+01  0.1425E+03
     -2.190  0.7418E+01  0.1431E+03
     -2.106  0.3114E+01  0.1434E+03
     -2.022  0.4566E-01  0.1434E+03
     -1.937  0.1348E+01  0.1435E+03
     -1.853  0.4073E+01  0.1438E+03
     -1.769  0.8577E+00  0.1439E+03
     -1.684  0.1251E+01  0.1440E+03
     -1.600  0.5580E-01  0.1440E+03
     -1.516  0.1849E-04  0.1440E+03
     -1.431  0.2744E-10  0.1440E+03
     -1.347  0.0000E+00  0.1440E+03
     -1.263  0.0000E+00  0.1440E+03
     -1.179  0.0000E+00  0.1440E+03
     -1.094  0.0000E+00  0.1440E+03
     -1.010  0.0000E+00  0.1440E+03
     -0.926  0.0000E+00  0.1440E+03
     -0.841  0.0000E+00  0.1440E+03
     -0.757  0.0000E+00  0.1440E+03
     -0.673  0.0000E+00  0.1440E+03
     -0.588  0.0000E+00  0.1440E+03
     -0.504  0.0000E+00  0.1440E+03
     -0.420  0.1541E-09  0.1440E+03
     -0.336  0.5791E-04  0.1440E+03
     -0.251  0.9893E-01  0.1440E+03
     -0.167  0.1499E+01  0.1441E+03
     -0.083  0.6955E+01  0.1447E+03
      0.002  0.9929E+01  0.1456E+03
      0.086  0.9175E+01  0.1463E+03
      0.170  0.1474E+02  0.1476E+03
      0.255  0.1300E+02  0.1487E+03
      0.339  0.8268E+01  0.1494E+03
      0.423  0.7486E+01  0.1500E+03
      0.508  0.4229E+01  0.1504E+03
      0.592  0.5863E+01  0.1508E+03
      0.676  0.8659E+01  0.1516E+03
      0.760  0.9203E+01  0.1524E+03
      0.845  0.1202E+02  0.1534E+03
      0.929  0.5106E+01  0.1538E+03
      1.013  0.3861E+01  0.1541E+03
      1.098  0.1289E+02  0.1552E+03
      1.182  0.1863E+01  0.1554E+03
      1.266  0.5604E+01  0.1558E+03
      1.351  0.1514E+02  0.1571E+03
      1.435  0.1242E+02  0.1582E+03
      1.519  0.1519E+02  0.1594E+03
      1.603  0.2790E+01  0.1597E+03
      1.688  0.1976E-01  0.1597E+03
      1.772  0.1394E+01  0.1598E+03
      1.856  0.2288E+02  0.1617E+03
      1.941  0.1965E+02  0.1634E+03
      2.025  0.1338E+02  0.1645E+03
      2.109  0.1195E+02  0.1655E+03
      2.194  0.8450E+01  0.1662E+03
      2.278  0.2064E+02  0.1680E+03
      2.362  0.2288E+02  0.1699E+03
      2.447  0.1800E+02  0.1714E+03
      2.531  0.2027E+02  0.1731E+03
      2.615  0.3960E+02  0.1765E+03
      2.699  0.1625E+02  0.1778E+03
      2.784  0.2912E+01  0.1781E+03
      2.868  0.2606E+01  0.1783E+03
      2.952  0.6515E+01  0.1788E+03
      3.037  0.1323E+02  0.1800E+03
      3.121  0.2955E+02  0.1825E+03
      3.205  0.4353E+02  0.1861E+03
      3.290  0.4057E+02  0.1895E+03
      3.374  0.2704E+02  0.1918E+03
      3.458  0.3569E+02  0.1948E+03
      3.542  0.2501E+02  0.1969E+03
      3.627  0.1198E+02  0.1980E+03
      3.711  0.5720E+00  0.1980E+03
      3.795  0.3009E-03  0.1980E+03
      3.880  0.8755E-09  0.1980E+03
      3.964  0.0000E+00  0.1980E+03
      4.048  0.0000E+00  0.1980E+03
      4.133  0.0000E+00  0.1980E+03
      4.217  0.0000E+00  0.1980E+03
      4.301  0.0000E+00  0.1980E+03
      4.385  0.0000E+00  0.1980E+03
      4.470  0.0000E+00  0.1980E+03
      4.554  0.0000E+00  0.1980E+03
      4.638  0.0000E+00  0.1980E+03
      4.723  0.0000E+00  0.1980E+03
