cpu-bind=MASK - c113, task  0  0 [3838337]: mask 0x7ffefffefffe set
 running  264 mpi-ranks, with    1 threads/rank, on    6 nodes
 distrk:  each k-point on   44 cores,    6 groups
 distr:  one band on    4 cores,   11 groups
 vasp.6.5.1 10Mar25 (build Aug 29 2025 00:30:47) complex                        
  
 POSCAR found type information on POSCAR B N Ga
 POSCAR found :  3 types and      36 ions
 scaLAPACK will be used
 LDA part: xc-table for (Slater+PW92), standard interpolation
 POSCAR, INCAR and KPOINTS ok, starting setup
 FFT: planning ... GRIDC
 FFT: planning ... GRID_SOFT
 FFT: planning ... GRID
 WAVECAR not read
 entering main loop
       N       E                     dE             d eps       ncg     rms          rms(c)
DAV:   1     0.125510506211E+04    0.12551E+04   -0.54286E+04  2596   0.113E+03
DAV:   2    -0.144649974663E+02   -0.12696E+04   -0.12199E+04  3828   0.257E+02
DAV:   3    -0.261347382261E+03   -0.24688E+03   -0.24481E+03  3047   0.121E+02
DAV:   4    -0.272380009508E+03   -0.11033E+02   -0.11006E+02  3322   0.313E+01
DAV:   5    -0.272668102452E+03   -0.28809E+00   -0.28780E+00  3421   0.432E+00    0.463E+01
DAV:   6    -0.225377905291E+03    0.47290E+02   -0.16596E+02  3036   0.320E+01    0.192E+01
DAV:   7    -0.223094743686E+03    0.22832E+01   -0.11261E+01  3223   0.743E+00    0.976E+00
DAV:   8    -0.221850003616E+03    0.12447E+01   -0.10653E+00  3267   0.297E+00    0.375E+00
DAV:   9    -0.221527147442E+03    0.32286E+00   -0.30066E-01  3278   0.144E+00    0.718E-01
DAV:  10    -0.221502010903E+03    0.25137E-01   -0.39621E-02  3267   0.418E-01    0.464E-01
DAV:  11    -0.221449156488E+03    0.52854E-01   -0.45590E-02  3157   0.531E-01    0.280E-01
DAV:  12    -0.221435100901E+03    0.14056E-01   -0.18786E-02  3190   0.293E-01    0.214E-01
DAV:  13    -0.221372966003E+03    0.62135E-01   -0.26147E-02  3080   0.300E-01    0.159E-01
DAV:  14    -0.221354728127E+03    0.18238E-01   -0.72194E-03  3256   0.189E-01    0.146E-01
DAV:  15    -0.221391103912E+03   -0.36376E-01   -0.24612E-02  2981   0.267E-01    0.899E-02
DAV:  16    -0.221395557880E+03   -0.44540E-02   -0.27417E-03  3256   0.109E-01    0.555E-02
DAV:  17    -0.221396516713E+03   -0.95883E-03   -0.56079E-04  3157   0.614E-02    0.346E-02
DAV:  18    -0.221398398486E+03   -0.18818E-02   -0.41543E-04  3025   0.406E-02    0.214E-02
DAV:  19    -0.221399326687E+03   -0.92820E-03   -0.10816E-04  3058   0.262E-02    0.109E-02
DAV:  20    -0.221399676395E+03   -0.34971E-03   -0.34555E-05  2981   0.128E-02    0.710E-03
DAV:  21    -0.221399801224E+03   -0.12483E-03   -0.21175E-05  3025   0.893E-03    0.387E-03
DAV:  22    -0.221399762627E+03    0.38597E-04   -0.14631E-05  2629   0.671E-03    0.282E-03
DAV:  23    -0.221399737042E+03    0.25585E-04   -0.44050E-06  2838   0.472E-03    0.307E-03
DAV:  24    -0.221399727029E+03    0.10014E-04   -0.27182E-06  2420   0.395E-03    0.310E-03
DAV:  25    -0.221399757838E+03   -0.30810E-04   -0.70010E-06  2772   0.495E-03    0.182E-03
DAV:  26    -0.221399793941E+03   -0.36102E-04   -0.37595E-06  2486   0.298E-03    0.789E-04
DAV:  27    -0.221399800851E+03   -0.69103E-05   -0.69358E-07  2332   0.133E-03    0.504E-04
DAV:  28    -0.221399802302E+03   -0.14509E-05   -0.16329E-07  2046   0.704E-04    0.237E-04
DAV:  29    -0.221399802674E+03   -0.37183E-06   -0.69873E-08  2101   0.456E-04
   1 F= -.22467736E+03 E0= -.22467736E+03  d E =-.203958E-12
