Mo1 W1 Se4                              
   1.00000000000000     
     3.3200356400000004   -0.0000000000000026    0.0000000000000001
     1.6600178199999815    2.8752352057097408    0.0000000000000000
    -0.0000000000000002    0.0000000000000019   20.1776881949768985
   Mo   Se   W 
     1     4     1
Direct
    -0.0000000000000000    0.0000000000000000    0.5051783459541498
     0.3333333333333357    0.3333333333333357    0.4226876637211496
     0.3333333333333357    0.3333333333333357    0.5874785501118927
     0.6666666666666714    0.6666666666666714    0.7369663934823242
     0.6666666666666714    0.6666666666666714    0.9028173529265989
     0.3333333333333357    0.3333333333333357    0.8198716938038461
 
  0.00000000E+00  0.00000000E+00  0.00000000E+00
  0.00000000E+00  0.00000000E+00  0.00000000E+00
  0.00000000E+00  0.00000000E+00  0.00000000E+00
  0.00000000E+00  0.00000000E+00  0.00000000E+00
  0.00000000E+00  0.00000000E+00  0.00000000E+00
  0.00000000E+00  0.00000000E+00  0.00000000E+00
