       N       E                     dE             d eps       ncg     rms          rms(c)
DAV:   1     0.395694045979E+04    0.39569E+04   -0.24377E+05  9064   0.143E+03
DAV:   2    -0.464110634479E+02   -0.40034E+04   -0.38906E+04  8987   0.336E+02
DAV:   3    -0.359964983551E+03   -0.31355E+03   -0.30654E+03  8987   0.805E+01
DAV:   4    -0.375228907923E+03   -0.15264E+02   -0.15111E+02 10164   0.162E+01
DAV:   5    -0.375744938814E+03   -0.51603E+00   -0.51306E+00 10340   0.297E+00    0.785E+01
DAV:   6    -0.360857297935E+03    0.14888E+02   -0.14588E+02  8382   0.203E+01    0.353E+01
DAV:   7    -0.360057404242E+03    0.79989E+00   -0.10204E+02  8426   0.163E+01    0.222E+01
DAV:   8    -0.354355140806E+03    0.57023E+01   -0.14562E+01  8272   0.704E+00    0.868E+00
DAV:   9    -0.354174067559E+03    0.18107E+00   -0.38786E+00  9768   0.294E+00    0.506E+00
DAV:  10    -0.354057862204E+03    0.11621E+00   -0.36796E-01  8932   0.123E+00    0.281E+00
DAV:  11    -0.354011460165E+03    0.46402E-01   -0.30646E-01 10021   0.167E+00    0.185E+00
DAV:  12    -0.353960104843E+03    0.51355E-01   -0.28626E-01  8855   0.112E+00    0.115E+00
DAV:  13    -0.353953142005E+03    0.69628E-02   -0.41297E-02  9603   0.394E-01    0.839E-01
DAV:  14    -0.353950087236E+03    0.30548E-02   -0.66435E-03  9636   0.236E-01    0.646E-01
DAV:  15    -0.353941860095E+03    0.82271E-02   -0.14188E-02  9405   0.295E-01    0.385E-01
DAV:  16    -0.353933420597E+03    0.84395E-02   -0.11431E-02  9075   0.258E-01    0.380E-01
DAV:  17    -0.353933008769E+03    0.41183E-03   -0.21541E-03  9185   0.122E-01    0.279E-01
DAV:  18    -0.353931828272E+03    0.11805E-02   -0.21274E-03  9317   0.142E-01    0.246E-01
DAV:  19    -0.353931167350E+03    0.66092E-03   -0.43024E-03  9119   0.162E-01    0.209E-01
DAV:  20    -0.353932471793E+03   -0.13044E-02   -0.28346E-03  9185   0.115E-01    0.312E-01
DAV:  21    -0.353932933755E+03   -0.46196E-03   -0.44474E-04  9383   0.637E-02    0.281E-01
DAV:  22    -0.353934024618E+03   -0.10909E-02   -0.16055E-03  8503   0.743E-02    0.862E-02
DAV:  23    -0.353936653986E+03   -0.26294E-02   -0.11589E-03  8690   0.852E-02    0.942E-02
DAV:  24    -0.353937779506E+03   -0.11255E-02   -0.33649E-04  8877   0.555E-02    0.955E-02
DAV:  25    -0.353938190825E+03   -0.41132E-03   -0.56031E-05  8789   0.162E-02    0.855E-02
DAV:  26    -0.353938555948E+03   -0.36512E-03   -0.42405E-05  9185   0.182E-02    0.380E-02
DAV:  27    -0.353938755646E+03   -0.19970E-03   -0.35570E-05  8624   0.130E-02    0.205E-02
DAV:  28    -0.353938772063E+03   -0.16417E-04   -0.55047E-06  8129   0.676E-03    0.179E-02
DAV:  29    -0.353938789969E+03   -0.17906E-04   -0.21580E-06  6182   0.323E-03    0.824E-03
DAV:  30    -0.353938814633E+03   -0.24663E-04   -0.20849E-06  6171   0.251E-03    0.309E-03
DAV:  31    -0.353938824551E+03   -0.99182E-05   -0.13202E-06  6017   0.254E-03    0.319E-03
DAV:  32    -0.353938826652E+03   -0.21010E-05   -0.28412E-07  5489   0.136E-03    0.299E-03
DAV:  33    -0.353938828570E+03   -0.19176E-05   -0.26724E-07  4950   0.704E-04    0.185E-03
DAV:  34    -0.353938829329E+03   -0.75986E-06   -0.34446E-07  5357   0.681E-04
   1 F= -.37672647E+03 E0= -.37672285E+03  d E =-.724508E-02
