Zr1 S2                                  
   1.00000000000000     
     3.5419900000000002    0.0000000000000000    0.0000000000000000
     1.7709950000000001    3.0674533199504439    0.0000000000000000
     0.0000000000000000    0.0000000000000000   20.0000000000000000
   Zr   S 
     1     2
Direct
     0.0000000000000000    0.0000000000000000    0.5000000000000000
     0.3333333333333357    0.3333333333333357    0.4212235354784728
     0.3333333333333357    0.3333333333333357    0.5787764645215271
 
  0.00000000E+00  0.00000000E+00  0.00000000E+00
  0.00000000E+00  0.00000000E+00  0.00000000E+00
  0.00000000E+00  0.00000000E+00  0.00000000E+00
