 vasp.6.5.1 10Mar25 (build Aug 29 2025 00:30:47) complex                        
  
 executed on             LinuxIFC date 2026.06.03  20:24:18
 running  264 mpi-ranks, with    1 threads/rank, on    6 nodes
 distrk:  each k-point on   44 cores,    6 groups
 distr:  one band on NCORE=   4 cores,   11 groups


--------------------------------------------------------------------------------------------------------


 INCAR:
   SYSTEM = MoS2_bilayer_3R phonon
   PREC = Accurate
   ENCUT = 520
   EDIFF = 1E-6
   ISMEAR = 0
   SIGMA = 0.05
   LREAL = Auto
   ALGO = Normal
   AMIN = 0.01
   NELM = 200
   NSW = 0
   IBRION = -1
   IVDW = 12
   KPAR = 6
   NCORE = 4
   LWAVE = .FALSE.
   LCHARG = .FALSE.

 POTCAR:    PAW_PBE Mo_sv 02Feb2006               
 POTCAR:    PAW_PBE S 06Sep2000                   
 POTCAR:    PAW_PBE Mo_sv 02Feb2006               
   SHA256 =  2731df97e41766cc617548c5a8267718fdef1f509ac6bafa01e745abea2bdfaa Mo_sv/POTCAR          
   COPYR  = (c) Copyright 02Feb2006 Georg Kresse                                                    
   COPYR  = This file is part of the software VASP. Any use, copying, and all other rights are regul
   COPYR  = If you do not have a valid VASP license, you may not use, copy or distribute this file. 
   VRHFIN =Mo: 4p5s4d                                                                               
   LEXCH  = PE                                                                                      
   EATOM  =  1862.2866 eV,  136.8742 Ry                                                             
                                                                                                    
   TITEL  = PAW_PBE Mo_sv 02Feb2006                                                                 
   LULTRA =        F    use ultrasoft PP ?                                                          
   IUNSCR =        1    unscreen: 0-lin 1-nonlin 2-no                                               
   RPACOR =    2.200    partial core radius                                                         
   POMASS =   95.940; ZVAL   =   14.000    mass and valenz                                          
   RCORE  =    2.500    outmost cutoff radius                                                       
   RWIGS  =    2.750; RWIGS  =    1.455    wigner-seitz radius (au A)                               
   ENMAX  =  242.676; ENMIN  =  182.007 eV                                                          
   ICORE  =        3    local potential                                                             
   LCOR   =        T    correct aug charges                                                         
   LPAW   =        T    paw PP                                                                      
   EAUG   =  446.014                                                                                
   DEXC   =    0.000                                                                                
   RMAX   =    2.563    core radius for proj-oper                                                   
   RAUG   =    1.300    factor for augmentation sphere                                              
   RDEP   =    2.641    radius for radial grids                                                     
   RDEPT  =    2.031    core radius for aug-charge                                                  
                                                                                                    
   Atomic configuration                                                                             
   11 entries                                                                                       
     n  l   j            E        occ.                                                              
     1  0  0.50    -19819.0341   2.0000                                                             
     2  0  0.50     -2799.0127   2.0000                                                             
     2  1  1.50     -2502.0276   6.0000                                                             
     3  0  0.50      -476.4449   2.0000                                                             
     3  1  1.50      -379.1496   6.0000                                                             
     3  2  2.50      -220.9367  10.0000                                                             
     4  0  0.50       -64.3378   2.0000                                                             
     5  0  0.50        -4.0862   1.0000                                                             
     4  1  1.50       -38.4773   6.0000                                                             
     4  2  2.50        -3.7535   5.0000                                                             
     4  3  2.50        -1.3606   0.0000                                                             
   Description                                                                                      
     l       E           TYP  RCUT    TYP  RCUT                                                     
     0    -64.3377829     23  2.100                                                                 
     0     -4.0861640     23  2.400                                                                 
     1    -38.4772993     23  2.100                                                                 
     1     13.6058260     23  2.100                                                                 
     2     -3.7534941     23  2.400                                                                 
     2     -5.1140767     23  2.400                                                                 
     3     -4.0817478     23  2.500                                                                 
  local pseudopotential read in
  partial core-charges read in
  partial kinetic energy density read in
  atomic valenz-charges read in
  non local Contribution for L=           0  read in
    real space projection operators read in
  non local Contribution for L=           0  read in
    real space projection operators read in
  non local Contribution for L=           1  read in
    real space projection operators read in
  non local Contribution for L=           1  read in
    real space projection operators read in
  non local Contribution for L=           2  read in
    real space projection operators read in
  non local Contribution for L=           2  read in
    real space projection operators read in
    PAW grid and wavefunctions read in
 
   number of l-projection  operators is LMAX  =           6
   number of lm-projection operators is LMMAX =          18
 
 POTCAR:    PAW_PBE S 06Sep2000                   
   SHA256 =  0fc7481fb0695f01bdc6462160264c5c84044ae9ec85a907d398b887a2bc3132 S/POTCAR              
   COPYR  = (c) Copyright 06Sep2000 Georg Kresse                                                    
   COPYR  = This file is part of the software VASP. Any use, copying, and all other rights are regul
   COPYR  = If you do not have a valid VASP license, you may not use, copy or distribute this file. 
   VRHFIN =S : s2p4                                                                                 
   LEXCH  = PE                                                                                      
   EATOM  =   276.8230 eV,   20.3459 Ry                                                             
                                                                                                    
   TITEL  = PAW_PBE S 06Sep2000                                                                     
   LULTRA =        F    use ultrasoft PP ?                                                          
   IUNSCR =        1    unscreen: 0-lin 1-nonlin 2-no                                               
   RPACOR =    1.500    partial core radius                                                         
   POMASS =   32.066; ZVAL   =    6.000    mass and valenz                                          
   RCORE  =    1.900    outmost cutoff radius                                                       
   RWIGS  =    2.200; RWIGS  =    1.164    wigner-seitz radius (au A)                               
   ENMAX  =  258.689; ENMIN  =  194.016 eV                                                          
   ICORE  =        2    local potential                                                             
   LCOR   =        T    correct aug charges                                                         
   LPAW   =        T    paw PP                                                                      
   EAUG   =  335.092                                                                                
   DEXC   =    0.000                                                                                
   RMAX   =    1.942    core radius for proj-oper                                                   
   RAUG   =    1.300    factor for augmentation sphere                                              
   RDEP   =    1.954    radius for radial grids                                                     
   RDEPT  =    1.744    core radius for aug-charge                                                  
                                                                                                    
   Atomic configuration                                                                             
    6 entries                                                                                       
     n  l   j            E        occ.                                                              
     1  0  0.50     -2405.8406   2.0000                                                             
     2  0  0.50      -211.7007   2.0000                                                             
     2  1  1.50      -156.4958   6.0000                                                             
     3  0  0.50       -17.2562   2.0000                                                             
     3  1  0.50        -7.0085   4.0000                                                             
     3  2  1.50        -6.8029   0.0000                                                             
   Description                                                                                      
     l       E           TYP  RCUT    TYP  RCUT                                                     
     0    -17.2561641     23  1.900                                                                 
     0    -15.8743224     23  1.900                                                                 
     1     -7.0085400     23  1.900                                                                 
     1     -2.7779785     23  1.900                                                                 
     2     -6.8029130     23  1.900                                                                 
  local pseudopotential read in
  partial core-charges read in
  partial kinetic energy density read in
  atomic valenz-charges read in
  non local Contribution for L=           0  read in
    real space projection operators read in
  non local Contribution for L=           0  read in
    real space projection operators read in
  non local Contribution for L=           1  read in
    real space projection operators read in
  non local Contribution for L=           1  read in
    real space projection operators read in
    PAW grid and wavefunctions read in
 
   number of l-projection  operators is LMAX  =           4
   number of lm-projection operators is LMMAX =           8
 
 Optimization of the real space projectors (new method)

 maximal supplied QI-value         = 15.12
 optimisation between [QCUT,QGAM] = [ 11.64, 23.28] = [ 37.95,151.78] Ry 
 Optimized for a Real-space Cutoff    1.53 Angstroem

   l    n(q)    QCUT    max X(q) W(low)/X(q) W(high)/X(q)  e(spline) 
   0     11    11.641     3.559    0.80E-05    0.27E-04    0.27E-06
   0     11    11.641    20.730    0.39E-04    0.26E-04    0.29E-06
   1     10    11.641     3.279    0.18E-05    0.27E-05    0.28E-07
   1     10    11.641     4.693    0.11E-03    0.12E-04    0.28E-06
   2     10    11.641    67.616    0.19E-03    0.29E-03    0.91E-06
   2     10    11.641    62.420    0.19E-03    0.29E-03    0.92E-06
 Optimization of the real space projectors (new method)

 maximal supplied QI-value         = 19.84
 optimisation between [QCUT,QGAM] = [ 11.51, 23.22] = [ 37.09,150.92] Ry 
 Optimized for a Real-space Cutoff    1.21 Angstroem

   l    n(q)    QCUT    max X(q) W(low)/X(q) W(high)/X(q)  e(spline) 
   0      8    11.508   187.594    0.96E-04    0.18E-03    0.54E-07
   0      8    11.508   164.243    0.96E-04    0.18E-03    0.54E-07
   1      8    11.508    67.533    0.18E-03    0.65E-04    0.94E-07
   1      8    11.508    50.729    0.18E-03    0.63E-04    0.92E-07
  PAW_PBE Mo_sv 02Feb2006               :
 energy of atom  1       EATOM=-1862.2866
 kinetic energy error for atom=    0.0070 (will be added to EATOM!!)
  PAW_PBE S 06Sep2000                   :
 energy of atom  2       EATOM= -276.8230
 kinetic energy error for atom=    0.0016 (will be added to EATOM!!)
 
 
 POSCAR: generated by phonopy
  positions in direct lattice
  No initial velocities read in
 IVDW         = 12
 VDW_S6       =    1.0000
 VDW_S8       =    0.7875
 VDW_A1       =    0.4289
 VDW_A2       =    4.4407
 VDW_RADIUS   =   50.2022 A
 VDW_CNRADIUS =   21.1671 A


 exchange-correlation table for PE
   RHO(1)=    0.500       N(1)  =     2000
   RHO(2)=  100.500       N(2)  =     4000
 


--------------------------------------------------------------------------------------------------------


 ion  position               nearest neighbor table
   1  0.000  0.000  0.513-  30 2.41  34 2.41  28 2.41  25 2.41  21 2.41  19 2.41   7 3.19   8 3.19
                             4 3.19   6 3.19   2 3.19   3 3.19
   2  0.333  0.000  0.513-  28 2.41  29 2.41  35 2.41  26 2.41  20 2.41  19 2.42   3 3.19   9 3.19
                             5 3.19   8 3.19   4 3.19   1 3.19
   3  0.667  0.000  0.513-  29 2.41  36 2.41  30 2.41  27 2.41  20 2.41  21 2.41   2 3.19   5 3.19
                             6 3.19   7 3.19   9 3.19   1 3.19
   4  0.000  0.333  0.513-  28 2.41  31 2.41  33 2.41  24 2.41  22 2.41  19 2.42   7 3.19   9 3.19
                             1 3.19   2 3.19   5 3.19   6 3.19
   5  0.333  0.333  0.513-  32 2.41  31 2.41  29 2.41  23 2.41  20 2.41  22 2.41   8 3.19   6 3.19
                             3 3.19   7 3.19   2 3.19   4 3.19
   6  0.667  0.333  0.513-  30 2.41  32 2.41  33 2.41  21 2.41  23 2.41  24 2.41   8 3.19   9 3.19
                             5 3.19   3 3.19   1 3.19   4 3.19
   7  0.000  0.667  0.513-  31 2.41  36 2.41  34 2.41  27 2.41  22 2.41  25 2.41   4 3.19   5 3.19
                             1 3.19   3 3.19   8 3.19   9 3.19
   8  0.333  0.667  0.513-  32 2.41  34 2.41  35 2.41  23 2.41  25 2.41  26 2.41   5 3.19   6 3.19
                             9 3.19   2 3.19   1 3.19   7 3.19
   9  0.667  0.667  0.513-  33 2.41  35 2.41  36 2.41  26 2.41  24 2.41  27 2.41   6 3.19   8 3.19
                             2 3.19   4 3.19   3 3.19   7 3.19
  10  0.111  0.111  0.812-  37 2.41  43 2.41  39 2.41  46 2.41  48 2.41  52 2.41  13 3.19  11 3.19
                            17 3.19  15 3.19  16 3.19  12 3.19
  11  0.444  0.111  0.812-  44 2.41  38 2.41  37 2.41  46 2.41  53 2.41  47 2.41  13 3.19  14 3.19
                            10 3.19  17 3.19  18 3.19  12 3.19
  12  0.778  0.111  0.812-  45 2.41  39 2.41  38 2.41  47 2.41  54 2.41  48 2.41  15 3.19  14 3.19
                            16 3.19  18 3.19  10 3.19  11 3.19
  13  0.111  0.444  0.812-  37 2.41  40 2.41  42 2.41  46 2.41  49 2.41  51 2.41  10 3.19  11 3.19
                            14 3.19  16 3.19  18 3.19  15 3.19
  14  0.444  0.444  0.812-  38 2.41  40 2.41  41 2.41  47 2.41  49 2.41  50 2.41  11 3.19  13 3.19
                            16 3.19  12 3.19  17 3.19  15 3.19
  15  0.778  0.444  0.812-  39 2.41  41 2.41  42 2.41  48 2.41  50 2.41  51 2.41  12 3.19  10 3.19
                            17 3.19  18 3.19  13 3.19  14 3.19
  16  0.111  0.778  0.812-  40 2.41  43 2.41  45 2.41  49 2.41  52 2.41  54 2.41  17 3.19  14 3.19
                            13 3.19  10 3.19  12 3.19  18 3.19
  17  0.444  0.778  0.812-  41 2.41  43 2.41  44 2.41  50 2.41  52 2.41  53 2.41  16 3.19  10 3.19
                            14 3.19  15 3.19  11 3.19  18 3.19
  18  0.778  0.778  0.812-  42 2.41  44 2.41  45 2.41  51 2.41  53 2.41  54 2.41  13 3.19  15 3.19
                            11 3.19  12 3.19  16 3.19  17 3.19
  19  0.111  0.111  0.435-   1 2.41   4 2.42   2 2.42
  20  0.444  0.111  0.435-   2 2.41   3 2.41   5 2.41
  21  0.778  0.111  0.435-   1 2.41   6 2.41   3 2.41
  22  0.111  0.444  0.435-   4 2.41   5 2.41   7 2.41
  23  0.444  0.444  0.435-   5 2.41   6 2.41   8 2.41
  24  0.778  0.444  0.435-   4 2.41   6 2.41   9 2.41
  25  0.111  0.778  0.435-   1 2.41   8 2.41   7 2.41
  26  0.444  0.778  0.435-   2 2.41   8 2.41   9 2.41
  27  0.778  0.778  0.435-   3 2.41   7 2.41   9 2.41
  28  0.111  0.111  0.590-   2 2.41   4 2.41   1 2.41
  29  0.444  0.111  0.590-   2 2.41   3 2.41   5 2.41
  30  0.778  0.111  0.590-   1 2.41   6 2.41   3 2.41
  31  0.111  0.444  0.590-   4 2.41   5 2.41   7 2.41
  32  0.444  0.444  0.590-   5 2.41   6 2.41   8 2.41
  33  0.778  0.444  0.590-   4 2.41   6 2.41   9 2.41
  34  0.111  0.778  0.590-   1 2.41   8 2.41   7 2.41
  35  0.444  0.778  0.590-   2 2.41   8 2.41   9 2.41
  36  0.778  0.778  0.590-   3 2.41   7 2.41   9 2.41
  37  0.222  0.222  0.734-  10 2.41  13 2.41  11 2.41
  38  0.556  0.222  0.734-  14 2.41  12 2.41  11 2.41
  39  0.889  0.222  0.734-  15 2.41  12 2.41  10 2.41
  40  0.222  0.556  0.734-  16 2.41  14 2.41  13 2.41
  41  0.556  0.556  0.734-  17 2.41  15 2.41  14 2.41
  42  0.889  0.556  0.734-  18 2.41  13 2.41  15 2.41
  43  0.222  0.889  0.734-  10 2.41  16 2.41  17 2.41
  44  0.556  0.889  0.734-  11 2.41  18 2.41  17 2.41
  45  0.889  0.889  0.734-  12 2.41  16 2.41  18 2.41
  46  0.222  0.222  0.890-  10 2.41  11 2.41  13 2.41
  47  0.556  0.222  0.890-  12 2.41  14 2.41  11 2.41
  48  0.889  0.222  0.890-  10 2.41  15 2.41  12 2.41
  49  0.222  0.556  0.890-  16 2.41  14 2.41  13 2.41
  50  0.556  0.556  0.890-  17 2.41  15 2.41  14 2.41
  51  0.889  0.556  0.890-  18 2.41  13 2.41  15 2.41
  52  0.222  0.889  0.890-  10 2.41  16 2.41  17 2.41
  53  0.556  0.889  0.890-  11 2.41  18 2.41  17 2.41
  54  0.889  0.889  0.890-  12 2.41  16 2.41  18 2.41
 
  LATTYP: Found a hexagonal cell.
 ALAT       =     9.5767137364
 C/A-ratio  =     2.0883990637
  
  Lattice vectors:
  
 A1 = (  -4.7883568682,  -8.2936773805,   0.0000000000)
 A2 = (   9.5767137364,   0.0000000000,   0.0000000000)
 A3 = (   0.0000000000,   0.0000000000,  20.0000000000)


Analysis of symmetry for initial positions (statically):
=====================================================================
 Subroutine PRICEL returns:
 Original cell was already a primitive cell.
 

 Routine SETGRP: Setting up the symmetry group for a 
 hexagonal supercell.


 Subroutine GETGRP returns: Found  1 space group operations
 (whereof  1 operations were pure point group operations)
 out of a pool of 24 trial point group operations.


The static configuration has the point symmetry C_1 .


Analysis of symmetry for dynamics (positions and initial velocities):
=====================================================================
 Subroutine PRICEL returns:
 Original cell was already a primitive cell.
 

 Routine SETGRP: Setting up the symmetry group for a 
 hexagonal supercell.


 Subroutine GETGRP returns: Found  1 space group operations
 (whereof  1 operations were pure point group operations)
 out of a pool of 24 trial point group operations.


The dynamic configuration has the point symmetry C_1 .


 Subroutine INISYM returns: Found  1 space group operations
 (whereof  1 operations are pure point group operations),
 and found     1 'primitive' translations


----------------------------------------------------------------------------------------

                                     Primitive cell                                     

  volume of cell :    1588.5235

  direct lattice vectors                    reciprocal lattice vectors
     9.576713736  0.000000000  0.000000000     0.104419953 -0.060286888  0.000000000
     4.788356868  8.293677380  0.000000000     0.000000000  0.120573776  0.000000000
     0.000000000  0.000000000 20.000000000     0.000000000  0.000000000  0.050000000

  length of vectors
     9.576713736  9.576713736 20.000000000     0.120573776  0.120573776  0.050000000

  position of ions in fractional coordinates (direct lattice)
     0.000000000  0.000000000  0.512968345
     0.333333333  0.000000000  0.512968345
     0.666666667  0.000000000  0.512968345
     1.000000000  0.333333333  0.512968345
     0.333333333  0.333333333  0.512968345
     0.666666667  0.333333333  0.512968345
     1.000000000  0.666666667  0.512968345
     0.333333333  0.666666667  0.512968345
     0.666666667  0.666666667  0.512968345
     0.111111111  0.111111111  0.812069022
     0.444444444  0.111111111  0.812069022
     0.777777778  0.111111111  0.812069022
     0.111111111  0.444444444  0.812069022
     0.444444444  0.444444444  0.812069022
     0.777777778  0.444444444  0.812069022
     0.111111111  0.777777778  0.812069022
     0.444444444  0.777777778  0.812069022
     0.777777778  0.777777778  0.812069022
     0.110660145  0.111111111  0.434811964
     0.444444444  0.111111111  0.435262930
     0.777777778  0.111111111  0.435262930
     0.111111111  0.444444444  0.435262930
     0.444444444  0.444444444  0.435262930
     0.777777778  0.444444444  0.435262930
     0.111111111  0.777777778  0.435262930
     0.444444444  0.777777778  0.435262930
     0.777777778  0.777777778  0.435262930
     0.111111111  0.111111111  0.590474459
     0.444444444  0.111111111  0.590474459
     0.777777778  0.111111111  0.590474459
     0.111111111  0.444444444  0.590474459
     0.444444444  0.444444444  0.590474459
     0.777777778  0.444444444  0.590474459
     0.111111111  0.777777778  0.590474459
     0.444444444  0.777777778  0.590474459
     0.777777778  0.777777778  0.590474459
     0.222222222  0.222222222  0.734499218
     0.555555556  0.222222222  0.734499218
     0.888888889  0.222222222  0.734499218
     0.222222222  0.555555556  0.734499218
     0.555555556  0.555555556  0.734499218
     0.888888889  0.555555556  0.734499218
     0.222222222  0.888888889  0.734499218
     0.555555556  0.888888889  0.734499218
     0.888888889  0.888888889  0.734499218
     0.222222222  0.222222222  0.889726027
     0.555555556  0.222222222  0.889726027
     0.888888889  0.222222222  0.889726027
     0.222222222  0.555555556  0.889726027
     0.555555556  0.555555556  0.889726027
     0.888888889  0.555555556  0.889726027
     0.222222222  0.888888889  0.889726027
     0.555555556  0.888888889  0.889726027
     0.888888889  0.888888889  0.889726027

  ion indices of the primitive-cell ions
   primitive index   ion index
                 1           1
                 2           2
                 3           3
                 4           4
                 5           5
                 6           6
                 7           7
                 8           8
                 9           9
                10          10
                11          11
                12          12
                13          13
                14          14
                15          15
                16          16
                17          17
                18          18
                19          19
                20          20
                21          21
                22          22
                23          23
                24          24
                25          25
                26          26
                27          27
                28          28
                29          29
                30          30
                31          31
                32          32
                33          33
                34          34
                35          35
                36          36
                37          37
                38          38
                39          39
                40          40
                41          41
                42          42
                43          43
                44          44
                45          45
                46          46
                47          47
                48          48
                49          49
                50          50
                51          51
                52          52
                53          53
                54          54

----------------------------------------------------------------------------------------

 
 
 KPOINTS: Automatic mesh                          

Automatic generation of k-mesh.
 Grid dimensions read from file:
 generate k-points for:    5    5    1

 Generating k-lattice:

  Cartesian coordinates                     Fractional coordinates (reciprocal lattice)
     0.020883991 -0.012057378  0.000000000     0.200000000  0.000000000  0.000000000
     0.000000000  0.024114755  0.000000000     0.000000000  0.200000000  0.000000000
     0.000000000  0.000000000  0.050000000     0.000000000  0.000000000  1.000000000

  Length of vectors
     0.024114755  0.024114755  0.050000000

  Shift w.r.t. Gamma in fractional coordinates (k-lattice)
     0.000000000  0.000000000  0.000000000

 
 Subroutine IBZKPT returns following result:
 ===========================================
 
 Found     13 irreducible k-points:
 
 Following reciprocal coordinates:
            Coordinates               Weight
  0.000000  0.000000  0.000000      1.000000
  0.200000  0.000000  0.000000      2.000000
  0.200000  0.200000  0.000000      2.000000
  0.000000  0.200000  0.000000      2.000000
  0.400000  0.000000  0.000000      2.000000
  0.400000  0.400000  0.000000      2.000000
  0.000000  0.400000  0.000000      2.000000
  0.400000  0.200000  0.000000      2.000000
  0.200000  0.400000  0.000000      2.000000
 -0.200000  0.200000  0.000000      2.000000
 -0.400000  0.200000  0.000000      2.000000
  0.400000 -0.400000  0.000000      2.000000
 -0.200000  0.400000  0.000000      2.000000
 
 Following cartesian coordinates:
            Coordinates               Weight
  0.000000  0.000000  0.000000      1.000000
  0.020884 -0.012057  0.000000      2.000000
  0.020884  0.012057  0.000000      2.000000
  0.000000  0.024115  0.000000      2.000000
  0.041768 -0.024115  0.000000      2.000000
  0.041768  0.024115  0.000000      2.000000
  0.000000  0.048230  0.000000      2.000000
  0.041768  0.000000  0.000000      2.000000
  0.020884  0.036172  0.000000      2.000000
 -0.020884  0.036172  0.000000      2.000000
 -0.041768  0.048230  0.000000      2.000000
  0.041768 -0.072344  0.000000      2.000000
 -0.020884  0.060287  0.000000      2.000000
 


--------------------------------------------------------------------------------------------------------




 Dimension of arrays:
   k-points           NKPTS =     13   k-points in BZ     NKDIM =     13   number of bands    NBANDS=    286
   number of dos      NEDOS =    301   number of ions     NIONS =     54
   non local maximal  LDIM  =      6   non local SUM 2l+1 LMDIM =     18
   total plane-waves  NPLWV = 777600
   max r-space proj   IRMAX =   7448   max aug-charges    IRDMAX=  21604
   dimension x,y,z NGX =    72 NGY =   72 NGZ =  150
   dimension x,y,z NGXF=   144 NGYF=  144 NGZF=  300
   support grid    NGXF=   144 NGYF=  144 NGZF=  300
   ions per type =              18  36
   NGX,Y,Z   is equivalent  to a cutoff of  12.50, 12.50, 12.47 a.u.
   NGXF,Y,Z  is equivalent  to a cutoff of  25.00, 25.00, 24.94 a.u.

 SYSTEM =  MoS2_bilayer_3R phonon                  
 POSCAR =  generated by phonopy                    

 Startparameter for this run:
   NWRITE =      2    write-flag & timer
   PREC   = accura    normal or accurate (medium, high low for compatibility)
   ISTART =      0    job   : 0-new  1-cont  2-samecut
   ICHARG =      2    charge: 1-file 2-atom 10-const
   ISPIN  =      1    spin polarized calculation?
   LNONCOLLINEAR =      F non collinear calculations
   LSORBIT =      F    spin-orbit coupling
   INIWAV =      1    electr: 0-lowe 1-rand  2-diag
   LASPH  =      F    aspherical Exc in radial PAW
 Electronic Relaxation 1
   ENCUT  =  520.0 eV  38.22 Ry    6.18 a.u.  17.81 17.81 37.19*2*pi/ulx,y,z
   ENINI  =  520.0     initial cutoff
   ENAUG  =  446.0 eV  augmentation charge cutoff
   NELM   =    200;   NELMIN=  2; NELMDL= -5     # of ELM steps 
   EDIFF  = 0.1E-05   stopping-criterion for ELM
   LREAL  =      T    real-space projection
   NLSPLINE    = F    spline interpolate recip. space projectors
   LCOMPAT=      F    compatible to vasp.4.4
   GGA_COMPAT  = T    GGA compatible to vasp.4.4-vasp.4.6
   LMAXPAW     = -100 max onsite density
   LMAXMIX     =    2 max onsite mixed and CHGCAR
   VOSKOWN=      0    Vosko Wilk Nusair interpolation
   ROPT   =   -0.00025  -0.00025
 Ionic relaxation
   EDIFFG = 0.1E-04   stopping-criterion for IOM
   NSW    =      0    number of steps for IOM
   NBLOCK =      1;   KBLOCK =      1    inner block; outer block 
   IBRION =     -1    ionic relax: 0-MD 1-quasi-New 2-CG
   NFREE  =      0    steps in history (QN), initial steepest desc. (CG)
   ISIF   =      2    stress and relaxation
   IWAVPR =     10    prediction:  0-non 1-charg 2-wave 3-comb
   ISYM   =      2    0-nonsym 1-usesym 2-fastsym
   LCORR  =      T    Harris-Foulkes like correction to forces

   POTIM  = 0.5000    time-step for ionic-motion
   TEIN   =    0.0    initial temperature
   TEBEG  =    0.0;   TEEND  =   0.0 temperature during run
   SMASS  =  -3.00    Nose mass-parameter (am)
   estimated Nose-frequenzy (Omega)   =  0.10E-29 period in steps = 0.13E+47 mass=  -0.210E-26a.u.
   SCALEE = 1.0000    scale energy and forces
   NPACO  =    256;   APACO  = 10.0  distance and # of slots for P.C.
   PSTRESS=    0.0 pullay stress

  Mass of Ions in am
   POMASS =  95.94 32.07
  Ionic Valenz
   ZVAL   =  14.00  6.00
  Atomic Wigner-Seitz radii
   RWIGS  =  -1.00 -1.00
  virtual crystal weights 
   VCA    =   1.00  1.00
   NELECT =     468.0000    total number of electrons
   NUPDOWN=      -1.0000    fix difference up-down

 DOS related values:
   EMIN   =  10.00;   EMAX   =-10.00  energy-range for DOS
   EFERMI =   0.00;   METHOD = LEGACY      
   ISMEAR =     0;   SIGMA  =   0.05  broadening in eV -4-tet -1-fermi 0-gaus
   EFERMI_NEDOS =   21; number of points for ismear=-14 and -15

 Electronic relaxation 2 (details)
   IALGO  =     38    algorithm
   LDIAG  =      T    sub-space diagonalisation (order eigenvalues)
   LSUBROT=      F    optimize rotation matrix (better conditioning)
   LROBUST=      F    robust break criterion during scf (extrapolated energy error)
   ISEARCH=      0    line search for conjugate gradient (0, 1=use gradient)
   TURBO    =      0    0=normal 1=particle mesh
   IRESTART =      0    0=no restart 2=restart with 2 vectors
   NREBOOT  =      0    no. of reboots
   NMIN     =      0    reboot dimension
   EREF     =   0.00    reference energy to select bands
   IMIX   =      4    mixing-type and parameters
     AMIX     =   0.40;   BMIX     =  1.00
     AMIX_MAG =   1.60;   BMIX_MAG =  1.00
     AMIN     =   0.01
     WC   =   100.;   INIMIX=   1;  MIXPRE=   1;  MAXMIX= -45

 Intra band minimization:
   WEIMIN = 0.0000     energy-eigenvalue tresh-hold
   EBREAK =  0.87E-09  absolut break condition
   DEPER  =   0.30     relativ break condition  

   TIME   =   0.40     timestep for ELM

  volume/ion in A,a.u.               =      29.42       198.52
  Fermi-wavevector in a.u.,A,eV,Ry     =   1.089329  2.058533 16.145174  1.186637
  Thomas-Fermi vector in A             =   2.225529
 
 Write flags
   LWAVE        =      F    write WAVECAR
   LDOWNSAMPLE  =      F    k-point downsampling of WAVECAR
   LCHARG       =      F    write CHGCAR
   LVTOT        =      F    write LOCPOT, total local potential
   LVHAR        =      F    write LOCPOT, Hartree potential only
   WRT_POTENTIAL= false  ! write potential to hdf5 file
   LELF         =      F    write electronic localiz. function (ELF)
   LORBIT       =      0    0 simple, 1 ext, 2 COOP (PROOUT), +10 PAW based schemes


 Python interface
   PLUGINS active      =      F    recompile with -DPLUGINS to activate
 
 Dipole corrections
   LMONO      =      F    monopole corrections only (constant potential shift)
   LDIPOL     =      F    correct potential (dipole corrections)
   IDIPOL     =      0    1-x, 2-y, 3-z, 4-all directions 
   EPSILON    =  1.0000000 bulk dielectric constant
   LVACPOTAV  =      F  vacuum potentials using an averaging scheme for the charge density
   VACPOTFLAT =  0.1000000 required flatness to determine vacuum potential
 
Coulomb truncation method
  LTRUNCATE          =      F  Coulomb kernel truncation to be used

 
 Exchange correlation treatment:
   GGA     = PE    functional components
   XC_C    = 1    coefficients multiplying the functional components
   LIBXC   =     F    Libxc                    
   VOSKOWN =     0    Vosko Wilk Nusair interpolation
   LHFCALC =     F    Hartree Fock is set to
   LHFONE  =     F    Hartree Fock one center treatment
   AEXX    =    0.0000 exact exchange contribution

 Parameters of functionals:
   PE:
     No parameter
 
 Van der Waals corrections
   IVDW    =    12    specifies the selected vdW correction

 Linear response parameters
   LEPSILON=     F    determine dielectric tensor
   LRPA    =     F    only Hartree local field effects (RPA)
   LNABLA  =     F    use nabla operator in PAW spheres
   LVEL    =     F    velocity operator in full k-point grid
   CSHIFT  =0.1000    complex shift for real part using Kramers Kronig
   OMEGAMAX=  -1.0    maximum frequency
   DEG_THRESHOLD= 0.2000000E-02 threshold for treating states as degnerate
   RTIME   =   -0.100 relaxation time in fs
  (WPLASMAI=    0.000 imaginary part of plasma frequency in eV, 0.658/RTIME)
   DFIELD  = 0.0000000 0.0000000 0.0000000 field for delta impulse in time
 
  Optional k-point grid parameters
   LKPOINTS_OPT  =     F    use optional k-point grid
   KPOINTS_OPT_MODE=     1    mode for optional k-point grid
 
 Orbital magnetization related:
   ORBITALMAG=     F  switch on orbital magnetization
   LCHIMAG   =     F  perturbation theory with respect to B field
   DQ        =  0.001000  dq finite difference perturbation B field
   LLRAUG    =     F  two centre corrections for induced B field
   LBONE     =     F  B-component reconstruction in AE one-centre
   LVGVCALC  =     T  calculate vGv susceptibility
   LVGVAPPL  =     F  apply vGv susceptibility instead of pGv for G=0

 Random number generation:
   RANDOM_GENERATOR = DEFAULT
   PCG_SEED         = not used


--------------------------------------------------------------------------------------------------------


 Static calculation
 charge density and potential will be updated during run
 non-spin polarized calculation
 Variant of blocked Davidson
 Davidson routine will perform the subspace rotation
 perform sub-space diagonalisation
    after iterative eigenvector-optimisation
 modified Broyden-mixing scheme, WC =      100.0
 initial mixing is a Kerker type mixing with AMIX =  0.4000 and BMIX =      1.0000
 Hartree-type preconditioning will be used
 using additional bands           52
 real space projection scheme for non local part
 use partial core corrections
 calculate Harris-corrections to forces 
   (improved forces if not selfconsistent)
 use gradient corrections 
 use of overlap-Matrix (Vanderbilt PP)
 Gauss-broadening in eV      SIGMA  =   0.05


--------------------------------------------------------------------------------------------------------


  energy-cutoff  :      520.00
  volume of cell :     1588.52
      direct lattice vectors                 reciprocal lattice vectors
     9.576713736  0.000000000  0.000000000     0.104419953 -0.060286888  0.000000000
     4.788356868  8.293677380  0.000000000     0.000000000  0.120573776  0.000000000
     0.000000000  0.000000000 20.000000000     0.000000000  0.000000000  0.050000000

  length of vectors
     9.576713736  9.576713736 20.000000000     0.120573776  0.120573776  0.050000000


 
 k-points in units of 2pi/SCALE and weight: Automatic mesh                          
   0.00000000  0.00000000  0.00000000       0.040
   0.02088399 -0.01205738  0.00000000       0.080
   0.02088399  0.01205738  0.00000000       0.080
   0.00000000  0.02411476  0.00000000       0.080
   0.04176798 -0.02411476  0.00000000       0.080
   0.04176798  0.02411476  0.00000000       0.080
   0.00000000  0.04822951  0.00000000       0.080
   0.04176798  0.00000000  0.00000000       0.080
   0.02088399  0.03617213  0.00000000       0.080
  -0.02088399  0.03617213  0.00000000       0.080
  -0.04176798  0.04822951  0.00000000       0.080
   0.04176798 -0.07234427  0.00000000       0.080
  -0.02088399  0.06028689  0.00000000       0.080
 
 k-points in reciprocal lattice and weights: Automatic mesh                          
   0.00000000  0.00000000  0.00000000       0.040
   0.20000000  0.00000000  0.00000000       0.080
   0.20000000  0.20000000  0.00000000       0.080
   0.00000000  0.20000000  0.00000000       0.080
   0.40000000  0.00000000  0.00000000       0.080
   0.40000000  0.40000000  0.00000000       0.080
   0.00000000  0.40000000  0.00000000       0.080
   0.40000000  0.20000000  0.00000000       0.080
   0.20000000  0.40000000  0.00000000       0.080
  -0.20000000  0.20000000  0.00000000       0.080
  -0.40000000  0.20000000  0.00000000       0.080
   0.40000000 -0.40000000  0.00000000       0.080
  -0.20000000  0.40000000  0.00000000       0.080
 
 position of ions in fractional coordinates (direct lattice) 
   0.00000000  0.00000000  0.51296834
   0.33333333  0.00000000  0.51296834
   0.66666667  0.00000000  0.51296834
   0.00000000  0.33333333  0.51296834
   0.33333333  0.33333333  0.51296834
   0.66666667  0.33333333  0.51296834
   0.00000000  0.66666667  0.51296834
   0.33333333  0.66666667  0.51296834
   0.66666667  0.66666667  0.51296834
   0.11111111  0.11111111  0.81206902
   0.44444444  0.11111111  0.81206902
   0.77777778  0.11111111  0.81206902
   0.11111111  0.44444444  0.81206902
   0.44444444  0.44444444  0.81206902
   0.77777778  0.44444444  0.81206902
   0.11111111  0.77777778  0.81206902
   0.44444444  0.77777778  0.81206902
   0.77777778  0.77777778  0.81206902
   0.11066014  0.11111111  0.43481196
   0.44444444  0.11111111  0.43526293
   0.77777778  0.11111111  0.43526293
   0.11111111  0.44444444  0.43526293
   0.44444444  0.44444444  0.43526293
   0.77777778  0.44444444  0.43526293
   0.11111111  0.77777778  0.43526293
   0.44444444  0.77777778  0.43526293
   0.77777778  0.77777778  0.43526293
   0.11111111  0.11111111  0.59047446
   0.44444444  0.11111111  0.59047446
   0.77777778  0.11111111  0.59047446
   0.11111111  0.44444444  0.59047446
   0.44444444  0.44444444  0.59047446
   0.77777778  0.44444444  0.59047446
   0.11111111  0.77777778  0.59047446
   0.44444444  0.77777778  0.59047446
   0.77777778  0.77777778  0.59047446
   0.22222222  0.22222222  0.73449922
   0.55555556  0.22222222  0.73449922
   0.88888889  0.22222222  0.73449922
   0.22222222  0.55555556  0.73449922
   0.55555556  0.55555556  0.73449922
   0.88888889  0.55555556  0.73449922
   0.22222222  0.88888889  0.73449922
   0.55555556  0.88888889  0.73449922
   0.88888889  0.88888889  0.73449922
   0.22222222  0.22222222  0.88972603
   0.55555556  0.22222222  0.88972603
   0.88888889  0.22222222  0.88972603
   0.22222222  0.55555556  0.88972603
   0.55555556  0.55555556  0.88972603
   0.88888889  0.55555556  0.88972603
   0.22222222  0.88888889  0.88972603
   0.55555556  0.88888889  0.88972603
   0.88888889  0.88888889  0.88972603
 
 position of ions in cartesian coordinates  (Angst):
   0.00000000  0.00000000 10.25936690
   3.19223791  0.00000000 10.25936690
   6.38447582  0.00000000 10.25936690
   1.59611896  2.76455913 10.25936690
   4.78835687  2.76455913 10.25936690
   7.98059478  2.76455913 10.25936690
   3.19223791  5.52911825 10.25936690
   6.38447582  5.52911825 10.25936690
   9.57671374  5.52911825 10.25936690
   1.59611896  0.92151971 16.24138043
   4.78835687  0.92151971 16.24138043
   7.98059478  0.92151971 16.24138043
   3.19223791  3.68607884 16.24138043
   6.38447582  3.68607884 16.24138043
   9.57671374  3.68607884 16.24138043
   4.78835687  6.45063796 16.24138043
   7.98059478  6.45063796 16.24138043
  11.17283269  6.45063796 16.24138043
   1.59180018  0.92151971  8.69623929
   4.78835687  0.92151971  8.70525861
   7.98059478  0.92151971  8.70525861
   3.19223791  3.68607884  8.70525861
   6.38447582  3.68607884  8.70525861
   9.57671374  3.68607884  8.70525861
   4.78835687  6.45063796  8.70525861
   7.98059478  6.45063796  8.70525861
  11.17283269  6.45063796  8.70525861
   1.59611896  0.92151971 11.80948917
   4.78835687  0.92151971 11.80948917
   7.98059478  0.92151971 11.80948917
   3.19223791  3.68607884 11.80948917
   6.38447582  3.68607884 11.80948917
   9.57671374  3.68607884 11.80948917
   4.78835687  6.45063796 11.80948917
   7.98059478  6.45063796 11.80948917
  11.17283269  6.45063796 11.80948917
   3.19223791  1.84303942 14.68998436
   6.38447582  1.84303942 14.68998436
   9.57671374  1.84303942 14.68998436
   4.78835687  4.60759854 14.68998436
   7.98059478  4.60759854 14.68998436
  11.17283269  4.60759854 14.68998436
   6.38447582  7.37215767 14.68998436
   9.57671374  7.37215767 14.68998436
  12.76895165  7.37215767 14.68998436
   3.19223791  1.84303942 17.79452053
   6.38447582  1.84303942 17.79452053
   9.57671374  1.84303942 17.79452053
   4.78835687  4.60759854 17.79452053
   7.98059478  4.60759854 17.79452053
  11.17283269  4.60759854 17.79452053
   6.38447582  7.37215767 17.79452053
   9.57671374  7.37215767 17.79452053
  12.76895165  7.37215767 17.79452053
 


--------------------------------------------------------------------------------------------------------


 k-point     1 :   0.0000 0.0000 0.0000  plane waves:   42765
 k-point     2 :   0.2000 0.0000 0.0000  plane waves:   42749
 k-point     3 :   0.2000 0.2000 0.0000  plane waves:   42749
 k-point     4 :   0.0000 0.2000 0.0000  plane waves:   42749
 k-point     5 :   0.4000 0.0000 0.0000  plane waves:   42789
 k-point     6 :   0.4000 0.4000 0.0000  plane waves:   42789
 k-point     7 :   0.0000 0.4000 0.0000  plane waves:   42789
 k-point     8 :   0.4000 0.2000 0.0000  plane waves:   42756
 k-point     9 :   0.2000 0.4000 0.0000  plane waves:   42756
 k-point    10 :  -0.2000 0.2000 0.0000  plane waves:   42756
 k-point    11 :  -0.4000 0.2000 0.0000  plane waves:   42772
 k-point    12 :   0.4000-0.4000 0.0000  plane waves:   42772
 k-point    13 :  -0.2000 0.4000 0.0000  plane waves:   42772

 maximum and minimum number of plane-waves per node :     10740    10644

 maximum number of plane-waves:     42789
 maximum index in each direction: 
   IXMAX=   18   IYMAX=   18   IZMAX=   37
   IXMIN=  -18   IYMIN=  -18   IZMIN=  -37


 real space projection operators:
  total allocation   :      26197.25 KBytes
  max/ min on nodes  :       6582.03       6517.47


 parallel 3D FFT for wavefunctions:
    minimum data exchange during FFTs selected (reduces bandwidth)
 parallel 3D FFT for charge:
    minimum data exchange during FFTs selected (reduces bandwidth)


 total amount of memory used by VASP MPI-rank0   132777. kBytes
=======================================================================

   base                                    :      30000. kBytes
   nonlr-proj                              :      14941. kBytes
   fftplans                                :      11326. kBytes
   grid                                    :      17519. kBytes
   one-center                              :        217. kBytes
   wavefun                                 :      58774. kBytes
 
     INWAV:  cpu time      0.0000: real time      0.0002
 Broyden mixing: mesh for mixing (old mesh)
   NGX = 35   NGY = 35   NGZ = 75
  (NGX  =144   NGY  =144   NGZ  =300)
  gives a total of  91875 points

 initial charge density was supplied:
 charge density of overlapping atoms calculated
 number of electron     468.0000000 magnetization 
 keeping initial charge density in first step


--------------------------------------------------------------------------------------------------------


 Maximum index for non-local projection operator         1809
 Maximum index for augmentation-charges         1326 (set IRDMAX)


--------------------------------------------------------------------------------------------------------


 First call to EWALD:  gamma=   0.152
 Maximum number of real-space cells   4x   4x   2
 Maximum number of reciprocal cells   2x   2x   4

    FEWALD:  cpu time      0.1524: real time      0.1524


--------------------------------------- Ionic step        1  -------------------------------------------




--------------------------------------- Iteration      1(   1)  ---------------------------------------


    POTLOK:  cpu time      0.1027: real time      0.1046
    SETDIJ:  cpu time      0.0162: real time      0.0164
     EDDAV:  cpu time      5.7991: real time      5.8482
       DOS:  cpu time      0.0078: real time      0.0125
    --------------------------------------------
      LOOP:  cpu time      5.9258: real time      5.9817

 eigenvalue-minimisations  :  9130
 total energy-change (2. order) : 0.4173110E+04  (-0.2538097E+05)
 number of electron     468.0000000 magnetization 
 augmentation part      468.0000000 magnetization 

 Free energy of the ion-electron system (eV)
  ---------------------------------------------------
  alpha Z        PSCENC =       964.87981809
  Ewald energy   TEWEN  =     52436.82468300
  -Hartree energ DENC   =    -92729.03059447
  -exchange      EXHF   =         0.00000000
  -V(xc)+E(xc)   XCENC  =      1646.87771651
  PAW double counting   =     34790.20238322   -34342.63393317
  entropy T*S    EENTRO =        -0.01974569
  eigenvalues    EBANDS =     -2080.59370567
  atomic energy  EATOM  =     43486.60354843
  Solvation  Ediel_sol  =         0.00000000
  ---------------------------------------------------
  free energy    TOTEN  =      4173.11017024 eV

  energy without entropy =     4173.12991593  energy(sigma->0) =     4173.12004309


--------------------------------------------------------------------------------------------------------




--------------------------------------- Iteration      1(   2)  ---------------------------------------


     EDDAV:  cpu time      6.2378: real time      6.2382
       DOS:  cpu time      0.0095: real time      0.0095
    --------------------------------------------
      LOOP:  cpu time      6.2472: real time      6.2477

 eigenvalue-minimisations  :  8987
 total energy-change (2. order) :-0.4250040E+04  (-0.4126368E+04)
 number of electron     468.0000000 magnetization 
 augmentation part      468.0000000 magnetization 

 Free energy of the ion-electron system (eV)
  ---------------------------------------------------
  alpha Z        PSCENC =       964.87981809
  Ewald energy   TEWEN  =     52436.82468300
  -Hartree energ DENC   =    -92729.03059447
  -exchange      EXHF   =         0.00000000
  -V(xc)+E(xc)   XCENC  =      1646.87771651
  PAW double counting   =     34790.20238322   -34342.63393317
  entropy T*S    EENTRO =        -0.00000000
  eigenvalues    EBANDS =     -6330.65308313
  atomic energy  EATOM  =     43486.60354843
  Solvation  Ediel_sol  =         0.00000000
  ---------------------------------------------------
  free energy    TOTEN  =       -76.92946153 eV

  energy without entropy =      -76.92946153  energy(sigma->0) =      -76.92946153


--------------------------------------------------------------------------------------------------------




--------------------------------------- Iteration      1(   3)  ---------------------------------------


     EDDAV:  cpu time      5.5757: real time      5.5764
       DOS:  cpu time      0.0010: real time      0.0010
    --------------------------------------------
      LOOP:  cpu time      5.5766: real time      5.5773

 eigenvalue-minimisations  :  8866
 total energy-change (2. order) :-0.3272392E+03  (-0.3207938E+03)
 number of electron     468.0000000 magnetization 
 augmentation part      468.0000000 magnetization 

 Free energy of the ion-electron system (eV)
  ---------------------------------------------------
  alpha Z        PSCENC =       964.87981809
  Ewald energy   TEWEN  =     52436.82468300
  -Hartree energ DENC   =    -92729.03059447
  -exchange      EXHF   =         0.00000000
  -V(xc)+E(xc)   XCENC  =      1646.87771651
  PAW double counting   =     34790.20238322   -34342.63393317
  entropy T*S    EENTRO =        -0.00000000
  eigenvalues    EBANDS =     -6657.89228807
  atomic energy  EATOM  =     43486.60354843
  Solvation  Ediel_sol  =         0.00000000
  ---------------------------------------------------
  free energy    TOTEN  =      -404.16866646 eV

  energy without entropy =     -404.16866646  energy(sigma->0) =     -404.16866646


--------------------------------------------------------------------------------------------------------




--------------------------------------- Iteration      1(   4)  ---------------------------------------


     EDDAV:  cpu time      6.1689: real time      6.1704
       DOS:  cpu time      0.0021: real time      0.0021
    --------------------------------------------
      LOOP:  cpu time      6.1710: real time      6.1725

 eigenvalue-minimisations  :  9867
 total energy-change (2. order) :-0.1527302E+02  (-0.1516408E+02)
 number of electron     468.0000000 magnetization 
 augmentation part      468.0000000 magnetization 

 Free energy of the ion-electron system (eV)
  ---------------------------------------------------
  alpha Z        PSCENC =       964.87981809
  Ewald energy   TEWEN  =     52436.82468300
  -Hartree energ DENC   =    -92729.03059447
  -exchange      EXHF   =         0.00000000
  -V(xc)+E(xc)   XCENC  =      1646.87771651
  PAW double counting   =     34790.20238322   -34342.63393317
  entropy T*S    EENTRO =        -0.00000000
  eigenvalues    EBANDS =     -6673.16531080
  atomic energy  EATOM  =     43486.60354843
  Solvation  Ediel_sol  =         0.00000000
  ---------------------------------------------------
  free energy    TOTEN  =      -419.44168919 eV

  energy without entropy =     -419.44168919  energy(sigma->0) =     -419.44168919


--------------------------------------------------------------------------------------------------------




--------------------------------------- Iteration      1(   5)  ---------------------------------------


     EDDAV:  cpu time      6.1954: real time      6.1963
       DOS:  cpu time      0.0164: real time      0.0164
    CHARGE:  cpu time      0.3628: real time      0.3628
    MIXING:  cpu time      0.0293: real time      0.0293
    --------------------------------------------
      LOOP:  cpu time      6.6039: real time      6.6048

 eigenvalue-minimisations  : 10175
 total energy-change (2. order) :-0.4944639E+00  (-0.4926637E+00)
 number of electron     468.0000002 magnetization 
 augmentation part        6.4668072 magnetization 

 Broyden mixing:
  rms(total) = 0.10050E+02    rms(broyden)= 0.10050E+02
  rms(prec ) = 0.10181E+02
  weight for this iteration     100.00

 Free energy of the ion-electron system (eV)
  ---------------------------------------------------
  alpha Z        PSCENC =       964.87981809
  Ewald energy   TEWEN  =     52436.82468300
  -Hartree energ DENC   =    -92729.03059447
  -exchange      EXHF   =         0.00000000
  -V(xc)+E(xc)   XCENC  =      1646.87771651
  PAW double counting   =     34790.20238322   -34342.63393317
  entropy T*S    EENTRO =        -0.00000000
  eigenvalues    EBANDS =     -6673.65977473
  atomic energy  EATOM  =     43486.60354843
  Solvation  Ediel_sol  =         0.00000000
  ---------------------------------------------------
  free energy    TOTEN  =      -419.93615312 eV

  energy without entropy =     -419.93615312  energy(sigma->0) =     -419.93615312


--------------------------------------------------------------------------------------------------------




--------------------------------------- Iteration      1(   6)  ---------------------------------------


    POTLOK:  cpu time      0.1010: real time      0.1014
    SETDIJ:  cpu time      0.0125: real time      0.0125
     EDDAV:  cpu time      5.3233: real time      5.3234
       DOS:  cpu time      0.0020: real time      0.0020
    CHARGE:  cpu time      0.3421: real time      0.3421
    MIXING:  cpu time      0.0293: real time      0.0301
    --------------------------------------------
      LOOP:  cpu time      5.8101: real time      5.8114

 eigenvalue-minimisations  :  8404
 total energy-change (2. order) : 0.2035937E+02  (-0.1784709E+02)
 number of electron     467.9999990 magnetization 
 augmentation part       17.6343184 magnetization 

 Broyden mixing:
  rms(total) = 0.39820E+01    rms(broyden)= 0.39820E+01
  rms(prec ) = 0.41164E+01
  weight for this iteration     100.00

 eigenvalues of (default mixing * dielectric matrix)
  average eigenvalue GAMMA=   1.0923
  1.0923

 Free energy of the ion-electron system (eV)
  ---------------------------------------------------
  alpha Z        PSCENC =       964.87981809
  Ewald energy   TEWEN  =     52436.82468300
  -Hartree energ DENC   =    -92204.94212835
  -exchange      EXHF   =         0.00000000
  -V(xc)+E(xc)   XCENC  =      1632.57637765
  PAW double counting   =     41129.88195921   -40743.66427642
  entropy T*S    EENTRO =        -0.00000000
  eigenvalues    EBANDS =     -7101.73676841
  atomic energy  EATOM  =     43486.60354843
  Solvation  Ediel_sol  =         0.00000000
  ---------------------------------------------------
  free energy    TOTEN  =      -399.57678680 eV

  energy without entropy =     -399.57678680  energy(sigma->0) =     -399.57678680


--------------------------------------------------------------------------------------------------------




--------------------------------------- Iteration      1(   7)  ---------------------------------------


    POTLOK:  cpu time      0.0964: real time      0.0969
    SETDIJ:  cpu time      0.0114: real time      0.0114
     EDDAV:  cpu time      5.2684: real time      5.2684
       DOS:  cpu time      0.0084: real time      0.0084
    CHARGE:  cpu time      0.3430: real time      0.3431
    MIXING:  cpu time      0.0262: real time      0.0268
    --------------------------------------------
      LOOP:  cpu time      5.7538: real time      5.7550

 eigenvalue-minimisations  :  8217
 total energy-change (2. order) : 0.3726619E+01  (-0.7160321E+01)
 number of electron     467.9999997 magnetization 
 augmentation part       11.7364436 magnetization 

 Broyden mixing:
  rms(total) = 0.23859E+01    rms(broyden)= 0.23859E+01
  rms(prec ) = 0.24706E+01
  weight for this iteration     100.00

 eigenvalues of (default mixing * dielectric matrix)
  average eigenvalue GAMMA=   1.2071
  1.7667  0.6476

 Free energy of the ion-electron system (eV)
  ---------------------------------------------------
  alpha Z        PSCENC =       964.87981809
  Ewald energy   TEWEN  =     52436.82468300
  -Hartree energ DENC   =    -92565.45068574
  -exchange      EXHF   =         0.00000000
  -V(xc)+E(xc)   XCENC  =      1638.38059652
  PAW double counting   =     46750.38692234   -46349.78307141
  entropy T*S    EENTRO =        -0.00000000
  eigenvalues    EBANDS =     -6757.69197902
  atomic energy  EATOM  =     43486.60354843
  Solvation  Ediel_sol  =         0.00000000
  ---------------------------------------------------
  free energy    TOTEN  =      -395.85016779 eV

  energy without entropy =     -395.85016779  energy(sigma->0) =     -395.85016779


--------------------------------------------------------------------------------------------------------




--------------------------------------- Iteration      1(   8)  ---------------------------------------


    POTLOK:  cpu time      0.0947: real time      0.0954
    SETDIJ:  cpu time      0.0114: real time      0.0114
     EDDAV:  cpu time      5.4072: real time      5.4072
       DOS:  cpu time      0.0020: real time      0.0020
    CHARGE:  cpu time      0.3297: real time      0.3297
    MIXING:  cpu time      0.0231: real time      0.0240
    --------------------------------------------
      LOOP:  cpu time      5.8680: real time      5.8697

 eigenvalue-minimisations  :  8756
 total energy-change (2. order) : 0.3211823E+01  (-0.1139166E+01)
 number of electron     467.9999994 magnetization 
 augmentation part       13.7841062 magnetization 

 Broyden mixing:
  rms(total) = 0.82045E+00    rms(broyden)= 0.82045E+00
  rms(prec ) = 0.82762E+00
  weight for this iteration     100.00

 eigenvalues of (default mixing * dielectric matrix)
  average eigenvalue GAMMA=   1.2477
  2.2783  0.8570  0.6077

 Free energy of the ion-electron system (eV)
  ---------------------------------------------------
  alpha Z        PSCENC =       964.87981809
  Ewald energy   TEWEN  =     52436.82468300
  -Hartree energ DENC   =    -92420.69989345
  -exchange      EXHF   =         0.00000000
  -V(xc)+E(xc)   XCENC  =      1634.89558967
  PAW double counting   =     51123.15113415   -50742.05510975
  entropy T*S    EENTRO =        -0.00000000
  eigenvalues    EBANDS =     -6876.23811496
  atomic energy  EATOM  =     43486.60354843
  Solvation  Ediel_sol  =         0.00000000
  ---------------------------------------------------
  free energy    TOTEN  =      -392.63834482 eV

  energy without entropy =     -392.63834482  energy(sigma->0) =     -392.63834482


--------------------------------------------------------------------------------------------------------




--------------------------------------- Iteration      1(   9)  ---------------------------------------


    POTLOK:  cpu time      0.0953: real time      0.0959
    SETDIJ:  cpu time      0.0110: real time      0.0110
     EDDAV:  cpu time      6.0309: real time      6.0309
       DOS:  cpu time      0.0020: real time      0.0020
    CHARGE:  cpu time      0.3429: real time      0.3429
    MIXING:  cpu time      0.0232: real time      0.0232
    --------------------------------------------
      LOOP:  cpu time      6.5053: real time      6.5059

 eigenvalue-minimisations  :  9812
 total energy-change (2. order) :-0.1244661E+00  (-0.2157877E+00)
 number of electron     467.9999994 magnetization 
 augmentation part       14.6537082 magnetization 

 Broyden mixing:
  rms(total) = 0.40022E+00    rms(broyden)= 0.40021E+00
  rms(prec ) = 0.42433E+00
  weight for this iteration     100.00

 eigenvalues of (default mixing * dielectric matrix)
  average eigenvalue GAMMA=   1.2004
  2.1528  1.2769  0.6859  0.6859

 Free energy of the ion-electron system (eV)
  ---------------------------------------------------
  alpha Z        PSCENC =       964.87981809
  Ewald energy   TEWEN  =     52436.82468300
  -Hartree energ DENC   =    -92410.47744945
  -exchange      EXHF   =         0.00000000
  -V(xc)+E(xc)   XCENC  =      1634.59740593
  PAW double counting   =     53103.88747035   -52728.00809905
  entropy T*S    EENTRO =        -0.00000000
  eigenvalues    EBANDS =     -6881.07018826
  atomic energy  EATOM  =     43486.60354843
  Solvation  Ediel_sol  =         0.00000000
  ---------------------------------------------------
  free energy    TOTEN  =      -392.76281096 eV

  energy without entropy =     -392.76281096  energy(sigma->0) =     -392.76281096


--------------------------------------------------------------------------------------------------------




--------------------------------------- Iteration      1(  10)  ---------------------------------------


    POTLOK:  cpu time      0.0962: real time      0.0968
    SETDIJ:  cpu time      0.0157: real time      0.0157
     EDDAV:  cpu time      5.4316: real time      5.4316
       DOS:  cpu time      0.0020: real time      0.0020
    CHARGE:  cpu time      0.3289: real time      0.3289
    MIXING:  cpu time      0.0232: real time      0.0232
    --------------------------------------------
      LOOP:  cpu time      5.8976: real time      5.8982

 eigenvalue-minimisations  :  8789
 total energy-change (2. order) : 0.1188625E+00  (-0.5134730E-01)
 number of electron     467.9999994 magnetization 
 augmentation part       14.0768484 magnetization 

 Broyden mixing:
  rms(total) = 0.11614E+00    rms(broyden)= 0.11614E+00
  rms(prec ) = 0.12708E+00
  weight for this iteration     100.00

 eigenvalues of (default mixing * dielectric matrix)
  average eigenvalue GAMMA=   1.3324
  2.4635  1.8804  0.9884  0.6647  0.6647

 Free energy of the ion-electron system (eV)
  ---------------------------------------------------
  alpha Z        PSCENC =       964.87981809
  Ewald energy   TEWEN  =     52436.82468300
  -Hartree energ DENC   =    -92450.83368572
  -exchange      EXHF   =         0.00000000
  -V(xc)+E(xc)   XCENC  =      1635.57588045
  PAW double counting   =     52942.24395938   -52563.58512135
  entropy T*S    EENTRO =        -0.00000000
  eigenvalues    EBANDS =     -6844.35303070
  atomic energy  EATOM  =     43486.60354843
  Solvation  Ediel_sol  =         0.00000000
  ---------------------------------------------------
  free energy    TOTEN  =      -392.64394843 eV

  energy without entropy =     -392.64394843  energy(sigma->0) =     -392.64394843


--------------------------------------------------------------------------------------------------------




--------------------------------------- Iteration      1(  11)  ---------------------------------------


    POTLOK:  cpu time      0.0957: real time      0.0962
    SETDIJ:  cpu time      0.0104: real time      0.0104
     EDDAV:  cpu time      6.2405: real time      6.2406
       DOS:  cpu time      0.0022: real time      0.0021
    CHARGE:  cpu time      0.3426: real time      0.3426
    MIXING:  cpu time      0.0232: real time      0.0237
    --------------------------------------------
      LOOP:  cpu time      6.7146: real time      6.7156

 eigenvalue-minimisations  :  9922
 total energy-change (2. order) : 0.1183611E-01  (-0.5126982E-02)
 number of electron     467.9999994 magnetization 
 augmentation part       14.0655586 magnetization 

 Broyden mixing:
  rms(total) = 0.63134E-01    rms(broyden)= 0.63133E-01
  rms(prec ) = 0.79895E-01
  weight for this iteration     100.00

 eigenvalues of (default mixing * dielectric matrix)
  average eigenvalue GAMMA=   1.2796
  2.6534  2.0419  1.0927  0.6468  0.6468  0.5960

 Free energy of the ion-electron system (eV)
  ---------------------------------------------------
  alpha Z        PSCENC =       964.87981809
  Ewald energy   TEWEN  =     52436.82468300
  -Hartree energ DENC   =    -92466.62097434
  -exchange      EXHF   =         0.00000000
  -V(xc)+E(xc)   XCENC  =      1635.87279604
  PAW double counting   =     53124.95551425   -52746.29242032
  entropy T*S    EENTRO =        -0.00000000
  eigenvalues    EBANDS =     -6828.85507747
  atomic energy  EATOM  =     43486.60354843
  Solvation  Ediel_sol  =         0.00000000
  ---------------------------------------------------
  free energy    TOTEN  =      -392.63211232 eV

  energy without entropy =     -392.63211232  energy(sigma->0) =     -392.63211232


--------------------------------------------------------------------------------------------------------




--------------------------------------- Iteration      1(  12)  ---------------------------------------


    POTLOK:  cpu time      0.0950: real time      0.0957
    SETDIJ:  cpu time      0.0110: real time      0.0110
     EDDAV:  cpu time      5.6447: real time      5.6447
       DOS:  cpu time      0.0020: real time      0.0020
    CHARGE:  cpu time      0.3293: real time      0.3293
    MIXING:  cpu time      0.0233: real time      0.0233
    --------------------------------------------
      LOOP:  cpu time      6.1052: real time      6.1060

 eigenvalue-minimisations  :  9097
 total energy-change (2. order) : 0.9746346E-02  (-0.1840330E-02)
 number of electron     467.9999994 magnetization 
 augmentation part       14.0808009 magnetization 

 Broyden mixing:
  rms(total) = 0.34361E-01    rms(broyden)= 0.34360E-01
  rms(prec ) = 0.51869E-01
  weight for this iteration     100.00

 eigenvalues of (default mixing * dielectric matrix)
  average eigenvalue GAMMA=   1.1964
  2.2791  2.2791  1.2149  0.7750  0.6992  0.6992  0.4284

 Free energy of the ion-electron system (eV)
  ---------------------------------------------------
  alpha Z        PSCENC =       964.87981809
  Ewald energy   TEWEN  =     52436.82468300
  -Hartree energ DENC   =    -92474.53950974
  -exchange      EXHF   =         0.00000000
  -V(xc)+E(xc)   XCENC  =      1635.95525633
  PAW double counting   =     53125.46854095   -52746.80203477
  entropy T*S    EENTRO =        -0.00000000
  eigenvalues    EBANDS =     -6821.01266827
  atomic energy  EATOM  =     43486.60354843
  Solvation  Ediel_sol  =         0.00000000
  ---------------------------------------------------
  free energy    TOTEN  =      -392.62236597 eV

  energy without entropy =     -392.62236597  energy(sigma->0) =     -392.62236597


--------------------------------------------------------------------------------------------------------




--------------------------------------- Iteration      1(  13)  ---------------------------------------


    POTLOK:  cpu time      0.0955: real time      0.0962
    SETDIJ:  cpu time      0.0106: real time      0.0106
     EDDAV:  cpu time      5.6725: real time      5.6725
       DOS:  cpu time      0.0019: real time      0.0019
    CHARGE:  cpu time      0.3433: real time      0.3433
    MIXING:  cpu time      0.0234: real time      0.0234
    --------------------------------------------
      LOOP:  cpu time      6.1473: real time      6.1479

 eigenvalue-minimisations  :  9130
 total energy-change (2. order) : 0.3013843E-02  (-0.3415137E-03)
 number of electron     467.9999994 magnetization 
 augmentation part       14.0883942 magnetization 

 Broyden mixing:
  rms(total) = 0.20444E-01    rms(broyden)= 0.20444E-01
  rms(prec ) = 0.39895E-01
  weight for this iteration     100.00

 eigenvalues of (default mixing * dielectric matrix)
  average eigenvalue GAMMA=   1.1769
  2.3365  2.3365  1.2761  0.8692  0.8692  0.6524  0.6524  0.4233

 Free energy of the ion-electron system (eV)
  ---------------------------------------------------
  alpha Z        PSCENC =       964.87981809
  Ewald energy   TEWEN  =     52436.82468300
  -Hartree energ DENC   =    -92478.44393351
  -exchange      EXHF   =         0.00000000
  -V(xc)+E(xc)   XCENC  =      1635.94212375
  PAW double counting   =     53057.76192781   -52679.07334474
  entropy T*S    EENTRO =        -0.00000000
  eigenvalues    EBANDS =     -6817.11417496
  atomic energy  EATOM  =     43486.60354843
  Solvation  Ediel_sol  =         0.00000000
  ---------------------------------------------------
  free energy    TOTEN  =      -392.61935213 eV

  energy without entropy =     -392.61935213  energy(sigma->0) =     -392.61935213


--------------------------------------------------------------------------------------------------------




--------------------------------------- Iteration      1(  14)  ---------------------------------------


    POTLOK:  cpu time      0.0957: real time      0.0963
    SETDIJ:  cpu time      0.0101: real time      0.0101
     EDDAV:  cpu time      5.4582: real time      5.4583
       DOS:  cpu time      0.0018: real time      0.0018
    CHARGE:  cpu time      0.3282: real time      0.3282
    MIXING:  cpu time      0.0235: real time      0.0235
    --------------------------------------------
      LOOP:  cpu time      5.9175: real time      5.9182

 eigenvalue-minimisations  :  8844
 total energy-change (2. order) : 0.6183480E-02  (-0.4653168E-03)
 number of electron     467.9999994 magnetization 
 augmentation part       14.1125103 magnetization 

 Broyden mixing:
  rms(total) = 0.15058E-01    rms(broyden)= 0.15058E-01
  rms(prec ) = 0.32846E-01
  weight for this iteration     100.00

 eigenvalues of (default mixing * dielectric matrix)
  average eigenvalue GAMMA=   1.2139
  2.4850  2.4850  1.5632  1.1358  0.9816  0.6694  0.6694  0.5082  0.4269

 Free energy of the ion-electron system (eV)
  ---------------------------------------------------
  alpha Z        PSCENC =       964.87981809
  Ewald energy   TEWEN  =     52436.82468300
  -Hartree energ DENC   =    -92489.92368913
  -exchange      EXHF   =         0.00000000
  -V(xc)+E(xc)   XCENC  =      1635.99328249
  PAW double counting   =     53020.93171561   -52642.28866815
  entropy T*S    EENTRO =        -0.00000000
  eigenvalues    EBANDS =     -6805.63385898
  atomic energy  EATOM  =     43486.60354843
  Solvation  Ediel_sol  =         0.00000000
  ---------------------------------------------------
  free energy    TOTEN  =      -392.61316865 eV

  energy without entropy =     -392.61316865  energy(sigma->0) =     -392.61316865


--------------------------------------------------------------------------------------------------------




--------------------------------------- Iteration      1(  15)  ---------------------------------------


    POTLOK:  cpu time      0.0957: real time      0.0962
    SETDIJ:  cpu time      0.0105: real time      0.0105
     EDDAV:  cpu time      5.5863: real time      5.5863
       DOS:  cpu time      0.0022: real time      0.0022
    CHARGE:  cpu time      0.3435: real time      0.3435
    MIXING:  cpu time      0.0240: real time      0.0240
    --------------------------------------------
      LOOP:  cpu time      6.0622: real time      6.0627

 eigenvalue-minimisations  :  8734
 total energy-change (2. order) : 0.6259537E-02  (-0.7674663E-03)
 number of electron     467.9999994 magnetization 
 augmentation part       14.1369636 magnetization 

 Broyden mixing:
  rms(total) = 0.26469E-01    rms(broyden)= 0.26469E-01
  rms(prec ) = 0.33543E-01
  weight for this iteration     100.00

 eigenvalues of (default mixing * dielectric matrix)
  average eigenvalue GAMMA=   1.2592
  3.2142  2.3974  2.0407  1.2525  0.7375  0.7375  0.6691  0.6691  0.4625  0.4110

 Free energy of the ion-electron system (eV)
  ---------------------------------------------------
  alpha Z        PSCENC =       964.87981809
  Ewald energy   TEWEN  =     52436.82468300
  -Hartree energ DENC   =    -92508.37305577
  -exchange      EXHF   =         0.00000000
  -V(xc)+E(xc)   XCENC  =      1636.08161383
  PAW double counting   =     52989.89343497   -52611.30783779
  entropy T*S    EENTRO =        -0.00000000
  eigenvalues    EBANDS =     -6787.20911385
  atomic energy  EATOM  =     43486.60354843
  Solvation  Ediel_sol  =         0.00000000
  ---------------------------------------------------
  free energy    TOTEN  =      -392.60690911 eV

  energy without entropy =     -392.60690911  energy(sigma->0) =     -392.60690911


--------------------------------------------------------------------------------------------------------




--------------------------------------- Iteration      1(  16)  ---------------------------------------


    POTLOK:  cpu time      0.0953: real time      0.0959
    SETDIJ:  cpu time      0.0110: real time      0.0110
     EDDAV:  cpu time      5.7338: real time      5.7339
       DOS:  cpu time      0.0020: real time      0.0020
    CHARGE:  cpu time      0.3278: real time      0.3278
    MIXING:  cpu time      0.0234: real time      0.0234
    --------------------------------------------
      LOOP:  cpu time      6.1932: real time      6.1938

 eigenvalue-minimisations  :  9240
 total energy-change (2. order) : 0.1275911E-02  (-0.2778835E-03)
 number of electron     467.9999994 magnetization 
 augmentation part       14.1402060 magnetization 

 Broyden mixing:
  rms(total) = 0.27797E-01    rms(broyden)= 0.27797E-01
  rms(prec ) = 0.31214E-01
  weight for this iteration     100.00

 eigenvalues of (default mixing * dielectric matrix)
  average eigenvalue GAMMA=   1.3302
  3.7096  2.4142  2.2503  1.3242  0.9825  0.9825  0.7660  0.6717  0.6717  0.4427
  0.4164

 Free energy of the ion-electron system (eV)
  ---------------------------------------------------
  alpha Z        PSCENC =       964.87981809
  Ewald energy   TEWEN  =     52436.82468300
  -Hartree energ DENC   =    -92521.96177997
  -exchange      EXHF   =         0.00000000
  -V(xc)+E(xc)   XCENC  =      1636.13971703
  PAW double counting   =     52979.53205085   -52600.95883927
  entropy T*S    EENTRO =        -0.00000000
  eigenvalues    EBANDS =     -6773.66483136
  atomic energy  EATOM  =     43486.60354843
  Solvation  Ediel_sol  =         0.00000000
  ---------------------------------------------------
  free energy    TOTEN  =      -392.60563320 eV

  energy without entropy =     -392.60563320  energy(sigma->0) =     -392.60563320


--------------------------------------------------------------------------------------------------------




--------------------------------------- Iteration      1(  17)  ---------------------------------------


    POTLOK:  cpu time      0.0956: real time      0.0960
    SETDIJ:  cpu time      0.0101: real time      0.0101
     EDDAV:  cpu time      5.5669: real time      5.5670
       DOS:  cpu time      0.0020: real time      0.0020
    CHARGE:  cpu time      0.3425: real time      0.3425
    MIXING:  cpu time      0.0232: real time      0.0232
    --------------------------------------------
      LOOP:  cpu time      6.0403: real time      6.0408

 eigenvalue-minimisations  :  8800
 total energy-change (2. order) :-0.1842782E-02  (-0.1772054E-03)
 number of electron     467.9999994 magnetization 
 augmentation part       14.1191250 magnetization 

 Broyden mixing:
  rms(total) = 0.12089E-01    rms(broyden)= 0.12089E-01
  rms(prec ) = 0.14360E-01
  weight for this iteration     100.00

 eigenvalues of (default mixing * dielectric matrix)
  average eigenvalue GAMMA=   1.4997
  5.5233  2.6338  2.2170  1.5077  1.4555  0.9720  0.6744  0.6744  0.7378  0.7378
  0.4483  0.4147

 Free energy of the ion-electron system (eV)
  ---------------------------------------------------
  alpha Z        PSCENC =       964.87981809
  Ewald energy   TEWEN  =     52436.82468300
  -Hartree energ DENC   =    -92534.41020270
  -exchange      EXHF   =         0.00000000
  -V(xc)+E(xc)   XCENC  =      1636.19294836
  PAW double counting   =     53003.01188542   -52624.41247221
  entropy T*S    EENTRO =        -0.00000000
  eigenvalues    EBANDS =     -6761.29768436
  atomic energy  EATOM  =     43486.60354843
  Solvation  Ediel_sol  =         0.00000000
  ---------------------------------------------------
  free energy    TOTEN  =      -392.60747598 eV

  energy without entropy =     -392.60747598  energy(sigma->0) =     -392.60747598


--------------------------------------------------------------------------------------------------------




--------------------------------------- Iteration      1(  18)  ---------------------------------------


    POTLOK:  cpu time      0.0954: real time      0.0959
    SETDIJ:  cpu time      0.0115: real time      0.0115
     EDDAV:  cpu time      5.8536: real time      5.8535
       DOS:  cpu time      0.0020: real time      0.0020
    CHARGE:  cpu time      0.3290: real time      0.3290
    MIXING:  cpu time      0.0236: real time      0.0236
    --------------------------------------------
      LOOP:  cpu time      6.3152: real time      6.3157

 eigenvalue-minimisations  :  9592
 total energy-change (2. order) :-0.2782855E-02  (-0.6234834E-04)
 number of electron     467.9999994 magnetization 
 augmentation part       14.1112586 magnetization 

 Broyden mixing:
  rms(total) = 0.67956E-02    rms(broyden)= 0.67956E-02
  rms(prec ) = 0.80411E-02
  weight for this iteration     100.00

 eigenvalues of (default mixing * dielectric matrix)
  average eigenvalue GAMMA=   1.5039
  6.3375  2.6580  2.1399  1.5327  1.5327  0.9917  0.7702  0.7702  0.6575  0.6575
  0.6409  0.4478  0.4143

 Free energy of the ion-electron system (eV)
  ---------------------------------------------------
  alpha Z        PSCENC =       964.87981809
  Ewald energy   TEWEN  =     52436.82468300
  -Hartree energ DENC   =    -92542.35055952
  -exchange      EXHF   =         0.00000000
  -V(xc)+E(xc)   XCENC  =      1636.21882326
  PAW double counting   =     53011.40146666   -52632.80165459
  entropy T*S    EENTRO =        -0.00000000
  eigenvalues    EBANDS =     -6753.38638416
  atomic energy  EATOM  =     43486.60354843
  Solvation  Ediel_sol  =         0.00000000
  ---------------------------------------------------
  free energy    TOTEN  =      -392.61025884 eV

  energy without entropy =     -392.61025884  energy(sigma->0) =     -392.61025884


--------------------------------------------------------------------------------------------------------




--------------------------------------- Iteration      1(  19)  ---------------------------------------


    POTLOK:  cpu time      0.0954: real time      0.0961
    SETDIJ:  cpu time      0.0105: real time      0.0105
     EDDAV:  cpu time      5.7349: real time      5.7350
       DOS:  cpu time      0.0020: real time      0.0020
    CHARGE:  cpu time      0.3435: real time      0.3435
    MIXING:  cpu time      0.0235: real time      0.0235
    --------------------------------------------
      LOOP:  cpu time      6.2099: real time      6.2105

 eigenvalue-minimisations  :  9306
 total energy-change (2. order) :-0.1547711E-02  (-0.1065641E-04)
 number of electron     467.9999994 magnetization 
 augmentation part       14.1132068 magnetization 

 Broyden mixing:
  rms(total) = 0.53565E-02    rms(broyden)= 0.53565E-02
  rms(prec ) = 0.63394E-02
  weight for this iteration     100.00

 eigenvalues of (default mixing * dielectric matrix)
  average eigenvalue GAMMA=   1.5300
  6.9374  2.6891  2.0983  1.6353  1.6353  1.0712  0.9554  0.9554  0.6654  0.6654
  0.6250  0.6250  0.4471  0.4146

 Free energy of the ion-electron system (eV)
  ---------------------------------------------------
  alpha Z        PSCENC =       964.87981809
  Ewald energy   TEWEN  =     52436.82468300
  -Hartree energ DENC   =    -92544.55096824
  -exchange      EXHF   =         0.00000000
  -V(xc)+E(xc)   XCENC  =      1636.21947745
  PAW double counting   =     53005.82679103   -52627.23681109
  entropy T*S    EENTRO =        -0.00000000
  eigenvalues    EBANDS =     -6751.17834522
  atomic energy  EATOM  =     43486.60354843
  Solvation  Ediel_sol  =         0.00000000
  ---------------------------------------------------
  free energy    TOTEN  =      -392.61180655 eV

  energy without entropy =     -392.61180655  energy(sigma->0) =     -392.61180655


--------------------------------------------------------------------------------------------------------




--------------------------------------- Iteration      1(  20)  ---------------------------------------


    POTLOK:  cpu time      0.0951: real time      0.0957
    SETDIJ:  cpu time      0.0104: real time      0.0104
     EDDAV:  cpu time      5.4275: real time      5.4275
       DOS:  cpu time      0.0020: real time      0.0020
    CHARGE:  cpu time      0.3278: real time      0.3278
    MIXING:  cpu time      0.0238: real time      0.0238
    --------------------------------------------
      LOOP:  cpu time      5.8865: real time      5.8872

 eigenvalue-minimisations  :  8778
 total energy-change (2. order) :-0.2227363E-02  (-0.1037775E-04)
 number of electron     467.9999994 magnetization 
 augmentation part       14.1136802 magnetization 

 Broyden mixing:
  rms(total) = 0.31238E-02    rms(broyden)= 0.31238E-02
  rms(prec ) = 0.38610E-02
  weight for this iteration     100.00

 eigenvalues of (default mixing * dielectric matrix)
  average eigenvalue GAMMA=   1.8366
 10.4786  3.0991  2.3131  2.3131  1.9465  1.3711  0.9410  0.9410  0.6704  0.6704
  0.7435  0.7435  0.4145  0.4474  0.4561

 Free energy of the ion-electron system (eV)
  ---------------------------------------------------
  alpha Z        PSCENC =       964.87981809
  Ewald energy   TEWEN  =     52436.82468300
  -Hartree energ DENC   =    -92546.44741308
  -exchange      EXHF   =         0.00000000
  -V(xc)+E(xc)   XCENC  =      1636.21719169
  PAW double counting   =     53003.16743784   -52624.58584750
  entropy T*S    EENTRO =        -0.00000000
  eigenvalues    EBANDS =     -6749.27345237
  atomic energy  EATOM  =     43486.60354843
  Solvation  Ediel_sol  =         0.00000000
  ---------------------------------------------------
  free energy    TOTEN  =      -392.61403391 eV

  energy without entropy =     -392.61403391  energy(sigma->0) =     -392.61403391


--------------------------------------------------------------------------------------------------------




--------------------------------------- Iteration      1(  21)  ---------------------------------------


    POTLOK:  cpu time      0.0951: real time      0.0958
    SETDIJ:  cpu time      0.0115: real time      0.0115
     EDDAV:  cpu time      5.6205: real time      5.6205
       DOS:  cpu time      0.0018: real time      0.0018
    CHARGE:  cpu time      0.3436: real time      0.3436
    MIXING:  cpu time      0.0236: real time      0.0236
    --------------------------------------------
      LOOP:  cpu time      6.0962: real time      6.0968

 eigenvalue-minimisations  :  8811
 total energy-change (2. order) :-0.1722972E-02  (-0.8268210E-05)
 number of electron     467.9999994 magnetization 
 augmentation part       14.1110331 magnetization 

 Broyden mixing:
  rms(total) = 0.22587E-02    rms(broyden)= 0.22587E-02
  rms(prec ) = 0.24144E-02
  weight for this iteration     100.00

 eigenvalues of (default mixing * dielectric matrix)
  average eigenvalue GAMMA=   1.9219
 12.6689  3.2602  2.6223  2.0809  1.6537  1.6537  0.9333  0.9333  0.8845  0.8237
  0.6707  0.6707  0.5946  0.4144  0.4478  0.4370

 Free energy of the ion-electron system (eV)
  ---------------------------------------------------
  alpha Z        PSCENC =       964.87981809
  Ewald energy   TEWEN  =     52436.82468300
  -Hartree energ DENC   =    -92548.15701602
  -exchange      EXHF   =         0.00000000
  -V(xc)+E(xc)   XCENC  =      1636.21814659
  PAW double counting   =     53006.01265391   -52627.43012232
  entropy T*S    EENTRO =        -0.00000000
  eigenvalues    EBANDS =     -6747.56746856
  atomic energy  EATOM  =     43486.60354843
  Solvation  Ediel_sol  =         0.00000000
  ---------------------------------------------------
  free energy    TOTEN  =      -392.61575688 eV

  energy without entropy =     -392.61575688  energy(sigma->0) =     -392.61575688


--------------------------------------------------------------------------------------------------------




--------------------------------------- Iteration      1(  22)  ---------------------------------------


    POTLOK:  cpu time      0.0956: real time      0.0961
    SETDIJ:  cpu time      0.0101: real time      0.0101
     EDDAV:  cpu time      5.5192: real time      5.5192
       DOS:  cpu time      0.0018: real time      0.0018
    CHARGE:  cpu time      0.3276: real time      0.3276
    MIXING:  cpu time      0.0238: real time      0.0238
    --------------------------------------------
      LOOP:  cpu time      5.9782: real time      5.9787

 eigenvalue-minimisations  :  8932
 total energy-change (2. order) :-0.2022430E-03  (-0.1811001E-05)
 number of electron     467.9999994 magnetization 
 augmentation part       14.1095309 magnetization 

 Broyden mixing:
  rms(total) = 0.22704E-02    rms(broyden)= 0.22704E-02
  rms(prec ) = 0.23831E-02
  weight for this iteration     100.00

 eigenvalues of (default mixing * dielectric matrix)
  average eigenvalue GAMMA=   1.8276
 12.5791  3.2717  2.6215  2.1462  1.5877  1.5877  1.0497  0.8989  0.8989  0.7495
  0.6720  0.6720  0.5196  0.5196  0.4149  0.4462  0.4344

 Free energy of the ion-electron system (eV)
  ---------------------------------------------------
  alpha Z        PSCENC =       964.87981809
  Ewald energy   TEWEN  =     52436.82468300
  -Hartree energ DENC   =    -92548.39655550
  -exchange      EXHF   =         0.00000000
  -V(xc)+E(xc)   XCENC  =      1636.21967683
  PAW double counting   =     53007.44814766   -52628.86109698
  entropy T*S    EENTRO =        -0.00000000
  eigenvalues    EBANDS =     -6747.33418066
  atomic energy  EATOM  =     43486.60354843
  Solvation  Ediel_sol  =         0.00000000
  ---------------------------------------------------
  free energy    TOTEN  =      -392.61595913 eV

  energy without entropy =     -392.61595913  energy(sigma->0) =     -392.61595913


--------------------------------------------------------------------------------------------------------




--------------------------------------- Iteration      1(  23)  ---------------------------------------


    POTLOK:  cpu time      0.0954: real time      0.0959
    SETDIJ:  cpu time      0.0107: real time      0.0107
     EDDAV:  cpu time      4.2435: real time      4.2435
       DOS:  cpu time      0.0020: real time      0.0020
    CHARGE:  cpu time      0.3439: real time      0.3439
    MIXING:  cpu time      0.0238: real time      0.0238
    --------------------------------------------
      LOOP:  cpu time      4.7192: real time      4.7197

 eigenvalue-minimisations  :  6028
 total energy-change (2. order) :-0.3752322E-04  (-0.1703675E-06)
 number of electron     467.9999994 magnetization 
 augmentation part       14.1097906 magnetization 

 Broyden mixing:
  rms(total) = 0.19968E-02    rms(broyden)= 0.19968E-02
  rms(prec ) = 0.20923E-02
  weight for this iteration     100.00

 eigenvalues of (default mixing * dielectric matrix)
  average eigenvalue GAMMA=   1.8138
 12.7237  3.4221  2.5041  2.2508  1.3267  1.3267  1.2567  1.2567  1.2171  0.7580
  0.7580  0.6649  0.6649  0.7011  0.5164  0.4145  0.4476  0.4381

 Free energy of the ion-electron system (eV)
  ---------------------------------------------------
  alpha Z        PSCENC =       964.87981809
  Ewald energy   TEWEN  =     52436.82468300
  -Hartree energ DENC   =    -92548.37942855
  -exchange      EXHF   =         0.00000000
  -V(xc)+E(xc)   XCENC  =      1636.21928835
  PAW double counting   =     53007.47219851   -52628.88555476
  entropy T*S    EENTRO =        -0.00000000
  eigenvalues    EBANDS =     -6747.35054971
  atomic energy  EATOM  =     43486.60354843
  Solvation  Ediel_sol  =         0.00000000
  ---------------------------------------------------
  free energy    TOTEN  =      -392.61599665 eV

  energy without entropy =     -392.61599665  energy(sigma->0) =     -392.61599665


--------------------------------------------------------------------------------------------------------




--------------------------------------- Iteration      1(  24)  ---------------------------------------


    POTLOK:  cpu time      0.0953: real time      0.0959
    SETDIJ:  cpu time      0.0108: real time      0.0108
     EDDAV:  cpu time      4.3037: real time      4.3037
       DOS:  cpu time      0.0019: real time      0.0019
    CHARGE:  cpu time      0.3290: real time      0.3290
    MIXING:  cpu time      0.0238: real time      0.0238
    --------------------------------------------
      LOOP:  cpu time      4.7644: real time      4.7649

 eigenvalue-minimisations  :  6336
 total energy-change (2. order) :-0.1275110E-03  (-0.4022330E-06)
 number of electron     467.9999994 magnetization 
 augmentation part       14.1107742 magnetization 

 Broyden mixing:
  rms(total) = 0.12609E-02    rms(broyden)= 0.12609E-02
  rms(prec ) = 0.13366E-02
  weight for this iteration     100.00

 eigenvalues of (default mixing * dielectric matrix)
  average eigenvalue GAMMA=   1.9472
 14.5163  4.0858  2.5247  2.2389  1.8399  1.8399  1.6415  1.0234  1.0234  0.8630
  0.8359  0.8359  0.6702  0.6702  0.6403  0.4145  0.4478  0.4584  0.4277

 Free energy of the ion-electron system (eV)
  ---------------------------------------------------
  alpha Z        PSCENC =       964.87981809
  Ewald energy   TEWEN  =     52436.82468300
  -Hartree energ DENC   =    -92548.32893659
  -exchange      EXHF   =         0.00000000
  -V(xc)+E(xc)   XCENC  =      1636.21703221
  PAW double counting   =     53006.81249014   -52628.22802204
  entropy T*S    EENTRO =        -0.00000000
  eigenvalues    EBANDS =     -6747.39673740
  atomic energy  EATOM  =     43486.60354843
  Solvation  Ediel_sol  =         0.00000000
  ---------------------------------------------------
  free energy    TOTEN  =      -392.61612416 eV

  energy without entropy =     -392.61612416  energy(sigma->0) =     -392.61612416


--------------------------------------------------------------------------------------------------------




--------------------------------------- Iteration      1(  25)  ---------------------------------------


    POTLOK:  cpu time      0.0953: real time      0.0957
    SETDIJ:  cpu time      0.0111: real time      0.0111
     EDDAV:  cpu time      4.4053: real time      4.4053
       DOS:  cpu time      0.0019: real time      0.0019
    CHARGE:  cpu time      0.3427: real time      0.3427
    MIXING:  cpu time      0.0242: real time      0.0242
    --------------------------------------------
      LOOP:  cpu time      4.8805: real time      4.8810

 eigenvalue-minimisations  :  6413
 total energy-change (2. order) :-0.1477285E-03  (-0.7202220E-06)
 number of electron     467.9999994 magnetization 
 augmentation part       14.1111629 magnetization 

 Broyden mixing:
  rms(total) = 0.56550E-03    rms(broyden)= 0.56550E-03
  rms(prec ) = 0.61936E-03
  weight for this iteration     100.00

 eigenvalues of (default mixing * dielectric matrix)
  average eigenvalue GAMMA=   1.9173
 14.9458  4.1845  2.6781  2.2205  2.0404  1.5763  1.5763  1.0788  1.0258  0.8879
  0.8879  0.7732  0.7732  0.6699  0.6699  0.6230  0.4487  0.4487  0.4145  0.4221

 Free energy of the ion-electron system (eV)
  ---------------------------------------------------
  alpha Z        PSCENC =       964.87981809
  Ewald energy   TEWEN  =     52436.82468300
  -Hartree energ DENC   =    -92548.38999079
  -exchange      EXHF   =         0.00000000
  -V(xc)+E(xc)   XCENC  =      1636.21563459
  PAW double counting   =     53006.00459514   -52627.41938650
  entropy T*S    EENTRO =        -0.00000000
  eigenvalues    EBANDS =     -6747.33517385
  atomic energy  EATOM  =     43486.60354843
  Solvation  Ediel_sol  =         0.00000000
  ---------------------------------------------------
  free energy    TOTEN  =      -392.61627189 eV

  energy without entropy =     -392.61627189  energy(sigma->0) =     -392.61627189


--------------------------------------------------------------------------------------------------------




--------------------------------------- Iteration      1(  26)  ---------------------------------------


    POTLOK:  cpu time      0.0949: real time      0.0955
    SETDIJ:  cpu time      0.0115: real time      0.0115
     EDDAV:  cpu time      4.1337: real time      4.1337
       DOS:  cpu time      0.0019: real time      0.0019
    CHARGE:  cpu time      0.3294: real time      0.3294
    MIXING:  cpu time      0.0244: real time      0.0244
    --------------------------------------------
      LOOP:  cpu time      4.5959: real time      4.5965

 eigenvalue-minimisations  :  6127
 total energy-change (2. order) :-0.1025687E-04  (-0.1479268E-06)
 number of electron     467.9999994 magnetization 
 augmentation part       14.1113933 magnetization 

 Broyden mixing:
  rms(total) = 0.44712E-03    rms(broyden)= 0.44712E-03
  rms(prec ) = 0.49303E-03
  weight for this iteration     100.00

 eigenvalues of (default mixing * dielectric matrix)
  average eigenvalue GAMMA=   1.8720
 15.0768  4.1825  2.4828  2.4828  2.2582  1.5174  1.5174  0.9799  0.9799  0.9886
  0.8526  0.8134  0.8134  0.6667  0.6667  0.6461  0.6461  0.4547  0.4483  0.4145
  0.4238

 Free energy of the ion-electron system (eV)
  ---------------------------------------------------
  alpha Z        PSCENC =       964.87981809
  Ewald energy   TEWEN  =     52436.82468300
  -Hartree energ DENC   =    -92548.40072125
  -exchange      EXHF   =         0.00000000
  -V(xc)+E(xc)   XCENC  =      1636.21577425
  PAW double counting   =     53005.62571600   -52627.04011406
  entropy T*S    EENTRO =        -0.00000000
  eigenvalues    EBANDS =     -6747.32498660
  atomic energy  EATOM  =     43486.60354843
  Solvation  Ediel_sol  =         0.00000000
  ---------------------------------------------------
  free energy    TOTEN  =      -392.61628214 eV

  energy without entropy =     -392.61628214  energy(sigma->0) =     -392.61628214


--------------------------------------------------------------------------------------------------------




--------------------------------------- Iteration      1(  27)  ---------------------------------------


    POTLOK:  cpu time      0.0948: real time      0.0952
    SETDIJ:  cpu time      0.0122: real time      0.0122
     EDDAV:  cpu time      3.6582: real time      3.6582
       DOS:  cpu time      0.0019: real time      0.0019
    CHARGE:  cpu time      0.3422: real time      0.3422
    MIXING:  cpu time      0.0243: real time      0.0243
    --------------------------------------------
      LOOP:  cpu time      4.1336: real time      4.1341

 eigenvalue-minimisations  :  4895
 total energy-change (2. order) :-0.2662637E-05  (-0.1713349E-07)
 number of electron     467.9999994 magnetization 
 augmentation part       14.1112885 magnetization 

 Broyden mixing:
  rms(total) = 0.34423E-03    rms(broyden)= 0.34423E-03
  rms(prec ) = 0.39249E-03
  weight for this iteration     100.00

 eigenvalues of (default mixing * dielectric matrix)
  average eigenvalue GAMMA=   1.8549
 15.1465  4.1160  2.5786  2.5786  2.2097  1.3042  1.3042  1.4743  1.4743  1.0445
  0.7266  0.7266  0.8565  0.7847  0.7847  0.6698  0.6698  0.6225  0.4506  0.4479
  0.4145  0.4221

 Free energy of the ion-electron system (eV)
  ---------------------------------------------------
  alpha Z        PSCENC =       964.87981809
  Ewald energy   TEWEN  =     52436.82468300
  -Hartree energ DENC   =    -92548.40242103
  -exchange      EXHF   =         0.00000000
  -V(xc)+E(xc)   XCENC  =      1636.21587461
  PAW double counting   =     53005.68197823   -52627.09584889
  entropy T*S    EENTRO =        -0.00000000
  eigenvalues    EBANDS =     -6747.32391724
  atomic energy  EATOM  =     43486.60354843
  Solvation  Ediel_sol  =         0.00000000
  ---------------------------------------------------
  free energy    TOTEN  =      -392.61628481 eV

  energy without entropy =     -392.61628481  energy(sigma->0) =     -392.61628481


--------------------------------------------------------------------------------------------------------




--------------------------------------- Iteration      1(  28)  ---------------------------------------


    POTLOK:  cpu time      0.0951: real time      0.0955
    SETDIJ:  cpu time      0.0107: real time      0.0107
     EDDAV:  cpu time      3.7842: real time      3.7842
       DOS:  cpu time      0.0020: real time      0.0020
    CHARGE:  cpu time      0.3292: real time      0.3292
    MIXING:  cpu time      0.0243: real time      0.0243
    --------------------------------------------
      LOOP:  cpu time      4.2455: real time      4.2459

 eigenvalue-minimisations  :  5225
 total energy-change (2. order) :-0.3832312E-05  (-0.3023935E-07)
 number of electron     467.9999994 magnetization 
 augmentation part       14.1112605 magnetization 

 Broyden mixing:
  rms(total) = 0.16722E-03    rms(broyden)= 0.16722E-03
  rms(prec ) = 0.22398E-03
  weight for this iteration     100.00

 eigenvalues of (default mixing * dielectric matrix)
  average eigenvalue GAMMA=   1.8816
 15.1228  4.3497  3.0480  2.4996  2.1284  1.9269  1.9269  1.2826  1.2826  1.1651
  0.8449  0.8449  0.8865  0.7938  0.7938  0.6703  0.6703  0.6812  0.6229  0.4481
  0.4513  0.4145  0.4223

 Free energy of the ion-electron system (eV)
  ---------------------------------------------------
  alpha Z        PSCENC =       964.87981809
  Ewald energy   TEWEN  =     52436.82468300
  -Hartree energ DENC   =    -92548.44189329
  -exchange      EXHF   =         0.00000000
  -V(xc)+E(xc)   XCENC  =      1636.21628877
  PAW double counting   =     53005.60304329   -52627.01657986
  entropy T*S    EENTRO =        -0.00000000
  eigenvalues    EBANDS =     -6747.28519706
  atomic energy  EATOM  =     43486.60354843
  Solvation  Ediel_sol  =         0.00000000
  ---------------------------------------------------
  free energy    TOTEN  =      -392.61628864 eV

  energy without entropy =     -392.61628864  energy(sigma->0) =     -392.61628864


--------------------------------------------------------------------------------------------------------




--------------------------------------- Iteration      1(  29)  ---------------------------------------


    POTLOK:  cpu time      0.0952: real time      0.0958
    SETDIJ:  cpu time      0.0108: real time      0.0108
     EDDAV:  cpu time      4.0243: real time      4.0244
       DOS:  cpu time      0.0020: real time      0.0020
    CHARGE:  cpu time      0.3416: real time      0.3416
    MIXING:  cpu time      0.0242: real time      0.0242
    --------------------------------------------
      LOOP:  cpu time      4.4982: real time      4.4988

 eigenvalue-minimisations  :  5676
 total energy-change (2. order) : 0.4454931E-05  (-0.2393469E-06)
 number of electron     467.9999994 magnetization 
 augmentation part       14.1113819 magnetization 

 Broyden mixing:
  rms(total) = 0.37228E-03    rms(broyden)= 0.37228E-03
  rms(prec ) = 0.38498E-03
  weight for this iteration     100.00

 eigenvalues of (default mixing * dielectric matrix)
  average eigenvalue GAMMA=   1.8551
 15.0652  4.9242  3.2281  2.3069  2.3069  1.7079  1.6748  1.6748  1.2145  0.9487
  0.9487  0.9997  0.9158  0.9158  0.7742  0.7742  0.6703  0.6703  0.6251  0.4145
  0.4228  0.4521  0.4479  0.4379

 Free energy of the ion-electron system (eV)
  ---------------------------------------------------
  alpha Z        PSCENC =       964.87981809
  Ewald energy   TEWEN  =     52436.82468300
  -Hartree energ DENC   =    -92548.49103185
  -exchange      EXHF   =         0.00000000
  -V(xc)+E(xc)   XCENC  =      1636.21663737
  PAW double counting   =     53005.64596738   -52627.05983867
  entropy T*S    EENTRO =        -0.00000000
  eigenvalues    EBANDS =     -6747.23606793
  atomic energy  EATOM  =     43486.60354843
  Solvation  Ediel_sol  =         0.00000000
  ---------------------------------------------------
  free energy    TOTEN  =      -392.61628418 eV

  energy without entropy =     -392.61628418  energy(sigma->0) =     -392.61628418


--------------------------------------------------------------------------------------------------------




--------------------------------------- Iteration      1(  30)  ---------------------------------------


    POTLOK:  cpu time      0.0951: real time      0.0955
    SETDIJ:  cpu time      0.0109: real time      0.0109
     EDDAV:  cpu time      3.9033: real time      3.9033
       DOS:  cpu time      0.0019: real time      0.0019
    CHARGE:  cpu time      0.3279: real time      0.3279
    MIXING:  cpu time      0.0250: real time      0.0250
    --------------------------------------------
      LOOP:  cpu time      4.3640: real time      4.3645

 eigenvalue-minimisations  :  5599
 total energy-change (2. order) : 0.2369779E-05  (-0.5333028E-07)
 number of electron     467.9999994 magnetization 
 augmentation part       14.1114529 magnetization 

 Broyden mixing:
  rms(total) = 0.37285E-03    rms(broyden)= 0.37285E-03
  rms(prec ) = 0.38218E-03
  weight for this iteration     100.00

 eigenvalues of (default mixing * dielectric matrix)
  average eigenvalue GAMMA=   1.7908
 15.0447  4.9792  3.1523  2.3537  2.3537  1.7593  1.5933  1.5933  1.0233  1.0233
  1.0902  1.0902  0.8680  0.8680  0.7648  0.7648  0.6705  0.6705  0.6251  0.4518
  0.4480  0.4145  0.4223  0.3729  0.3729

 Free energy of the ion-electron system (eV)
  ---------------------------------------------------
  alpha Z        PSCENC =       964.87981809
  Ewald energy   TEWEN  =     52436.82468300
  -Hartree energ DENC   =    -92548.48441736
  -exchange      EXHF   =         0.00000000
  -V(xc)+E(xc)   XCENC  =      1636.21654116
  PAW double counting   =     53005.81316490   -52627.22723403
  entropy T*S    EENTRO =        -0.00000000
  eigenvalues    EBANDS =     -6747.24238600
  atomic energy  EATOM  =     43486.60354843
  Solvation  Ediel_sol  =         0.00000000
  ---------------------------------------------------
  free energy    TOTEN  =      -392.61628181 eV

  energy without entropy =     -392.61628181  energy(sigma->0) =     -392.61628181


--------------------------------------------------------------------------------------------------------




--------------------------------------- Iteration      1(  31)  ---------------------------------------


    POTLOK:  cpu time      0.0954: real time      0.0959
    SETDIJ:  cpu time      0.0112: real time      0.0112
     EDDAV:  cpu time      3.3691: real time      3.3691
       DOS:  cpu time      0.0018: real time      0.0018
    --------------------------------------------
      LOOP:  cpu time      3.4775: real time      3.4780

 eigenvalue-minimisations  :  4246
 total energy-change (2. order) : 0.9105861E-07  (-0.7077984E-08)
 number of electron     467.9999994 magnetization 
 augmentation part       14.1114529 magnetization 

 Free energy of the ion-electron system (eV)
  ---------------------------------------------------
  alpha Z        PSCENC =       964.87981809
  Ewald energy   TEWEN  =     52436.82468300
  -Hartree energ DENC   =    -92548.48114544
  -exchange      EXHF   =         0.00000000
  -V(xc)+E(xc)   XCENC  =      1636.21651479
  PAW double counting   =     53005.88703577   -52627.30104138
  entropy T*S    EENTRO =        -0.00000000
  eigenvalues    EBANDS =     -6747.24569498
  atomic energy  EATOM  =     43486.60354843
  Solvation  Ediel_sol  =         0.00000000
  ---------------------------------------------------
  free energy    TOTEN  =      -392.61628172 eV

  energy without entropy =     -392.61628172  energy(sigma->0) =     -392.61628172


--------------------------------------------------------------------------------------------------------




 average (electrostatic) potential at core
  the test charge radii are     1.0818  0.9698
  (the norm of the test charge is              1.0000)
       1 -79.7653       2 -79.7663       3 -79.7640       4 -79.7658       5 -79.7637
       6 -79.7638       7 -79.7640       8 -79.7638       9 -79.7640      10 -79.8362
      11 -79.8362      12 -79.8362      13 -79.8362      14 -79.8362      15 -79.8362
      16 -79.8362      17 -79.8362      18 -79.8363      19 -89.4197      20 -89.4245
      21 -89.4254      22 -89.4247      23 -89.4243      24 -89.4253      25 -89.4252
      26 -89.4248      27 -89.4242      28 -89.4542      29 -89.4546      30 -89.4542
      31 -89.4543      32 -89.4540      33 -89.4546      34 -89.4541      35 -89.4548
      36 -89.4543      37 -89.5275      38 -89.5275      39 -89.5275      40 -89.5275
      41 -89.5275      42 -89.5275      43 -89.5275      44 -89.5275      45 -89.5275
      46 -89.5002      47 -89.5002      48 -89.5002      49 -89.5002      50 -89.5002
      51 -89.5002      52 -89.5002      53 -89.5002      54 -89.5002
 
 
 
 E-fermi :   2.8077     XC(G=0):  -7.0501     alpha+bet : -8.1787

 val. band max:        2.4624831894   @ k =   0.0000   0.0000   0.0000
 cond. band min:       3.3917982284   @ k =   0.0000   0.0000   0.0000
 fundamental gap:      0.9293150390
 Fermi energy:         2.8076653720

 k-point     1 :       0.0000    0.0000    0.0000
  band No.  band energies     occupation 
      1     -59.0895      2.00000
      2     -59.0625      2.00000
      3     -59.0625      2.00000
      4     -59.0625      2.00000
      5     -59.0625      2.00000
      6     -59.0625      2.00000
      7     -59.0625      2.00000
      8     -59.0489      2.00000
      9     -59.0489      2.00000
     10     -59.0177      2.00000
     11     -58.9913      2.00000
     12     -58.9911      2.00000
     13     -58.9909      2.00000
     14     -58.9903      2.00000
     15     -58.9902      2.00000
     16     -58.9902      2.00000
     17     -58.9771      2.00000
     18     -58.9770      2.00000
     19     -33.3060      2.00000
     20     -33.3060      2.00000
     21     -33.3060      2.00000
     22     -33.3060      2.00000
     23     -33.3060      2.00000
     24     -33.3060      2.00000
     25     -33.3060      2.00000
     26     -33.3060      2.00000
     27     -33.2633      2.00000
     28     -33.2633      2.00000
     29     -33.2344      2.00000
     30     -33.2344      2.00000
     31     -33.2343      2.00000
     32     -33.2338      2.00000
     33     -33.2337      2.00000
     34     -33.2337      2.00000
     35     -33.2335      2.00000
     36     -33.2326      2.00000
     37     -33.2266      2.00000
     38     -33.1912      2.00000
     39     -33.1911      2.00000
     40     -33.1721      2.00000
     41     -33.1721      2.00000
     42     -33.1721      2.00000
     43     -33.1721      2.00000
     44     -33.1721      2.00000
     45     -33.1721      2.00000
     46     -33.1550      2.00000
     47     -33.1447      2.00000
     48     -33.1447      2.00000
     49     -33.1010      2.00000
     50     -33.1008      2.00000
     51     -33.1006      2.00000
     52     -33.1003      2.00000
     53     -33.1002      2.00000
     54     -33.1001      2.00000
     55     -33.0961      2.00000
     56     -33.0961      2.00000
     57     -33.0961      2.00000
     58     -33.0961      2.00000
     59     -33.0961      2.00000
     60     -33.0961      2.00000
     61     -33.0732      2.00000
     62     -33.0731      2.00000
     63     -33.0331      2.00000
     64     -33.0331      2.00000
     65     -33.0248      2.00000
     66     -33.0240      2.00000
     67     -33.0240      2.00000
     68     -33.0239      2.00000
     69     -33.0236      2.00000
     70     -33.0235      2.00000
     71     -32.9611      2.00000
     72     -32.9610      2.00000
     73     -12.3903      2.00000
     74     -12.1866      2.00000
     75     -11.0928      2.00000
     76     -11.0846      2.00000
     77     -11.0846      2.00000
     78     -11.0846      2.00000
     79     -11.0846      2.00000
     80     -11.0846      2.00000
     81     -11.0828      2.00000
     82     -10.9185      2.00000
     83     -10.9184      2.00000
     84     -10.9183      2.00000
     85     -10.9182      2.00000
     86     -10.9182      2.00000
     87     -10.9116      2.00000
     88     -10.7994      2.00000
     89     -10.5151      2.00000
     90     -10.5150      2.00000
     91     -10.5149      2.00000
     92     -10.5148      2.00000
     93     -10.5148      2.00000
     94     -10.5126      2.00000
     95     -10.3473      2.00000
     96     -10.3472      2.00000
     97     -10.3470      2.00000
     98     -10.3470      2.00000
     99     -10.3469      2.00000
    100     -10.3448      2.00000
    101     -10.2187      2.00000
    102     -10.2187      2.00000
    103     -10.1494      2.00000
    104     -10.1472      2.00000
    105     -10.1119      2.00000
    106     -10.1119      2.00000
    107     -10.0387      2.00000
    108     -10.0353      2.00000
    109      -4.1564      2.00000
    110      -3.6329      2.00000
    111      -3.6329      2.00000
    112      -3.5972      2.00000
    113      -3.5971      2.00000
    114      -3.5971      2.00000
    115      -3.5965      2.00000
    116      -3.5962      2.00000
    117      -3.5948      2.00000
    118      -3.5713      2.00000
    119      -3.5702      2.00000
    120      -3.5155      2.00000
    121      -3.3551      2.00000
    122      -3.3549      2.00000
    123      -3.3548      2.00000
    124      -3.3532      2.00000
    125      -3.3526      2.00000
    126      -3.3510      2.00000
    127      -2.8558      2.00000
    128      -2.8557      2.00000
    129      -2.7501      2.00000
    130      -2.7480      2.00000
    131      -2.5426      2.00000
    132      -2.5425      2.00000
    133      -2.5425      2.00000
    134      -2.5424      2.00000
    135      -2.5415      2.00000
    136      -2.5413      2.00000
    137      -2.3205      2.00000
    138      -2.3199      2.00000
    139      -2.3194      2.00000
    140      -2.3185      2.00000
    141      -2.3181      2.00000
    142      -2.3174      2.00000
    143      -2.3042      2.00000
    144      -2.3017      2.00000
    145      -2.2800      2.00000
    146      -2.2798      2.00000
    147      -2.1483      2.00000
    148      -2.1478      2.00000
    149      -2.1478      2.00000
    150      -2.1477      2.00000
    151      -2.1477      2.00000
    152      -2.1469      2.00000
    153      -1.9318      2.00000
    154      -1.9313      2.00000
    155      -1.9311      2.00000
    156      -1.9298      2.00000
    157      -1.9293      2.00000
    158      -1.9290      2.00000
    159      -1.8014      2.00000
    160      -1.7994      2.00000
    161      -1.7548      2.00000
    162      -1.7545      2.00000
    163      -1.1171      2.00000
    164      -1.1171      2.00000
    165      -1.1171      2.00000
    166      -1.1170      2.00000
    167      -1.1167      2.00000
    168      -1.1164      2.00000
    169      -1.0831      2.00000
    170      -1.0830      2.00000
    171      -1.0276      2.00000
    172      -1.0274      2.00000
    173      -1.0273      2.00000
    174      -1.0270      2.00000
    175      -1.0232      2.00000
    176      -1.0212      2.00000
    177      -1.0129      2.00000
    178      -1.0100      2.00000
    179      -0.8870      2.00000
    180      -0.8870      2.00000
    181      -0.8126      2.00000
    182      -0.8121      2.00000
    183      -0.4817      2.00000
    184      -0.3759      2.00000
    185      -0.3759      2.00000
    186      -0.2130      2.00000
    187      -0.2115      2.00000
    188       0.0156      2.00000
    189       0.0170      2.00000
    190       0.0172      2.00000
    191       0.0173      2.00000
    192       0.0176      2.00000
    193       0.0177      2.00000
    194       0.2193      2.00000
    195       0.2194      2.00000
    196       0.2952      2.00000
    197       0.2971      2.00000
    198       0.3297      2.00000
    199       0.3297      2.00000
    200       0.3297      2.00000
    201       0.3297      2.00000
    202       0.3308      2.00000
    203       0.3309      2.00000
    204       0.4143      2.00000
    205       0.4190      2.00000
    206       0.4191      2.00000
    207       0.4199      2.00000
    208       0.4199      2.00000
    209       0.4200      2.00000
    210       0.4364      2.00000
    211       0.4366      2.00000
    212       0.4366      2.00000
    213       0.4367      2.00000
    214       0.4419      2.00000
    215       0.4420      2.00000
    216       0.6856      2.00000
    217       0.8114      2.00000
    218       0.8119      2.00000
    219       0.8120      2.00000
    220       0.8120      2.00000
    221       0.8120      2.00000
    222       0.8122      2.00000
    223       0.9368      2.00000
    224       0.9386      2.00000
    225       0.9388      2.00000
    226       0.9389      2.00000
    227       0.9392      2.00000
    228       0.9402      2.00000
    229       1.6892      2.00000
    230       1.7473      2.00000
    231       1.7473      2.00000
    232       1.8304      2.00000
    233       1.8309      2.00000
    234       2.4625      2.00000
    235       3.3918      0.00000
    236       3.3918      0.00000
    237       3.4630      0.00000
    238       3.4634      0.00000
    239       3.9406      0.00000
    240       3.9407      0.00000
    241       3.9410      0.00000
    242       3.9411      0.00000
    243       3.9413      0.00000
    244       3.9413      0.00000
    245       4.0054      0.00000
    246       4.0057      0.00000
    247       4.0059      0.00000
    248       4.0066      0.00000
    249       4.0067      0.00000
    250       4.0068      0.00000
    251       4.0674      0.00000
    252       4.0677      0.00000
    253       4.0695      0.00000
    254       4.0698      0.00000
    255       4.0702      0.00000
    256       4.0704      0.00000
    257       4.3833      0.00000
    258       4.3847      0.00000
    259       4.3854      0.00000
    260       4.3871      0.00000
    261       4.3873      0.00000
    262       4.3874      0.00000
    263       4.4873      0.00000
    264       4.4877      0.00000
    265       4.5807      0.00000
    266       4.5824      0.00000
    267       4.7689      0.00000
    268       4.7691      0.00000
    269       4.8321      0.00000
    270       4.8331      0.00000
    271       4.8452      0.00000
    272       4.8452      0.00000
    273       4.8746      0.00000
    274       4.8755      0.00000
    275       5.1208      0.00000
    276       5.1225      0.00000
    277       5.1227      0.00000
    278       5.1235      0.00000
    279       5.1238      0.00000
    280       5.1239      0.00000
    281       5.3645      0.00000
    282       5.3689      0.00000
    283       5.4562      0.00000
    284       5.4632      0.00000
    285       5.4673      0.00000
    286       5.4680      0.00000

 k-point     2 :       0.2000    0.0000    0.0000
  band No.  band energies     occupation 
      1     -59.0880      2.00000
      2     -59.0696      2.00000
      3     -59.0653      2.00000
      4     -59.0653      2.00000
      5     -59.0589      2.00000
      6     -59.0589      2.00000
      7     -59.0569      2.00000
      8     -59.0497      2.00000
      9     -59.0497      2.00000
     10     -59.0162      2.00000
     11     -58.9978      2.00000
     12     -58.9935      2.00000
     13     -58.9934      2.00000
     14     -58.9872      2.00000
     15     -58.9870      2.00000
     16     -58.9850      2.00000
     17     -58.9779      2.00000
     18     -58.9778      2.00000
     19     -33.3608      2.00000
     20     -33.3339      2.00000
     21     -33.3339      2.00000
     22     -33.3266      2.00000
     23     -33.3266      2.00000
     24     -33.2886      2.00000
     25     -33.2728      2.00000
     26     -33.2728      2.00000
     27     -33.2620      2.00000
     28     -33.2615      2.00000
     29     -33.2548      2.00000
     30     -33.2541      2.00000
     31     -33.2352      2.00000
     32     -33.2330      2.00000
     33     -33.2330      2.00000
     34     -33.2235      2.00000
     35     -33.2009      2.00000
     36     -33.2005      2.00000
     37     -33.1865      2.00000
     38     -33.1777      2.00000
     39     -33.1777      2.00000
     40     -33.1648      2.00000
     41     -33.1648      2.00000
     42     -33.1630      2.00000
     43     -33.1609      2.00000
     44     -33.1608      2.00000
     45     -33.1607      2.00000
     46     -33.1519      2.00000
     47     -33.1463      2.00000
     48     -33.1463      2.00000
     49     -33.1149      2.00000
     50     -33.1118      2.00000
     51     -33.1118      2.00000
     52     -33.1089      2.00000
     53     -33.1062      2.00000
     54     -33.1061      2.00000
     55     -33.0954      2.00000
     56     -33.0954      2.00000
     57     -33.0933      2.00000
     58     -33.0932      2.00000
     59     -33.0892      2.00000
     60     -33.0796      2.00000
     61     -33.0747      2.00000
     62     -33.0747      2.00000
     63     -33.0492      2.00000
     64     -33.0399      2.00000
     65     -33.0395      2.00000
     66     -33.0368      2.00000
     67     -33.0368      2.00000
     68     -33.0234      2.00000
     69     -33.0231      2.00000
     70     -33.0075      2.00000
     71     -32.9771      2.00000
     72     -32.9647      2.00000
     73     -12.3250      2.00000
     74     -12.1219      2.00000
     75     -11.4739      2.00000
     76     -11.2885      2.00000
     77     -11.2435      2.00000
     78     -11.2428      2.00000
     79     -11.0683      2.00000
     80     -11.0661      2.00000
     81     -11.0634      2.00000
     82     -10.8731      2.00000
     83     -10.8725      2.00000
     84     -10.7757      2.00000
     85     -10.7415      2.00000
     86     -10.7210      2.00000
     87     -10.7186      2.00000
     88     -10.6847      2.00000
     89     -10.6014      2.00000
     90     -10.5824      2.00000
     91     -10.5817      2.00000
     92     -10.4748      2.00000
     93     -10.4213      2.00000
     94     -10.4205      2.00000
     95     -10.3963      2.00000
     96     -10.3957      2.00000
     97     -10.3684      2.00000
     98     -10.2782      2.00000
     99     -10.2774      2.00000
    100     -10.2763      2.00000
    101     -10.2762      2.00000
    102     -10.2431      2.00000
    103     -10.1941      2.00000
    104     -10.1921      2.00000
    105     -10.1356      2.00000
    106     -10.1351      2.00000
    107     -10.0618      2.00000
    108     -10.0589      2.00000
    109      -4.0829      2.00000
    110      -3.8394      2.00000
    111      -3.6874      2.00000
    112      -3.6786      2.00000
    113      -3.6784      2.00000
    114      -3.5429      2.00000
    115      -3.5429      2.00000
    116      -3.4895      2.00000
    117      -3.4893      2.00000
    118      -3.4821      2.00000
    119      -3.4816      2.00000
    120      -3.4810      2.00000
    121      -3.4799      2.00000
    122      -3.4794      2.00000
    123      -3.4429      2.00000
    124      -3.1591      2.00000
    125      -3.1589      2.00000
    126      -3.1565      2.00000
    127      -3.1558      2.00000
    128      -3.0435      2.00000
    129      -3.0273      2.00000
    130      -3.0263      2.00000
    131      -2.8597      2.00000
    132      -2.7212      2.00000
    133      -2.7210      2.00000
    134      -2.6644      2.00000
    135      -2.5416      2.00000
    136      -2.5413      2.00000
    137      -2.3514      2.00000
    138      -2.3508      2.00000
    139      -2.2693      2.00000
    140      -2.1985      2.00000
    141      -2.1932      2.00000
    142      -2.1928      2.00000
    143      -2.1789      2.00000
    144      -2.1786      2.00000
    145      -2.1656      2.00000
    146      -2.1648      2.00000
    147      -2.0773      2.00000
    148      -2.0361      2.00000
    149      -2.0358      2.00000
    150      -2.0303      2.00000
    151      -1.9812      2.00000
    152      -1.9808      2.00000
    153      -1.9627      2.00000
    154      -1.9615      2.00000
    155      -1.9239      2.00000
    156      -1.8708      2.00000
    157      -1.8699      2.00000
    158      -1.6863      2.00000
    159      -1.6859      2.00000
    160      -1.6733      2.00000
    161      -1.4822      2.00000
    162      -1.4817      2.00000
    163      -1.3233      2.00000
    164      -1.3229      2.00000
    165      -1.3159      2.00000
    166      -1.2238      2.00000
    167      -1.2218      2.00000
    168      -1.2213      2.00000
    169      -1.2147      2.00000
    170      -1.2128      2.00000
    171      -1.1563      2.00000
    172      -1.1560      2.00000
    173      -1.0642      2.00000
    174      -1.0628      2.00000
    175      -1.0419      2.00000
    176      -1.0398      2.00000
    177      -1.0352      2.00000
    178      -0.9601      2.00000
    179      -0.8366      2.00000
    180      -0.8192      2.00000
    181      -0.7483      2.00000
    182      -0.7432      2.00000
    183      -0.6999      2.00000
    184      -0.2470      2.00000
    185      -0.2469      2.00000
    186      -0.1357      2.00000
    187      -0.0974      2.00000
    188      -0.0962      2.00000
    189      -0.0783      2.00000
    190       0.0099      2.00000
    191       0.0338      2.00000
    192       0.0341      2.00000
    193       0.0445      2.00000
    194       0.0447      2.00000
    195       0.0994      2.00000
    196       0.1129      2.00000
    197       0.1348      2.00000
    198       0.1364      2.00000
    199       0.1906      2.00000
    200       0.2008      2.00000
    201       0.2010      2.00000
    202       0.2416      2.00000
    203       0.2434      2.00000
    204       0.2913      2.00000
    205       0.2919      2.00000
    206       0.2970      2.00000
    207       0.2978      2.00000
    208       0.3891      2.00000
    209       0.3899      2.00000
    210       0.4032      2.00000
    211       0.5665      2.00000
    212       0.6184      2.00000
    213       0.6200      2.00000
    214       0.6730      2.00000
    215       0.6990      2.00000
    216       0.8965      2.00000
    217       0.9070      2.00000
    218       0.9070      2.00000
    219       0.9091      2.00000
    220       0.9631      2.00000
    221       0.9633      2.00000
    222       0.9875      2.00000
    223       1.0032      2.00000
    224       1.0037      2.00000
    225       1.0527      2.00000
    226       1.0545      2.00000
    227       1.0553      2.00000
    228       1.1093      2.00000
    229       1.6108      2.00000
    230       1.6108      2.00000
    231       1.6716      2.00000
    232       1.6971      2.00000
    233       1.6975      2.00000
    234       2.3490      2.00000
    235       3.5612      0.00000
    236       3.5612      0.00000
    237       3.6388      0.00000
    238       3.6393      0.00000
    239       3.7788      0.00000
    240       3.7792      0.00000
    241       3.8640      0.00000
    242       3.8836      0.00000
    243       3.8842      0.00000
    244       3.9409      0.00000
    245       3.9826      0.00000
    246       3.9830      0.00000
    247       4.0197      0.00000
    248       4.0207      0.00000
    249       4.0355      0.00000
    250       4.0388      0.00000
    251       4.1695      0.00000
    252       4.1701      0.00000
    253       4.1900      0.00000
    254       4.2266      0.00000
    255       4.2271      0.00000
    256       4.2391      0.00000
    257       4.2789      0.00000
    258       4.3508      0.00000
    259       4.3516      0.00000
    260       4.4209      0.00000
    261       4.4415      0.00000
    262       4.4418      0.00000
    263       4.4956      0.00000
    264       4.5085      0.00000
    265       4.5826      0.00000
    266       4.6272      0.00000
    267       4.6638      0.00000
    268       4.7106      0.00000
    269       4.7394      0.00000
    270       4.7431      0.00000
    271       4.8090      0.00000
    272       4.8094      0.00000
    273       4.8137      0.00000
    274       4.8424      0.00000
    275       4.8432      0.00000
    276       4.9050      0.00000
    277       4.9051      0.00000
    278       5.1181      0.00000
    279       5.1407      0.00000
    280       5.1411      0.00000
    281       5.1728      0.00000
    282       5.1754      0.00000
    283       5.1831      0.00000
    284       5.1840      0.00000
    285       5.3371      0.00000
    286       5.3834      0.00000

 k-point     3 :       0.2000    0.2000    0.0000
  band No.  band energies     occupation 
      1     -59.0880      2.00000
      2     -59.0696      2.00000
      3     -59.0653      2.00000
      4     -59.0653      2.00000
      5     -59.0589      2.00000
      6     -59.0589      2.00000
      7     -59.0569      2.00000
      8     -59.0497      2.00000
      9     -59.0497      2.00000
     10     -59.0162      2.00000
     11     -58.9978      2.00000
     12     -58.9936      2.00000
     13     -58.9934      2.00000
     14     -58.9871      2.00000
     15     -58.9871      2.00000
     16     -58.9850      2.00000
     17     -58.9779      2.00000
     18     -58.9778      2.00000
     19     -33.3608      2.00000
     20     -33.3339      2.00000
     21     -33.3339      2.00000
     22     -33.3266      2.00000
     23     -33.3266      2.00000
     24     -33.2886      2.00000
     25     -33.2728      2.00000
     26     -33.2728      2.00000
     27     -33.2620      2.00000
     28     -33.2615      2.00000
     29     -33.2548      2.00000
     30     -33.2540      2.00000
     31     -33.2352      2.00000
     32     -33.2330      2.00000
     33     -33.2330      2.00000
     34     -33.2235      2.00000
     35     -33.2009      2.00000
     36     -33.2004      2.00000
     37     -33.1865      2.00000
     38     -33.1777      2.00000
     39     -33.1777      2.00000
     40     -33.1648      2.00000
     41     -33.1648      2.00000
     42     -33.1631      2.00000
     43     -33.1610      2.00000
     44     -33.1608      2.00000
     45     -33.1607      2.00000
     46     -33.1519      2.00000
     47     -33.1463      2.00000
     48     -33.1463      2.00000
     49     -33.1149      2.00000
     50     -33.1118      2.00000
     51     -33.1118      2.00000
     52     -33.1089      2.00000
     53     -33.1062      2.00000
     54     -33.1061      2.00000
     55     -33.0954      2.00000
     56     -33.0954      2.00000
     57     -33.0933      2.00000
     58     -33.0933      2.00000
     59     -33.0892      2.00000
     60     -33.0796      2.00000
     61     -33.0747      2.00000
     62     -33.0747      2.00000
     63     -33.0492      2.00000
     64     -33.0399      2.00000
     65     -33.0395      2.00000
     66     -33.0368      2.00000
     67     -33.0368      2.00000
     68     -33.0235      2.00000
     69     -33.0231      2.00000
     70     -33.0074      2.00000
     71     -32.9771      2.00000
     72     -32.9647      2.00000
     73     -12.3250      2.00000
     74     -12.1219      2.00000
     75     -11.4738      2.00000
     76     -11.2884      2.00000
     77     -11.2435      2.00000
     78     -11.2429      2.00000
     79     -11.0683      2.00000
     80     -11.0663      2.00000
     81     -11.0634      2.00000
     82     -10.8731      2.00000
     83     -10.8725      2.00000
     84     -10.7757      2.00000
     85     -10.7414      2.00000
     86     -10.7210      2.00000
     87     -10.7188      2.00000
     88     -10.6848      2.00000
     89     -10.6012      2.00000
     90     -10.5825      2.00000
     91     -10.5816      2.00000
     92     -10.4750      2.00000
     93     -10.4213      2.00000
     94     -10.4204      2.00000
     95     -10.3963      2.00000
     96     -10.3954      2.00000
     97     -10.3684      2.00000
     98     -10.2782      2.00000
     99     -10.2772      2.00000
    100     -10.2763      2.00000
    101     -10.2761      2.00000
    102     -10.2434      2.00000
    103     -10.1941      2.00000
    104     -10.1921      2.00000
    105     -10.1356      2.00000
    106     -10.1351      2.00000
    107     -10.0618      2.00000
    108     -10.0589      2.00000
    109      -4.0829      2.00000
    110      -3.8394      2.00000
    111      -3.6875      2.00000
    112      -3.6787      2.00000
    113      -3.6782      2.00000
    114      -3.5429      2.00000
    115      -3.5429      2.00000
    116      -3.4895      2.00000
    117      -3.4891      2.00000
    118      -3.4821      2.00000
    119      -3.4817      2.00000
    120      -3.4808      2.00000
    121      -3.4802      2.00000
    122      -3.4793      2.00000
    123      -3.4429      2.00000
    124      -3.1591      2.00000
    125      -3.1589      2.00000
    126      -3.1566      2.00000
    127      -3.1557      2.00000
    128      -3.0434      2.00000
    129      -3.0272      2.00000
    130      -3.0263      2.00000
    131      -2.8597      2.00000
    132      -2.7212      2.00000
    133      -2.7209      2.00000
    134      -2.6641      2.00000
    135      -2.5416      2.00000
    136      -2.5412      2.00000
    137      -2.3515      2.00000
    138      -2.3506      2.00000
    139      -2.2693      2.00000
    140      -2.1985      2.00000
    141      -2.1931      2.00000
    142      -2.1929      2.00000
    143      -2.1789      2.00000
    144      -2.1787      2.00000
    145      -2.1654      2.00000
    146      -2.1651      2.00000
    147      -2.0772      2.00000
    148      -2.0363      2.00000
    149      -2.0359      2.00000
    150      -2.0299      2.00000
    151      -1.9814      2.00000
    152      -1.9809      2.00000
    153      -1.9625      2.00000
    154      -1.9621      2.00000
    155      -1.9238      2.00000
    156      -1.8710      2.00000
    157      -1.8702      2.00000
    158      -1.6865      2.00000
    159      -1.6855      2.00000
    160      -1.6734      2.00000
    161      -1.4822      2.00000
    162      -1.4815      2.00000
    163      -1.3233      2.00000
    164      -1.3230      2.00000
    165      -1.3159      2.00000
    166      -1.2234      2.00000
    167      -1.2218      2.00000
    168      -1.2211      2.00000
    169      -1.2146      2.00000
    170      -1.2140      2.00000
    171      -1.1564      2.00000
    172      -1.1562      2.00000
    173      -1.0642      2.00000
    174      -1.0630      2.00000
    175      -1.0415      2.00000
    176      -1.0402      2.00000
    177      -1.0351      2.00000
    178      -0.9596      2.00000
    179      -0.8365      2.00000
    180      -0.8192      2.00000
    181      -0.7478      2.00000
    182      -0.7432      2.00000
    183      -0.7001      2.00000
    184      -0.2469      2.00000
    185      -0.2469      2.00000
    186      -0.1357      2.00000
    187      -0.0974      2.00000
    188      -0.0960      2.00000
    189      -0.0790      2.00000
    190       0.0099      2.00000
    191       0.0339      2.00000
    192       0.0340      2.00000
    193       0.0445      2.00000
    194       0.0448      2.00000
    195       0.0992      2.00000
    196       0.1130      2.00000
    197       0.1346      2.00000
    198       0.1362      2.00000
    199       0.1922      2.00000
    200       0.2009      2.00000
    201       0.2011      2.00000
    202       0.2415      2.00000
    203       0.2431      2.00000
    204       0.2920      2.00000
    205       0.2928      2.00000
    206       0.2971      2.00000
    207       0.2977      2.00000
    208       0.3893      2.00000
    209       0.3897      2.00000
    210       0.4025      2.00000
    211       0.5666      2.00000
    212       0.6184      2.00000
    213       0.6201      2.00000
    214       0.6728      2.00000
    215       0.6992      2.00000
    216       0.8963      2.00000
    217       0.9070      2.00000
    218       0.9071      2.00000
    219       0.9089      2.00000
    220       0.9631      2.00000
    221       0.9633      2.00000
    222       0.9874      2.00000
    223       1.0038      2.00000
    224       1.0044      2.00000
    225       1.0524      2.00000
    226       1.0537      2.00000
    227       1.0554      2.00000
    228       1.1087      2.00000
    229       1.6108      2.00000
    230       1.6108      2.00000
    231       1.6716      2.00000
    232       1.6970      2.00000
    233       1.6976      2.00000
    234       2.3489      2.00000
    235       3.5612      0.00000
    236       3.5612      0.00000
    237       3.6390      0.00000
    238       3.6392      0.00000
    239       3.7787      0.00000
    240       3.7790      0.00000
    241       3.8639      0.00000
    242       3.8837      0.00000
    243       3.8843      0.00000
    244       3.9409      0.00000
    245       3.9825      0.00000
    246       3.9827      0.00000
    247       4.0199      0.00000
    248       4.0208      0.00000
    249       4.0357      0.00000
    250       4.0385      0.00000
    251       4.1696      0.00000
    252       4.1704      0.00000
    253       4.1902      0.00000
    254       4.2264      0.00000
    255       4.2269      0.00000
    256       4.2391      0.00000
    257       4.2793      0.00000
    258       4.3507      0.00000
    259       4.3515      0.00000
    260       4.4211      0.00000
    261       4.4413      0.00000
    262       4.4415      0.00000
    263       4.4974      0.00000
    264       4.5086      0.00000
    265       4.5824      0.00000
    266       4.6274      0.00000
    267       4.6636      0.00000
    268       4.7098      0.00000
    269       4.7379      0.00000
    270       4.7435      0.00000
    271       4.8087      0.00000
    272       4.8093      0.00000
    273       4.8144      0.00000
    274       4.8425      0.00000
    275       4.8430      0.00000
    276       4.9050      0.00000
    277       4.9051      0.00000
    278       5.1184      0.00000
    279       5.1411      0.00000
    280       5.1419      0.00000
    281       5.1725      0.00000
    282       5.1751      0.00000
    283       5.1827      0.00000
    284       5.1841      0.00000
    285       5.3396      0.00000
    286       5.3633      0.00000

 k-point     4 :       0.0000    0.2000    0.0000
  band No.  band energies     occupation 
      1     -59.0880      2.00000
      2     -59.0696      2.00000
      3     -59.0653      2.00000
      4     -59.0653      2.00000
      5     -59.0589      2.00000
      6     -59.0589      2.00000
      7     -59.0569      2.00000
      8     -59.0497      2.00000
      9     -59.0497      2.00000
     10     -59.0162      2.00000
     11     -58.9978      2.00000
     12     -58.9935      2.00000
     13     -58.9934      2.00000
     14     -58.9872      2.00000
     15     -58.9870      2.00000
     16     -58.9850      2.00000
     17     -58.9779      2.00000
     18     -58.9778      2.00000
     19     -33.3608      2.00000
     20     -33.3339      2.00000
     21     -33.3339      2.00000
     22     -33.3266      2.00000
     23     -33.3266      2.00000
     24     -33.2886      2.00000
     25     -33.2728      2.00000
     26     -33.2728      2.00000
     27     -33.2620      2.00000
     28     -33.2615      2.00000
     29     -33.2548      2.00000
     30     -33.2540      2.00000
     31     -33.2352      2.00000
     32     -33.2330      2.00000
     33     -33.2330      2.00000
     34     -33.2235      2.00000
     35     -33.2009      2.00000
     36     -33.2004      2.00000
     37     -33.1865      2.00000
     38     -33.1777      2.00000
     39     -33.1777      2.00000
     40     -33.1648      2.00000
     41     -33.1648      2.00000
     42     -33.1631      2.00000
     43     -33.1610      2.00000
     44     -33.1608      2.00000
     45     -33.1607      2.00000
     46     -33.1519      2.00000
     47     -33.1463      2.00000
     48     -33.1463      2.00000
     49     -33.1149      2.00000
     50     -33.1118      2.00000
     51     -33.1118      2.00000
     52     -33.1089      2.00000
     53     -33.1062      2.00000
     54     -33.1061      2.00000
     55     -33.0954      2.00000
     56     -33.0954      2.00000
     57     -33.0933      2.00000
     58     -33.0932      2.00000
     59     -33.0892      2.00000
     60     -33.0796      2.00000
     61     -33.0747      2.00000
     62     -33.0747      2.00000
     63     -33.0492      2.00000
     64     -33.0399      2.00000
     65     -33.0395      2.00000
     66     -33.0368      2.00000
     67     -33.0368      2.00000
     68     -33.0235      2.00000
     69     -33.0231      2.00000
     70     -33.0074      2.00000
     71     -32.9771      2.00000
     72     -32.9647      2.00000
     73     -12.3250      2.00000
     74     -12.1219      2.00000
     75     -11.4739      2.00000
     76     -11.2885      2.00000
     77     -11.2435      2.00000
     78     -11.2428      2.00000
     79     -11.0684      2.00000
     80     -11.0661      2.00000
     81     -11.0634      2.00000
     82     -10.8731      2.00000
     83     -10.8725      2.00000
     84     -10.7757      2.00000
     85     -10.7415      2.00000
     86     -10.7210      2.00000
     87     -10.7187      2.00000
     88     -10.6847      2.00000
     89     -10.6013      2.00000
     90     -10.5825      2.00000
     91     -10.5816      2.00000
     92     -10.4749      2.00000
     93     -10.4213      2.00000
     94     -10.4204      2.00000
     95     -10.3963      2.00000
     96     -10.3955      2.00000
     97     -10.3684      2.00000
     98     -10.2783      2.00000
     99     -10.2772      2.00000
    100     -10.2763      2.00000
    101     -10.2761      2.00000
    102     -10.2433      2.00000
    103     -10.1941      2.00000
    104     -10.1921      2.00000
    105     -10.1356      2.00000
    106     -10.1351      2.00000
    107     -10.0618      2.00000
    108     -10.0589      2.00000
    109      -4.0829      2.00000
    110      -3.8394      2.00000
    111      -3.6875      2.00000
    112      -3.6787      2.00000
    113      -3.6783      2.00000
    114      -3.5429      2.00000
    115      -3.5429      2.00000
    116      -3.4896      2.00000
    117      -3.4891      2.00000
    118      -3.4821      2.00000
    119      -3.4817      2.00000
    120      -3.4809      2.00000
    121      -3.4801      2.00000
    122      -3.4793      2.00000
    123      -3.4429      2.00000
    124      -3.1591      2.00000
    125      -3.1589      2.00000
    126      -3.1566      2.00000
    127      -3.1557      2.00000
    128      -3.0434      2.00000
    129      -3.0277      2.00000
    130      -3.0258      2.00000
    131      -2.8597      2.00000
    132      -2.7212      2.00000
    133      -2.7209      2.00000
    134      -2.6643      2.00000
    135      -2.5417      2.00000
    136      -2.5411      2.00000
    137      -2.3515      2.00000
    138      -2.3507      2.00000
    139      -2.2693      2.00000
    140      -2.1985      2.00000
    141      -2.1932      2.00000
    142      -2.1929      2.00000
    143      -2.1790      2.00000
    144      -2.1786      2.00000
    145      -2.1655      2.00000
    146      -2.1649      2.00000
    147      -2.0772      2.00000
    148      -2.0363      2.00000
    149      -2.0358      2.00000
    150      -2.0301      2.00000
    151      -1.9814      2.00000
    152      -1.9807      2.00000
    153      -1.9627      2.00000
    154      -1.9617      2.00000
    155      -1.9238      2.00000
    156      -1.8709      2.00000
    157      -1.8700      2.00000
    158      -1.6865      2.00000
    159      -1.6856      2.00000
    160      -1.6734      2.00000
    161      -1.4824      2.00000
    162      -1.4813      2.00000
    163      -1.3233      2.00000
    164      -1.3230      2.00000
    165      -1.3159      2.00000
    166      -1.2235      2.00000
    167      -1.2219      2.00000
    168      -1.2211      2.00000
    169      -1.2148      2.00000
    170      -1.2133      2.00000
    171      -1.1564      2.00000
    172      -1.1561      2.00000
    173      -1.0642      2.00000
    174      -1.0629      2.00000
    175      -1.0418      2.00000
    176      -1.0399      2.00000
    177      -1.0352      2.00000
    178      -0.9599      2.00000
    179      -0.8365      2.00000
    180      -0.8192      2.00000
    181      -0.7480      2.00000
    182      -0.7432      2.00000
    183      -0.7000      2.00000
    184      -0.2470      2.00000
    185      -0.2469      2.00000
    186      -0.1357      2.00000
    187      -0.0974      2.00000
    188      -0.0961      2.00000
    189      -0.0787      2.00000
    190       0.0099      2.00000
    191       0.0338      2.00000
    192       0.0341      2.00000
    193       0.0445      2.00000
    194       0.0448      2.00000
    195       0.0993      2.00000
    196       0.1130      2.00000
    197       0.1346      2.00000
    198       0.1364      2.00000
    199       0.1914      2.00000
    200       0.2008      2.00000
    201       0.2011      2.00000
    202       0.2416      2.00000
    203       0.2432      2.00000
    204       0.2914      2.00000
    205       0.2926      2.00000
    206       0.2971      2.00000
    207       0.2977      2.00000
    208       0.3892      2.00000
    209       0.3898      2.00000
    210       0.4028      2.00000
    211       0.5665      2.00000
    212       0.6183      2.00000
    213       0.6201      2.00000
    214       0.6729      2.00000
    215       0.6991      2.00000
    216       0.8964      2.00000
    217       0.9070      2.00000
    218       0.9071      2.00000
    219       0.9090      2.00000
    220       0.9631      2.00000
    221       0.9633      2.00000
    222       0.9875      2.00000
    223       1.0033      2.00000
    224       1.0042      2.00000
    225       1.0526      2.00000
    226       1.0540      2.00000
    227       1.0555      2.00000
    228       1.1090      2.00000
    229       1.6108      2.00000
    230       1.6108      2.00000
    231       1.6716      2.00000
    232       1.6970      2.00000
    233       1.6975      2.00000
    234       2.3489      2.00000
    235       3.5612      0.00000
    236       3.5612      0.00000
    237       3.6388      0.00000
    238       3.6393      0.00000
    239       3.7787      0.00000
    240       3.7792      0.00000
    241       3.8640      0.00000
    242       3.8837      0.00000
    243       3.8843      0.00000
    244       3.9409      0.00000
    245       3.9825      0.00000
    246       3.9829      0.00000
    247       4.0198      0.00000
    248       4.0208      0.00000
    249       4.0356      0.00000
    250       4.0387      0.00000
    251       4.1695      0.00000
    252       4.1702      0.00000
    253       4.1901      0.00000
    254       4.2265      0.00000
    255       4.2270      0.00000
    256       4.2391      0.00000
    257       4.2791      0.00000
    258       4.3507      0.00000
    259       4.3516      0.00000
    260       4.4210      0.00000
    261       4.4413      0.00000
    262       4.4418      0.00000
    263       4.4965      0.00000
    264       4.5086      0.00000
    265       4.5825      0.00000
    266       4.6273      0.00000
    267       4.6637      0.00000
    268       4.7102      0.00000
    269       4.7385      0.00000
    270       4.7434      0.00000
    271       4.8087      0.00000
    272       4.8095      0.00000
    273       4.8141      0.00000
    274       4.8424      0.00000
    275       4.8431      0.00000
    276       4.9050      0.00000
    277       4.9051      0.00000
    278       5.1182      0.00000
    279       5.1410      0.00000
    280       5.1415      0.00000
    281       5.1726      0.00000
    282       5.1753      0.00000
    283       5.1829      0.00000
    284       5.1840      0.00000
    285       5.3382      0.00000
    286       5.3783      0.00000

 k-point     5 :       0.4000    0.0000    0.0000
  band No.  band energies     occupation 
      1     -59.0836      2.00000
      2     -59.0771      2.00000
      3     -59.0668      2.00000
      4     -59.0668      2.00000
      5     -59.0551      2.00000
      6     -59.0551      2.00000
      7     -59.0538      2.00000
      8     -59.0519      2.00000
      9     -59.0519      2.00000
     10     -59.0118      2.00000
     11     -59.0053      2.00000
     12     -58.9950      2.00000
     13     -58.9949      2.00000
     14     -58.9835      2.00000
     15     -58.9833      2.00000
     16     -58.9819      2.00000
     17     -58.9800      2.00000
     18     -58.9800      2.00000
     19     -33.3905      2.00000
     20     -33.3485      2.00000
     21     -33.3485      2.00000
     22     -33.3458      2.00000
     23     -33.3458      2.00000
     24     -33.3183      2.00000
     25     -33.2766      2.00000
     26     -33.2760      2.00000
     27     -33.2739      2.00000
     28     -33.2733      2.00000
     29     -33.2481      2.00000
     30     -33.2481      2.00000
     31     -33.2146      2.00000
     32     -33.2015      2.00000
     33     -33.1862      2.00000
     34     -33.1862      2.00000
     35     -33.1808      2.00000
     36     -33.1808      2.00000
     37     -33.1762      2.00000
     38     -33.1757      2.00000
     39     -33.1603      2.00000
     40     -33.1573      2.00000
     41     -33.1573      2.00000
     42     -33.1546      2.00000
     43     -33.1507      2.00000
     44     -33.1507      2.00000
     45     -33.1432      2.00000
     46     -33.1432      2.00000
     47     -33.1430      2.00000
     48     -33.1300      2.00000
     49     -33.1160      2.00000
     50     -33.1142      2.00000
     51     -33.1139      2.00000
     52     -33.1093      2.00000
     53     -33.1092      2.00000
     54     -33.1017      2.00000
     55     -33.1017      2.00000
     56     -33.0944      2.00000
     57     -33.0882      2.00000
     58     -33.0858      2.00000
     59     -33.0857      2.00000
     60     -33.0830      2.00000
     61     -33.0792      2.00000
     62     -33.0791      2.00000
     63     -33.0713      2.00000
     64     -33.0709      2.00000
     65     -33.0622      2.00000
     66     -33.0471      2.00000
     67     -33.0439      2.00000
     68     -33.0298      2.00000
     69     -33.0294      2.00000
     70     -33.0222      2.00000
     71     -32.9901      2.00000
     72     -32.9750      2.00000
     73     -12.1355      2.00000
     74     -11.9345      2.00000
     75     -11.8408      2.00000
     76     -11.6449      2.00000
     77     -11.3282      2.00000
     78     -11.3275      2.00000
     79     -11.1487      2.00000
     80     -11.1464      2.00000
     81     -10.9788      2.00000
     82     -10.8473      2.00000
     83     -10.7072      2.00000
     84     -10.6413      2.00000
     85     -10.6408      2.00000
     86     -10.6175      2.00000
     87     -10.6169      2.00000
     88     -10.6021      2.00000
     89     -10.5314      2.00000
     90     -10.5089      2.00000
     91     -10.5066      2.00000
     92     -10.4290      2.00000
     93     -10.4287      2.00000
     94     -10.4216      2.00000
     95     -10.4212      2.00000
     96     -10.4178      2.00000
     97     -10.3212      2.00000
     98     -10.3192      2.00000
     99     -10.3130      2.00000
    100     -10.3119      2.00000
    101     -10.2831      2.00000
    102     -10.2091      2.00000
    103     -10.2084      2.00000
    104     -10.1981      2.00000
    105     -10.1969      2.00000
    106     -10.1862      2.00000
    107     -10.1205      2.00000
    108     -10.1186      2.00000
    109      -4.0120      2.00000
    110      -3.8876      2.00000
    111      -3.8819      2.00000
    112      -3.6642      2.00000
    113      -3.6640      2.00000
    114      -3.6262      2.00000
    115      -3.5128      2.00000
    116      -3.5125      2.00000
    117      -3.4983      2.00000
    118      -3.4979      2.00000
    119      -3.4007      2.00000
    120      -3.3996      2.00000
    121      -3.3489      2.00000
    122      -3.3483      2.00000
    123      -3.2758      2.00000
    124      -3.2758      2.00000
    125      -3.2487      2.00000
    126      -3.2018      2.00000
    127      -3.2008      2.00000
    128      -3.0433      2.00000
    129      -3.0319      2.00000
    130      -3.0015      2.00000
    131      -3.0002      2.00000
    132      -2.9680      2.00000
    133      -2.9679      2.00000
    134      -2.8697      2.00000
    135      -2.8649      2.00000
    136      -2.8643      2.00000
    137      -2.3604      2.00000
    138      -2.1888      2.00000
    139      -2.1885      2.00000
    140      -2.1877      2.00000
    141      -2.1862      2.00000
    142      -2.1573      2.00000
    143      -2.1564      2.00000
    144      -2.1224      2.00000
    145      -2.0708      2.00000
    146      -2.0707      2.00000
    147      -1.9590      2.00000
    148      -1.9577      2.00000
    149      -1.9330      2.00000
    150      -1.9319      2.00000
    151      -1.9178      2.00000
    152      -1.9174      2.00000
    153      -1.8486      2.00000
    154      -1.7884      2.00000
    155      -1.7870      2.00000
    156      -1.7752      2.00000
    157      -1.5511      2.00000
    158      -1.4918      2.00000
    159      -1.4910      2.00000
    160      -1.4504      2.00000
    161      -1.4496      2.00000
    162      -1.4187      2.00000
    163      -1.4099      2.00000
    164      -1.4050      2.00000
    165      -1.4046      2.00000
    166      -1.3339      2.00000
    167      -1.3256      2.00000
    168      -1.2915      2.00000
    169      -1.2902      2.00000
    170      -1.2305      2.00000
    171      -1.2296      2.00000
    172      -1.1559      2.00000
    173      -1.1549      2.00000
    174      -1.1483      2.00000
    175      -1.1115      2.00000
    176      -1.0157      2.00000
    177      -1.0152      2.00000
    178      -0.8058      2.00000
    179      -0.8049      2.00000
    180      -0.6253      2.00000
    181      -0.5968      2.00000
    182      -0.5487      2.00000
    183      -0.5046      2.00000
    184      -0.4185      2.00000
    185      -0.3343      2.00000
    186      -0.3339      2.00000
    187      -0.3263      2.00000
    188      -0.2486      2.00000
    189      -0.2083      2.00000
    190      -0.2082      2.00000
    191      -0.2052      2.00000
    192      -0.1690      2.00000
    193      -0.1681      2.00000
    194      -0.1572      2.00000
    195      -0.1166      2.00000
    196      -0.1134      2.00000
    197      -0.0765      2.00000
    198      -0.0329      2.00000
    199      -0.0328      2.00000
    200       0.0871      2.00000
    201       0.0873      2.00000
    202       0.1167      2.00000
    203       0.1178      2.00000
    204       0.1563      2.00000
    205       0.2906      2.00000
    206       0.2918      2.00000
    207       0.4578      2.00000
    208       0.5290      2.00000
    209       0.6204      2.00000
    210       0.6205      2.00000
    211       0.6865      2.00000
    212       0.8366      2.00000
    213       0.8486      2.00000
    214       0.8497      2.00000
    215       0.9250      2.00000
    216       0.9792      2.00000
    217       0.9792      2.00000
    218       1.0330      2.00000
    219       1.0592      2.00000
    220       1.0597      2.00000
    221       1.0973      2.00000
    222       1.1628      2.00000
    223       1.1628      2.00000
    224       1.2170      2.00000
    225       1.2506      2.00000
    226       1.2514      2.00000
    227       1.3337      2.00000
    228       1.3671      2.00000
    229       1.3671      2.00000
    230       1.4575      2.00000
    231       1.4578      2.00000
    232       1.5221      2.00000
    233       1.5785      2.00000
    234       2.0059      2.00000
    235       3.6344      0.00000
    236       3.6348      0.00000
    237       3.8295      0.00000
    238       3.8299      0.00000
    239       3.9027      0.00000
    240       3.9037      0.00000
    241       3.9251      0.00000
    242       3.9295      0.00000
    243       3.9300      0.00000
    244       3.9674      0.00000
    245       3.9682      0.00000
    246       3.9743      0.00000
    247       4.0554      0.00000
    248       4.1381      0.00000
    249       4.1394      0.00000
    250       4.2256      0.00000
    251       4.2308      0.00000
    252       4.2321      0.00000
    253       4.2364      0.00000
    254       4.2416      0.00000
    255       4.3060      0.00000
    256       4.3151      0.00000
    257       4.3154      0.00000
    258       4.3735      0.00000
    259       4.3897      0.00000
    260       4.3906      0.00000
    261       4.3907      0.00000
    262       4.4384      0.00000
    263       4.4441      0.00000
    264       4.4579      0.00000
    265       4.4985      0.00000
    266       4.4990      0.00000
    267       4.5156      0.00000
    268       4.5160      0.00000
    269       4.5902      0.00000
    270       4.5996      0.00000
    271       4.6159      0.00000
    272       4.6556      0.00000
    273       4.6558      0.00000
    274       4.7785      0.00000
    275       4.8509      0.00000
    276       4.8522      0.00000
    277       4.8576      0.00000
    278       4.8585      0.00000
    279       4.9093      0.00000
    280       5.0268      0.00000
    281       5.0343      0.00000
    282       5.0347      0.00000
    283       5.1272      0.00000
    284       5.1282      0.00000
    285       5.2256      0.00000
    286       5.2354      0.00000

 k-point     6 :       0.4000    0.4000    0.0000
  band No.  band energies     occupation 
      1     -59.0836      2.00000
      2     -59.0771      2.00000
      3     -59.0668      2.00000
      4     -59.0668      2.00000
      5     -59.0551      2.00000
      6     -59.0551      2.00000
      7     -59.0538      2.00000
      8     -59.0519      2.00000
      9     -59.0519      2.00000
     10     -59.0118      2.00000
     11     -59.0053      2.00000
     12     -58.9951      2.00000
     13     -58.9949      2.00000
     14     -58.9834      2.00000
     15     -58.9834      2.00000
     16     -58.9819      2.00000
     17     -58.9801      2.00000
     18     -58.9799      2.00000
     19     -33.3905      2.00000
     20     -33.3485      2.00000
     21     -33.3485      2.00000
     22     -33.3458      2.00000
     23     -33.3458      2.00000
     24     -33.3184      2.00000
     25     -33.2766      2.00000
     26     -33.2760      2.00000
     27     -33.2739      2.00000
     28     -33.2733      2.00000
     29     -33.2481      2.00000
     30     -33.2481      2.00000
     31     -33.2146      2.00000
     32     -33.2015      2.00000
     33     -33.1862      2.00000
     34     -33.1862      2.00000
     35     -33.1808      2.00000
     36     -33.1808      2.00000
     37     -33.1761      2.00000
     38     -33.1756      2.00000
     39     -33.1603      2.00000
     40     -33.1573      2.00000
     41     -33.1573      2.00000
     42     -33.1546      2.00000
     43     -33.1507      2.00000
     44     -33.1507      2.00000
     45     -33.1432      2.00000
     46     -33.1432      2.00000
     47     -33.1430      2.00000
     48     -33.1300      2.00000
     49     -33.1160      2.00000
     50     -33.1143      2.00000
     51     -33.1139      2.00000
     52     -33.1093      2.00000
     53     -33.1092      2.00000
     54     -33.1017      2.00000
     55     -33.1017      2.00000
     56     -33.0944      2.00000
     57     -33.0882      2.00000
     58     -33.0858      2.00000
     59     -33.0857      2.00000
     60     -33.0830      2.00000
     61     -33.0792      2.00000
     62     -33.0791      2.00000
     63     -33.0713      2.00000
     64     -33.0709      2.00000
     65     -33.0622      2.00000
     66     -33.0471      2.00000
     67     -33.0438      2.00000
     68     -33.0299      2.00000
     69     -33.0294      2.00000
     70     -33.0223      2.00000
     71     -32.9901      2.00000
     72     -32.9750      2.00000
     73     -12.1354      2.00000
     74     -11.9344      2.00000
     75     -11.8407      2.00000
     76     -11.6448      2.00000
     77     -11.3282      2.00000
     78     -11.3276      2.00000
     79     -11.1487      2.00000
     80     -11.1465      2.00000
     81     -10.9788      2.00000
     82     -10.8474      2.00000
     83     -10.7072      2.00000
     84     -10.6413      2.00000
     85     -10.6409      2.00000
     86     -10.6175      2.00000
     87     -10.6167      2.00000
     88     -10.6021      2.00000
     89     -10.5314      2.00000
     90     -10.5089      2.00000
     91     -10.5067      2.00000
     92     -10.4290      2.00000
     93     -10.4288      2.00000
     94     -10.4216      2.00000
     95     -10.4210      2.00000
     96     -10.4174      2.00000
     97     -10.3212      2.00000
     98     -10.3193      2.00000
     99     -10.3131      2.00000
    100     -10.3119      2.00000
    101     -10.2831      2.00000
    102     -10.2091      2.00000
    103     -10.2083      2.00000
    104     -10.1981      2.00000
    105     -10.1967      2.00000
    106     -10.1866      2.00000
    107     -10.1205      2.00000
    108     -10.1185      2.00000
    109      -4.0121      2.00000
    110      -3.8877      2.00000
    111      -3.8819      2.00000
    112      -3.6642      2.00000
    113      -3.6639      2.00000
    114      -3.6261      2.00000
    115      -3.5128      2.00000
    116      -3.5125      2.00000
    117      -3.4983      2.00000
    118      -3.4977      2.00000
    119      -3.4007      2.00000
    120      -3.3997      2.00000
    121      -3.3488      2.00000
    122      -3.3482      2.00000
    123      -3.2758      2.00000
    124      -3.2757      2.00000
    125      -3.2487      2.00000
    126      -3.2018      2.00000
    127      -3.2007      2.00000
    128      -3.0433      2.00000
    129      -3.0319      2.00000
    130      -3.0015      2.00000
    131      -3.0002      2.00000
    132      -2.9680      2.00000
    133      -2.9679      2.00000
    134      -2.8693      2.00000
    135      -2.8648      2.00000
    136      -2.8642      2.00000
    137      -2.3603      2.00000
    138      -2.1886      2.00000
    139      -2.1886      2.00000
    140      -2.1879      2.00000
    141      -2.1863      2.00000
    142      -2.1571      2.00000
    143      -2.1569      2.00000
    144      -2.1219      2.00000
    145      -2.0709      2.00000
    146      -2.0708      2.00000
    147      -1.9588      2.00000
    148      -1.9582      2.00000
    149      -1.9329      2.00000
    150      -1.9323      2.00000
    151      -1.9180      2.00000
    152      -1.9176      2.00000
    153      -1.8487      2.00000
    154      -1.7887      2.00000
    155      -1.7875      2.00000
    156      -1.7750      2.00000
    157      -1.5514      2.00000
    158      -1.4917      2.00000
    159      -1.4913      2.00000
    160      -1.4503      2.00000
    161      -1.4498      2.00000
    162      -1.4186      2.00000
    163      -1.4099      2.00000
    164      -1.4052      2.00000
    165      -1.4047      2.00000
    166      -1.3335      2.00000
    167      -1.3250      2.00000
    168      -1.2917      2.00000
    169      -1.2911      2.00000
    170      -1.2310      2.00000
    171      -1.2300      2.00000
    172      -1.1553      2.00000
    173      -1.1546      2.00000
    174      -1.1489      2.00000
    175      -1.1119      2.00000
    176      -1.0156      2.00000
    177      -1.0150      2.00000
    178      -0.8057      2.00000
    179      -0.8046      2.00000
    180      -0.6253      2.00000
    181      -0.5974      2.00000
    182      -0.5491      2.00000
    183      -0.5046      2.00000
    184      -0.4175      2.00000
    185      -0.3342      2.00000
    186      -0.3337      2.00000
    187      -0.3262      2.00000
    188      -0.2488      2.00000
    189      -0.2083      2.00000
    190      -0.2081      2.00000
    191      -0.2054      2.00000
    192      -0.1688      2.00000
    193      -0.1677      2.00000
    194      -0.1572      2.00000
    195      -0.1165      2.00000
    196      -0.1134      2.00000
    197      -0.0751      2.00000
    198      -0.0329      2.00000
    199      -0.0328      2.00000
    200       0.0872      2.00000
    201       0.0873      2.00000
    202       0.1170      2.00000
    203       0.1182      2.00000
    204       0.1558      2.00000
    205       0.2912      2.00000
    206       0.2920      2.00000
    207       0.4579      2.00000
    208       0.5288      2.00000
    209       0.6202      2.00000
    210       0.6206      2.00000
    211       0.6865      2.00000
    212       0.8368      2.00000
    213       0.8479      2.00000
    214       0.8500      2.00000
    215       0.9250      2.00000
    216       0.9792      2.00000
    217       0.9792      2.00000
    218       1.0329      2.00000
    219       1.0600      2.00000
    220       1.0605      2.00000
    221       1.0971      2.00000
    222       1.1628      2.00000
    223       1.1628      2.00000
    224       1.2164      2.00000
    225       1.2502      2.00000
    226       1.2515      2.00000
    227       1.3335      2.00000
    228       1.3671      2.00000
    229       1.3671      2.00000
    230       1.4573      2.00000
    231       1.4581      2.00000
    232       1.5217      2.00000
    233       1.5783      2.00000
    234       2.0057      2.00000
    235       3.6343      0.00000
    236       3.6346      0.00000
    237       3.8295      0.00000
    238       3.8298      0.00000
    239       3.9029      0.00000
    240       3.9037      0.00000
    241       3.9250      0.00000
    242       3.9294      0.00000
    243       3.9297      0.00000
    244       3.9676      0.00000
    245       3.9681      0.00000
    246       3.9743      0.00000
    247       4.0551      0.00000
    248       4.1382      0.00000
    249       4.1394      0.00000
    250       4.2257      0.00000
    251       4.2314      0.00000
    252       4.2323      0.00000
    253       4.2362      0.00000
    254       4.2420      0.00000
    255       4.3060      0.00000
    256       4.3150      0.00000
    257       4.3155      0.00000
    258       4.3750      0.00000
    259       4.3899      0.00000
    260       4.3905      0.00000
    261       4.3907      0.00000
    262       4.4390      0.00000
    263       4.4441      0.00000
    264       4.4582      0.00000
    265       4.4979      0.00000
    266       4.4987      0.00000
    267       4.5153      0.00000
    268       4.5158      0.00000
    269       4.5902      0.00000
    270       4.5993      0.00000
    271       4.6164      0.00000
    272       4.6556      0.00000
    273       4.6557      0.00000
    274       4.7786      0.00000
    275       4.8508      0.00000
    276       4.8519      0.00000
    277       4.8582      0.00000
    278       4.8591      0.00000
    279       4.9089      0.00000
    280       5.0256      0.00000
    281       5.0344      0.00000
    282       5.0347      0.00000
    283       5.1270      0.00000
    284       5.1281      0.00000
    285       5.2254      0.00000
    286       5.2338      0.00000

 k-point     7 :       0.0000    0.4000    0.0000
  band No.  band energies     occupation 
      1     -59.0836      2.00000
      2     -59.0771      2.00000
      3     -59.0668      2.00000
      4     -59.0668      2.00000
      5     -59.0551      2.00000
      6     -59.0551      2.00000
      7     -59.0538      2.00000
      8     -59.0519      2.00000
      9     -59.0519      2.00000
     10     -59.0118      2.00000
     11     -59.0053      2.00000
     12     -58.9951      2.00000
     13     -58.9949      2.00000
     14     -58.9835      2.00000
     15     -58.9833      2.00000
     16     -58.9819      2.00000
     17     -58.9801      2.00000
     18     -58.9800      2.00000
     19     -33.3905      2.00000
     20     -33.3485      2.00000
     21     -33.3485      2.00000
     22     -33.3458      2.00000
     23     -33.3458      2.00000
     24     -33.3184      2.00000
     25     -33.2766      2.00000
     26     -33.2760      2.00000
     27     -33.2739      2.00000
     28     -33.2733      2.00000
     29     -33.2481      2.00000
     30     -33.2481      2.00000
     31     -33.2146      2.00000
     32     -33.2015      2.00000
     33     -33.1862      2.00000
     34     -33.1862      2.00000
     35     -33.1808      2.00000
     36     -33.1808      2.00000
     37     -33.1761      2.00000
     38     -33.1757      2.00000
     39     -33.1603      2.00000
     40     -33.1573      2.00000
     41     -33.1573      2.00000
     42     -33.1546      2.00000
     43     -33.1507      2.00000
     44     -33.1507      2.00000
     45     -33.1432      2.00000
     46     -33.1432      2.00000
     47     -33.1430      2.00000
     48     -33.1300      2.00000
     49     -33.1160      2.00000
     50     -33.1143      2.00000
     51     -33.1139      2.00000
     52     -33.1093      2.00000
     53     -33.1092      2.00000
     54     -33.1017      2.00000
     55     -33.1017      2.00000
     56     -33.0944      2.00000
     57     -33.0882      2.00000
     58     -33.0858      2.00000
     59     -33.0857      2.00000
     60     -33.0830      2.00000
     61     -33.0792      2.00000
     62     -33.0791      2.00000
     63     -33.0713      2.00000
     64     -33.0709      2.00000
     65     -33.0622      2.00000
     66     -33.0471      2.00000
     67     -33.0439      2.00000
     68     -33.0298      2.00000
     69     -33.0294      2.00000
     70     -33.0222      2.00000
     71     -32.9901      2.00000
     72     -32.9750      2.00000
     73     -12.1354      2.00000
     74     -11.9345      2.00000
     75     -11.8407      2.00000
     76     -11.6449      2.00000
     77     -11.3283      2.00000
     78     -11.3275      2.00000
     79     -11.1488      2.00000
     80     -11.1464      2.00000
     81     -10.9788      2.00000
     82     -10.8473      2.00000
     83     -10.7072      2.00000
     84     -10.6413      2.00000
     85     -10.6408      2.00000
     86     -10.6176      2.00000
     87     -10.6168      2.00000
     88     -10.6021      2.00000
     89     -10.5314      2.00000
     90     -10.5089      2.00000
     91     -10.5067      2.00000
     92     -10.4290      2.00000
     93     -10.4288      2.00000
     94     -10.4217      2.00000
     95     -10.4211      2.00000
     96     -10.4176      2.00000
     97     -10.3212      2.00000
     98     -10.3193      2.00000
     99     -10.3131      2.00000
    100     -10.3119      2.00000
    101     -10.2831      2.00000
    102     -10.2091      2.00000
    103     -10.2083      2.00000
    104     -10.1981      2.00000
    105     -10.1967      2.00000
    106     -10.1864      2.00000
    107     -10.1205      2.00000
    108     -10.1185      2.00000
    109      -4.0120      2.00000
    110      -3.8876      2.00000
    111      -3.8819      2.00000
    112      -3.6642      2.00000
    113      -3.6639      2.00000
    114      -3.6261      2.00000
    115      -3.5128      2.00000
    116      -3.5125      2.00000
    117      -3.4985      2.00000
    118      -3.4976      2.00000
    119      -3.4007      2.00000
    120      -3.3996      2.00000
    121      -3.3491      2.00000
    122      -3.3480      2.00000
    123      -3.2758      2.00000
    124      -3.2757      2.00000
    125      -3.2487      2.00000
    126      -3.2018      2.00000
    127      -3.2007      2.00000
    128      -3.0433      2.00000
    129      -3.0319      2.00000
    130      -3.0015      2.00000
    131      -3.0002      2.00000
    132      -2.9680      2.00000
    133      -2.9679      2.00000
    134      -2.8695      2.00000
    135      -2.8649      2.00000
    136      -2.8641      2.00000
    137      -2.3604      2.00000
    138      -2.1887      2.00000
    139      -2.1885      2.00000
    140      -2.1878      2.00000
    141      -2.1863      2.00000
    142      -2.1572      2.00000
    143      -2.1566      2.00000
    144      -2.1221      2.00000
    145      -2.0709      2.00000
    146      -2.0707      2.00000
    147      -1.9589      2.00000
    148      -1.9579      2.00000
    149      -1.9330      2.00000
    150      -1.9321      2.00000
    151      -1.9181      2.00000
    152      -1.9173      2.00000
    153      -1.8486      2.00000
    154      -1.7886      2.00000
    155      -1.7872      2.00000
    156      -1.7751      2.00000
    157      -1.5512      2.00000
    158      -1.4918      2.00000
    159      -1.4911      2.00000
    160      -1.4505      2.00000
    161      -1.4496      2.00000
    162      -1.4187      2.00000
    163      -1.4099      2.00000
    164      -1.4051      2.00000
    165      -1.4046      2.00000
    166      -1.3337      2.00000
    167      -1.3253      2.00000
    168      -1.2916      2.00000
    169      -1.2906      2.00000
    170      -1.2308      2.00000
    171      -1.2298      2.00000
    172      -1.1557      2.00000
    173      -1.1547      2.00000
    174      -1.1486      2.00000
    175      -1.1117      2.00000
    176      -1.0158      2.00000
    177      -1.0150      2.00000
    178      -0.8062      2.00000
    179      -0.8044      2.00000
    180      -0.6253      2.00000
    181      -0.5971      2.00000
    182      -0.5489      2.00000
    183      -0.5046      2.00000
    184      -0.4180      2.00000
    185      -0.3344      2.00000
    186      -0.3336      2.00000
    187      -0.3262      2.00000
    188      -0.2487      2.00000
    189      -0.2083      2.00000
    190      -0.2081      2.00000
    191      -0.2053      2.00000
    192      -0.1693      2.00000
    193      -0.1675      2.00000
    194      -0.1572      2.00000
    195      -0.1167      2.00000
    196      -0.1133      2.00000
    197      -0.0758      2.00000
    198      -0.0329      2.00000
    199      -0.0328      2.00000
    200       0.0871      2.00000
    201       0.0873      2.00000
    202       0.1168      2.00000
    203       0.1181      2.00000
    204       0.1561      2.00000
    205       0.2909      2.00000
    206       0.2919      2.00000
    207       0.4578      2.00000
    208       0.5289      2.00000
    209       0.6203      2.00000
    210       0.6206      2.00000
    211       0.6865      2.00000
    212       0.8367      2.00000
    213       0.8482      2.00000
    214       0.8499      2.00000
    215       0.9250      2.00000
    216       0.9791      2.00000
    217       0.9792      2.00000
    218       1.0330      2.00000
    219       1.0594      2.00000
    220       1.0603      2.00000
    221       1.0972      2.00000
    222       1.1628      2.00000
    223       1.1628      2.00000
    224       1.2167      2.00000
    225       1.2503      2.00000
    226       1.2515      2.00000
    227       1.3336      2.00000
    228       1.3671      2.00000
    229       1.3671      2.00000
    230       1.4573      2.00000
    231       1.4580      2.00000
    232       1.5219      2.00000
    233       1.5784      2.00000
    234       2.0058      2.00000
    235       3.6343      0.00000
    236       3.6347      0.00000
    237       3.8295      0.00000
    238       3.8299      0.00000
    239       3.9028      0.00000
    240       3.9037      0.00000
    241       3.9251      0.00000
    242       3.9295      0.00000
    243       3.9298      0.00000
    244       3.9675      0.00000
    245       3.9682      0.00000
    246       3.9743      0.00000
    247       4.0552      0.00000
    248       4.1382      0.00000
    249       4.1394      0.00000
    250       4.2256      0.00000
    251       4.2311      0.00000
    252       4.2322      0.00000
    253       4.2363      0.00000
    254       4.2418      0.00000
    255       4.3060      0.00000
    256       4.3150      0.00000
    257       4.3155      0.00000
    258       4.3742      0.00000
    259       4.3899      0.00000
    260       4.3906      0.00000
    261       4.3907      0.00000
    262       4.4387      0.00000
    263       4.4441      0.00000
    264       4.4581      0.00000
    265       4.4980      0.00000
    266       4.4991      0.00000
    267       4.5154      0.00000
    268       4.5160      0.00000
    269       4.5902      0.00000
    270       4.5994      0.00000
    271       4.6162      0.00000
    272       4.6556      0.00000
    273       4.6558      0.00000
    274       4.7785      0.00000
    275       4.8508      0.00000
    276       4.8521      0.00000
    277       4.8583      0.00000
    278       4.8584      0.00000
    279       4.9091      0.00000
    280       5.0262      0.00000
    281       5.0343      0.00000
    282       5.0347      0.00000
    283       5.1270      0.00000
    284       5.1282      0.00000
    285       5.2250      0.00000
    286       5.2358      0.00000

 k-point     8 :       0.4000    0.2000    0.0000
  band No.  band energies     occupation 
      1     -59.0850      2.00000
      2     -59.0726      2.00000
      3     -59.0726      2.00000
      4     -59.0603      2.00000
      5     -59.0603      2.00000
      6     -59.0546      2.00000
      7     -59.0545      2.00000
      8     -59.0517      2.00000
      9     -59.0506      2.00000
     10     -59.0132      2.00000
     11     -59.0010      2.00000
     12     -59.0005      2.00000
     13     -58.9887      2.00000
     14     -58.9882      2.00000
     15     -58.9830      2.00000
     16     -58.9825      2.00000
     17     -58.9799      2.00000
     18     -58.9788      2.00000
     19     -33.3750      2.00000
     20     -33.3750      2.00000
     21     -33.3530      2.00000
     22     -33.3303      2.00000
     23     -33.3047      2.00000
     24     -33.3047      2.00000
     25     -33.3030      2.00000
     26     -33.3027      2.00000
     27     -33.2808      2.00000
     28     -33.2581      2.00000
     29     -33.2328      2.00000
     30     -33.2323      2.00000
     31     -33.2175      2.00000
     32     -33.2041      2.00000
     33     -33.2020      2.00000
     34     -33.2020      2.00000
     35     -33.1944      2.00000
     36     -33.1924      2.00000
     37     -33.1924      2.00000
     38     -33.1676      2.00000
     39     -33.1676      2.00000
     40     -33.1561      2.00000
     41     -33.1561      2.00000
     42     -33.1504      2.00000
     43     -33.1482      2.00000
     44     -33.1459      2.00000
     45     -33.1320      2.00000
     46     -33.1300      2.00000
     47     -33.1296      2.00000
     48     -33.1249      2.00000
     49     -33.1249      2.00000
     50     -33.1229      2.00000
     51     -33.1229      2.00000
     52     -33.1223      2.00000
     53     -33.1210      2.00000
     54     -33.1207      2.00000
     55     -33.0963      2.00000
     56     -33.0959      2.00000
     57     -33.0847      2.00000
     58     -33.0844      2.00000
     59     -33.0793      2.00000
     60     -33.0788      2.00000
     61     -33.0766      2.00000
     62     -33.0765      2.00000
     63     -33.0765      2.00000
     64     -33.0530      2.00000
     65     -33.0528      2.00000
     66     -33.0509      2.00000
     67     -33.0505      2.00000
     68     -33.0443      2.00000
     69     -33.0072      2.00000
     70     -33.0046      2.00000
     71     -33.0042      2.00000
     72     -32.9722      2.00000
     73     -12.1976      2.00000
     74     -11.9958      2.00000
     75     -11.6239      2.00000
     76     -11.6232      2.00000
     77     -11.4342      2.00000
     78     -11.4321      2.00000
     79     -11.0066      2.00000
     80     -10.9615      2.00000
     81     -10.9609      2.00000
     82     -10.8014      2.00000
     83     -10.7993      2.00000
     84     -10.7506      2.00000
     85     -10.7501      2.00000
     86     -10.7295      2.00000
     87     -10.5902      2.00000
     88     -10.5898      2.00000
     89     -10.5256      2.00000
     90     -10.5253      2.00000
     91     -10.4673      2.00000
     92     -10.4653      2.00000
     93     -10.4539      2.00000
     94     -10.4530      2.00000
     95     -10.4239      2.00000
     96     -10.3355      2.00000
     97     -10.3139      2.00000
     98     -10.3020      2.00000
     99     -10.3013      2.00000
    100     -10.2983      2.00000
    101     -10.2973      2.00000
    102     -10.2440      2.00000
    103     -10.2005      2.00000
    104     -10.1967      2.00000
    105     -10.1951      2.00000
    106     -10.1703      2.00000
    107     -10.1108      2.00000
    108     -10.0912      2.00000
    109      -3.9450      2.00000
    110      -3.8871      2.00000
    111      -3.8867      2.00000
    112      -3.7524      2.00000
    113      -3.7511      2.00000
    114      -3.5202      2.00000
    115      -3.4984      2.00000
    116      -3.4980      2.00000
    117      -3.4943      2.00000
    118      -3.4929      2.00000
    119      -3.4001      2.00000
    120      -3.3925      2.00000
    121      -3.3703      2.00000
    122      -3.3085      2.00000
    123      -3.3052      2.00000
    124      -3.3016      2.00000
    125      -3.2547      2.00000
    126      -3.2534      2.00000
    127      -3.2525      2.00000
    128      -3.1638      2.00000
    129      -3.0039      2.00000
    130      -3.0037      2.00000
    131      -2.9662      2.00000
    132      -2.9640      2.00000
    133      -2.8488      2.00000
    134      -2.8471      2.00000
    135      -2.5598      2.00000
    136      -2.5593      2.00000
    137      -2.4529      2.00000
    138      -2.4513      2.00000
    139      -2.3052      2.00000
    140      -2.3047      2.00000
    141      -2.2556      2.00000
    142      -2.0941      2.00000
    143      -2.0937      2.00000
    144      -2.0666      2.00000
    145      -2.0650      2.00000
    146      -2.0501      2.00000
    147      -2.0499      2.00000
    148      -2.0173      2.00000
    149      -1.9739      2.00000
    150      -1.9732      2.00000
    151      -1.9413      2.00000
    152      -1.9008      2.00000
    153      -1.9000      2.00000
    154      -1.8819      2.00000
    155      -1.7493      2.00000
    156      -1.7486      2.00000
    157      -1.5046      2.00000
    158      -1.5038      2.00000
    159      -1.4487      2.00000
    160      -1.4289      2.00000
    161      -1.4280      2.00000
    162      -1.4064      2.00000
    163      -1.4063      2.00000
    164      -1.3610      2.00000
    165      -1.3562      2.00000
    166      -1.3162      2.00000
    167      -1.3142      2.00000
    168      -1.2932      2.00000
    169      -1.2731      2.00000
    170      -1.2498      2.00000
    171      -1.2484      2.00000
    172      -1.2234      2.00000
    173      -1.2178      2.00000
    174      -1.1519      2.00000
    175      -1.0433      2.00000
    176      -0.9848      2.00000
    177      -0.8799      2.00000
    178      -0.8795      2.00000
    179      -0.8135      2.00000
    180      -0.7864      2.00000
    181      -0.7854      2.00000
    182      -0.6905      2.00000
    183      -0.6155      2.00000
    184      -0.4246      2.00000
    185      -0.2885      2.00000
    186      -0.2881      2.00000
    187      -0.1831      2.00000
    188      -0.1830      2.00000
    189      -0.1760      2.00000
    190      -0.1736      2.00000
    191      -0.1450      2.00000
    192      -0.1250      2.00000
    193      -0.1245      2.00000
    194      -0.1219      2.00000
    195      -0.0989      2.00000
    196      -0.0981      2.00000
    197      -0.0434      2.00000
    198      -0.0204      2.00000
    199      -0.0060      2.00000
    200       0.1292      2.00000
    201       0.1925      2.00000
    202       0.1937      2.00000
    203       0.3149      2.00000
    204       0.3153      2.00000
    205       0.3633      2.00000
    206       0.3638      2.00000
    207       0.4643      2.00000
    208       0.4654      2.00000
    209       0.5254      2.00000
    210       0.5262      2.00000
    211       0.5558      2.00000
    212       0.5577      2.00000
    213       0.5598      2.00000
    214       0.8917      2.00000
    215       0.8941      2.00000
    216       0.9827      2.00000
    217       0.9827      2.00000
    218       1.0450      2.00000
    219       1.0710      2.00000
    220       1.0725      2.00000
    221       1.1423      2.00000
    222       1.1429      2.00000
    223       1.1532      2.00000
    224       1.1535      2.00000
    225       1.2531      2.00000
    226       1.2546      2.00000
    227       1.2550      2.00000
    228       1.2565      2.00000
    229       1.3692      2.00000
    230       1.4553      2.00000
    231       1.4957      2.00000
    232       1.5938      2.00000
    233       1.6169      2.00000
    234       2.1204      2.00000
    235       3.7202      0.00000
    236       3.7207      0.00000
    237       3.7590      0.00000
    238       3.7705      0.00000
    239       3.7895      0.00000
    240       3.7898      0.00000
    241       3.8312      0.00000
    242       3.9302      0.00000
    243       3.9812      0.00000
    244       3.9814      0.00000
    245       4.0501      0.00000
    246       4.0513      0.00000
    247       4.0527      0.00000
    248       4.0548      0.00000
    249       4.0614      0.00000
    250       4.0619      0.00000
    251       4.2246      0.00000
    252       4.2257      0.00000
    253       4.2884      0.00000
    254       4.2890      0.00000
    255       4.2933      0.00000
    256       4.2945      0.00000
    257       4.2984      0.00000
    258       4.3436      0.00000
    259       4.3800      0.00000
    260       4.3812      0.00000
    261       4.3817      0.00000
    262       4.3883      0.00000
    263       4.3886      0.00000
    264       4.4757      0.00000
    265       4.4765      0.00000
    266       4.5338      0.00000
    267       4.5610      0.00000
    268       4.5624      0.00000
    269       4.5658      0.00000
    270       4.6610      0.00000
    271       4.6758      0.00000
    272       4.8006      0.00000
    273       4.8009      0.00000
    274       4.8279      0.00000
    275       4.8286      0.00000
    276       4.8377      0.00000
    277       4.8512      0.00000
    278       4.8612      0.00000
    279       4.9276      0.00000
    280       4.9547      0.00000
    281       5.0131      0.00000
    282       5.0851      0.00000
    283       5.1014      0.00000
    284       5.1024      0.00000
    285       5.1369      0.00000
    286       5.3005      0.00000

 k-point     9 :       0.2000    0.4000    0.0000
  band No.  band energies     occupation 
      1     -59.0850      2.00000
      2     -59.0726      2.00000
      3     -59.0726      2.00000
      4     -59.0603      2.00000
      5     -59.0603      2.00000
      6     -59.0546      2.00000
      7     -59.0545      2.00000
      8     -59.0517      2.00000
      9     -59.0506      2.00000
     10     -59.0132      2.00000
     11     -59.0010      2.00000
     12     -59.0005      2.00000
     13     -58.9887      2.00000
     14     -58.9882      2.00000
     15     -58.9830      2.00000
     16     -58.9825      2.00000
     17     -58.9799      2.00000
     18     -58.9788      2.00000
     19     -33.3750      2.00000
     20     -33.3750      2.00000
     21     -33.3530      2.00000
     22     -33.3303      2.00000
     23     -33.3047      2.00000
     24     -33.3047      2.00000
     25     -33.3030      2.00000
     26     -33.3027      2.00000
     27     -33.2808      2.00000
     28     -33.2582      2.00000
     29     -33.2328      2.00000
     30     -33.2323      2.00000
     31     -33.2175      2.00000
     32     -33.2041      2.00000
     33     -33.2020      2.00000
     34     -33.2020      2.00000
     35     -33.1944      2.00000
     36     -33.1924      2.00000
     37     -33.1924      2.00000
     38     -33.1676      2.00000
     39     -33.1676      2.00000
     40     -33.1561      2.00000
     41     -33.1561      2.00000
     42     -33.1504      2.00000
     43     -33.1482      2.00000
     44     -33.1459      2.00000
     45     -33.1319      2.00000
     46     -33.1300      2.00000
     47     -33.1297      2.00000
     48     -33.1249      2.00000
     49     -33.1249      2.00000
     50     -33.1229      2.00000
     51     -33.1229      2.00000
     52     -33.1223      2.00000
     53     -33.1211      2.00000
     54     -33.1207      2.00000
     55     -33.0963      2.00000
     56     -33.0958      2.00000
     57     -33.0848      2.00000
     58     -33.0843      2.00000
     59     -33.0793      2.00000
     60     -33.0788      2.00000
     61     -33.0766      2.00000
     62     -33.0765      2.00000
     63     -33.0765      2.00000
     64     -33.0530      2.00000
     65     -33.0528      2.00000
     66     -33.0508      2.00000
     67     -33.0505      2.00000
     68     -33.0443      2.00000
     69     -33.0072      2.00000
     70     -33.0046      2.00000
     71     -33.0043      2.00000
     72     -32.9722      2.00000
     73     -12.1975      2.00000
     74     -11.9958      2.00000
     75     -11.6239      2.00000
     76     -11.6232      2.00000
     77     -11.4342      2.00000
     78     -11.4320      2.00000
     79     -11.0066      2.00000
     80     -10.9615      2.00000
     81     -10.9609      2.00000
     82     -10.8014      2.00000
     83     -10.7994      2.00000
     84     -10.7506      2.00000
     85     -10.7500      2.00000
     86     -10.7296      2.00000
     87     -10.5902      2.00000
     88     -10.5898      2.00000
     89     -10.5257      2.00000
     90     -10.5252      2.00000
     91     -10.4674      2.00000
     92     -10.4652      2.00000
     93     -10.4540      2.00000
     94     -10.4529      2.00000
     95     -10.4239      2.00000
     96     -10.3355      2.00000
     97     -10.3138      2.00000
     98     -10.3020      2.00000
     99     -10.3013      2.00000
    100     -10.2983      2.00000
    101     -10.2970      2.00000
    102     -10.2441      2.00000
    103     -10.2004      2.00000
    104     -10.1967      2.00000
    105     -10.1954      2.00000
    106     -10.1703      2.00000
    107     -10.1109      2.00000
    108     -10.0911      2.00000
    109      -3.9450      2.00000
    110      -3.8871      2.00000
    111      -3.8867      2.00000
    112      -3.7526      2.00000
    113      -3.7509      2.00000
    114      -3.5202      2.00000
    115      -3.4985      2.00000
    116      -3.4979      2.00000
    117      -3.4943      2.00000
    118      -3.4929      2.00000
    119      -3.4001      2.00000
    120      -3.3925      2.00000
    121      -3.3702      2.00000
    122      -3.3085      2.00000
    123      -3.3053      2.00000
    124      -3.3016      2.00000
    125      -3.2546      2.00000
    126      -3.2536      2.00000
    127      -3.2524      2.00000
    128      -3.1638      2.00000
    129      -3.0039      2.00000
    130      -3.0037      2.00000
    131      -2.9662      2.00000
    132      -2.9639      2.00000
    133      -2.8486      2.00000
    134      -2.8468      2.00000
    135      -2.5598      2.00000
    136      -2.5592      2.00000
    137      -2.4530      2.00000
    138      -2.4514      2.00000
    139      -2.3052      2.00000
    140      -2.3046      2.00000
    141      -2.2556      2.00000
    142      -2.0941      2.00000
    143      -2.0937      2.00000
    144      -2.0669      2.00000
    145      -2.0646      2.00000
    146      -2.0501      2.00000
    147      -2.0499      2.00000
    148      -2.0174      2.00000
    149      -1.9738      2.00000
    150      -1.9734      2.00000
    151      -1.9415      2.00000
    152      -1.9010      2.00000
    153      -1.9000      2.00000
    154      -1.8818      2.00000
    155      -1.7492      2.00000
    156      -1.7488      2.00000
    157      -1.5046      2.00000
    158      -1.5039      2.00000
    159      -1.4487      2.00000
    160      -1.4289      2.00000
    161      -1.4283      2.00000
    162      -1.4064      2.00000
    163      -1.4063      2.00000
    164      -1.3610      2.00000
    165      -1.3561      2.00000
    166      -1.3162      2.00000
    167      -1.3141      2.00000
    168      -1.2932      2.00000
    169      -1.2729      2.00000
    170      -1.2498      2.00000
    171      -1.2486      2.00000
    172      -1.2236      2.00000
    173      -1.2176      2.00000
    174      -1.1521      2.00000
    175      -1.0433      2.00000
    176      -0.9850      2.00000
    177      -0.8799      2.00000
    178      -0.8795      2.00000
    179      -0.8134      2.00000
    180      -0.7865      2.00000
    181      -0.7847      2.00000
    182      -0.6905      2.00000
    183      -0.6157      2.00000
    184      -0.4249      2.00000
    185      -0.2885      2.00000
    186      -0.2881      2.00000
    187      -0.1831      2.00000
    188      -0.1830      2.00000
    189      -0.1761      2.00000
    190      -0.1732      2.00000
    191      -0.1450      2.00000
    192      -0.1251      2.00000
    193      -0.1246      2.00000
    194      -0.1219      2.00000
    195      -0.0989      2.00000
    196      -0.0982      2.00000
    197      -0.0426      2.00000
    198      -0.0204      2.00000
    199      -0.0057      2.00000
    200       0.1292      2.00000
    201       0.1924      2.00000
    202       0.1936      2.00000
    203       0.3150      2.00000
    204       0.3153      2.00000
    205       0.3632      2.00000
    206       0.3638      2.00000
    207       0.4643      2.00000
    208       0.4655      2.00000
    209       0.5253      2.00000
    210       0.5263      2.00000
    211       0.5557      2.00000
    212       0.5578      2.00000
    213       0.5597      2.00000
    214       0.8915      2.00000
    215       0.8941      2.00000
    216       0.9827      2.00000
    217       0.9827      2.00000
    218       1.0450      2.00000
    219       1.0711      2.00000
    220       1.0727      2.00000
    221       1.1422      2.00000
    222       1.1429      2.00000
    223       1.1532      2.00000
    224       1.1534      2.00000
    225       1.2530      2.00000
    226       1.2546      2.00000
    227       1.2551      2.00000
    228       1.2561      2.00000
    229       1.3692      2.00000
    230       1.4553      2.00000
    231       1.4957      2.00000
    232       1.5939      2.00000
    233       1.6169      2.00000
    234       2.1204      2.00000
    235       3.7203      0.00000
    236       3.7206      0.00000
    237       3.7590      0.00000
    238       3.7705      0.00000
    239       3.7894      0.00000
    240       3.7898      0.00000
    241       3.8313      0.00000
    242       3.9301      0.00000
    243       3.9812      0.00000
    244       3.9814      0.00000
    245       4.0503      0.00000
    246       4.0512      0.00000
    247       4.0526      0.00000
    248       4.0548      0.00000
    249       4.0614      0.00000
    250       4.0618      0.00000
    251       4.2246      0.00000
    252       4.2257      0.00000
    253       4.2885      0.00000
    254       4.2890      0.00000
    255       4.2935      0.00000
    256       4.2945      0.00000
    257       4.2983      0.00000
    258       4.3435      0.00000
    259       4.3798      0.00000
    260       4.3817      0.00000
    261       4.3820      0.00000
    262       4.3883      0.00000
    263       4.3885      0.00000
    264       4.4757      0.00000
    265       4.4765      0.00000
    266       4.5340      0.00000
    267       4.5610      0.00000
    268       4.5623      0.00000
    269       4.5658      0.00000
    270       4.6610      0.00000
    271       4.6757      0.00000
    272       4.8004      0.00000
    273       4.8010      0.00000
    274       4.8283      0.00000
    275       4.8286      0.00000
    276       4.8377      0.00000
    277       4.8511      0.00000
    278       4.8610      0.00000
    279       4.9273      0.00000
    280       4.9540      0.00000
    281       5.0133      0.00000
    282       5.0851      0.00000
    283       5.1017      0.00000
    284       5.1023      0.00000
    285       5.1368      0.00000
    286       5.3004      0.00000

 k-point    10 :      -0.2000    0.2000    0.0000
  band No.  band energies     occupation 
      1     -59.0850      2.00000
      2     -59.0726      2.00000
      3     -59.0726      2.00000
      4     -59.0603      2.00000
      5     -59.0603      2.00000
      6     -59.0546      2.00000
      7     -59.0545      2.00000
      8     -59.0517      2.00000
      9     -59.0506      2.00000
     10     -59.0132      2.00000
     11     -59.0010      2.00000
     12     -59.0005      2.00000
     13     -58.9887      2.00000
     14     -58.9882      2.00000
     15     -58.9831      2.00000
     16     -58.9825      2.00000
     17     -58.9798      2.00000
     18     -58.9788      2.00000
     19     -33.3750      2.00000
     20     -33.3750      2.00000
     21     -33.3530      2.00000
     22     -33.3303      2.00000
     23     -33.3047      2.00000
     24     -33.3047      2.00000
     25     -33.3030      2.00000
     26     -33.3026      2.00000
     27     -33.2808      2.00000
     28     -33.2581      2.00000
     29     -33.2328      2.00000
     30     -33.2323      2.00000
     31     -33.2175      2.00000
     32     -33.2041      2.00000
     33     -33.2020      2.00000
     34     -33.2020      2.00000
     35     -33.1944      2.00000
     36     -33.1924      2.00000
     37     -33.1924      2.00000
     38     -33.1676      2.00000
     39     -33.1676      2.00000
     40     -33.1561      2.00000
     41     -33.1561      2.00000
     42     -33.1504      2.00000
     43     -33.1482      2.00000
     44     -33.1459      2.00000
     45     -33.1320      2.00000
     46     -33.1300      2.00000
     47     -33.1296      2.00000
     48     -33.1249      2.00000
     49     -33.1249      2.00000
     50     -33.1229      2.00000
     51     -33.1229      2.00000
     52     -33.1222      2.00000
     53     -33.1210      2.00000
     54     -33.1208      2.00000
     55     -33.0962      2.00000
     56     -33.0959      2.00000
     57     -33.0847      2.00000
     58     -33.0844      2.00000
     59     -33.0793      2.00000
     60     -33.0788      2.00000
     61     -33.0766      2.00000
     62     -33.0765      2.00000
     63     -33.0765      2.00000
     64     -33.0530      2.00000
     65     -33.0527      2.00000
     66     -33.0509      2.00000
     67     -33.0505      2.00000
     68     -33.0443      2.00000
     69     -33.0071      2.00000
     70     -33.0046      2.00000
     71     -33.0042      2.00000
     72     -32.9722      2.00000
     73     -12.1976      2.00000
     74     -11.9958      2.00000
     75     -11.6239      2.00000
     76     -11.6232      2.00000
     77     -11.4342      2.00000
     78     -11.4320      2.00000
     79     -11.0066      2.00000
     80     -10.9615      2.00000
     81     -10.9609      2.00000
     82     -10.8014      2.00000
     83     -10.7992      2.00000
     84     -10.7506      2.00000
     85     -10.7500      2.00000
     86     -10.7295      2.00000
     87     -10.5902      2.00000
     88     -10.5899      2.00000
     89     -10.5257      2.00000
     90     -10.5252      2.00000
     91     -10.4673      2.00000
     92     -10.4654      2.00000
     93     -10.4540      2.00000
     94     -10.4531      2.00000
     95     -10.4239      2.00000
     96     -10.3355      2.00000
     97     -10.3139      2.00000
     98     -10.3020      2.00000
     99     -10.3012      2.00000
    100     -10.2983      2.00000
    101     -10.2975      2.00000
    102     -10.2439      2.00000
    103     -10.2005      2.00000
    104     -10.1967      2.00000
    105     -10.1949      2.00000
    106     -10.1702      2.00000
    107     -10.1107      2.00000
    108     -10.0914      2.00000
    109      -3.9450      2.00000
    110      -3.8870      2.00000
    111      -3.8867      2.00000
    112      -3.7522      2.00000
    113      -3.7512      2.00000
    114      -3.5202      2.00000
    115      -3.4984      2.00000
    116      -3.4980      2.00000
    117      -3.4943      2.00000
    118      -3.4929      2.00000
    119      -3.4002      2.00000
    120      -3.3925      2.00000
    121      -3.3704      2.00000
    122      -3.3085      2.00000
    123      -3.3051      2.00000
    124      -3.3016      2.00000
    125      -3.2548      2.00000
    126      -3.2533      2.00000
    127      -3.2528      2.00000
    128      -3.1638      2.00000
    129      -3.0039      2.00000
    130      -3.0038      2.00000
    131      -2.9662      2.00000
    132      -2.9640      2.00000
    133      -2.8488      2.00000
    134      -2.8473      2.00000
    135      -2.5598      2.00000
    136      -2.5593      2.00000
    137      -2.4529      2.00000
    138      -2.4510      2.00000
    139      -2.3051      2.00000
    140      -2.3048      2.00000
    141      -2.2555      2.00000
    142      -2.0940      2.00000
    143      -2.0937      2.00000
    144      -2.0664      2.00000
    145      -2.0655      2.00000
    146      -2.0501      2.00000
    147      -2.0499      2.00000
    148      -2.0172      2.00000
    149      -1.9741      2.00000
    150      -1.9731      2.00000
    151      -1.9412      2.00000
    152      -1.9005      2.00000
    153      -1.8999      2.00000
    154      -1.8819      2.00000
    155      -1.7496      2.00000
    156      -1.7482      2.00000
    157      -1.5047      2.00000
    158      -1.5035      2.00000
    159      -1.4487      2.00000
    160      -1.4290      2.00000
    161      -1.4276      2.00000
    162      -1.4064      2.00000
    163      -1.4063      2.00000
    164      -1.3609      2.00000
    165      -1.3562      2.00000
    166      -1.3161      2.00000
    167      -1.3144      2.00000
    168      -1.2932      2.00000
    169      -1.2732      2.00000
    170      -1.2499      2.00000
    171      -1.2482      2.00000
    172      -1.2232      2.00000
    173      -1.2180      2.00000
    174      -1.1518      2.00000
    175      -1.0433      2.00000
    176      -0.9847      2.00000
    177      -0.8799      2.00000
    178      -0.8795      2.00000
    179      -0.8135      2.00000
    180      -0.7866      2.00000
    181      -0.7855      2.00000
    182      -0.6905      2.00000
    183      -0.6153      2.00000
    184      -0.4242      2.00000
    185      -0.2885      2.00000
    186      -0.2881      2.00000
    187      -0.1831      2.00000
    188      -0.1830      2.00000
    189      -0.1759      2.00000
    190      -0.1739      2.00000
    191      -0.1450      2.00000
    192      -0.1250      2.00000
    193      -0.1245      2.00000
    194      -0.1219      2.00000
    195      -0.0989      2.00000
    196      -0.0980      2.00000
    197      -0.0442      2.00000
    198      -0.0205      2.00000
    199      -0.0063      2.00000
    200       0.1293      2.00000
    201       0.1928      2.00000
    202       0.1936      2.00000
    203       0.3149      2.00000
    204       0.3152      2.00000
    205       0.3633      2.00000
    206       0.3638      2.00000
    207       0.4642      2.00000
    208       0.4655      2.00000
    209       0.5254      2.00000
    210       0.5261      2.00000
    211       0.5560      2.00000
    212       0.5575      2.00000
    213       0.5598      2.00000
    214       0.8919      2.00000
    215       0.8940      2.00000
    216       0.9827      2.00000
    217       0.9827      2.00000
    218       1.0451      2.00000
    219       1.0709      2.00000
    220       1.0722      2.00000
    221       1.1424      2.00000
    222       1.1429      2.00000
    223       1.1533      2.00000
    224       1.1535      2.00000
    225       1.2534      2.00000
    226       1.2545      2.00000
    227       1.2549      2.00000
    228       1.2567      2.00000
    229       1.3692      2.00000
    230       1.4554      2.00000
    231       1.4957      2.00000
    232       1.5938      2.00000
    233       1.6170      2.00000
    234       2.1205      2.00000
    235       3.7202      0.00000
    236       3.7207      0.00000
    237       3.7590      0.00000
    238       3.7706      0.00000
    239       3.7895      0.00000
    240       3.7898      0.00000
    241       3.8311      0.00000
    242       3.9303      0.00000
    243       3.9812      0.00000
    244       3.9814      0.00000
    245       4.0500      0.00000
    246       4.0515      0.00000
    247       4.0527      0.00000
    248       4.0548      0.00000
    249       4.0614      0.00000
    250       4.0620      0.00000
    251       4.2245      0.00000
    252       4.2258      0.00000
    253       4.2884      0.00000
    254       4.2890      0.00000
    255       4.2930      0.00000
    256       4.2944      0.00000
    257       4.2984      0.00000
    258       4.3437      0.00000
    259       4.3798      0.00000
    260       4.3810      0.00000
    261       4.3815      0.00000
    262       4.3883      0.00000
    263       4.3887      0.00000
    264       4.4759      0.00000
    265       4.4766      0.00000
    266       4.5336      0.00000
    267       4.5609      0.00000
    268       4.5625      0.00000
    269       4.5659      0.00000
    270       4.6610      0.00000
    271       4.6759      0.00000
    272       4.8006      0.00000
    273       4.8011      0.00000
    274       4.8277      0.00000
    275       4.8284      0.00000
    276       4.8377      0.00000
    277       4.8512      0.00000
    278       4.8614      0.00000
    279       4.9278      0.00000
    280       4.9554      0.00000
    281       5.0129      0.00000
    282       5.0851      0.00000
    283       5.1014      0.00000
    284       5.1023      0.00000
    285       5.1370      0.00000
    286       5.3004      0.00000

 k-point    11 :      -0.4000    0.2000    0.0000
  band No.  band energies     occupation 
      1     -59.0795      2.00000
      2     -59.0795      2.00000
      3     -59.0736      2.00000
      4     -59.0607      2.00000
      5     -59.0555      2.00000
      6     -59.0555      2.00000
      7     -59.0530      2.00000
      8     -59.0523      2.00000
      9     -59.0523      2.00000
     10     -59.0080      2.00000
     11     -59.0075      2.00000
     12     -59.0018      2.00000
     13     -58.9890      2.00000
     14     -58.9839      2.00000
     15     -58.9835      2.00000
     16     -58.9813      2.00000
     17     -58.9806      2.00000
     18     -58.9802      2.00000
     19     -33.3895      2.00000
     20     -33.3722      2.00000
     21     -33.3722      2.00000
     22     -33.3246      2.00000
     23     -33.3246      2.00000
     24     -33.3173      2.00000
     25     -33.3002      2.00000
     26     -33.2999      2.00000
     27     -33.2908      2.00000
     28     -33.2526      2.00000
     29     -33.2522      2.00000
     30     -33.2187      2.00000
     31     -33.2065      2.00000
     32     -33.2065      2.00000
     33     -33.1946      2.00000
     34     -33.1877      2.00000
     35     -33.1686      2.00000
     36     -33.1639      2.00000
     37     -33.1639      2.00000
     38     -33.1580      2.00000
     39     -33.1579      2.00000
     40     -33.1532      2.00000
     41     -33.1532      2.00000
     42     -33.1530      2.00000
     43     -33.1516      2.00000
     44     -33.1516      2.00000
     45     -33.1352      2.00000
     46     -33.1347      2.00000
     47     -33.1334      2.00000
     48     -33.1334      2.00000
     49     -33.1332      2.00000
     50     -33.1268      2.00000
     51     -33.1230      2.00000
     52     -33.1156      2.00000
     53     -33.0971      2.00000
     54     -33.0919      2.00000
     55     -33.0916      2.00000
     56     -33.0867      2.00000
     57     -33.0862      2.00000
     58     -33.0815      2.00000
     59     -33.0812      2.00000
     60     -33.0809      2.00000
     61     -33.0803      2.00000
     62     -33.0798      2.00000
     63     -33.0780      2.00000
     64     -33.0615      2.00000
     65     -33.0611      2.00000
     66     -33.0610      2.00000
     67     -33.0584      2.00000
     68     -33.0584      2.00000
     69     -33.0547      2.00000
     70     -33.0058      2.00000
     71     -32.9864      2.00000
     72     -32.9862      2.00000
     73     -11.9556      2.00000
     74     -11.9548      2.00000
     75     -11.7581      2.00000
     76     -11.7559      2.00000
     77     -11.6753      2.00000
     78     -11.4833      2.00000
     79     -10.9923      2.00000
     80     -10.8985      2.00000
     81     -10.8979      2.00000
     82     -10.8287      2.00000
     83     -10.7728      2.00000
     84     -10.6708      2.00000
     85     -10.6703      2.00000
     86     -10.6427      2.00000
     87     -10.6422      2.00000
     88     -10.5428      2.00000
     89     -10.5329      2.00000
     90     -10.5307      2.00000
     91     -10.4803      2.00000
     92     -10.4646      2.00000
     93     -10.4462      2.00000
     94     -10.4459      2.00000
     95     -10.3734      2.00000
     96     -10.3409      2.00000
     97     -10.3387      2.00000
     98     -10.3179      2.00000
     99     -10.3169      2.00000
    100     -10.3045      2.00000
    101     -10.2581      2.00000
    102     -10.2310      2.00000
    103     -10.2302      2.00000
    104     -10.1967      2.00000
    105     -10.1955      2.00000
    106     -10.1668      2.00000
    107     -10.1425      2.00000
    108     -10.1407      2.00000
    109      -3.9719      2.00000
    110      -3.8496      2.00000
    111      -3.7719      2.00000
    112      -3.7717      2.00000
    113      -3.7113      2.00000
    114      -3.7102      2.00000
    115      -3.6433      2.00000
    116      -3.6420      2.00000
    117      -3.5008      2.00000
    118      -3.4818      2.00000
    119      -3.4814      2.00000
    120      -3.4172      2.00000
    121      -3.2736      2.00000
    122      -3.2730      2.00000
    123      -3.1971      2.00000
    124      -3.1970      2.00000
    125      -3.1410      2.00000
    126      -3.1070      2.00000
    127      -3.0930      2.00000
    128      -3.0926      2.00000
    129      -3.0911      2.00000
    130      -3.0897      2.00000
    131      -2.9580      2.00000
    132      -2.9404      2.00000
    133      -2.9403      2.00000
    134      -2.9384      2.00000
    135      -2.8825      2.00000
    136      -2.8793      2.00000
    137      -2.4618      2.00000
    138      -2.4131      2.00000
    139      -2.3595      2.00000
    140      -2.2991      2.00000
    141      -2.2981      2.00000
    142      -2.1206      2.00000
    143      -2.0592      2.00000
    144      -2.0572      2.00000
    145      -2.0466      2.00000
    146      -2.0243      2.00000
    147      -2.0231      2.00000
    148      -1.9861      2.00000
    149      -1.9220      2.00000
    150      -1.8864      2.00000
    151      -1.8535      2.00000
    152      -1.8532      2.00000
    153      -1.6905      2.00000
    154      -1.6904      2.00000
    155      -1.6187      2.00000
    156      -1.6155      2.00000
    157      -1.6105      2.00000
    158      -1.5981      2.00000
    159      -1.5524      2.00000
    160      -1.5519      2.00000
    161      -1.4333      2.00000
    162      -1.4331      2.00000
    163      -1.4302      2.00000
    164      -1.3574      2.00000
    165      -1.3571      2.00000
    166      -1.3484      2.00000
    167      -1.3099      2.00000
    168      -1.3087      2.00000
    169      -1.2654      2.00000
    170      -1.2577      2.00000
    171      -1.2566      2.00000
    172      -1.2511      2.00000
    173      -1.0311      2.00000
    174      -0.9236      2.00000
    175      -0.8889      2.00000
    176      -0.8869      2.00000
    177      -0.8466      2.00000
    178      -0.8462      2.00000
    179      -0.7119      2.00000
    180      -0.7111      2.00000
    181      -0.5149      2.00000
    182      -0.5148      2.00000
    183      -0.5026      2.00000
    184      -0.4566      2.00000
    185      -0.4566      2.00000
    186      -0.4331      2.00000
    187      -0.4323      2.00000
    188      -0.4019      2.00000
    189      -0.3775      2.00000
    190      -0.3720      2.00000
    191      -0.3268      2.00000
    192      -0.3261      2.00000
    193      -0.2756      2.00000
    194      -0.1933      2.00000
    195      -0.1822      2.00000
    196      -0.1466      2.00000
    197      -0.1457      2.00000
    198      -0.0614      2.00000
    199      -0.0610      2.00000
    200       0.1266      2.00000
    201       0.1282      2.00000
    202       0.1389      2.00000
    203       0.2432      2.00000
    204       0.2433      2.00000
    205       0.3622      2.00000
    206       0.3780      2.00000
    207       0.3799      2.00000
    208       0.5152      2.00000
    209       0.5239      2.00000
    210       0.6363      2.00000
    211       0.6376      2.00000
    212       0.6523      2.00000
    213       0.7231      2.00000
    214       0.9751      2.00000
    215       1.0407      2.00000
    216       1.0677      2.00000
    217       1.0710      2.00000
    218       1.0767      2.00000
    219       1.1295      2.00000
    220       1.1296      2.00000
    221       1.2132      2.00000
    222       1.2253      2.00000
    223       1.2262      2.00000
    224       1.2567      2.00000
    225       1.3135      2.00000
    226       1.3443      2.00000
    227       1.3444      2.00000
    228       1.3618      2.00000
    229       1.4456      2.00000
    230       1.4471      2.00000
    231       1.4478      2.00000
    232       1.4487      2.00000
    233       1.7026      2.00000
    234       1.7034      2.00000
    235       3.6492      0.00000
    236       3.7486      0.00000
    237       3.8154      0.00000
    238       3.8159      0.00000
    239       3.9528      0.00000
    240       3.9528      0.00000
    241       3.9905      0.00000
    242       3.9909      0.00000
    243       4.0033      0.00000
    244       4.0156      0.00000
    245       4.0389      0.00000
    246       4.0392      0.00000
    247       4.0535      0.00000
    248       4.0673      0.00000
    249       4.1937      0.00000
    250       4.1940      0.00000
    251       4.2019      0.00000
    252       4.2029      0.00000
    253       4.2163      0.00000
    254       4.2561      0.00000
    255       4.2676      0.00000
    256       4.2694      0.00000
    257       4.3114      0.00000
    258       4.3329      0.00000
    259       4.3344      0.00000
    260       4.3470      0.00000
    261       4.3545      0.00000
    262       4.4015      0.00000
    263       4.4015      0.00000
    264       4.4358      0.00000
    265       4.4373      0.00000
    266       4.4895      0.00000
    267       4.4898      0.00000
    268       4.5080      0.00000
    269       4.5909      0.00000
    270       4.5912      0.00000
    271       4.6231      0.00000
    272       4.6299      0.00000
    273       4.6330      0.00000
    274       4.6337      0.00000
    275       4.7010      0.00000
    276       4.7319      0.00000
    277       4.7325      0.00000
    278       4.8475      0.00000
    279       4.8479      0.00000
    280       4.9441      0.00000
    281       5.0811      0.00000
    282       5.0826      0.00000
    283       5.2197      0.00000
    284       5.2204      0.00000
    285       5.3205      0.00000
    286       5.3256      0.00000

 k-point    12 :       0.4000   -0.4000    0.0000
  band No.  band energies     occupation 
      1     -59.0795      2.00000
      2     -59.0795      2.00000
      3     -59.0736      2.00000
      4     -59.0607      2.00000
      5     -59.0555      2.00000
      6     -59.0555      2.00000
      7     -59.0530      2.00000
      8     -59.0523      2.00000
      9     -59.0523      2.00000
     10     -59.0080      2.00000
     11     -59.0075      2.00000
     12     -59.0018      2.00000
     13     -58.9890      2.00000
     14     -58.9840      2.00000
     15     -58.9834      2.00000
     16     -58.9813      2.00000
     17     -58.9806      2.00000
     18     -58.9802      2.00000
     19     -33.3895      2.00000
     20     -33.3722      2.00000
     21     -33.3722      2.00000
     22     -33.3246      2.00000
     23     -33.3246      2.00000
     24     -33.3174      2.00000
     25     -33.3003      2.00000
     26     -33.2998      2.00000
     27     -33.2908      2.00000
     28     -33.2526      2.00000
     29     -33.2522      2.00000
     30     -33.2186      2.00000
     31     -33.2065      2.00000
     32     -33.2065      2.00000
     33     -33.1946      2.00000
     34     -33.1877      2.00000
     35     -33.1686      2.00000
     36     -33.1639      2.00000
     37     -33.1639      2.00000
     38     -33.1580      2.00000
     39     -33.1579      2.00000
     40     -33.1532      2.00000
     41     -33.1532      2.00000
     42     -33.1530      2.00000
     43     -33.1516      2.00000
     44     -33.1516      2.00000
     45     -33.1351      2.00000
     46     -33.1348      2.00000
     47     -33.1334      2.00000
     48     -33.1334      2.00000
     49     -33.1332      2.00000
     50     -33.1268      2.00000
     51     -33.1230      2.00000
     52     -33.1155      2.00000
     53     -33.0971      2.00000
     54     -33.0919      2.00000
     55     -33.0916      2.00000
     56     -33.0866      2.00000
     57     -33.0863      2.00000
     58     -33.0815      2.00000
     59     -33.0813      2.00000
     60     -33.0809      2.00000
     61     -33.0802      2.00000
     62     -33.0799      2.00000
     63     -33.0780      2.00000
     64     -33.0616      2.00000
     65     -33.0612      2.00000
     66     -33.0610      2.00000
     67     -33.0584      2.00000
     68     -33.0584      2.00000
     69     -33.0546      2.00000
     70     -33.0059      2.00000
     71     -32.9864      2.00000
     72     -32.9862      2.00000
     73     -11.9556      2.00000
     74     -11.9548      2.00000
     75     -11.7581      2.00000
     76     -11.7559      2.00000
     77     -11.6753      2.00000
     78     -11.4833      2.00000
     79     -10.9923      2.00000
     80     -10.8985      2.00000
     81     -10.8980      2.00000
     82     -10.8288      2.00000
     83     -10.7728      2.00000
     84     -10.6708      2.00000
     85     -10.6703      2.00000
     86     -10.6427      2.00000
     87     -10.6423      2.00000
     88     -10.5428      2.00000
     89     -10.5329      2.00000
     90     -10.5307      2.00000
     91     -10.4802      2.00000
     92     -10.4646      2.00000
     93     -10.4462      2.00000
     94     -10.4460      2.00000
     95     -10.3732      2.00000
     96     -10.3408      2.00000
     97     -10.3389      2.00000
     98     -10.3179      2.00000
     99     -10.3169      2.00000
    100     -10.3043      2.00000
    101     -10.2581      2.00000
    102     -10.2310      2.00000
    103     -10.2302      2.00000
    104     -10.1967      2.00000
    105     -10.1956      2.00000
    106     -10.1672      2.00000
    107     -10.1425      2.00000
    108     -10.1404      2.00000
    109      -3.9720      2.00000
    110      -3.8498      2.00000
    111      -3.7719      2.00000
    112      -3.7717      2.00000
    113      -3.7113      2.00000
    114      -3.7101      2.00000
    115      -3.6428      2.00000
    116      -3.6423      2.00000
    117      -3.5009      2.00000
    118      -3.4818      2.00000
    119      -3.4814      2.00000
    120      -3.4172      2.00000
    121      -3.2736      2.00000
    122      -3.2728      2.00000
    123      -3.1971      2.00000
    124      -3.1969      2.00000
    125      -3.1411      2.00000
    126      -3.1069      2.00000
    127      -3.0932      2.00000
    128      -3.0928      2.00000
    129      -3.0907      2.00000
    130      -3.0899      2.00000
    131      -2.9575      2.00000
    132      -2.9404      2.00000
    133      -2.9403      2.00000
    134      -2.9384      2.00000
    135      -2.8824      2.00000
    136      -2.8788      2.00000
    137      -2.4619      2.00000
    138      -2.4137      2.00000
    139      -2.3594      2.00000
    140      -2.2989      2.00000
    141      -2.2984      2.00000
    142      -2.1202      2.00000
    143      -2.0589      2.00000
    144      -2.0578      2.00000
    145      -2.0468      2.00000
    146      -2.0242      2.00000
    147      -2.0234      2.00000
    148      -1.9861      2.00000
    149      -1.9223      2.00000
    150      -1.8866      2.00000
    151      -1.8535      2.00000
    152      -1.8533      2.00000
    153      -1.6905      2.00000
    154      -1.6904      2.00000
    155      -1.6188      2.00000
    156      -1.6148      2.00000
    157      -1.6102      2.00000
    158      -1.5981      2.00000
    159      -1.5524      2.00000
    160      -1.5521      2.00000
    161      -1.4334      2.00000
    162      -1.4331      2.00000
    163      -1.4302      2.00000
    164      -1.3577      2.00000
    165      -1.3574      2.00000
    166      -1.3478      2.00000
    167      -1.3101      2.00000
    168      -1.3092      2.00000
    169      -1.2650      2.00000
    170      -1.2577      2.00000
    171      -1.2573      2.00000
    172      -1.2511      2.00000
    173      -1.0314      2.00000
    174      -0.9238      2.00000
    175      -0.8887      2.00000
    176      -0.8881      2.00000
    177      -0.8465      2.00000
    178      -0.8462      2.00000
    179      -0.7118      2.00000
    180      -0.7107      2.00000
    181      -0.5149      2.00000
    182      -0.5148      2.00000
    183      -0.5026      2.00000
    184      -0.4567      2.00000
    185      -0.4565      2.00000
    186      -0.4335      2.00000
    187      -0.4306      2.00000
    188      -0.4018      2.00000
    189      -0.3776      2.00000
    190      -0.3718      2.00000
    191      -0.3267      2.00000
    192      -0.3260      2.00000
    193      -0.2756      2.00000
    194      -0.1932      2.00000
    195      -0.1824      2.00000
    196      -0.1465      2.00000
    197      -0.1456      2.00000
    198      -0.0613      2.00000
    199      -0.0612      2.00000
    200       0.1272      2.00000
    201       0.1285      2.00000
    202       0.1383      2.00000
    203       0.2431      2.00000
    204       0.2433      2.00000
    205       0.3623      2.00000
    206       0.3786      2.00000
    207       0.3800      2.00000
    208       0.5153      2.00000
    209       0.5239      2.00000
    210       0.6363      2.00000
    211       0.6375      2.00000
    212       0.6519      2.00000
    213       0.7231      2.00000
    214       0.9751      2.00000
    215       1.0406      2.00000
    216       1.0681      2.00000
    217       1.0707      2.00000
    218       1.0772      2.00000
    219       1.1295      2.00000
    220       1.1296      2.00000
    221       1.2133      2.00000
    222       1.2249      2.00000
    223       1.2264      2.00000
    224       1.2566      2.00000
    225       1.3140      2.00000
    226       1.3443      2.00000
    227       1.3444      2.00000
    228       1.3615      2.00000
    229       1.4458      2.00000
    230       1.4472      2.00000
    231       1.4478      2.00000
    232       1.4483      2.00000
    233       1.7025      2.00000
    234       1.7030      2.00000
    235       3.6491      0.00000
    236       3.7485      0.00000
    237       3.8154      0.00000
    238       3.8160      0.00000
    239       3.9528      0.00000
    240       3.9528      0.00000
    241       3.9904      0.00000
    242       3.9908      0.00000
    243       4.0033      0.00000
    244       4.0153      0.00000
    245       4.0389      0.00000
    246       4.0395      0.00000
    247       4.0535      0.00000
    248       4.0670      0.00000
    249       4.1936      0.00000
    250       4.1943      0.00000
    251       4.2021      0.00000
    252       4.2030      0.00000
    253       4.2165      0.00000
    254       4.2561      0.00000
    255       4.2681      0.00000
    256       4.2695      0.00000
    257       4.3115      0.00000
    258       4.3337      0.00000
    259       4.3344      0.00000
    260       4.3460      0.00000
    261       4.3547      0.00000
    262       4.4014      0.00000
    263       4.4015      0.00000
    264       4.4369      0.00000
    265       4.4374      0.00000
    266       4.4889      0.00000
    267       4.4898      0.00000
    268       4.5080      0.00000
    269       4.5910      0.00000
    270       4.5911      0.00000
    271       4.6229      0.00000
    272       4.6297      0.00000
    273       4.6325      0.00000
    274       4.6335      0.00000
    275       4.7018      0.00000
    276       4.7321      0.00000
    277       4.7323      0.00000
    278       4.8471      0.00000
    279       4.8480      0.00000
    280       4.9447      0.00000
    281       5.0805      0.00000
    282       5.0823      0.00000
    283       5.2196      0.00000
    284       5.2202      0.00000
    285       5.3242      0.00000
    286       5.3346      0.00000

 k-point    13 :      -0.2000    0.4000    0.0000
  band No.  band energies     occupation 
      1     -59.0795      2.00000
      2     -59.0795      2.00000
      3     -59.0736      2.00000
      4     -59.0607      2.00000
      5     -59.0555      2.00000
      6     -59.0555      2.00000
      7     -59.0530      2.00000
      8     -59.0523      2.00000
      9     -59.0523      2.00000
     10     -59.0080      2.00000
     11     -59.0075      2.00000
     12     -59.0018      2.00000
     13     -58.9890      2.00000
     14     -58.9839      2.00000
     15     -58.9834      2.00000
     16     -58.9813      2.00000
     17     -58.9806      2.00000
     18     -58.9802      2.00000
     19     -33.3895      2.00000
     20     -33.3722      2.00000
     21     -33.3722      2.00000
     22     -33.3246      2.00000
     23     -33.3246      2.00000
     24     -33.3173      2.00000
     25     -33.3002      2.00000
     26     -33.2998      2.00000
     27     -33.2908      2.00000
     28     -33.2526      2.00000
     29     -33.2522      2.00000
     30     -33.2187      2.00000
     31     -33.2065      2.00000
     32     -33.2065      2.00000
     33     -33.1946      2.00000
     34     -33.1877      2.00000
     35     -33.1686      2.00000
     36     -33.1639      2.00000
     37     -33.1639      2.00000
     38     -33.1580      2.00000
     39     -33.1579      2.00000
     40     -33.1532      2.00000
     41     -33.1532      2.00000
     42     -33.1530      2.00000
     43     -33.1516      2.00000
     44     -33.1516      2.00000
     45     -33.1351      2.00000
     46     -33.1348      2.00000
     47     -33.1334      2.00000
     48     -33.1334      2.00000
     49     -33.1332      2.00000
     50     -33.1268      2.00000
     51     -33.1230      2.00000
     52     -33.1155      2.00000
     53     -33.0971      2.00000
     54     -33.0919      2.00000
     55     -33.0916      2.00000
     56     -33.0866      2.00000
     57     -33.0862      2.00000
     58     -33.0815      2.00000
     59     -33.0813      2.00000
     60     -33.0809      2.00000
     61     -33.0802      2.00000
     62     -33.0799      2.00000
     63     -33.0780      2.00000
     64     -33.0615      2.00000
     65     -33.0611      2.00000
     66     -33.0610      2.00000
     67     -33.0584      2.00000
     68     -33.0584      2.00000
     69     -33.0547      2.00000
     70     -33.0059      2.00000
     71     -32.9864      2.00000
     72     -32.9862      2.00000
     73     -11.9556      2.00000
     74     -11.9548      2.00000
     75     -11.7581      2.00000
     76     -11.7560      2.00000
     77     -11.6753      2.00000
     78     -11.4833      2.00000
     79     -10.9923      2.00000
     80     -10.8984      2.00000
     81     -10.8980      2.00000
     82     -10.8287      2.00000
     83     -10.7728      2.00000
     84     -10.6708      2.00000
     85     -10.6703      2.00000
     86     -10.6425      2.00000
     87     -10.6424      2.00000
     88     -10.5428      2.00000
     89     -10.5329      2.00000
     90     -10.5307      2.00000
     91     -10.4803      2.00000
     92     -10.4646      2.00000
     93     -10.4462      2.00000
     94     -10.4460      2.00000
     95     -10.3733      2.00000
     96     -10.3409      2.00000
     97     -10.3388      2.00000
     98     -10.3179      2.00000
     99     -10.3169      2.00000
    100     -10.3044      2.00000
    101     -10.2581      2.00000
    102     -10.2310      2.00000
    103     -10.2302      2.00000
    104     -10.1967      2.00000
    105     -10.1956      2.00000
    106     -10.1670      2.00000
    107     -10.1425      2.00000
    108     -10.1405      2.00000
    109      -3.9719      2.00000
    110      -3.8497      2.00000
    111      -3.7719      2.00000
    112      -3.7717      2.00000
    113      -3.7113      2.00000
    114      -3.7102      2.00000
    115      -3.6430      2.00000
    116      -3.6421      2.00000
    117      -3.5009      2.00000
    118      -3.4818      2.00000
    119      -3.4814      2.00000
    120      -3.4172      2.00000
    121      -3.2736      2.00000
    122      -3.2729      2.00000
    123      -3.1971      2.00000
    124      -3.1970      2.00000
    125      -3.1410      2.00000
    126      -3.1070      2.00000
    127      -3.0931      2.00000
    128      -3.0928      2.00000
    129      -3.0911      2.00000
    130      -3.0897      2.00000
    131      -2.9577      2.00000
    132      -2.9404      2.00000
    133      -2.9403      2.00000
    134      -2.9384      2.00000
    135      -2.8824      2.00000
    136      -2.8790      2.00000
    137      -2.4619      2.00000
    138      -2.4134      2.00000
    139      -2.3594      2.00000
    140      -2.2990      2.00000
    141      -2.2983      2.00000
    142      -2.1204      2.00000
    143      -2.0591      2.00000
    144      -2.0575      2.00000
    145      -2.0467      2.00000
    146      -2.0243      2.00000
    147      -2.0232      2.00000
    148      -1.9861      2.00000
    149      -1.9222      2.00000
    150      -1.8865      2.00000
    151      -1.8535      2.00000
    152      -1.8532      2.00000
    153      -1.6905      2.00000
    154      -1.6904      2.00000
    155      -1.6188      2.00000
    156      -1.6152      2.00000
    157      -1.6104      2.00000
    158      -1.5981      2.00000
    159      -1.5523      2.00000
    160      -1.5521      2.00000
    161      -1.4334      2.00000
    162      -1.4331      2.00000
    163      -1.4302      2.00000
    164      -1.3575      2.00000
    165      -1.3573      2.00000
    166      -1.3481      2.00000
    167      -1.3100      2.00000
    168      -1.3090      2.00000
    169      -1.2652      2.00000
    170      -1.2577      2.00000
    171      -1.2570      2.00000
    172      -1.2511      2.00000
    173      -1.0312      2.00000
    174      -0.9237      2.00000
    175      -0.8888      2.00000
    176      -0.8875      2.00000
    177      -0.8466      2.00000
    178      -0.8462      2.00000
    179      -0.7119      2.00000
    180      -0.7109      2.00000
    181      -0.5149      2.00000
    182      -0.5148      2.00000
    183      -0.5026      2.00000
    184      -0.4566      2.00000
    185      -0.4566      2.00000
    186      -0.4333      2.00000
    187      -0.4315      2.00000
    188      -0.4019      2.00000
    189      -0.3776      2.00000
    190      -0.3719      2.00000
    191      -0.3267      2.00000
    192      -0.3260      2.00000
    193      -0.2756      2.00000
    194      -0.1932      2.00000
    195      -0.1823      2.00000
    196      -0.1466      2.00000
    197      -0.1457      2.00000
    198      -0.0614      2.00000
    199      -0.0611      2.00000
    200       0.1268      2.00000
    201       0.1284      2.00000
    202       0.1386      2.00000
    203       0.2432      2.00000
    204       0.2433      2.00000
    205       0.3623      2.00000
    206       0.3783      2.00000
    207       0.3799      2.00000
    208       0.5153      2.00000
    209       0.5239      2.00000
    210       0.6364      2.00000
    211       0.6375      2.00000
    212       0.6521      2.00000
    213       0.7231      2.00000
    214       0.9751      2.00000
    215       1.0407      2.00000
    216       1.0680      2.00000
    217       1.0708      2.00000
    218       1.0770      2.00000
    219       1.1295      2.00000
    220       1.1296      2.00000
    221       1.2133      2.00000
    222       1.2251      2.00000
    223       1.2263      2.00000
    224       1.2567      2.00000
    225       1.3138      2.00000
    226       1.3443      2.00000
    227       1.3444      2.00000
    228       1.3616      2.00000
    229       1.4457      2.00000
    230       1.4472      2.00000
    231       1.4478      2.00000
    232       1.4485      2.00000
    233       1.7026      2.00000
    234       1.7031      2.00000
    235       3.6492      0.00000
    236       3.7485      0.00000
    237       3.8154      0.00000
    238       3.8160      0.00000
    239       3.9528      0.00000
    240       3.9528      0.00000
    241       3.9905      0.00000
    242       3.9908      0.00000
    243       4.0033      0.00000
    244       4.0154      0.00000
    245       4.0389      0.00000
    246       4.0394      0.00000
    247       4.0535      0.00000
    248       4.0671      0.00000
    249       4.1938      0.00000
    250       4.1941      0.00000
    251       4.2021      0.00000
    252       4.2029      0.00000
    253       4.2164      0.00000
    254       4.2561      0.00000
    255       4.2680      0.00000
    256       4.2693      0.00000
    257       4.3114      0.00000
    258       4.3332      0.00000
    259       4.3345      0.00000
    260       4.3465      0.00000
    261       4.3546      0.00000
    262       4.4015      0.00000
    263       4.4015      0.00000
    264       4.4363      0.00000
    265       4.4375      0.00000
    266       4.4891      0.00000
    267       4.4899      0.00000
    268       4.5080      0.00000
    269       4.5909      0.00000
    270       4.5912      0.00000
    271       4.6230      0.00000
    272       4.6298      0.00000
    273       4.6327      0.00000
    274       4.6337      0.00000
    275       4.7014      0.00000
    276       4.7320      0.00000
    277       4.7324      0.00000
    278       4.8473      0.00000
    279       4.8480      0.00000
    280       4.9444      0.00000
    281       5.0808      0.00000
    282       5.0825      0.00000
    283       5.2198      0.00000
    284       5.2208      0.00000
    285       5.3197      0.00000
    286       5.3350      0.00000


--------------------------------------------------------------------------------------------------------


 soft charge-density along one line, spin component           1
         0         1         2         3         4         5         6         7         8         9
 total charge-density along one line
 
 pseudopotential strength for first ion, spin component:           1
 -4.786  12.296   0.000  -0.000   0.000  -0.000   0.001  -0.000
 12.296   3.221  -0.000   0.001  -0.000   0.000  -0.000   0.000
  0.000  -0.000 -19.085   0.000   0.000  10.013  -0.000  -0.000
 -0.000   0.001   0.000 -19.078   0.000  -0.000  10.006  -0.000
  0.000  -0.000   0.000   0.000 -19.085  -0.000  -0.000  10.013
 -0.000   0.000  10.013  -0.000  -0.000   5.129   0.000   0.000
  0.001  -0.000  -0.000  10.006  -0.000   0.000   5.131   0.000
 -0.000   0.000  -0.000  -0.000  10.013   0.000   0.000   5.129
  0.000  -0.000   0.000  -0.000  -0.007  -0.000   0.000   0.003
  0.000  -0.000  -0.001   0.000  -0.000   0.000  -0.000   0.000
  0.006  -0.003  -0.000  -0.001  -0.000   0.000   0.001   0.000
  0.000  -0.000  -0.000   0.000  -0.001   0.000  -0.000   0.000
  0.000  -0.000  -0.007  -0.000   0.000   0.004   0.000  -0.000
  0.000  -0.000   0.000  -0.000  -0.008  -0.000   0.000   0.004
  0.000  -0.000  -0.001   0.000  -0.000   0.000  -0.000   0.000
  0.006  -0.004  -0.000  -0.001  -0.000   0.000   0.001   0.000
  0.000  -0.000  -0.000   0.000  -0.001   0.000  -0.000   0.000
  0.000  -0.000  -0.008  -0.000   0.000   0.004   0.000  -0.000
 total augmentation occupancy for first ion, spin component:           1
  1.995  -0.041  -0.000   0.000  -0.000  -0.000   0.000  -0.000  -0.000  -0.000  -0.009  -0.000  -0.000   0.000   0.000   0.008
 -0.041   1.191   0.000   0.000   0.000  -0.000   0.000  -0.000   0.002  -0.001  -0.018  -0.003   0.002  -0.003   0.001   0.123
 -0.000   0.000   1.998   0.000  -0.000  -0.044   0.000   0.000   0.000   0.000   0.000  -0.000  -0.009  -0.000  -0.000  -0.000
  0.000   0.000   0.000   1.998   0.000   0.000  -0.050   0.000  -0.000   0.000   0.000   0.000  -0.000   0.000  -0.000  -0.000
 -0.000   0.000  -0.000   0.000   1.998   0.000   0.000  -0.044  -0.009  -0.000   0.000   0.000   0.000  -0.002   0.000  -0.000
 -0.000  -0.000  -0.044   0.000   0.000   0.100   0.000  -0.000   0.001  -0.003  -0.000  -0.000  -0.194  -0.001   0.003   0.000
  0.000   0.000   0.000  -0.050   0.000   0.000   0.122   0.000  -0.000   0.000   0.001   0.001  -0.000   0.001  -0.000  -0.000
 -0.000  -0.000   0.000   0.000  -0.044  -0.000   0.000   0.100  -0.193  -0.001  -0.001  -0.004   0.001   0.221   0.001   0.001
 -0.000   0.002   0.000  -0.000  -0.009   0.001  -0.000  -0.193   2.530   0.005   0.003   0.024  -0.004  -2.920  -0.005  -0.004
 -0.000  -0.001   0.000   0.000  -0.000  -0.003   0.000  -0.001   0.005   3.944  -0.002  -0.004   0.019  -0.005  -4.903   0.003
 -0.009  -0.018   0.000   0.000   0.000  -0.000   0.001  -0.001   0.003  -0.002   1.760  -0.002   0.002  -0.004   0.003  -1.850
 -0.000  -0.003  -0.000   0.000   0.000  -0.000   0.001  -0.004   0.024  -0.004  -0.002   3.936   0.006  -0.024   0.005   0.004
 -0.000   0.002  -0.009  -0.000   0.000  -0.194  -0.000   0.001  -0.004   0.019   0.002   0.006   2.533   0.004  -0.017  -0.003
  0.000  -0.003  -0.000   0.000  -0.002  -0.001   0.001   0.221  -2.920  -0.005  -0.004  -0.024   0.004   4.081   0.006   0.005
  0.000   0.001  -0.000  -0.000   0.000   0.003  -0.000   0.001  -0.005  -4.903   0.003   0.005  -0.017   0.006   6.505  -0.004
  0.008   0.123  -0.000  -0.000  -0.000   0.000  -0.000   0.001  -0.004   0.003  -1.850   0.004  -0.003   0.005  -0.004   2.814
  0.000   0.003   0.000  -0.000  -0.000   0.001  -0.001   0.004  -0.023   0.005   0.004  -4.894  -0.008   0.024  -0.006  -0.006
  0.000  -0.002  -0.002   0.000  -0.000   0.222   0.001  -0.001   0.004  -0.017  -0.003  -0.008  -2.923  -0.004   0.017   0.003


------------------------ aborting loop because EDIFF is reached ----------------------------------------


    CHARGE:  cpu time      0.3418: real time      0.3419
    FORLOC:  cpu time      0.0207: real time      0.0208
    FORNL :  cpu time      1.4763: real time      1.4764
    STRESS:  cpu time      4.4215: real time      4.4214
    FORCOR:  cpu time      0.1031: real time      0.1030
    FORHAR:  cpu time      0.0391: real time      0.0391
    MIXING:  cpu time      0.0307: real time      0.0307
    OFIELD:  cpu time      0.0001: real time      0.0001

 ---------------------------------------------------------------------------------------------

         DFTD3 V3.0 Rev 1        
 DF pbe       
 parameters
 k1-k3        =   16.0000    1.3333   -4.0000
 Edisp (eV)  -19.99139

 E6    (eV) :   -11.6634
 E8    (eV) :    -8.3280
 % E8        : 41.66
    FORVDW:  cpu time      0.1713: real time      0.1828

  FORCE on cell =-STRESS in cart. coord.  units (eV):
  Direction    XX          YY          ZZ          XY          YZ          ZX
  --------------------------------------------------------------------------------------
  Alpha Z   964.87982   964.87982   964.87982
  Ewald   77746.41843 77746.42003************     0.60226    -0.00219    -0.43447
  Hartree 88134.53116 88134.53217-83720.57722     0.21944    -0.00058    -0.13041
  E(xc)   -1975.07682 -1975.07682 -1977.18724     0.00123    -0.00000    -0.00097
  Local  ************************178078.34282    -0.80931     0.00265     0.57276
  n-local  2141.39368  2141.39271  2235.60495     0.01819    -0.00011    -0.03288
  augment   -10.18654   -10.18636   -30.32930     0.00025     0.00002     0.00110
  Kinetic  7450.07362  7450.07361  7519.01602    -0.01957     0.00003    -0.03519
  Fock        0.00000     0.00000     0.00000     0.00000     0.00000     0.00000
  vdW       -20.66887   -20.66886   -14.67917    -0.00010     0.00000     0.00010
  -------------------------------------------------------------------------------------
  Total     -20.36780   -20.36887    -1.07695     0.01239    -0.00019    -0.05996
  in kB     -20.54287   -20.54395    -1.08620     0.01250    -0.00019    -0.06048
  external pressure =      -14.06 kB  Pullay stress =        0.00 kB


 VOLUME and BASIS-vectors are now :
 -----------------------------------------------------------------------------
  energy-cutoff  :      520.00
  volume of cell :     1588.52
      direct lattice vectors                 reciprocal lattice vectors
     9.576713736  0.000000000  0.000000000     0.104419953 -0.060286888  0.000000000
     4.788356868  8.293677380  0.000000000     0.000000000  0.120573776  0.000000000
     0.000000000  0.000000000 20.000000000     0.000000000  0.000000000  0.050000000

  length of vectors
     9.576713736  9.576713736 20.000000000     0.120573776  0.120573776  0.050000000


 FORCES acting on ions
    electron-ion (+dipol)            ewald-force                    non-local-force                 convergence-correction
 -----------------------------------------------------------------------------------------------
   -.833E+00 -.282E+00 0.150E+04   0.838E+00 0.288E+00 -.150E+04   0.212E-02 0.230E-02 0.322E-01   0.387E-04 -.517E-04 -.241E-02
   0.111E+01 -.840E+00 0.150E+04   -.113E+01 0.847E+00 -.150E+04   -.259E-01 0.139E-01 0.795E-02   -.513E-04 -.179E-04 -.243E-02
   0.131E+00 -.161E-01 0.150E+04   -.131E+00 0.167E-01 -.150E+04   -.520E-03 -.662E-03 0.440E-01   0.231E-04 0.197E-04 -.241E-02
   -.344E+00 0.112E+01 0.150E+04   0.338E+00 -.114E+01 -.150E+04   -.186E-02 -.162E-01 0.201E-01   0.202E-04 -.260E-04 -.245E-02
   0.238E+00 0.159E+00 0.150E+04   -.241E+00 -.161E+00 -.150E+04   0.158E-02 0.779E-03 0.433E-01   0.171E-04 0.492E-04 -.242E-02
   -.268E-01 -.629E-02 0.150E+04   0.276E-01 0.682E-02 -.150E+04   -.485E-03 0.403E-03 0.428E-01   -.410E-04 0.169E-04 -.243E-02
   0.355E-02 0.736E-01 0.150E+04   -.331E-02 -.738E-01 -.150E+04   -.569E-03 0.288E-04 0.439E-01   0.823E-04 0.378E-05 -.242E-02
   -.374E-01 -.153E+00 0.150E+04   0.391E-01 0.155E+00 -.150E+04   0.218E-03 -.119E-02 0.430E-01   -.347E-04 0.628E-05 -.244E-02
   0.316E-01 -.574E-01 0.150E+04   -.323E-01 0.569E-01 -.150E+04   0.580E-03 0.633E-03 0.442E-01   -.422E-04 0.376E-05 -.241E-02
   -.328E-02 0.137E-04 -.150E+04   0.327E-02 -.235E-10 0.150E+04   0.356E-05 -.112E-05 -.571E-01   0.112E-05 -.117E-04 -.151E-02
   0.795E-02 -.332E-04 -.150E+04   -.792E-02 -.666E-10 0.150E+04   -.460E-04 -.383E-05 -.571E-01   0.294E-04 0.405E-04 -.152E-02
   -.469E-02 -.367E-04 -.150E+04   0.465E-02 -.406E-10 0.150E+04   0.323E-04 0.200E-04 -.571E-01   -.159E-04 0.177E-04 -.150E-02
   0.238E-02 0.684E-02 -.150E+04   -.239E-02 -.682E-02 0.150E+04   -.237E-04 -.470E-04 -.571E-01   0.530E-04 0.421E-04 -.150E-02
   0.148E-02 -.655E-04 -.150E+04   -.151E-02 0.222E-05 0.150E+04   0.123E-04 -.569E-05 -.570E-01   -.156E-05 0.683E-04 -.151E-02
   -.385E-02 0.405E-02 -.150E+04   0.390E-02 -.406E-02 0.150E+04   0.647E-05 -.340E-04 -.571E-01   -.633E-04 0.605E-04 -.153E-02
   -.397E-02 -.403E-02 -.150E+04   0.390E-02 0.406E-02 0.150E+04   0.350E-04 0.400E-04 -.571E-01   0.290E-04 -.968E-04 -.153E-02
   0.245E-02 -.678E-02 -.150E+04   -.239E-02 0.682E-02 0.150E+04   -.179E-04 0.299E-04 -.571E-01   -.330E-04 -.872E-04 -.152E-02
   0.153E-02 0.327E-04 -.150E+04   -.151E-02 -.222E-05 0.150E+04   -.220E-04 0.641E-06 -.571E-01   0.390E-05 -.305E-04 -.152E-02
   -.651E+00 -.141E-02 0.131E+04   0.651E+00 0.140E-02 -.131E+04   0.466E-01 0.159E-03 0.465E+01   -.379E-04 -.279E-04 -.646E-03
   0.158E+00 -.362E-03 0.131E+04   -.159E+00 -.193E-10 -.131E+04   -.145E-02 0.193E-03 0.456E+01   0.227E-04 0.422E-04 -.626E-03
   0.155E+00 -.159E-03 0.131E+04   -.158E+00 -.156E-10 -.131E+04   -.759E-03 -.263E-03 0.456E+01   0.124E-04 -.397E-06 -.594E-03
   -.182E-02 0.932E-01 0.131E+04   0.215E-02 -.934E-01 -.131E+04   -.567E-03 -.479E-03 0.456E+01   0.507E-04 -.310E-05 -.622E-03
   0.294E-01 -.895E-04 0.131E+04   -.295E-01 0.556E-04 -.131E+04   0.306E-03 0.459E-05 0.456E+01   -.150E-04 0.260E-04 -.556E-03
   -.331E-02 -.900E-01 0.131E+04   0.296E-02 0.925E-01 -.131E+04   -.159E-03 -.679E-04 0.456E+01   -.367E-04 0.196E-04 -.620E-03
   -.341E-02 0.907E-01 0.131E+04   0.296E-02 -.925E-01 -.131E+04   -.613E-03 -.112E-03 0.456E+01   0.437E-04 0.272E-07 -.577E-03
   -.931E-03 -.934E-01 0.131E+04   0.215E-02 0.934E-01 -.131E+04   -.886E-03 0.738E-03 0.456E+01   -.338E-04 -.514E-04 -.599E-03
   0.296E-01 0.726E-04 0.131E+04   -.295E-01 -.556E-04 -.131E+04   0.164E-03 -.144E-04 0.456E+01   -.107E-04 -.153E-05 -.612E-03
   -.623E-01 0.345E-04 -.228E+02   0.635E-01 -.806E-11 0.275E+02   0.650E-04 -.233E-05 -.466E+01   -.424E-04 -.311E-04 -.135E-02
   0.885E-01 0.137E-02 -.231E+02   -.897E-01 -.218E-10 0.277E+02   -.114E-02 -.323E-02 -.466E+01   0.248E-04 0.421E-04 -.137E-02
   -.368E-01 0.104E-02 -.231E+02   0.380E-01 -.168E-10 0.278E+02   -.361E-03 -.171E-02 -.466E+01   0.140E-04 -.779E-06 -.140E-02
   0.261E-01 0.711E-01 -.231E+02   -.266E-01 -.733E-01 0.277E+02   -.926E-03 0.125E-02 -.466E+01   0.547E-04 -.148E-05 -.136E-02
   0.119E-01 -.606E-04 -.231E+02   -.119E-01 0.203E-04 0.278E+02   -.501E-04 0.896E-05 -.466E+01   -.163E-04 0.291E-04 -.144E-02
   -.386E-01 0.361E-01 -.231E+02   0.373E-01 -.373E-01 0.278E+02   0.373E-02 0.562E-03 -.466E+01   -.400E-04 0.210E-04 -.138E-02
   -.358E-01 -.357E-01 -.231E+02   0.373E-01 0.373E-01 0.278E+02   -.126E-02 -.855E-03 -.466E+01   0.444E-04 0.125E-05 -.142E-02
   0.248E-01 -.739E-01 -.231E+02   -.266E-01 0.733E-01 0.277E+02   0.263E-02 0.397E-02 -.466E+01   -.334E-04 -.563E-04 -.139E-02
   0.118E-01 0.374E-04 -.231E+02   -.119E-01 -.203E-04 0.278E+02   0.372E-05 -.141E-04 -.466E+01   -.118E-04 -.181E-05 -.139E-02
   0.691E-02 0.591E-02 0.235E+02   -.716E-02 -.612E-02 -.281E+02   0.176E-03 0.112E-03 0.458E+01   0.482E-04 0.859E-04 -.940E-03
   0.381E-02 0.137E-02 0.235E+02   -.385E-02 -.144E-02 -.281E+02   -.151E-04 0.245E-04 0.458E+01   0.414E-04 0.287E-04 -.888E-03
   -.107E-01 0.420E-02 0.235E+02   0.110E-01 -.435E-02 -.281E+02   -.212E-03 0.124E-03 0.458E+01   -.886E-04 0.702E-05 -.946E-03
   0.164E-02 0.135E-02 0.235E+02   -.165E-02 -.127E-02 -.281E+02   -.338E-05 -.359E-04 0.458E+01   -.587E-05 -.369E-04 -.866E-03
   -.770E-03 -.279E-02 0.235E+02   0.851E-03 0.271E-02 -.281E+02   -.293E-04 0.302E-04 0.458E+01   -.425E-04 0.525E-04 -.865E-03
   -.853E-03 0.741E-02 0.235E+02   0.799E-03 -.735E-02 -.281E+02   0.963E-05 -.424E-04 0.458E+01   0.470E-04 -.218E-04 -.893E-03
   -.354E-02 -.101E-01 0.235E+02   0.345E-02 0.105E-01 -.281E+02   0.316E-04 -.235E-03 0.458E+01   0.496E-04 -.104E-03 -.931E-03
   0.820E-02 -.507E-02 0.235E+02   -.808E-02 0.512E-02 -.281E+02   -.646E-04 0.529E-05 0.458E+01   -.589E-04 -.444E-04 -.895E-03
   -.467E-02 -.228E-02 0.235E+02   0.465E-02 0.222E-02 -.281E+02   0.184E-04 0.202E-04 0.458E+01   0.896E-05 0.349E-04 -.904E-03
   0.277E-03 0.297E-03 -.131E+04   -.371E-03 -.442E-03 0.131E+04   0.447E-04 0.485E-04 -.456E+01   0.503E-04 0.924E-04 -.603E-03
   0.414E-03 0.106E-03 -.131E+04   -.479E-03 -.121E-03 0.131E+04   0.171E-04 -.282E-05 -.456E+01   0.438E-04 0.197E-04 -.653E-03
   -.708E-03 0.229E-03 -.131E+04   0.850E-03 -.262E-03 0.131E+04   -.458E-04 0.247E-04 -.456E+01   -.901E-04 0.103E-04 -.596E-03
   0.213E-03 0.243E-03 -.131E+04   -.150E-03 -.189E-03 0.131E+04   -.348E-04 -.105E-04 -.456E+01   -.239E-04 -.399E-04 -.682E-03
   -.299E-04 -.402E-03 -.131E+04   0.598E-04 0.311E-03 0.131E+04   0.414E-05 0.312E-04 -.456E+01   -.332E-04 0.552E-04 -.680E-03
   -.170E-03 0.565E-03 -.131E+04   0.907E-04 -.557E-03 0.131E+04   0.194E-04 0.123E-04 -.456E+01   0.522E-04 -.223E-04 -.647E-03
   -.469E-03 -.543E-03 -.131E+04   0.396E-03 0.704E-03 0.131E+04   0.176E-04 -.586E-04 -.456E+01   0.540E-04 -.100E-03 -.619E-03
   0.729E-03 -.373E-03 -.131E+04   -.680E-03 0.445E-03 0.131E+04   0.357E-05 -.254E-04 -.456E+01   -.528E-04 -.432E-04 -.644E-03
   -.263E-03 -.141E-03 -.131E+04   0.285E-03 0.112E-03 0.131E+04   -.186E-04 -.564E-05 -.456E+01   0.301E-06 0.350E-04 -.641E-03
 -----------------------------------------------------------------------------------------------
   -.212E-01 -.142E-03 0.875E+00   0.776E-13 0.189E-12 0.250E-11   0.204E-01 0.118E-03 -.857E+00   0.440E-05 0.215E-04 -.673E-01
 
 
 POSITION                                       TOTAL-FORCE (eV/Angst)
 -----------------------------------------------------------------------------------
      0.00000      0.00000     10.25937         0.007400      0.008343     -0.027863
      3.19224      0.00000     10.25937        -0.042747      0.020622     -0.052877
      6.38448      0.00000     10.25937        -0.000472     -0.000046     -0.001277
      1.59612      2.76456     10.25937        -0.007039     -0.029066     -0.040472
      4.78836      2.76456     10.25937        -0.000662     -0.001481     -0.002144
      7.98059      2.76456     10.25937         0.000250      0.000955     -0.000752
      3.19224      5.52912     10.25937        -0.000230     -0.000139     -0.001262
      6.38448      5.52912     10.25937         0.001904      0.000526     -0.001449
      9.57671      5.52912     10.25937        -0.000151      0.000186     -0.001290
      1.59612      0.92152     16.24138         0.000012      0.000001     -0.000111
      4.78836      0.92152     16.24138         0.000035      0.000004     -0.000210
      7.98059      0.92152     16.24138        -0.000012      0.000001     -0.000206
      3.19224      3.68608     16.24138         0.000034      0.000016     -0.000207
      6.38448      3.68608     16.24138        -0.000003     -0.000001     -0.000193
      9.57671      3.68608     16.24138         0.000006      0.000020     -0.000210
      4.78836      6.45064     16.24138         0.000006     -0.000027     -0.000204
      7.98059      6.45064     16.24138         0.000027     -0.000015     -0.000213
     11.17283      6.45064     16.24138         0.000018      0.000001     -0.000214
      1.59180      0.92152      8.69624         0.046023      0.000119      0.122053
      4.78836      0.92152      8.70526        -0.001953     -0.000127      0.003834
      7.98059      0.92152      8.70526        -0.003677     -0.000422      0.004670
      3.19224      3.68608      8.70526        -0.000185     -0.000693      0.003928
      6.38448      3.68608      8.70526         0.000262     -0.000003      0.000324
      9.57671      3.68608      8.70526        -0.000552      0.002433      0.004569
      4.78836      6.45064      8.70526        -0.001028     -0.001861      0.004344
      7.98059      6.45064      8.70526         0.000296      0.000666      0.004149
     11.17283      6.45064      8.70526         0.000263      0.000001      0.000337
      1.59612      0.92152     11.80949         0.001230      0.000001     -0.016383
      4.78836      0.92152     11.80949        -0.002241     -0.001815     -0.000705
      7.98059      0.92152     11.80949         0.000911     -0.000673      0.000710
      3.19224      3.68608     11.80949        -0.001332     -0.000880      0.000123
      6.38448      3.68608     11.80949        -0.000067     -0.000002      0.001109
      9.57671      3.68608     11.80949         0.002400     -0.000610     -0.000123
      4.78836      6.45064     11.80949         0.000258      0.000725      0.000837
      7.98059      6.45064     11.80949         0.000833      0.003238     -0.000824
     11.17283      6.45064     11.80949        -0.000062      0.000001      0.001063
      3.19224      1.84304     14.68998        -0.000008     -0.000011     -0.000161
      6.38448      1.84304     14.68998         0.000010     -0.000013     -0.000087
      9.57671      1.84304     14.68998         0.000035     -0.000014     -0.000171
      4.78836      4.60760     14.68998         0.000001      0.000011     -0.000078
      7.98059      4.60760     14.68998         0.000023      0.000001     -0.000096
     11.17283      4.60760     14.68998         0.000017     -0.000001     -0.000137
      6.38448      7.37216     14.68998         0.000001      0.000025     -0.000167
      9.57671      7.37216     14.68998         0.000014      0.000009     -0.000132
     12.76895      7.37216     14.68998         0.000016     -0.000007     -0.000144
      3.19224      1.84304     17.79452         0.000017     -0.000004     -0.000200
      6.38448      1.84304     17.79452         0.000011      0.000001     -0.000180
      9.57671      1.84304     17.79452         0.000020      0.000002     -0.000203
      4.78836      4.60760     17.79452         0.000019      0.000003     -0.000175
      7.98059      4.60760     17.79452         0.000016     -0.000005     -0.000183
     11.17283      4.60760     17.79452         0.000008     -0.000002     -0.000182
      6.38448      7.37216     17.79452         0.000013      0.000002     -0.000200
      9.57671      7.37216     17.79452         0.000015      0.000003     -0.000182
     12.76895      7.37216     17.79452         0.000018      0.000000     -0.000182
 -----------------------------------------------------------------------------------
    total drift:                               -0.000814     -0.000002     -0.049548


--------------------------------------------------------------------------------------------------------



  FREE ENERGIE OF THE ION-ELECTRON SYSTEM (eV)
  ---------------------------------------------------
  free  energy   TOTEN  =      -412.60767067 eV

  energy  without entropy=     -412.60767067  energy(sigma->0) =     -412.60767067
 


--------------------------------------------------------------------------------------------------------


    POTLOK:  cpu time      0.2742: real time      0.2742


--------------------------------------------------------------------------------------------------------


     LOOP+:  cpu time    180.6179: real time    180.7103
    4ORBIT:  cpu time      0.0000: real time      0.0000

 total amount of memory used by VASP MPI-rank0   132777. kBytes
=======================================================================

   base                                    :      30000. kBytes
   nonlr-proj                              :      14941. kBytes
   fftplans                                :      11326. kBytes
   grid                                    :      17519. kBytes
   one-center                              :        217. kBytes
   wavefun                                 :      58774. kBytes
 
  
  
 General timing and accounting informations for this job:
 ========================================================
  
                  Total CPU time used (sec):      188.391
                            User time (sec):      182.560
                          System time (sec):        5.831
                         Elapsed time (sec):      189.981
  
                   Maximum memory used (kb):      436200.
                   Average memory used (kb):          N/A
  
                          Minor page faults:        46503
                          Major page faults:          414
                 Voluntary context switches:         2302
