<?xml version="1.0" encoding="ISO-8859-1"?>
<modeling>
 <generator>
  <i name="program" type="string">vasp </i>
  <i name="version" type="string">6.5.1  </i>
  <i name="subversion" type="string">10Mar25 (build Aug 29 2025 00:30:47) complex                          parallel </i>
  <i name="platform" type="string">LinuxIFC </i>
  <i name="date" type="string">2026 06 03 </i>
  <i name="time" type="string">20:24:18 </i>
 </generator>
 <incar>
  <i type="string" name="SYSTEM">MoS2_bilayer_3R phonon</i>
  <i type="string" name="PREC">Accurate</i>
  <i type="string" name="ALGO">Normal</i>
  <i name="AMIN">      0.01000000</i>
  <i type="int" name="NELM">   200</i>
  <i type="int" name="IBRION">    -1</i>
  <i name="EDIFF">      0.00000100</i>
  <i type="int" name="NSW">     0</i>
  <i name="ENCUT">    520.00000000</i>
  <i type="string" name="LREAL">Auto</i>
  <i type="int" name="ISMEAR">     0</i>
  <i name="SIGMA">      0.05000000</i>
  <i type="logical" name="LWAVE"> F  </i>
  <i type="logical" name="LCHARG"> F  </i>
  <i type="int" name="IVDW">    12</i>
 </incar>
 <primitive_cell>
  <structure name="primitive_cell" >
   <crystal>
    <varray name="basis" >
     <v>       9.57671374       0.00000000       0.00000000 </v>
     <v>       4.78835687       8.29367738       0.00000000 </v>
     <v>       0.00000000       0.00000000      20.00000000 </v>
    </varray>
    <i name="volume">   1588.52348190 </i>
    <varray name="rec_basis" >
     <v>       0.10441995      -0.06028689       0.00000000 </v>
     <v>       0.00000000       0.12057378       0.00000000 </v>
     <v>       0.00000000       0.00000000       0.05000000 </v>
    </varray>
   </crystal>
   <varray name="positions" >
    <v>       0.00000000       0.00000000       0.51296834 </v>
    <v>       0.33333333       0.00000000       0.51296834 </v>
    <v>       0.66666667       0.00000000       0.51296834 </v>
    <v>       1.00000000       0.33333333       0.51296834 </v>
    <v>       0.33333333       0.33333333       0.51296834 </v>
    <v>       0.66666667       0.33333333       0.51296834 </v>
    <v>       1.00000000       0.66666667       0.51296834 </v>
    <v>       0.33333333       0.66666667       0.51296834 </v>
    <v>       0.66666667       0.66666667       0.51296834 </v>
    <v>       0.11111111       0.11111111       0.81206902 </v>
    <v>       0.44444444       0.11111111       0.81206902 </v>
    <v>       0.77777778       0.11111111       0.81206902 </v>
    <v>       0.11111111       0.44444444       0.81206902 </v>
    <v>       0.44444444       0.44444444       0.81206902 </v>
    <v>       0.77777778       0.44444444       0.81206902 </v>
    <v>       0.11111111       0.77777778       0.81206902 </v>
    <v>       0.44444444       0.77777778       0.81206902 </v>
    <v>       0.77777778       0.77777778       0.81206902 </v>
    <v>       0.11066014       0.11111111       0.43481196 </v>
    <v>       0.44444444       0.11111111       0.43526293 </v>
    <v>       0.77777778       0.11111111       0.43526293 </v>
    <v>       0.11111111       0.44444444       0.43526293 </v>
    <v>       0.44444444       0.44444444       0.43526293 </v>
    <v>       0.77777778       0.44444444       0.43526293 </v>
    <v>       0.11111111       0.77777778       0.43526293 </v>
    <v>       0.44444444       0.77777778       0.43526293 </v>
    <v>       0.77777778       0.77777778       0.43526293 </v>
    <v>       0.11111111       0.11111111       0.59047446 </v>
    <v>       0.44444444       0.11111111       0.59047446 </v>
    <v>       0.77777778       0.11111111       0.59047446 </v>
    <v>       0.11111111       0.44444444       0.59047446 </v>
    <v>       0.44444444       0.44444444       0.59047446 </v>
    <v>       0.77777778       0.44444444       0.59047446 </v>
    <v>       0.11111111       0.77777778       0.59047446 </v>
    <v>       0.44444444       0.77777778       0.59047446 </v>
    <v>       0.77777778       0.77777778       0.59047446 </v>
    <v>       0.22222222       0.22222222       0.73449922 </v>
    <v>       0.55555556       0.22222222       0.73449922 </v>
    <v>       0.88888889       0.22222222       0.73449922 </v>
    <v>       0.22222222       0.55555556       0.73449922 </v>
    <v>       0.55555556       0.55555556       0.73449922 </v>
    <v>       0.88888889       0.55555556       0.73449922 </v>
    <v>       0.22222222       0.88888889       0.73449922 </v>
    <v>       0.55555556       0.88888889       0.73449922 </v>
    <v>       0.88888889       0.88888889       0.73449922 </v>
    <v>       0.22222222       0.22222222       0.88972603 </v>
    <v>       0.55555556       0.22222222       0.88972603 </v>
    <v>       0.88888889       0.22222222       0.88972603 </v>
    <v>       0.22222222       0.55555556       0.88972603 </v>
    <v>       0.55555556       0.55555556       0.88972603 </v>
    <v>       0.88888889       0.55555556       0.88972603 </v>
    <v>       0.22222222       0.88888889       0.88972603 </v>
    <v>       0.55555556       0.88888889       0.88972603 </v>
    <v>       0.88888889       0.88888889       0.88972603 </v>
   </varray>
  </structure>
  <varray name="primitive_index" >
   <v type="int" >        1 </v>
   <v type="int" >        2 </v>
   <v type="int" >        3 </v>
   <v type="int" >        4 </v>
   <v type="int" >        5 </v>
   <v type="int" >        6 </v>
   <v type="int" >        7 </v>
   <v type="int" >        8 </v>
   <v type="int" >        9 </v>
   <v type="int" >       10 </v>
   <v type="int" >       11 </v>
   <v type="int" >       12 </v>
   <v type="int" >       13 </v>
   <v type="int" >       14 </v>
   <v type="int" >       15 </v>
   <v type="int" >       16 </v>
   <v type="int" >       17 </v>
   <v type="int" >       18 </v>
   <v type="int" >       19 </v>
   <v type="int" >       20 </v>
   <v type="int" >       21 </v>
   <v type="int" >       22 </v>
   <v type="int" >       23 </v>
   <v type="int" >       24 </v>
   <v type="int" >       25 </v>
   <v type="int" >       26 </v>
   <v type="int" >       27 </v>
   <v type="int" >       28 </v>
   <v type="int" >       29 </v>
   <v type="int" >       30 </v>
   <v type="int" >       31 </v>
   <v type="int" >       32 </v>
   <v type="int" >       33 </v>
   <v type="int" >       34 </v>
   <v type="int" >       35 </v>
   <v type="int" >       36 </v>
   <v type="int" >       37 </v>
   <v type="int" >       38 </v>
   <v type="int" >       39 </v>
   <v type="int" >       40 </v>
   <v type="int" >       41 </v>
   <v type="int" >       42 </v>
   <v type="int" >       43 </v>
   <v type="int" >       44 </v>
   <v type="int" >       45 </v>
   <v type="int" >       46 </v>
   <v type="int" >       47 </v>
   <v type="int" >       48 </v>
   <v type="int" >       49 </v>
   <v type="int" >       50 </v>
   <v type="int" >       51 </v>
   <v type="int" >       52 </v>
   <v type="int" >       53 </v>
   <v type="int" >       54 </v>
  </varray>
 </primitive_cell>
 <kpoints>
  <generation param="Gamma">
   <v type="int" name="divisions">       5        5        1 </v>
   <v name="usershift">      0.00000000       0.00000000       0.00000000 </v>
   <v name="genvec1">      0.20000000       0.00000000       0.00000000 </v>
   <v name="genvec2">      0.00000000       0.20000000       0.00000000 </v>
   <v name="genvec3">      0.00000000       0.00000000       1.00000000 </v>
   <v name="shift">      0.00000000       0.00000000       0.00000000 </v>
  </generation>
  <varray name="kpointlist" >
   <v>       0.00000000       0.00000000       0.00000000 </v>
   <v>       0.20000000       0.00000000       0.00000000 </v>
   <v>       0.20000000       0.20000000       0.00000000 </v>
   <v>       0.00000000       0.20000000       0.00000000 </v>
   <v>       0.40000000       0.00000000       0.00000000 </v>
   <v>       0.40000000       0.40000000       0.00000000 </v>
   <v>       0.00000000       0.40000000       0.00000000 </v>
   <v>       0.40000000       0.20000000       0.00000000 </v>
   <v>       0.20000000       0.40000000       0.00000000 </v>
   <v>      -0.20000000       0.20000000       0.00000000 </v>
   <v>      -0.40000000       0.20000000       0.00000000 </v>
   <v>       0.40000000      -0.40000000       0.00000000 </v>
   <v>      -0.20000000       0.40000000       0.00000000 </v>
  </varray>
  <varray name="weights" >
   <v>       0.04000000 </v>
   <v>       0.08000000 </v>
   <v>       0.08000000 </v>
   <v>       0.08000000 </v>
   <v>       0.08000000 </v>
   <v>       0.08000000 </v>
   <v>       0.08000000 </v>
   <v>       0.08000000 </v>
   <v>       0.08000000 </v>
   <v>       0.08000000 </v>
   <v>       0.08000000 </v>
   <v>       0.08000000 </v>
   <v>       0.08000000 </v>
  </varray>
 </kpoints>
 <parameters>
  <separator name="general" >
   <i type="string" name="SYSTEM">MoS2_bilayer_3R phonon</i>
   <i type="logical" name="LCOMPAT"> F  </i>
  </separator>
  <separator name="electronic" >
   <i type="string" name="PREC">accura</i>
   <i name="ENMAX">    520.00000000</i>
   <i name="ENAUG">    446.01400000</i>
   <i name="EDIFF">      0.00000100</i>
   <i type="int" name="IALGO">    38</i>
   <i type="int" name="IWAVPR">    10</i>
   <i type="int" name="NBANDS">   286</i>
   <i type="int" name="NBANDSLOW">    -1</i>
   <i type="int" name="NBANDSHIGH">    -1</i>
   <i name="NELECT">    468.00000000</i>
   <i type="int" name="TURBO">     0</i>
   <i type="int" name="IRESTART">     0</i>
   <i type="int" name="NREBOOT">     0</i>
   <i type="int" name="NMIN">     0</i>
   <i name="EREF">      0.00000000</i>
   <separator name="electronic smearing" >
    <i type="int" name="ISMEAR">     0</i>
    <i name="SIGMA">      0.05000000</i>
    <i name="KSPACING">      0.50000000</i>
    <i type="logical" name="KGAMMA"> T  </i>
    <i type="logical" name="KBLOWUP"> T  </i>
   </separator>
   <separator name="electronic projectors" >
    <i type="logical" name="LREAL"> T  </i>
    <v name="ROPT">     -0.00025000     -0.00025000</v>
    <i type="int" name="LMAXPAW">  -100</i>
    <i type="int" name="LMAXMIX">     2</i>
    <i type="logical" name="NLSPLINE"> F  </i>
   </separator>
   <separator name="electronic startup" >
    <i type="int" name="ISTART">     0</i>
    <i type="int" name="ICHARG">     2</i>
    <i type="int" name="INIWAV">     1</i>
   </separator>
   <separator name="electronic spin" >
    <i type="int" name="ISPIN">     1</i>
    <i type="logical" name="LNONCOLLINEAR"> F  </i>
    <v name="MAGMOM">      1.00000000      1.00000000      1.00000000      1.00000000      1.00000000      1.00000000      1.00000000      1.00000000      1.00000000      1.00000000      1.00000000      1.00000000      1.00000000      1.00000000      1.00000000      1.00000000      1.00000000      1.00000000      1.00000000      1.00000000
      1.00000000      1.00000000      1.00000000      1.00000000      1.00000000      1.00000000      1.00000000      1.00000000      1.00000000      1.00000000      1.00000000      1.00000000      1.00000000      1.00000000      1.00000000      1.00000000      1.00000000      1.00000000      1.00000000      1.00000000
      1.00000000      1.00000000      1.00000000      1.00000000      1.00000000      1.00000000      1.00000000      1.00000000      1.00000000      1.00000000      1.00000000      1.00000000      1.00000000      1.00000000</v>
    <i name="NUPDOWN">     -1.00000000</i>
    <i type="logical" name="LSORBIT"> F  </i>
    <v name="SAXIS">      0.00000000      0.00000000      1.00000000</v>
    <i type="logical" name="LSPIRAL"> F  </i>
    <v name="QSPIRAL">      0.00000000      0.00000000      0.00000000</v>
    <i type="logical" name="LZEROZ"> F  </i>
   </separator>
   <separator name="electronic exchange-correlation" >
    <i type="logical" name="LASPH"> F  </i>
   </separator>
   <separator name="electronic convergence" >
    <i type="int" name="NELM">   200</i>
    <i type="int" name="NELMDL">    -5</i>
    <i type="int" name="NELMIN">     2</i>
    <i name="ENINI">    520.00000000</i>
    <separator name="electronic convergence detail" >
     <i type="logical" name="LDIAG"> T  </i>
     <i type="logical" name="LSUBROT"> F  </i>
     <i type="logical" name="LROBUST"> F  </i>
     <i type="int" name="ISEARCH">     0</i>
     <i name="WEIMIN">      0.00000000</i>
     <i name="EBREAK">      0.00000000</i>
     <i name="DEPER">      0.30000000</i>
     <i type="int" name="NRMM">     4</i>
     <i name="TIME">      0.40000000</i>
    </separator>
   </separator>
   <separator name="electronic mixer" >
    <i name="AMIX">      0.40000000</i>
    <i name="BMIX">      1.00000000</i>
    <i name="AMIN">      0.01000000</i>
    <i name="AMIX_MAG">      1.60000000</i>
    <i name="BMIX_MAG">      1.00000000</i>
    <separator name="electronic mixer details" >
     <i type="int" name="IMIX">     4</i>
     <i type="logical" name="MIXFIRST"> F  </i>
     <i type="int" name="MAXMIX">   -45</i>
     <i name="WC">    100.00000000</i>
     <i type="int" name="INIMIX">     1</i>
     <i type="int" name="MIXPRE">     1</i>
     <i type="int" name="MREMOVE">     5</i>
    </separator>
   </separator>
   <separator name="electronic dipolcorrection" >
    <i type="logical" name="LDIPOL"> F  </i>
    <i type="logical" name="LMONO"> F  </i>
    <i type="int" name="IDIPOL">     0</i>
    <i name="EPSILON">      1.00000000</i>
    <v name="DIPOL">   -100.00000000   -100.00000000   -100.00000000</v>
    <i name="EFIELD">      0.00000000</i>
    <i type="logical" name="LVACPOTAV"> F  </i>
   </separator>
  </separator>
  <separator name="grids" >
   <i type="int" name="NGX">    72</i>
   <i type="int" name="NGY">    72</i>
   <i type="int" name="NGZ">   150</i>
   <i type="int" name="NGXF">   144</i>
   <i type="int" name="NGYF">   144</i>
   <i type="int" name="NGZF">   300</i>
   <i type="logical" name="ADDGRID"> F  </i>
  </separator>
  <separator name="ionic" >
   <i type="int" name="NSW">     0</i>
   <i type="int" name="IBRION">    -1</i>
   <i type="int" name="MDALGO">     0</i>
   <i type="int" name="ISIF">     2</i>
   <i name="PSTRESS">      0.00000000</i>
   <i name="EDIFFG">      0.00001000</i>
   <i type="int" name="NFREE">     0</i>
   <i name="POTIM">      0.50000000</i>
   <i name="SMASS">     -3.00000000</i>
   <i name="SCALEE">      1.00000000</i>
  </separator>
  <separator name="ionic md" >
   <i name="TEBEG">      0.00010000</i>
   <i name="TEEND">      0.00010000</i>
   <i type="int" name="NBLOCK">     1</i>
   <i type="int" name="KBLOCK">     1</i>
   <i type="int" name="NPACO">   256</i>
   <i name="APACO">     10.00000000</i>
  </separator>
  <separator name="symmetry" >
   <i type="int" name="ISYM">     2</i>
   <i name="SYMPREC">      0.00001000</i>
  </separator>
  <separator name="dos" >
   <i type="int" name="LORBIT">     0</i>
   <v name="RWIGS">     -1.00000000     -1.00000000</v>
   <i type="int" name="NEDOS">   301</i>
   <i name="EMIN">     10.00000000</i>
   <i name="EMAX">    -10.00000000</i>
   <i name="EFERMI">      0.00000000</i>
  </separator>
  <separator name="writing" >
   <i type="int" name="NWRITE">     2</i>
   <i type="logical" name="LWAVE"> F  </i>
   <i type="logical" name="LDOWNSAMPLE"> F  </i>
   <i type="logical" name="LCHARG"> F  </i>
   <i type="logical" name="LPARD"> F  </i>
   <i type="logical" name="LVTOT"> F  </i>
   <i type="logical" name="LVHAR"> F  </i>
   <i type="logical" name="LELF"> F  </i>
   <i type="logical" name="LOPTICS"> F  </i>
   <v name="STM">      0.00000000      0.00000000      0.00000000      0.00000000      0.00000000      0.00000000      0.00000000</v>
  </separator>
  <separator name="performance" >
   <i type="int" name="NPAR">    11</i>
   <i type="int" name="NSIM">     4</i>
   <i type="int" name="NBLK">    -1</i>
   <i type="logical" name="LPLANE"> T  </i>
   <i type="logical" name="LSCALAPACK"> T  </i>
   <i type="logical" name="LSCAAWARE"> F  </i>
   <i type="logical" name="LSCALU"> F  </i>
   <i type="logical" name="LASYNC"> F  </i>
   <i type="logical" name="LORBITALREAL"> F  </i>
  </separator>
  <separator name="miscellaneous" >
   <i type="int" name="IDIOT">     3</i>
   <i type="int" name="PHON_NSTRUCT">    -1</i>
   <i type="logical" name="LMUSIC"> F  </i>
   <v name="POMASS">     95.94000000     32.06600000</v>
   <v name="DARWINR">      0.00000000      0.00000000</v>
   <v name="DARWINV">      1.00000000      1.00000000</v>
   <i type="logical" name="LCORR"> T  </i>
  </separator>
  <i type="logical" name="GGA_COMPAT"> T  </i>
  <i type="logical" name="LBERRY"> F  </i>
  <i type="int" name="ICORELEVEL">     0</i>
  <i type="logical" name="LDAU"> F  </i>
  <i type="int" name="I_CONSTRAINED_M">     0</i>
  <separator name="electronic exchange-correlation" >
   <i type="string" name="GGA    ">PE</i>
   <i type="string" name="XC_C">1</i>
   <i type="int" name="VOSKOWN">     0</i>
   <i type="logical" name="LHFCALC"> F  </i>
   <i type="string" name="PRECFOCK"></i>
   <i type="logical" name="LSYMGRAD"> F  </i>
   <i type="logical" name="LHFONE"> F  </i>
   <i type="logical" name="LRHFCALC"> F  </i>
   <i type="logical" name="LTHOMAS"> F  </i>
   <i type="logical" name="LMODELHF"> F  </i>
   <i type="logical" name="LFOCKACE"> F  </i>
   <i name="ENCUT4O">     -1.00000000</i>
   <i type="int" name="EXXOEP">     0</i>
   <i type="int" name="FOURORBIT">     0</i>
   <i name="AEXX">      0.00000000</i>
   <i name="HFALPHA">      0.00000000</i>
   <i name="MCALPHA">      0.00000000</i>
   <i name="ALDAX">      1.00000000</i>
   <i name="AGGAX">      1.00000000</i>
   <i name="AMGGAX">      1.00000000</i>
   <i name="ALDAC">      1.00000000</i>
   <i name="AGGAC">      1.00000000</i>
   <i name="AMGGAC">      1.00000000</i>
   <i type="int" name="NKREDX">     1</i>
   <i type="int" name="NKREDY">     1</i>
   <i type="int" name="NKREDZ">     1</i>
   <i type="logical" name="SHIFTRED"> F  </i>
   <i type="logical" name="ODDONLY"> F  </i>
   <i type="logical" name="EVENONLY"> F  </i>
   <i type="int" name="LMAXFOCK">     0</i>
   <i type="int" name="NMAXFOCKAE">     0</i>
   <i type="logical" name="LFOCKAEDFT"> F  </i>
   <i name="HFSCREEN">      0.00000000</i>
   <i name="HFSCREENC">      0.00000000</i>
   <i type="int" name="NBANDSGWLOW">     0</i>
  </separator>
  <separator name="vdW DFT" >
   <i type="logical" name="LUSE_VDW"> F  </i>
   <i type="int" name="IVDW_NL">    -1</i>
   <i type="logical" name="LSPIN_VDW"> F  </i>
   <i name="ZAB_VDW">     -0.84910000</i>
   <i name="GAMMA_VDW">      1.39626340</i>
   <i name="ALPHA_VDW">      0.00000000</i>
   <i name="PARAM1">      0.12340000</i>
   <i name="PARAM2">      1.00000000</i>
   <i name="BPARAM">      6.30000000</i>
   <i name="CPARAM">      0.00930000</i>
  </separator>
  <separator name="model GW" >
   <i type="int" name="MODEL_GW">     0</i>
   <i name="MODEL_EPS0">     17.65026091</i>
   <i name="MODEL_ALPHA">      1.00000000</i>
  </separator>
  <separator name="linear response parameters" >
   <i type="logical" name="LEPSILON"> F  </i>
   <i type="logical" name="LRPA"> F  </i>
   <i type="logical" name="LNABLA"> F  </i>
   <i type="logical" name="LVEL"> F  </i>
   <i name="CSHIFT">      0.10000000</i>
   <i name="OMEGAMAX">     -1.00000000</i>
   <i name="DEG_THRESHOLD">      0.00200000</i>
   <i name="RTIME">     -0.10000000</i>
   <i name="WPLASMAI">      0.00000000</i>
   <v name="DFIELD">      0.00000000      0.00000000      0.00000000</v>
   <v name="WPLASMA">      0.00000000      0.00000000      0.00000000      0.00000000      0.00000000      0.00000000      0.00000000      0.00000000      0.00000000</v>
  </separator>
  <separator name="orbital magnetization" >
   <i type="logical" name="NUCIND"> F  </i>
   <v name="MAGPOS">      0.00000000      0.00000000      0.00000000</v>
   <i type="logical" name="LNICSALL"> T  </i>
   <i type="logical" name="ORBITALMAG"> F  </i>
   <i type="logical" name="LMAGBLOCH"> F  </i>
   <i type="logical" name="LCHIMAG"> F  </i>
   <i type="logical" name="LGAUGE"> T  </i>
   <i type="int" name="MAGATOM">     0</i>
   <v name="MAGDIPOL">      0.00000000      0.00000000      0.00000000</v>
   <v name="AVECCONST">      0.00000000      0.00000000      0.00000000</v>
  </separator>
  <separator name="response functions" >
   <i type="logical" name="LALL_IN_ONE"> F  </i>
   <i type="int" name="IALL_IN_ONE">    -1</i>
   <i type="int" name="NBANDS_WAVE">    -1</i>
   <i type="logical" name="LFINITE_TEMPERATURE"> F  </i>
   <i type="logical" name="LADDER"> F  </i>
   <i type="logical" name="LRPAFORCE"> F  </i>
   <i type="logical" name="LFXC"> F  </i>
   <i type="logical" name="LHARTREE"> T  </i>
   <i type="int" name="IBSE">     2</i>
   <v type="int" name="KPOINT">    -1     0     0     0</v>
   <i type="logical" name="LTCTC"> F  </i>
   <i type="logical" name="LTCTE"> F  </i>
   <i type="logical" name="LTETE"> F  </i>
   <i type="logical" name="LTRIPLET"> F  </i>
   <i type="logical" name="LFXCEPS"> F  </i>
   <i type="logical" name="LFXHEG"> F  </i>
   <i type="int" name="NATURALO">     2</i>
   <i type="logical" name="LHOLEGF"> F  </i>
   <i type="logical" name="L2ORDER"> F  </i>
   <i type="logical" name="LDMP1"> F  </i>
   <i type="logical" name="LMP2LT"> F  </i>
   <i type="logical" name="LSMP2LT"> F  </i>
   <i type="logical" name="LGWLF"> F  </i>
   <i name="ENCUTGW">     -1.60000002</i>
   <i name="ENCUTGWSOFT">     -1.60000002</i>
   <i name="ENCUTLF">     -1.00000000</i>
   <i type="logical" name="ESF_SPLINES"> F  </i>
   <i name="ESF_CONV">      0.01000000</i>
   <i type="int" name="ESF_NINTER">    15</i>
   <i type="int" name="LMAXMP2">    -1</i>
   <i name="SCISSOR">      0.00000000</i>
   <i type="int" name="NOMEGA">     0</i>
   <i type="int" name="NOMEGAR">     0</i>
   <i type="int" name="NBANDSGW">    -1</i>
   <i type="int" name="NBANDSO">    -1</i>
   <i type="int" name="NBANDSV">    -1</i>
   <i type="int" name="NELMGW">     1</i>
   <i type="int" name="NELMHF">     1</i>
   <i type="int" name="DIM">     3</i>
   <i type="int" name="IESPILON">     4</i>
   <i type="int" name="ANTIRES">     0</i>
   <i name="OMEGAMAX">    -30.00000000</i>
   <i name="OMEGAMIN">    -30.00000000</i>
   <i name="OMEGATL">   -200.00000000</i>
   <i type="int" name="OMEGAGRID">     0</i>
   <i name="CSHIFT">     -0.10000000</i>
   <i type="logical" name="LSELFENERGY"> F  </i>
   <i type="logical" name="LSPECTRAL"> F  </i>
   <i type="logical" name="LSPECTRALGW"> F  </i>
   <i type="logical" name="LSINGLES"> F  </i>
   <i type="logical" name="LFERMIGW"> F  </i>
   <i type="logical" name="ODDONLYGW"> F  </i>
   <i type="logical" name="EVENONLYGW"> F  </i>
   <i type="int" name="NKREDLFX">     1</i>
   <i type="int" name="NKREDLFY">     1</i>
   <i type="int" name="NKREDLFZ">     1</i>
   <i type="int" name="MAXMEM">  2800</i>
   <i type="int" name="TELESCOPE">     0</i>
   <i type="int" name="NTAUPAR">    -1</i>
   <i type="int" name="NOMEGAPAR">    -1</i>
   <i name="DAMP_NEWTON">      0.80000001</i>
   <i name="LAMBDA">      1.00000000</i>
  </separator>
  <separator name="External order field" >
   <i name="OFIELD_KAPPA">      0.00000000</i>
   <v name="OFIELD_K">      0.00000000      0.00000000      0.00000000</v>
   <i name="OFIELD_Q6_NEAR">      0.00000000</i>
   <i name="OFIELD_Q6_FAR">      0.00000000</i>
   <i name="OFIELD_A">      0.00000000</i>
  </separator>
  <separator name="optional k-points parameters" >
   <i type="int" name="KPOINTS_OPT_MODE">     1</i>
   <i type="logical" name="LKPOINTS_OPT"> F  </i>
  </separator>
 </parameters>
 <atominfo>
  <atoms>      54 </atoms>
  <types>       2 </types>
  <array name="atoms" >
   <dimension dim="1">ion</dimension>
   <field type="string">element</field>
   <field type="int">atomtype</field>
   <set>
    <rc><c>Mo</c><c>   1</c></rc>
    <rc><c>Mo</c><c>   1</c></rc>
    <rc><c>Mo</c><c>   1</c></rc>
    <rc><c>Mo</c><c>   1</c></rc>
    <rc><c>Mo</c><c>   1</c></rc>
    <rc><c>Mo</c><c>   1</c></rc>
    <rc><c>Mo</c><c>   1</c></rc>
    <rc><c>Mo</c><c>   1</c></rc>
    <rc><c>Mo</c><c>   1</c></rc>
    <rc><c>Mo</c><c>   1</c></rc>
    <rc><c>Mo</c><c>   1</c></rc>
    <rc><c>Mo</c><c>   1</c></rc>
    <rc><c>Mo</c><c>   1</c></rc>
    <rc><c>Mo</c><c>   1</c></rc>
    <rc><c>Mo</c><c>   1</c></rc>
    <rc><c>Mo</c><c>   1</c></rc>
    <rc><c>Mo</c><c>   1</c></rc>
    <rc><c>Mo</c><c>   1</c></rc>
    <rc><c>S </c><c>   2</c></rc>
    <rc><c>S </c><c>   2</c></rc>
    <rc><c>S </c><c>   2</c></rc>
    <rc><c>S </c><c>   2</c></rc>
    <rc><c>S </c><c>   2</c></rc>
    <rc><c>S </c><c>   2</c></rc>
    <rc><c>S </c><c>   2</c></rc>
    <rc><c>S </c><c>   2</c></rc>
    <rc><c>S </c><c>   2</c></rc>
    <rc><c>S </c><c>   2</c></rc>
    <rc><c>S </c><c>   2</c></rc>
    <rc><c>S </c><c>   2</c></rc>
    <rc><c>S </c><c>   2</c></rc>
    <rc><c>S </c><c>   2</c></rc>
    <rc><c>S </c><c>   2</c></rc>
    <rc><c>S </c><c>   2</c></rc>
    <rc><c>S </c><c>   2</c></rc>
    <rc><c>S </c><c>   2</c></rc>
    <rc><c>S </c><c>   2</c></rc>
    <rc><c>S </c><c>   2</c></rc>
    <rc><c>S </c><c>   2</c></rc>
    <rc><c>S </c><c>   2</c></rc>
    <rc><c>S </c><c>   2</c></rc>
    <rc><c>S </c><c>   2</c></rc>
    <rc><c>S </c><c>   2</c></rc>
    <rc><c>S </c><c>   2</c></rc>
    <rc><c>S </c><c>   2</c></rc>
    <rc><c>S </c><c>   2</c></rc>
    <rc><c>S </c><c>   2</c></rc>
    <rc><c>S </c><c>   2</c></rc>
    <rc><c>S </c><c>   2</c></rc>
    <rc><c>S </c><c>   2</c></rc>
    <rc><c>S </c><c>   2</c></rc>
    <rc><c>S </c><c>   2</c></rc>
    <rc><c>S </c><c>   2</c></rc>
    <rc><c>S </c><c>   2</c></rc>
   </set>
  </array>
  <array name="atomtypes" >
   <dimension dim="1">type</dimension>
   <field type="int">atomspertype</field>
   <field type="string">element</field>
   <field>mass</field>
   <field>valence</field>
   <field type="string">pseudopotential</field>
   <set>
    <rc><c>  18</c><c>Mo</c><c>     95.94000000</c><c>     14.00000000</c><c>  PAW_PBE Mo_sv 02Feb2006               </c></rc>
    <rc><c>  36</c><c>S </c><c>     32.06600000</c><c>      6.00000000</c><c>  PAW_PBE S 06Sep2000                   </c></rc>
   </set>
  </array>
 </atominfo>
 <structure name="initialpos" >
  <crystal>
   <varray name="basis" >
    <v>       9.57671374       0.00000000       0.00000000 </v>
    <v>       4.78835687       8.29367738       0.00000000 </v>
    <v>       0.00000000       0.00000000      20.00000000 </v>
   </varray>
   <i name="volume">   1588.52348190 </i>
   <varray name="rec_basis" >
    <v>       0.10441995      -0.06028689       0.00000000 </v>
    <v>       0.00000000       0.12057378       0.00000000 </v>
    <v>       0.00000000       0.00000000       0.05000000 </v>
   </varray>
  </crystal>
  <varray name="positions" >
   <v>       0.00000000       0.00000000       0.51296834 </v>
   <v>       0.33333333       0.00000000       0.51296834 </v>
   <v>       0.66666667       0.00000000       0.51296834 </v>
   <v>       0.00000000       0.33333333       0.51296834 </v>
   <v>       0.33333333       0.33333333       0.51296834 </v>
   <v>       0.66666667       0.33333333       0.51296834 </v>
   <v>       0.00000000       0.66666667       0.51296834 </v>
   <v>       0.33333333       0.66666667       0.51296834 </v>
   <v>       0.66666667       0.66666667       0.51296834 </v>
   <v>       0.11111111       0.11111111       0.81206902 </v>
   <v>       0.44444444       0.11111111       0.81206902 </v>
   <v>       0.77777778       0.11111111       0.81206902 </v>
   <v>       0.11111111       0.44444444       0.81206902 </v>
   <v>       0.44444444       0.44444444       0.81206902 </v>
   <v>       0.77777778       0.44444444       0.81206902 </v>
   <v>       0.11111111       0.77777778       0.81206902 </v>
   <v>       0.44444444       0.77777778       0.81206902 </v>
   <v>       0.77777778       0.77777778       0.81206902 </v>
   <v>       0.11066014       0.11111111       0.43481196 </v>
   <v>       0.44444444       0.11111111       0.43526293 </v>
   <v>       0.77777778       0.11111111       0.43526293 </v>
   <v>       0.11111111       0.44444444       0.43526293 </v>
   <v>       0.44444444       0.44444444       0.43526293 </v>
   <v>       0.77777778       0.44444444       0.43526293 </v>
   <v>       0.11111111       0.77777778       0.43526293 </v>
   <v>       0.44444444       0.77777778       0.43526293 </v>
   <v>       0.77777778       0.77777778       0.43526293 </v>
   <v>       0.11111111       0.11111111       0.59047446 </v>
   <v>       0.44444444       0.11111111       0.59047446 </v>
   <v>       0.77777778       0.11111111       0.59047446 </v>
   <v>       0.11111111       0.44444444       0.59047446 </v>
   <v>       0.44444444       0.44444444       0.59047446 </v>
   <v>       0.77777778       0.44444444       0.59047446 </v>
   <v>       0.11111111       0.77777778       0.59047446 </v>
   <v>       0.44444444       0.77777778       0.59047446 </v>
   <v>       0.77777778       0.77777778       0.59047446 </v>
   <v>       0.22222222       0.22222222       0.73449922 </v>
   <v>       0.55555556       0.22222222       0.73449922 </v>
   <v>       0.88888889       0.22222222       0.73449922 </v>
   <v>       0.22222222       0.55555556       0.73449922 </v>
   <v>       0.55555556       0.55555556       0.73449922 </v>
   <v>       0.88888889       0.55555556       0.73449922 </v>
   <v>       0.22222222       0.88888889       0.73449922 </v>
   <v>       0.55555556       0.88888889       0.73449922 </v>
   <v>       0.88888889       0.88888889       0.73449922 </v>
   <v>       0.22222222       0.22222222       0.88972603 </v>
   <v>       0.55555556       0.22222222       0.88972603 </v>
   <v>       0.88888889       0.22222222       0.88972603 </v>
   <v>       0.22222222       0.55555556       0.88972603 </v>
   <v>       0.55555556       0.55555556       0.88972603 </v>
   <v>       0.88888889       0.55555556       0.88972603 </v>
   <v>       0.22222222       0.88888889       0.88972603 </v>
   <v>       0.55555556       0.88888889       0.88972603 </v>
   <v>       0.88888889       0.88888889       0.88972603 </v>
  </varray>
 </structure>
 <calculation>
  <scstep>
   <time name="dav">    5.80    5.85</time>
   <time name="total">    5.93    5.98</time>
   <energy>
    <i name="alphaZ">    964.87981809 </i>
    <i name="ewald">  52436.82468300 </i>
    <i name="hartreedc"> -92729.03059447 </i>
    <i name="XCdc">   1646.87771651 </i>
    <i name="pawpsdc">  34790.20238322 </i>
    <i name="pawaedc"> -34342.63393317 </i>
    <i name="eentropy">     -0.01974569 </i>
    <i name="bandstr">  -2080.59370567 </i>
    <i name="atom">  43486.60354843 </i>
    <i name="e_fr_energy">   4173.11017024 </i>
    <i name="e_wo_entrp">   4173.12991593 </i>
    <i name="e_0_energy">   4173.12004309 </i>
   </energy>
  </scstep>
  <scstep>
   <time name="dav">    6.24    6.24</time>
   <time name="total">    6.25    6.25</time>
   <energy>
    <i name="e_fr_energy">    -76.92946153 </i>
    <i name="e_wo_entrp">    -76.92946153 </i>
    <i name="e_0_energy">    -76.92946153 </i>
   </energy>
  </scstep>
  <scstep>
   <time name="dav">    5.58    5.58</time>
   <time name="total">    5.58    5.58</time>
   <energy>
    <i name="e_fr_energy">   -404.16866646 </i>
    <i name="e_wo_entrp">   -404.16866646 </i>
    <i name="e_0_energy">   -404.16866646 </i>
   </energy>
  </scstep>
  <scstep>
   <time name="dav">    6.17    6.17</time>
   <time name="total">    6.17    6.17</time>
   <energy>
    <i name="e_fr_energy">   -419.44168919 </i>
    <i name="e_wo_entrp">   -419.44168919 </i>
    <i name="e_0_energy">   -419.44168919 </i>
   </energy>
  </scstep>
  <scstep>
   <time name="dav">    6.20    6.20</time>
   <time name="total">    6.60    6.60</time>
   <energy>
    <i name="e_fr_energy">   -419.93615312 </i>
    <i name="e_wo_entrp">   -419.93615312 </i>
    <i name="e_0_energy">   -419.93615312 </i>
   </energy>
  </scstep>
  <scstep>
   <time name="dav">    5.32    5.32</time>
   <time name="total">    5.81    5.81</time>
   <energy>
    <i name="e_fr_energy">   -399.57678680 </i>
    <i name="e_wo_entrp">   -399.57678680 </i>
    <i name="e_0_energy">   -399.57678680 </i>
   </energy>
  </scstep>
  <scstep>
   <time name="dav">    5.27    5.27</time>
   <time name="total">    5.75    5.75</time>
   <energy>
    <i name="e_fr_energy">   -395.85016779 </i>
    <i name="e_wo_entrp">   -395.85016779 </i>
    <i name="e_0_energy">   -395.85016779 </i>
   </energy>
  </scstep>
  <scstep>
   <time name="dav">    5.41    5.41</time>
   <time name="total">    5.87    5.87</time>
   <energy>
    <i name="e_fr_energy">   -392.63834482 </i>
    <i name="e_wo_entrp">   -392.63834482 </i>
    <i name="e_0_energy">   -392.63834482 </i>
   </energy>
  </scstep>
  <scstep>
   <time name="dav">    6.03    6.03</time>
   <time name="total">    6.51    6.51</time>
   <energy>
    <i name="e_fr_energy">   -392.76281096 </i>
    <i name="e_wo_entrp">   -392.76281096 </i>
    <i name="e_0_energy">   -392.76281096 </i>
   </energy>
  </scstep>
  <scstep>
   <time name="dav">    5.43    5.43</time>
   <time name="total">    5.90    5.90</time>
   <energy>
    <i name="e_fr_energy">   -392.64394843 </i>
    <i name="e_wo_entrp">   -392.64394843 </i>
    <i name="e_0_energy">   -392.64394843 </i>
   </energy>
  </scstep>
  <scstep>
   <time name="dav">    6.24    6.24</time>
   <time name="total">    6.71    6.72</time>
   <energy>
    <i name="e_fr_energy">   -392.63211232 </i>
    <i name="e_wo_entrp">   -392.63211232 </i>
    <i name="e_0_energy">   -392.63211232 </i>
   </energy>
  </scstep>
  <scstep>
   <time name="dav">    5.64    5.64</time>
   <time name="total">    6.11    6.11</time>
   <energy>
    <i name="e_fr_energy">   -392.62236597 </i>
    <i name="e_wo_entrp">   -392.62236597 </i>
    <i name="e_0_energy">   -392.62236597 </i>
   </energy>
  </scstep>
  <scstep>
   <time name="dav">    5.67    5.67</time>
   <time name="total">    6.15    6.15</time>
   <energy>
    <i name="e_fr_energy">   -392.61935213 </i>
    <i name="e_wo_entrp">   -392.61935213 </i>
    <i name="e_0_energy">   -392.61935213 </i>
   </energy>
  </scstep>
  <scstep>
   <time name="dav">    5.46    5.46</time>
   <time name="total">    5.92    5.92</time>
   <energy>
    <i name="e_fr_energy">   -392.61316865 </i>
    <i name="e_wo_entrp">   -392.61316865 </i>
    <i name="e_0_energy">   -392.61316865 </i>
   </energy>
  </scstep>
  <scstep>
   <time name="dav">    5.59    5.59</time>
   <time name="total">    6.06    6.06</time>
   <energy>
    <i name="e_fr_energy">   -392.60690911 </i>
    <i name="e_wo_entrp">   -392.60690911 </i>
    <i name="e_0_energy">   -392.60690911 </i>
   </energy>
  </scstep>
  <scstep>
   <time name="dav">    5.73    5.73</time>
   <time name="total">    6.19    6.19</time>
   <energy>
    <i name="e_fr_energy">   -392.60563320 </i>
    <i name="e_wo_entrp">   -392.60563320 </i>
    <i name="e_0_energy">   -392.60563320 </i>
   </energy>
  </scstep>
  <scstep>
   <time name="dav">    5.57    5.57</time>
   <time name="total">    6.04    6.04</time>
   <energy>
    <i name="e_fr_energy">   -392.60747598 </i>
    <i name="e_wo_entrp">   -392.60747598 </i>
    <i name="e_0_energy">   -392.60747598 </i>
   </energy>
  </scstep>
  <scstep>
   <time name="dav">    5.85    5.85</time>
   <time name="total">    6.32    6.32</time>
   <energy>
    <i name="e_fr_energy">   -392.61025884 </i>
    <i name="e_wo_entrp">   -392.61025884 </i>
    <i name="e_0_energy">   -392.61025884 </i>
   </energy>
  </scstep>
  <scstep>
   <time name="dav">    5.73    5.73</time>
   <time name="total">    6.21    6.21</time>
   <energy>
    <i name="e_fr_energy">   -392.61180655 </i>
    <i name="e_wo_entrp">   -392.61180655 </i>
    <i name="e_0_energy">   -392.61180655 </i>
   </energy>
  </scstep>
  <scstep>
   <time name="dav">    5.43    5.43</time>
   <time name="total">    5.89    5.89</time>
   <energy>
    <i name="e_fr_energy">   -392.61403391 </i>
    <i name="e_wo_entrp">   -392.61403391 </i>
    <i name="e_0_energy">   -392.61403391 </i>
   </energy>
  </scstep>
  <scstep>
   <time name="dav">    5.62    5.62</time>
   <time name="total">    6.10    6.10</time>
   <energy>
    <i name="e_fr_energy">   -392.61575688 </i>
    <i name="e_wo_entrp">   -392.61575688 </i>
    <i name="e_0_energy">   -392.61575688 </i>
   </energy>
  </scstep>
  <scstep>
   <time name="dav">    5.52    5.52</time>
   <time name="total">    5.98    5.98</time>
   <energy>
    <i name="e_fr_energy">   -392.61595913 </i>
    <i name="e_wo_entrp">   -392.61595913 </i>
    <i name="e_0_energy">   -392.61595913 </i>
   </energy>
  </scstep>
  <scstep>
   <time name="dav">    4.24    4.24</time>
   <time name="total">    4.72    4.72</time>
   <energy>
    <i name="e_fr_energy">   -392.61599665 </i>
    <i name="e_wo_entrp">   -392.61599665 </i>
    <i name="e_0_energy">   -392.61599665 </i>
   </energy>
  </scstep>
  <scstep>
   <time name="dav">    4.30    4.30</time>
   <time name="total">    4.76    4.76</time>
   <energy>
    <i name="e_fr_energy">   -392.61612416 </i>
    <i name="e_wo_entrp">   -392.61612416 </i>
    <i name="e_0_energy">   -392.61612416 </i>
   </energy>
  </scstep>
  <scstep>
   <time name="dav">    4.41    4.41</time>
   <time name="total">    4.88    4.88</time>
   <energy>
    <i name="e_fr_energy">   -392.61627189 </i>
    <i name="e_wo_entrp">   -392.61627189 </i>
    <i name="e_0_energy">   -392.61627189 </i>
   </energy>
  </scstep>
  <scstep>
   <time name="dav">    4.13    4.13</time>
   <time name="total">    4.60    4.60</time>
   <energy>
    <i name="e_fr_energy">   -392.61628214 </i>
    <i name="e_wo_entrp">   -392.61628214 </i>
    <i name="e_0_energy">   -392.61628214 </i>
   </energy>
  </scstep>
  <scstep>
   <time name="dav">    3.66    3.66</time>
   <time name="total">    4.13    4.13</time>
   <energy>
    <i name="e_fr_energy">   -392.61628481 </i>
    <i name="e_wo_entrp">   -392.61628481 </i>
    <i name="e_0_energy">   -392.61628481 </i>
   </energy>
  </scstep>
  <scstep>
   <time name="dav">    3.78    3.78</time>
   <time name="total">    4.25    4.25</time>
   <energy>
    <i name="e_fr_energy">   -392.61628864 </i>
    <i name="e_wo_entrp">   -392.61628864 </i>
    <i name="e_0_energy">   -392.61628864 </i>
   </energy>
  </scstep>
  <scstep>
   <time name="dav">    4.02    4.02</time>
   <time name="total">    4.50    4.50</time>
   <energy>
    <i name="e_fr_energy">   -392.61628418 </i>
    <i name="e_wo_entrp">   -392.61628418 </i>
    <i name="e_0_energy">   -392.61628418 </i>
   </energy>
  </scstep>
  <scstep>
   <time name="dav">    3.90    3.90</time>
   <time name="total">    4.36    4.36</time>
   <energy>
    <i name="e_fr_energy">   -392.61628181 </i>
    <i name="e_wo_entrp">   -392.61628181 </i>
    <i name="e_0_energy">   -392.61628181 </i>
   </energy>
  </scstep>
  <scstep>
   <time name="dav">    3.37    3.37</time>
   <time name="total">    3.48    3.48</time>
   <energy>
    <i name="alphaZ">    964.87981809 </i>
    <i name="ewald">  52436.82468300 </i>
    <i name="hartreedc"> -92548.48114544 </i>
    <i name="XCdc">   1636.21651479 </i>
    <i name="pawpsdc">  53005.88703577 </i>
    <i name="pawaedc"> -52627.30104138 </i>
    <i name="eentropy">     -0.00000000 </i>
    <i name="bandstr">  -6747.24569498 </i>
    <i name="atom">  43486.60354843 </i>
    <i name="e_fr_energy">   -392.61628172 </i>
    <i name="e_wo_entrp">   -392.61628172 </i>
    <i name="e_0_energy">   -392.61628172 </i>
   </energy>
  </scstep>
  <structure>
   <crystal>
    <varray name="basis" >
     <v>       9.57671374       0.00000000       0.00000000 </v>
     <v>       4.78835687       8.29367738       0.00000000 </v>
     <v>       0.00000000       0.00000000      20.00000000 </v>
    </varray>
    <i name="volume">   1588.52348190 </i>
    <varray name="rec_basis" >
     <v>       0.10441995      -0.06028689       0.00000000 </v>
     <v>       0.00000000       0.12057378       0.00000000 </v>
     <v>       0.00000000       0.00000000       0.05000000 </v>
    </varray>
   </crystal>
   <varray name="positions" >
    <v>       0.00000000       0.00000000       0.51296834 </v>
    <v>       0.33333333       0.00000000       0.51296834 </v>
    <v>       0.66666667       0.00000000       0.51296834 </v>
    <v>       0.00000000       0.33333333       0.51296834 </v>
    <v>       0.33333333       0.33333333       0.51296834 </v>
    <v>       0.66666667       0.33333333       0.51296834 </v>
    <v>       0.00000000       0.66666667       0.51296834 </v>
    <v>       0.33333333       0.66666667       0.51296834 </v>
    <v>       0.66666667       0.66666667       0.51296834 </v>
    <v>       0.11111111       0.11111111       0.81206902 </v>
    <v>       0.44444444       0.11111111       0.81206902 </v>
    <v>       0.77777778       0.11111111       0.81206902 </v>
    <v>       0.11111111       0.44444444       0.81206902 </v>
    <v>       0.44444444       0.44444444       0.81206902 </v>
    <v>       0.77777778       0.44444444       0.81206902 </v>
    <v>       0.11111111       0.77777778       0.81206902 </v>
    <v>       0.44444444       0.77777778       0.81206902 </v>
    <v>       0.77777778       0.77777778       0.81206902 </v>
    <v>       0.11066014       0.11111111       0.43481196 </v>
    <v>       0.44444444       0.11111111       0.43526293 </v>
    <v>       0.77777778       0.11111111       0.43526293 </v>
    <v>       0.11111111       0.44444444       0.43526293 </v>
    <v>       0.44444444       0.44444444       0.43526293 </v>
    <v>       0.77777778       0.44444444       0.43526293 </v>
    <v>       0.11111111       0.77777778       0.43526293 </v>
    <v>       0.44444444       0.77777778       0.43526293 </v>
    <v>       0.77777778       0.77777778       0.43526293 </v>
    <v>       0.11111111       0.11111111       0.59047446 </v>
    <v>       0.44444444       0.11111111       0.59047446 </v>
    <v>       0.77777778       0.11111111       0.59047446 </v>
    <v>       0.11111111       0.44444444       0.59047446 </v>
    <v>       0.44444444       0.44444444       0.59047446 </v>
    <v>       0.77777778       0.44444444       0.59047446 </v>
    <v>       0.11111111       0.77777778       0.59047446 </v>
    <v>       0.44444444       0.77777778       0.59047446 </v>
    <v>       0.77777778       0.77777778       0.59047446 </v>
    <v>       0.22222222       0.22222222       0.73449922 </v>
    <v>       0.55555556       0.22222222       0.73449922 </v>
    <v>       0.88888889       0.22222222       0.73449922 </v>
    <v>       0.22222222       0.55555556       0.73449922 </v>
    <v>       0.55555556       0.55555556       0.73449922 </v>
    <v>       0.88888889       0.55555556       0.73449922 </v>
    <v>       0.22222222       0.88888889       0.73449922 </v>
    <v>       0.55555556       0.88888889       0.73449922 </v>
    <v>       0.88888889       0.88888889       0.73449922 </v>
    <v>       0.22222222       0.22222222       0.88972603 </v>
    <v>       0.55555556       0.22222222       0.88972603 </v>
    <v>       0.88888889       0.22222222       0.88972603 </v>
    <v>       0.22222222       0.55555556       0.88972603 </v>
    <v>       0.55555556       0.55555556       0.88972603 </v>
    <v>       0.88888889       0.55555556       0.88972603 </v>
    <v>       0.22222222       0.88888889       0.88972603 </v>
    <v>       0.55555556       0.88888889       0.88972603 </v>
    <v>       0.88888889       0.88888889       0.88972603 </v>
   </varray>
  </structure>
  <varray name="forces" >
   <v>       0.00740025       0.00834309      -0.02786297 </v>
   <v>      -0.04274731       0.02062177      -0.05287733 </v>
   <v>      -0.00047162      -0.00004584      -0.00127731 </v>
   <v>      -0.00703947      -0.02906622      -0.04047234 </v>
   <v>      -0.00066206      -0.00148053      -0.00214400 </v>
   <v>       0.00025030       0.00095502      -0.00075189 </v>
   <v>      -0.00023002      -0.00013931      -0.00126240 </v>
   <v>       0.00190368       0.00052554      -0.00144918 </v>
   <v>      -0.00015081       0.00018553      -0.00128998 </v>
   <v>       0.00001185       0.00000097      -0.00011115 </v>
   <v>       0.00003452       0.00000353      -0.00020990 </v>
   <v>      -0.00001181       0.00000108      -0.00020603 </v>
   <v>       0.00003369       0.00001632      -0.00020678 </v>
   <v>      -0.00000346      -0.00000065      -0.00019292 </v>
   <v>       0.00000625       0.00002037      -0.00021037 </v>
   <v>       0.00000606      -0.00002693      -0.00020367 </v>
   <v>       0.00002681      -0.00001496      -0.00021304 </v>
   <v>       0.00001850       0.00000066      -0.00021407 </v>
   <v>       0.04602338       0.00011911       0.12205301 </v>
   <v>      -0.00195279      -0.00012709       0.00383371 </v>
   <v>      -0.00367747      -0.00042186       0.00466977 </v>
   <v>      -0.00018471      -0.00069276       0.00392799 </v>
   <v>       0.00026211      -0.00000332       0.00032370 </v>
   <v>      -0.00055181       0.00243307       0.00456877 </v>
   <v>      -0.00102772      -0.00186127       0.00434410 </v>
   <v>       0.00029578       0.00066648       0.00414910 </v>
   <v>       0.00026309       0.00000122       0.00033700 </v>
   <v>       0.00122991       0.00000108      -0.01638259 </v>
   <v>      -0.00224082      -0.00181480      -0.00070508 </v>
   <v>       0.00091055      -0.00067310       0.00071002 </v>
   <v>      -0.00133226      -0.00087956       0.00012282 </v>
   <v>      -0.00006695      -0.00000214       0.00110947 </v>
   <v>       0.00239992      -0.00060954      -0.00012273 </v>
   <v>       0.00025837       0.00072497       0.00083742 </v>
   <v>       0.00083272       0.00323768      -0.00082379 </v>
   <v>      -0.00006235       0.00000134       0.00106293 </v>
   <v>      -0.00000804      -0.00001146      -0.00016139 </v>
   <v>       0.00000951      -0.00001327      -0.00008656 </v>
   <v>       0.00003539      -0.00001360      -0.00017107 </v>
   <v>       0.00000054       0.00001147      -0.00007828 </v>
   <v>       0.00002332       0.00000115      -0.00009611 </v>
   <v>       0.00001749      -0.00000123      -0.00013709 </v>
   <v>       0.00000104       0.00002543      -0.00016747 </v>
   <v>       0.00001399       0.00000863      -0.00013161 </v>
   <v>       0.00001575      -0.00000689      -0.00014399 </v>
   <v>       0.00001672      -0.00000438      -0.00019999 </v>
   <v>       0.00001138       0.00000134      -0.00017963 </v>
   <v>       0.00002032       0.00000200      -0.00020284 </v>
   <v>       0.00001901       0.00000316      -0.00017513 </v>
   <v>       0.00001586      -0.00000466      -0.00018279 </v>
   <v>       0.00000767      -0.00000217      -0.00018214 </v>
   <v>       0.00001274       0.00000244      -0.00020023 </v>
   <v>       0.00001471       0.00000291      -0.00018199 </v>
   <v>       0.00001828       0.00000016      -0.00018197 </v>
  </varray>
  <varray name="stress" >
   <v>     -20.54286545       0.01249516      -0.06047583 </v>
   <v>       0.01249520     -20.54394709      -0.00019360 </v>
   <v>      -0.06047575      -0.00019362      -1.08620189 </v>
  </varray>
  <energy>
   <i name="e_fr_energy">   -412.60767067 </i>
   <i name="e_wo_entrp">   -412.60767067 </i>
   <i name="e_0_energy">   -412.60767067 </i>
  </energy>
  <time name="totalsc">  180.62  180.71</time>
  <eigenvalues>
   <array>
    <dimension dim="1">band</dimension>
    <dimension dim="2">kpoint</dimension>
    <dimension dim="3">spin</dimension>
    <field>eigene</field>
    <field>occ</field>
    <set>
     <set comment="spin 1">
      <set comment="kpoint 1">
       <r>  -59.0895    1.0000 </r>
       <r>  -59.0625    1.0000 </r>
       <r>  -59.0625    1.0000 </r>
       <r>  -59.0625    1.0000 </r>
       <r>  -59.0625    1.0000 </r>
       <r>  -59.0625    1.0000 </r>
       <r>  -59.0625    1.0000 </r>
       <r>  -59.0489    1.0000 </r>
       <r>  -59.0489    1.0000 </r>
       <r>  -59.0177    1.0000 </r>
       <r>  -58.9913    1.0000 </r>
       <r>  -58.9911    1.0000 </r>
       <r>  -58.9909    1.0000 </r>
       <r>  -58.9903    1.0000 </r>
       <r>  -58.9902    1.0000 </r>
       <r>  -58.9902    1.0000 </r>
       <r>  -58.9771    1.0000 </r>
       <r>  -58.9770    1.0000 </r>
       <r>  -33.3060    1.0000 </r>
       <r>  -33.3060    1.0000 </r>
       <r>  -33.3060    1.0000 </r>
       <r>  -33.3060    1.0000 </r>
       <r>  -33.3060    1.0000 </r>
       <r>  -33.3060    1.0000 </r>
       <r>  -33.3060    1.0000 </r>
       <r>  -33.3060    1.0000 </r>
       <r>  -33.2633    1.0000 </r>
       <r>  -33.2633    1.0000 </r>
       <r>  -33.2344    1.0000 </r>
       <r>  -33.2344    1.0000 </r>
       <r>  -33.2343    1.0000 </r>
       <r>  -33.2338    1.0000 </r>
       <r>  -33.2337    1.0000 </r>
       <r>  -33.2337    1.0000 </r>
       <r>  -33.2335    1.0000 </r>
       <r>  -33.2326    1.0000 </r>
       <r>  -33.2266    1.0000 </r>
       <r>  -33.1912    1.0000 </r>
       <r>  -33.1911    1.0000 </r>
       <r>  -33.1721    1.0000 </r>
       <r>  -33.1721    1.0000 </r>
       <r>  -33.1721    1.0000 </r>
       <r>  -33.1721    1.0000 </r>
       <r>  -33.1721    1.0000 </r>
       <r>  -33.1721    1.0000 </r>
       <r>  -33.1550    1.0000 </r>
       <r>  -33.1447    1.0000 </r>
       <r>  -33.1447    1.0000 </r>
       <r>  -33.1010    1.0000 </r>
       <r>  -33.1008    1.0000 </r>
       <r>  -33.1006    1.0000 </r>
       <r>  -33.1003    1.0000 </r>
       <r>  -33.1002    1.0000 </r>
       <r>  -33.1001    1.0000 </r>
       <r>  -33.0961    1.0000 </r>
       <r>  -33.0961    1.0000 </r>
       <r>  -33.0961    1.0000 </r>
       <r>  -33.0961    1.0000 </r>
       <r>  -33.0961    1.0000 </r>
       <r>  -33.0961    1.0000 </r>
       <r>  -33.0732    1.0000 </r>
       <r>  -33.0731    1.0000 </r>
       <r>  -33.0331    1.0000 </r>
       <r>  -33.0331    1.0000 </r>
       <r>  -33.0248    1.0000 </r>
       <r>  -33.0240    1.0000 </r>
       <r>  -33.0240    1.0000 </r>
       <r>  -33.0239    1.0000 </r>
       <r>  -33.0236    1.0000 </r>
       <r>  -33.0235    1.0000 </r>
       <r>  -32.9611    1.0000 </r>
       <r>  -32.9610    1.0000 </r>
       <r>  -12.3903    1.0000 </r>
       <r>  -12.1866    1.0000 </r>
       <r>  -11.0928    1.0000 </r>
       <r>  -11.0846    1.0000 </r>
       <r>  -11.0846    1.0000 </r>
       <r>  -11.0846    1.0000 </r>
       <r>  -11.0846    1.0000 </r>
       <r>  -11.0846    1.0000 </r>
       <r>  -11.0828    1.0000 </r>
       <r>  -10.9185    1.0000 </r>
       <r>  -10.9184    1.0000 </r>
       <r>  -10.9183    1.0000 </r>
       <r>  -10.9182    1.0000 </r>
       <r>  -10.9182    1.0000 </r>
       <r>  -10.9116    1.0000 </r>
       <r>  -10.7994    1.0000 </r>
       <r>  -10.5151    1.0000 </r>
       <r>  -10.5150    1.0000 </r>
       <r>  -10.5149    1.0000 </r>
       <r>  -10.5148    1.0000 </r>
       <r>  -10.5148    1.0000 </r>
       <r>  -10.5126    1.0000 </r>
       <r>  -10.3473    1.0000 </r>
       <r>  -10.3472    1.0000 </r>
       <r>  -10.3470    1.0000 </r>
       <r>  -10.3470    1.0000 </r>
       <r>  -10.3469    1.0000 </r>
       <r>  -10.3448    1.0000 </r>
       <r>  -10.2187    1.0000 </r>
       <r>  -10.2187    1.0000 </r>
       <r>  -10.1494    1.0000 </r>
       <r>  -10.1472    1.0000 </r>
       <r>  -10.1119    1.0000 </r>
       <r>  -10.1119    1.0000 </r>
       <r>  -10.0387    1.0000 </r>
       <r>  -10.0353    1.0000 </r>
       <r>   -4.1564    1.0000 </r>
       <r>   -3.6329    1.0000 </r>
       <r>   -3.6329    1.0000 </r>
       <r>   -3.5972    1.0000 </r>
       <r>   -3.5971    1.0000 </r>
       <r>   -3.5971    1.0000 </r>
       <r>   -3.5965    1.0000 </r>
       <r>   -3.5962    1.0000 </r>
       <r>   -3.5948    1.0000 </r>
       <r>   -3.5713    1.0000 </r>
       <r>   -3.5702    1.0000 </r>
       <r>   -3.5155    1.0000 </r>
       <r>   -3.3551    1.0000 </r>
       <r>   -3.3549    1.0000 </r>
       <r>   -3.3548    1.0000 </r>
       <r>   -3.3532    1.0000 </r>
       <r>   -3.3526    1.0000 </r>
       <r>   -3.3510    1.0000 </r>
       <r>   -2.8558    1.0000 </r>
       <r>   -2.8557    1.0000 </r>
       <r>   -2.7501    1.0000 </r>
       <r>   -2.7480    1.0000 </r>
       <r>   -2.5426    1.0000 </r>
       <r>   -2.5425    1.0000 </r>
       <r>   -2.5425    1.0000 </r>
       <r>   -2.5424    1.0000 </r>
       <r>   -2.5415    1.0000 </r>
       <r>   -2.5413    1.0000 </r>
       <r>   -2.3205    1.0000 </r>
       <r>   -2.3199    1.0000 </r>
       <r>   -2.3194    1.0000 </r>
       <r>   -2.3185    1.0000 </r>
       <r>   -2.3181    1.0000 </r>
       <r>   -2.3174    1.0000 </r>
       <r>   -2.3042    1.0000 </r>
       <r>   -2.3017    1.0000 </r>
       <r>   -2.2800    1.0000 </r>
       <r>   -2.2798    1.0000 </r>
       <r>   -2.1483    1.0000 </r>
       <r>   -2.1478    1.0000 </r>
       <r>   -2.1478    1.0000 </r>
       <r>   -2.1477    1.0000 </r>
       <r>   -2.1477    1.0000 </r>
       <r>   -2.1469    1.0000 </r>
       <r>   -1.9318    1.0000 </r>
       <r>   -1.9313    1.0000 </r>
       <r>   -1.9311    1.0000 </r>
       <r>   -1.9298    1.0000 </r>
       <r>   -1.9293    1.0000 </r>
       <r>   -1.9290    1.0000 </r>
       <r>   -1.8014    1.0000 </r>
       <r>   -1.7994    1.0000 </r>
       <r>   -1.7548    1.0000 </r>
       <r>   -1.7545    1.0000 </r>
       <r>   -1.1171    1.0000 </r>
       <r>   -1.1171    1.0000 </r>
       <r>   -1.1171    1.0000 </r>
       <r>   -1.1170    1.0000 </r>
       <r>   -1.1167    1.0000 </r>
       <r>   -1.1164    1.0000 </r>
       <r>   -1.0831    1.0000 </r>
       <r>   -1.0830    1.0000 </r>
       <r>   -1.0276    1.0000 </r>
       <r>   -1.0274    1.0000 </r>
       <r>   -1.0273    1.0000 </r>
       <r>   -1.0270    1.0000 </r>
       <r>   -1.0232    1.0000 </r>
       <r>   -1.0212    1.0000 </r>
       <r>   -1.0129    1.0000 </r>
       <r>   -1.0100    1.0000 </r>
       <r>   -0.8870    1.0000 </r>
       <r>   -0.8870    1.0000 </r>
       <r>   -0.8126    1.0000 </r>
       <r>   -0.8121    1.0000 </r>
       <r>   -0.4817    1.0000 </r>
       <r>   -0.3759    1.0000 </r>
       <r>   -0.3759    1.0000 </r>
       <r>   -0.2130    1.0000 </r>
       <r>   -0.2115    1.0000 </r>
       <r>    0.0156    1.0000 </r>
       <r>    0.0170    1.0000 </r>
       <r>    0.0172    1.0000 </r>
       <r>    0.0173    1.0000 </r>
       <r>    0.0176    1.0000 </r>
       <r>    0.0177    1.0000 </r>
       <r>    0.2193    1.0000 </r>
       <r>    0.2194    1.0000 </r>
       <r>    0.2952    1.0000 </r>
       <r>    0.2971    1.0000 </r>
       <r>    0.3297    1.0000 </r>
       <r>    0.3297    1.0000 </r>
       <r>    0.3297    1.0000 </r>
       <r>    0.3297    1.0000 </r>
       <r>    0.3308    1.0000 </r>
       <r>    0.3309    1.0000 </r>
       <r>    0.4143    1.0000 </r>
       <r>    0.4190    1.0000 </r>
       <r>    0.4191    1.0000 </r>
       <r>    0.4199    1.0000 </r>
       <r>    0.4199    1.0000 </r>
       <r>    0.4200    1.0000 </r>
       <r>    0.4364    1.0000 </r>
       <r>    0.4366    1.0000 </r>
       <r>    0.4366    1.0000 </r>
       <r>    0.4367    1.0000 </r>
       <r>    0.4419    1.0000 </r>
       <r>    0.4420    1.0000 </r>
       <r>    0.6856    1.0000 </r>
       <r>    0.8114    1.0000 </r>
       <r>    0.8119    1.0000 </r>
       <r>    0.8120    1.0000 </r>
       <r>    0.8120    1.0000 </r>
       <r>    0.8120    1.0000 </r>
       <r>    0.8122    1.0000 </r>
       <r>    0.9368    1.0000 </r>
       <r>    0.9386    1.0000 </r>
       <r>    0.9388    1.0000 </r>
       <r>    0.9389    1.0000 </r>
       <r>    0.9392    1.0000 </r>
       <r>    0.9402    1.0000 </r>
       <r>    1.6892    1.0000 </r>
       <r>    1.7473    1.0000 </r>
       <r>    1.7473    1.0000 </r>
       <r>    1.8304    1.0000 </r>
       <r>    1.8309    1.0000 </r>
       <r>    2.4625    1.0000 </r>
       <r>    3.3918    0.0000 </r>
       <r>    3.3918    0.0000 </r>
       <r>    3.4630    0.0000 </r>
       <r>    3.4634    0.0000 </r>
       <r>    3.9406    0.0000 </r>
       <r>    3.9407    0.0000 </r>
       <r>    3.9410    0.0000 </r>
       <r>    3.9411    0.0000 </r>
       <r>    3.9413    0.0000 </r>
       <r>    3.9413    0.0000 </r>
       <r>    4.0054    0.0000 </r>
       <r>    4.0057    0.0000 </r>
       <r>    4.0059    0.0000 </r>
       <r>    4.0066    0.0000 </r>
       <r>    4.0067    0.0000 </r>
       <r>    4.0068    0.0000 </r>
       <r>    4.0674    0.0000 </r>
       <r>    4.0677    0.0000 </r>
       <r>    4.0695    0.0000 </r>
       <r>    4.0698    0.0000 </r>
       <r>    4.0702    0.0000 </r>
       <r>    4.0704    0.0000 </r>
       <r>    4.3833    0.0000 </r>
       <r>    4.3847    0.0000 </r>
       <r>    4.3854    0.0000 </r>
       <r>    4.3871    0.0000 </r>
       <r>    4.3873    0.0000 </r>
       <r>    4.3874    0.0000 </r>
       <r>    4.4873    0.0000 </r>
       <r>    4.4877    0.0000 </r>
       <r>    4.5807    0.0000 </r>
       <r>    4.5824    0.0000 </r>
       <r>    4.7689    0.0000 </r>
       <r>    4.7691    0.0000 </r>
       <r>    4.8321    0.0000 </r>
       <r>    4.8331    0.0000 </r>
       <r>    4.8452    0.0000 </r>
       <r>    4.8452    0.0000 </r>
       <r>    4.8746    0.0000 </r>
       <r>    4.8755    0.0000 </r>
       <r>    5.1208    0.0000 </r>
       <r>    5.1225    0.0000 </r>
       <r>    5.1227    0.0000 </r>
       <r>    5.1235    0.0000 </r>
       <r>    5.1238    0.0000 </r>
       <r>    5.1239    0.0000 </r>
       <r>    5.3645    0.0000 </r>
       <r>    5.3689    0.0000 </r>
       <r>    5.4562    0.0000 </r>
       <r>    5.4632    0.0000 </r>
       <r>    5.4673    0.0000 </r>
       <r>    5.4680    0.0000 </r>
      </set>
      <set comment="kpoint 2">
       <r>  -59.0880    1.0000 </r>
       <r>  -59.0696    1.0000 </r>
       <r>  -59.0653    1.0000 </r>
       <r>  -59.0653    1.0000 </r>
       <r>  -59.0589    1.0000 </r>
       <r>  -59.0589    1.0000 </r>
       <r>  -59.0569    1.0000 </r>
       <r>  -59.0497    1.0000 </r>
       <r>  -59.0497    1.0000 </r>
       <r>  -59.0162    1.0000 </r>
       <r>  -58.9978    1.0000 </r>
       <r>  -58.9935    1.0000 </r>
       <r>  -58.9934    1.0000 </r>
       <r>  -58.9872    1.0000 </r>
       <r>  -58.9870    1.0000 </r>
       <r>  -58.9850    1.0000 </r>
       <r>  -58.9779    1.0000 </r>
       <r>  -58.9778    1.0000 </r>
       <r>  -33.3608    1.0000 </r>
       <r>  -33.3339    1.0000 </r>
       <r>  -33.3339    1.0000 </r>
       <r>  -33.3266    1.0000 </r>
       <r>  -33.3266    1.0000 </r>
       <r>  -33.2886    1.0000 </r>
       <r>  -33.2728    1.0000 </r>
       <r>  -33.2728    1.0000 </r>
       <r>  -33.2620    1.0000 </r>
       <r>  -33.2615    1.0000 </r>
       <r>  -33.2548    1.0000 </r>
       <r>  -33.2541    1.0000 </r>
       <r>  -33.2352    1.0000 </r>
       <r>  -33.2330    1.0000 </r>
       <r>  -33.2330    1.0000 </r>
       <r>  -33.2235    1.0000 </r>
       <r>  -33.2009    1.0000 </r>
       <r>  -33.2005    1.0000 </r>
       <r>  -33.1865    1.0000 </r>
       <r>  -33.1777    1.0000 </r>
       <r>  -33.1777    1.0000 </r>
       <r>  -33.1648    1.0000 </r>
       <r>  -33.1648    1.0000 </r>
       <r>  -33.1630    1.0000 </r>
       <r>  -33.1609    1.0000 </r>
       <r>  -33.1608    1.0000 </r>
       <r>  -33.1607    1.0000 </r>
       <r>  -33.1519    1.0000 </r>
       <r>  -33.1463    1.0000 </r>
       <r>  -33.1463    1.0000 </r>
       <r>  -33.1149    1.0000 </r>
       <r>  -33.1118    1.0000 </r>
       <r>  -33.1118    1.0000 </r>
       <r>  -33.1089    1.0000 </r>
       <r>  -33.1062    1.0000 </r>
       <r>  -33.1061    1.0000 </r>
       <r>  -33.0954    1.0000 </r>
       <r>  -33.0954    1.0000 </r>
       <r>  -33.0933    1.0000 </r>
       <r>  -33.0932    1.0000 </r>
       <r>  -33.0892    1.0000 </r>
       <r>  -33.0796    1.0000 </r>
       <r>  -33.0747    1.0000 </r>
       <r>  -33.0747    1.0000 </r>
       <r>  -33.0492    1.0000 </r>
       <r>  -33.0399    1.0000 </r>
       <r>  -33.0395    1.0000 </r>
       <r>  -33.0368    1.0000 </r>
       <r>  -33.0368    1.0000 </r>
       <r>  -33.0234    1.0000 </r>
       <r>  -33.0231    1.0000 </r>
       <r>  -33.0075    1.0000 </r>
       <r>  -32.9771    1.0000 </r>
       <r>  -32.9647    1.0000 </r>
       <r>  -12.3250    1.0000 </r>
       <r>  -12.1219    1.0000 </r>
       <r>  -11.4739    1.0000 </r>
       <r>  -11.2885    1.0000 </r>
       <r>  -11.2435    1.0000 </r>
       <r>  -11.2428    1.0000 </r>
       <r>  -11.0683    1.0000 </r>
       <r>  -11.0661    1.0000 </r>
       <r>  -11.0634    1.0000 </r>
       <r>  -10.8731    1.0000 </r>
       <r>  -10.8725    1.0000 </r>
       <r>  -10.7757    1.0000 </r>
       <r>  -10.7415    1.0000 </r>
       <r>  -10.7210    1.0000 </r>
       <r>  -10.7186    1.0000 </r>
       <r>  -10.6847    1.0000 </r>
       <r>  -10.6014    1.0000 </r>
       <r>  -10.5824    1.0000 </r>
       <r>  -10.5817    1.0000 </r>
       <r>  -10.4748    1.0000 </r>
       <r>  -10.4213    1.0000 </r>
       <r>  -10.4205    1.0000 </r>
       <r>  -10.3963    1.0000 </r>
       <r>  -10.3957    1.0000 </r>
       <r>  -10.3684    1.0000 </r>
       <r>  -10.2782    1.0000 </r>
       <r>  -10.2774    1.0000 </r>
       <r>  -10.2763    1.0000 </r>
       <r>  -10.2762    1.0000 </r>
       <r>  -10.2431    1.0000 </r>
       <r>  -10.1941    1.0000 </r>
       <r>  -10.1921    1.0000 </r>
       <r>  -10.1356    1.0000 </r>
       <r>  -10.1351    1.0000 </r>
       <r>  -10.0618    1.0000 </r>
       <r>  -10.0589    1.0000 </r>
       <r>   -4.0829    1.0000 </r>
       <r>   -3.8394    1.0000 </r>
       <r>   -3.6874    1.0000 </r>
       <r>   -3.6786    1.0000 </r>
       <r>   -3.6784    1.0000 </r>
       <r>   -3.5429    1.0000 </r>
       <r>   -3.5429    1.0000 </r>
       <r>   -3.4895    1.0000 </r>
       <r>   -3.4893    1.0000 </r>
       <r>   -3.4821    1.0000 </r>
       <r>   -3.4816    1.0000 </r>
       <r>   -3.4810    1.0000 </r>
       <r>   -3.4799    1.0000 </r>
       <r>   -3.4794    1.0000 </r>
       <r>   -3.4429    1.0000 </r>
       <r>   -3.1591    1.0000 </r>
       <r>   -3.1589    1.0000 </r>
       <r>   -3.1565    1.0000 </r>
       <r>   -3.1558    1.0000 </r>
       <r>   -3.0435    1.0000 </r>
       <r>   -3.0273    1.0000 </r>
       <r>   -3.0263    1.0000 </r>
       <r>   -2.8597    1.0000 </r>
       <r>   -2.7212    1.0000 </r>
       <r>   -2.7210    1.0000 </r>
       <r>   -2.6644    1.0000 </r>
       <r>   -2.5416    1.0000 </r>
       <r>   -2.5413    1.0000 </r>
       <r>   -2.3514    1.0000 </r>
       <r>   -2.3508    1.0000 </r>
       <r>   -2.2693    1.0000 </r>
       <r>   -2.1985    1.0000 </r>
       <r>   -2.1932    1.0000 </r>
       <r>   -2.1928    1.0000 </r>
       <r>   -2.1789    1.0000 </r>
       <r>   -2.1786    1.0000 </r>
       <r>   -2.1656    1.0000 </r>
       <r>   -2.1648    1.0000 </r>
       <r>   -2.0773    1.0000 </r>
       <r>   -2.0361    1.0000 </r>
       <r>   -2.0358    1.0000 </r>
       <r>   -2.0303    1.0000 </r>
       <r>   -1.9812    1.0000 </r>
       <r>   -1.9808    1.0000 </r>
       <r>   -1.9627    1.0000 </r>
       <r>   -1.9615    1.0000 </r>
       <r>   -1.9239    1.0000 </r>
       <r>   -1.8708    1.0000 </r>
       <r>   -1.8699    1.0000 </r>
       <r>   -1.6863    1.0000 </r>
       <r>   -1.6859    1.0000 </r>
       <r>   -1.6733    1.0000 </r>
       <r>   -1.4822    1.0000 </r>
       <r>   -1.4817    1.0000 </r>
       <r>   -1.3233    1.0000 </r>
       <r>   -1.3229    1.0000 </r>
       <r>   -1.3159    1.0000 </r>
       <r>   -1.2238    1.0000 </r>
       <r>   -1.2218    1.0000 </r>
       <r>   -1.2213    1.0000 </r>
       <r>   -1.2147    1.0000 </r>
       <r>   -1.2128    1.0000 </r>
       <r>   -1.1563    1.0000 </r>
       <r>   -1.1560    1.0000 </r>
       <r>   -1.0642    1.0000 </r>
       <r>   -1.0628    1.0000 </r>
       <r>   -1.0419    1.0000 </r>
       <r>   -1.0398    1.0000 </r>
       <r>   -1.0352    1.0000 </r>
       <r>   -0.9601    1.0000 </r>
       <r>   -0.8366    1.0000 </r>
       <r>   -0.8192    1.0000 </r>
       <r>   -0.7483    1.0000 </r>
       <r>   -0.7432    1.0000 </r>
       <r>   -0.6999    1.0000 </r>
       <r>   -0.2470    1.0000 </r>
       <r>   -0.2469    1.0000 </r>
       <r>   -0.1357    1.0000 </r>
       <r>   -0.0974    1.0000 </r>
       <r>   -0.0962    1.0000 </r>
       <r>   -0.0783    1.0000 </r>
       <r>    0.0099    1.0000 </r>
       <r>    0.0338    1.0000 </r>
       <r>    0.0341    1.0000 </r>
       <r>    0.0445    1.0000 </r>
       <r>    0.0447    1.0000 </r>
       <r>    0.0994    1.0000 </r>
       <r>    0.1129    1.0000 </r>
       <r>    0.1348    1.0000 </r>
       <r>    0.1364    1.0000 </r>
       <r>    0.1906    1.0000 </r>
       <r>    0.2008    1.0000 </r>
       <r>    0.2010    1.0000 </r>
       <r>    0.2416    1.0000 </r>
       <r>    0.2434    1.0000 </r>
       <r>    0.2913    1.0000 </r>
       <r>    0.2919    1.0000 </r>
       <r>    0.2970    1.0000 </r>
       <r>    0.2978    1.0000 </r>
       <r>    0.3891    1.0000 </r>
       <r>    0.3899    1.0000 </r>
       <r>    0.4032    1.0000 </r>
       <r>    0.5665    1.0000 </r>
       <r>    0.6184    1.0000 </r>
       <r>    0.6200    1.0000 </r>
       <r>    0.6730    1.0000 </r>
       <r>    0.6990    1.0000 </r>
       <r>    0.8965    1.0000 </r>
       <r>    0.9070    1.0000 </r>
       <r>    0.9070    1.0000 </r>
       <r>    0.9091    1.0000 </r>
       <r>    0.9631    1.0000 </r>
       <r>    0.9633    1.0000 </r>
       <r>    0.9875    1.0000 </r>
       <r>    1.0032    1.0000 </r>
       <r>    1.0037    1.0000 </r>
       <r>    1.0527    1.0000 </r>
       <r>    1.0545    1.0000 </r>
       <r>    1.0553    1.0000 </r>
       <r>    1.1093    1.0000 </r>
       <r>    1.6108    1.0000 </r>
       <r>    1.6108    1.0000 </r>
       <r>    1.6716    1.0000 </r>
       <r>    1.6971    1.0000 </r>
       <r>    1.6975    1.0000 </r>
       <r>    2.3490    1.0000 </r>
       <r>    3.5612    0.0000 </r>
       <r>    3.5612    0.0000 </r>
       <r>    3.6388    0.0000 </r>
       <r>    3.6393    0.0000 </r>
       <r>    3.7788    0.0000 </r>
       <r>    3.7792    0.0000 </r>
       <r>    3.8640    0.0000 </r>
       <r>    3.8836    0.0000 </r>
       <r>    3.8842    0.0000 </r>
       <r>    3.9409    0.0000 </r>
       <r>    3.9826    0.0000 </r>
       <r>    3.9830    0.0000 </r>
       <r>    4.0197    0.0000 </r>
       <r>    4.0207    0.0000 </r>
       <r>    4.0355    0.0000 </r>
       <r>    4.0388    0.0000 </r>
       <r>    4.1695    0.0000 </r>
       <r>    4.1701    0.0000 </r>
       <r>    4.1900    0.0000 </r>
       <r>    4.2266    0.0000 </r>
       <r>    4.2271    0.0000 </r>
       <r>    4.2391    0.0000 </r>
       <r>    4.2789    0.0000 </r>
       <r>    4.3508    0.0000 </r>
       <r>    4.3516    0.0000 </r>
       <r>    4.4209    0.0000 </r>
       <r>    4.4415    0.0000 </r>
       <r>    4.4418    0.0000 </r>
       <r>    4.4956    0.0000 </r>
       <r>    4.5085    0.0000 </r>
       <r>    4.5826    0.0000 </r>
       <r>    4.6272    0.0000 </r>
       <r>    4.6638    0.0000 </r>
       <r>    4.7106    0.0000 </r>
       <r>    4.7394    0.0000 </r>
       <r>    4.7431    0.0000 </r>
       <r>    4.8090    0.0000 </r>
       <r>    4.8094    0.0000 </r>
       <r>    4.8137    0.0000 </r>
       <r>    4.8424    0.0000 </r>
       <r>    4.8432    0.0000 </r>
       <r>    4.9050    0.0000 </r>
       <r>    4.9051    0.0000 </r>
       <r>    5.1181    0.0000 </r>
       <r>    5.1407    0.0000 </r>
       <r>    5.1411    0.0000 </r>
       <r>    5.1728    0.0000 </r>
       <r>    5.1754    0.0000 </r>
       <r>    5.1831    0.0000 </r>
       <r>    5.1840    0.0000 </r>
       <r>    5.3371    0.0000 </r>
       <r>    5.3834    0.0000 </r>
      </set>
      <set comment="kpoint 3">
       <r>  -59.0880    1.0000 </r>
       <r>  -59.0696    1.0000 </r>
       <r>  -59.0653    1.0000 </r>
       <r>  -59.0653    1.0000 </r>
       <r>  -59.0589    1.0000 </r>
       <r>  -59.0589    1.0000 </r>
       <r>  -59.0569    1.0000 </r>
       <r>  -59.0497    1.0000 </r>
       <r>  -59.0497    1.0000 </r>
       <r>  -59.0162    1.0000 </r>
       <r>  -58.9978    1.0000 </r>
       <r>  -58.9936    1.0000 </r>
       <r>  -58.9934    1.0000 </r>
       <r>  -58.9871    1.0000 </r>
       <r>  -58.9871    1.0000 </r>
       <r>  -58.9850    1.0000 </r>
       <r>  -58.9779    1.0000 </r>
       <r>  -58.9778    1.0000 </r>
       <r>  -33.3608    1.0000 </r>
       <r>  -33.3339    1.0000 </r>
       <r>  -33.3339    1.0000 </r>
       <r>  -33.3266    1.0000 </r>
       <r>  -33.3266    1.0000 </r>
       <r>  -33.2886    1.0000 </r>
       <r>  -33.2728    1.0000 </r>
       <r>  -33.2728    1.0000 </r>
       <r>  -33.2620    1.0000 </r>
       <r>  -33.2615    1.0000 </r>
       <r>  -33.2548    1.0000 </r>
       <r>  -33.2540    1.0000 </r>
       <r>  -33.2352    1.0000 </r>
       <r>  -33.2330    1.0000 </r>
       <r>  -33.2330    1.0000 </r>
       <r>  -33.2235    1.0000 </r>
       <r>  -33.2009    1.0000 </r>
       <r>  -33.2004    1.0000 </r>
       <r>  -33.1865    1.0000 </r>
       <r>  -33.1777    1.0000 </r>
       <r>  -33.1777    1.0000 </r>
       <r>  -33.1648    1.0000 </r>
       <r>  -33.1648    1.0000 </r>
       <r>  -33.1631    1.0000 </r>
       <r>  -33.1610    1.0000 </r>
       <r>  -33.1608    1.0000 </r>
       <r>  -33.1607    1.0000 </r>
       <r>  -33.1519    1.0000 </r>
       <r>  -33.1463    1.0000 </r>
       <r>  -33.1463    1.0000 </r>
       <r>  -33.1149    1.0000 </r>
       <r>  -33.1118    1.0000 </r>
       <r>  -33.1118    1.0000 </r>
       <r>  -33.1089    1.0000 </r>
       <r>  -33.1062    1.0000 </r>
       <r>  -33.1061    1.0000 </r>
       <r>  -33.0954    1.0000 </r>
       <r>  -33.0954    1.0000 </r>
       <r>  -33.0933    1.0000 </r>
       <r>  -33.0933    1.0000 </r>
       <r>  -33.0892    1.0000 </r>
       <r>  -33.0796    1.0000 </r>
       <r>  -33.0747    1.0000 </r>
       <r>  -33.0747    1.0000 </r>
       <r>  -33.0492    1.0000 </r>
       <r>  -33.0399    1.0000 </r>
       <r>  -33.0395    1.0000 </r>
       <r>  -33.0368    1.0000 </r>
       <r>  -33.0368    1.0000 </r>
       <r>  -33.0235    1.0000 </r>
       <r>  -33.0231    1.0000 </r>
       <r>  -33.0074    1.0000 </r>
       <r>  -32.9771    1.0000 </r>
       <r>  -32.9647    1.0000 </r>
       <r>  -12.3250    1.0000 </r>
       <r>  -12.1219    1.0000 </r>
       <r>  -11.4738    1.0000 </r>
       <r>  -11.2884    1.0000 </r>
       <r>  -11.2435    1.0000 </r>
       <r>  -11.2429    1.0000 </r>
       <r>  -11.0683    1.0000 </r>
       <r>  -11.0663    1.0000 </r>
       <r>  -11.0634    1.0000 </r>
       <r>  -10.8731    1.0000 </r>
       <r>  -10.8725    1.0000 </r>
       <r>  -10.7757    1.0000 </r>
       <r>  -10.7414    1.0000 </r>
       <r>  -10.7210    1.0000 </r>
       <r>  -10.7188    1.0000 </r>
       <r>  -10.6848    1.0000 </r>
       <r>  -10.6012    1.0000 </r>
       <r>  -10.5825    1.0000 </r>
       <r>  -10.5816    1.0000 </r>
       <r>  -10.4750    1.0000 </r>
       <r>  -10.4213    1.0000 </r>
       <r>  -10.4204    1.0000 </r>
       <r>  -10.3963    1.0000 </r>
       <r>  -10.3954    1.0000 </r>
       <r>  -10.3684    1.0000 </r>
       <r>  -10.2782    1.0000 </r>
       <r>  -10.2772    1.0000 </r>
       <r>  -10.2763    1.0000 </r>
       <r>  -10.2761    1.0000 </r>
       <r>  -10.2434    1.0000 </r>
       <r>  -10.1941    1.0000 </r>
       <r>  -10.1921    1.0000 </r>
       <r>  -10.1356    1.0000 </r>
       <r>  -10.1351    1.0000 </r>
       <r>  -10.0618    1.0000 </r>
       <r>  -10.0589    1.0000 </r>
       <r>   -4.0829    1.0000 </r>
       <r>   -3.8394    1.0000 </r>
       <r>   -3.6875    1.0000 </r>
       <r>   -3.6787    1.0000 </r>
       <r>   -3.6782    1.0000 </r>
       <r>   -3.5429    1.0000 </r>
       <r>   -3.5429    1.0000 </r>
       <r>   -3.4895    1.0000 </r>
       <r>   -3.4891    1.0000 </r>
       <r>   -3.4821    1.0000 </r>
       <r>   -3.4817    1.0000 </r>
       <r>   -3.4808    1.0000 </r>
       <r>   -3.4802    1.0000 </r>
       <r>   -3.4793    1.0000 </r>
       <r>   -3.4429    1.0000 </r>
       <r>   -3.1591    1.0000 </r>
       <r>   -3.1589    1.0000 </r>
       <r>   -3.1566    1.0000 </r>
       <r>   -3.1557    1.0000 </r>
       <r>   -3.0434    1.0000 </r>
       <r>   -3.0272    1.0000 </r>
       <r>   -3.0263    1.0000 </r>
       <r>   -2.8597    1.0000 </r>
       <r>   -2.7212    1.0000 </r>
       <r>   -2.7209    1.0000 </r>
       <r>   -2.6641    1.0000 </r>
       <r>   -2.5416    1.0000 </r>
       <r>   -2.5412    1.0000 </r>
       <r>   -2.3515    1.0000 </r>
       <r>   -2.3506    1.0000 </r>
       <r>   -2.2693    1.0000 </r>
       <r>   -2.1985    1.0000 </r>
       <r>   -2.1931    1.0000 </r>
       <r>   -2.1929    1.0000 </r>
       <r>   -2.1789    1.0000 </r>
       <r>   -2.1787    1.0000 </r>
       <r>   -2.1654    1.0000 </r>
       <r>   -2.1651    1.0000 </r>
       <r>   -2.0772    1.0000 </r>
       <r>   -2.0363    1.0000 </r>
       <r>   -2.0359    1.0000 </r>
       <r>   -2.0299    1.0000 </r>
       <r>   -1.9814    1.0000 </r>
       <r>   -1.9809    1.0000 </r>
       <r>   -1.9625    1.0000 </r>
       <r>   -1.9621    1.0000 </r>
       <r>   -1.9238    1.0000 </r>
       <r>   -1.8710    1.0000 </r>
       <r>   -1.8702    1.0000 </r>
       <r>   -1.6865    1.0000 </r>
       <r>   -1.6855    1.0000 </r>
       <r>   -1.6734    1.0000 </r>
       <r>   -1.4822    1.0000 </r>
       <r>   -1.4815    1.0000 </r>
       <r>   -1.3233    1.0000 </r>
       <r>   -1.3230    1.0000 </r>
       <r>   -1.3159    1.0000 </r>
       <r>   -1.2234    1.0000 </r>
       <r>   -1.2218    1.0000 </r>
       <r>   -1.2211    1.0000 </r>
       <r>   -1.2146    1.0000 </r>
       <r>   -1.2140    1.0000 </r>
       <r>   -1.1564    1.0000 </r>
       <r>   -1.1562    1.0000 </r>
       <r>   -1.0642    1.0000 </r>
       <r>   -1.0630    1.0000 </r>
       <r>   -1.0415    1.0000 </r>
       <r>   -1.0402    1.0000 </r>
       <r>   -1.0351    1.0000 </r>
       <r>   -0.9596    1.0000 </r>
       <r>   -0.8365    1.0000 </r>
       <r>   -0.8192    1.0000 </r>
       <r>   -0.7478    1.0000 </r>
       <r>   -0.7432    1.0000 </r>
       <r>   -0.7001    1.0000 </r>
       <r>   -0.2469    1.0000 </r>
       <r>   -0.2469    1.0000 </r>
       <r>   -0.1357    1.0000 </r>
       <r>   -0.0974    1.0000 </r>
       <r>   -0.0960    1.0000 </r>
       <r>   -0.0790    1.0000 </r>
       <r>    0.0099    1.0000 </r>
       <r>    0.0339    1.0000 </r>
       <r>    0.0340    1.0000 </r>
       <r>    0.0445    1.0000 </r>
       <r>    0.0448    1.0000 </r>
       <r>    0.0992    1.0000 </r>
       <r>    0.1130    1.0000 </r>
       <r>    0.1346    1.0000 </r>
       <r>    0.1362    1.0000 </r>
       <r>    0.1922    1.0000 </r>
       <r>    0.2009    1.0000 </r>
       <r>    0.2011    1.0000 </r>
       <r>    0.2415    1.0000 </r>
       <r>    0.2431    1.0000 </r>
       <r>    0.2920    1.0000 </r>
       <r>    0.2928    1.0000 </r>
       <r>    0.2971    1.0000 </r>
       <r>    0.2977    1.0000 </r>
       <r>    0.3893    1.0000 </r>
       <r>    0.3897    1.0000 </r>
       <r>    0.4025    1.0000 </r>
       <r>    0.5666    1.0000 </r>
       <r>    0.6184    1.0000 </r>
       <r>    0.6201    1.0000 </r>
       <r>    0.6728    1.0000 </r>
       <r>    0.6992    1.0000 </r>
       <r>    0.8963    1.0000 </r>
       <r>    0.9070    1.0000 </r>
       <r>    0.9071    1.0000 </r>
       <r>    0.9089    1.0000 </r>
       <r>    0.9631    1.0000 </r>
       <r>    0.9633    1.0000 </r>
       <r>    0.9874    1.0000 </r>
       <r>    1.0038    1.0000 </r>
       <r>    1.0044    1.0000 </r>
       <r>    1.0524    1.0000 </r>
       <r>    1.0537    1.0000 </r>
       <r>    1.0554    1.0000 </r>
       <r>    1.1087    1.0000 </r>
       <r>    1.6108    1.0000 </r>
       <r>    1.6108    1.0000 </r>
       <r>    1.6716    1.0000 </r>
       <r>    1.6970    1.0000 </r>
       <r>    1.6976    1.0000 </r>
       <r>    2.3489    1.0000 </r>
       <r>    3.5612    0.0000 </r>
       <r>    3.5612    0.0000 </r>
       <r>    3.6390    0.0000 </r>
       <r>    3.6392    0.0000 </r>
       <r>    3.7787    0.0000 </r>
       <r>    3.7790    0.0000 </r>
       <r>    3.8639    0.0000 </r>
       <r>    3.8837    0.0000 </r>
       <r>    3.8843    0.0000 </r>
       <r>    3.9409    0.0000 </r>
       <r>    3.9825    0.0000 </r>
       <r>    3.9827    0.0000 </r>
       <r>    4.0199    0.0000 </r>
       <r>    4.0208    0.0000 </r>
       <r>    4.0357    0.0000 </r>
       <r>    4.0385    0.0000 </r>
       <r>    4.1696    0.0000 </r>
       <r>    4.1704    0.0000 </r>
       <r>    4.1902    0.0000 </r>
       <r>    4.2264    0.0000 </r>
       <r>    4.2269    0.0000 </r>
       <r>    4.2391    0.0000 </r>
       <r>    4.2793    0.0000 </r>
       <r>    4.3507    0.0000 </r>
       <r>    4.3515    0.0000 </r>
       <r>    4.4211    0.0000 </r>
       <r>    4.4413    0.0000 </r>
       <r>    4.4415    0.0000 </r>
       <r>    4.4974    0.0000 </r>
       <r>    4.5086    0.0000 </r>
       <r>    4.5824    0.0000 </r>
       <r>    4.6274    0.0000 </r>
       <r>    4.6636    0.0000 </r>
       <r>    4.7098    0.0000 </r>
       <r>    4.7379    0.0000 </r>
       <r>    4.7435    0.0000 </r>
       <r>    4.8087    0.0000 </r>
       <r>    4.8093    0.0000 </r>
       <r>    4.8144    0.0000 </r>
       <r>    4.8425    0.0000 </r>
       <r>    4.8430    0.0000 </r>
       <r>    4.9050    0.0000 </r>
       <r>    4.9051    0.0000 </r>
       <r>    5.1184    0.0000 </r>
       <r>    5.1411    0.0000 </r>
       <r>    5.1419    0.0000 </r>
       <r>    5.1725    0.0000 </r>
       <r>    5.1751    0.0000 </r>
       <r>    5.1827    0.0000 </r>
       <r>    5.1841    0.0000 </r>
       <r>    5.3396    0.0000 </r>
       <r>    5.3633    0.0000 </r>
      </set>
      <set comment="kpoint 4">
       <r>  -59.0880    1.0000 </r>
       <r>  -59.0696    1.0000 </r>
       <r>  -59.0653    1.0000 </r>
       <r>  -59.0653    1.0000 </r>
       <r>  -59.0589    1.0000 </r>
       <r>  -59.0589    1.0000 </r>
       <r>  -59.0569    1.0000 </r>
       <r>  -59.0497    1.0000 </r>
       <r>  -59.0497    1.0000 </r>
       <r>  -59.0162    1.0000 </r>
       <r>  -58.9978    1.0000 </r>
       <r>  -58.9935    1.0000 </r>
       <r>  -58.9934    1.0000 </r>
       <r>  -58.9872    1.0000 </r>
       <r>  -58.9870    1.0000 </r>
       <r>  -58.9850    1.0000 </r>
       <r>  -58.9779    1.0000 </r>
       <r>  -58.9778    1.0000 </r>
       <r>  -33.3608    1.0000 </r>
       <r>  -33.3339    1.0000 </r>
       <r>  -33.3339    1.0000 </r>
       <r>  -33.3266    1.0000 </r>
       <r>  -33.3266    1.0000 </r>
       <r>  -33.2886    1.0000 </r>
       <r>  -33.2728    1.0000 </r>
       <r>  -33.2728    1.0000 </r>
       <r>  -33.2620    1.0000 </r>
       <r>  -33.2615    1.0000 </r>
       <r>  -33.2548    1.0000 </r>
       <r>  -33.2540    1.0000 </r>
       <r>  -33.2352    1.0000 </r>
       <r>  -33.2330    1.0000 </r>
       <r>  -33.2330    1.0000 </r>
       <r>  -33.2235    1.0000 </r>
       <r>  -33.2009    1.0000 </r>
       <r>  -33.2004    1.0000 </r>
       <r>  -33.1865    1.0000 </r>
       <r>  -33.1777    1.0000 </r>
       <r>  -33.1777    1.0000 </r>
       <r>  -33.1648    1.0000 </r>
       <r>  -33.1648    1.0000 </r>
       <r>  -33.1631    1.0000 </r>
       <r>  -33.1610    1.0000 </r>
       <r>  -33.1608    1.0000 </r>
       <r>  -33.1607    1.0000 </r>
       <r>  -33.1519    1.0000 </r>
       <r>  -33.1463    1.0000 </r>
       <r>  -33.1463    1.0000 </r>
       <r>  -33.1149    1.0000 </r>
       <r>  -33.1118    1.0000 </r>
       <r>  -33.1118    1.0000 </r>
       <r>  -33.1089    1.0000 </r>
       <r>  -33.1062    1.0000 </r>
       <r>  -33.1061    1.0000 </r>
       <r>  -33.0954    1.0000 </r>
       <r>  -33.0954    1.0000 </r>
       <r>  -33.0933    1.0000 </r>
       <r>  -33.0932    1.0000 </r>
       <r>  -33.0892    1.0000 </r>
       <r>  -33.0796    1.0000 </r>
       <r>  -33.0747    1.0000 </r>
       <r>  -33.0747    1.0000 </r>
       <r>  -33.0492    1.0000 </r>
       <r>  -33.0399    1.0000 </r>
       <r>  -33.0395    1.0000 </r>
       <r>  -33.0368    1.0000 </r>
       <r>  -33.0368    1.0000 </r>
       <r>  -33.0235    1.0000 </r>
       <r>  -33.0231    1.0000 </r>
       <r>  -33.0074    1.0000 </r>
       <r>  -32.9771    1.0000 </r>
       <r>  -32.9647    1.0000 </r>
       <r>  -12.3250    1.0000 </r>
       <r>  -12.1219    1.0000 </r>
       <r>  -11.4739    1.0000 </r>
       <r>  -11.2885    1.0000 </r>
       <r>  -11.2435    1.0000 </r>
       <r>  -11.2428    1.0000 </r>
       <r>  -11.0684    1.0000 </r>
       <r>  -11.0661    1.0000 </r>
       <r>  -11.0634    1.0000 </r>
       <r>  -10.8731    1.0000 </r>
       <r>  -10.8725    1.0000 </r>
       <r>  -10.7757    1.0000 </r>
       <r>  -10.7415    1.0000 </r>
       <r>  -10.7210    1.0000 </r>
       <r>  -10.7187    1.0000 </r>
       <r>  -10.6847    1.0000 </r>
       <r>  -10.6013    1.0000 </r>
       <r>  -10.5825    1.0000 </r>
       <r>  -10.5816    1.0000 </r>
       <r>  -10.4749    1.0000 </r>
       <r>  -10.4213    1.0000 </r>
       <r>  -10.4204    1.0000 </r>
       <r>  -10.3963    1.0000 </r>
       <r>  -10.3955    1.0000 </r>
       <r>  -10.3684    1.0000 </r>
       <r>  -10.2783    1.0000 </r>
       <r>  -10.2772    1.0000 </r>
       <r>  -10.2763    1.0000 </r>
       <r>  -10.2761    1.0000 </r>
       <r>  -10.2433    1.0000 </r>
       <r>  -10.1941    1.0000 </r>
       <r>  -10.1921    1.0000 </r>
       <r>  -10.1356    1.0000 </r>
       <r>  -10.1351    1.0000 </r>
       <r>  -10.0618    1.0000 </r>
       <r>  -10.0589    1.0000 </r>
       <r>   -4.0829    1.0000 </r>
       <r>   -3.8394    1.0000 </r>
       <r>   -3.6875    1.0000 </r>
       <r>   -3.6787    1.0000 </r>
       <r>   -3.6783    1.0000 </r>
       <r>   -3.5429    1.0000 </r>
       <r>   -3.5429    1.0000 </r>
       <r>   -3.4896    1.0000 </r>
       <r>   -3.4891    1.0000 </r>
       <r>   -3.4821    1.0000 </r>
       <r>   -3.4817    1.0000 </r>
       <r>   -3.4809    1.0000 </r>
       <r>   -3.4801    1.0000 </r>
       <r>   -3.4793    1.0000 </r>
       <r>   -3.4429    1.0000 </r>
       <r>   -3.1591    1.0000 </r>
       <r>   -3.1589    1.0000 </r>
       <r>   -3.1566    1.0000 </r>
       <r>   -3.1557    1.0000 </r>
       <r>   -3.0434    1.0000 </r>
       <r>   -3.0277    1.0000 </r>
       <r>   -3.0258    1.0000 </r>
       <r>   -2.8597    1.0000 </r>
       <r>   -2.7212    1.0000 </r>
       <r>   -2.7209    1.0000 </r>
       <r>   -2.6643    1.0000 </r>
       <r>   -2.5417    1.0000 </r>
       <r>   -2.5411    1.0000 </r>
       <r>   -2.3515    1.0000 </r>
       <r>   -2.3507    1.0000 </r>
       <r>   -2.2693    1.0000 </r>
       <r>   -2.1985    1.0000 </r>
       <r>   -2.1932    1.0000 </r>
       <r>   -2.1929    1.0000 </r>
       <r>   -2.1790    1.0000 </r>
       <r>   -2.1786    1.0000 </r>
       <r>   -2.1655    1.0000 </r>
       <r>   -2.1649    1.0000 </r>
       <r>   -2.0772    1.0000 </r>
       <r>   -2.0363    1.0000 </r>
       <r>   -2.0358    1.0000 </r>
       <r>   -2.0301    1.0000 </r>
       <r>   -1.9814    1.0000 </r>
       <r>   -1.9807    1.0000 </r>
       <r>   -1.9627    1.0000 </r>
       <r>   -1.9617    1.0000 </r>
       <r>   -1.9238    1.0000 </r>
       <r>   -1.8709    1.0000 </r>
       <r>   -1.8700    1.0000 </r>
       <r>   -1.6865    1.0000 </r>
       <r>   -1.6856    1.0000 </r>
       <r>   -1.6734    1.0000 </r>
       <r>   -1.4824    1.0000 </r>
       <r>   -1.4813    1.0000 </r>
       <r>   -1.3233    1.0000 </r>
       <r>   -1.3230    1.0000 </r>
       <r>   -1.3159    1.0000 </r>
       <r>   -1.2235    1.0000 </r>
       <r>   -1.2219    1.0000 </r>
       <r>   -1.2211    1.0000 </r>
       <r>   -1.2148    1.0000 </r>
       <r>   -1.2133    1.0000 </r>
       <r>   -1.1564    1.0000 </r>
       <r>   -1.1561    1.0000 </r>
       <r>   -1.0642    1.0000 </r>
       <r>   -1.0629    1.0000 </r>
       <r>   -1.0418    1.0000 </r>
       <r>   -1.0399    1.0000 </r>
       <r>   -1.0352    1.0000 </r>
       <r>   -0.9599    1.0000 </r>
       <r>   -0.8365    1.0000 </r>
       <r>   -0.8192    1.0000 </r>
       <r>   -0.7480    1.0000 </r>
       <r>   -0.7432    1.0000 </r>
       <r>   -0.7000    1.0000 </r>
       <r>   -0.2470    1.0000 </r>
       <r>   -0.2469    1.0000 </r>
       <r>   -0.1357    1.0000 </r>
       <r>   -0.0974    1.0000 </r>
       <r>   -0.0961    1.0000 </r>
       <r>   -0.0787    1.0000 </r>
       <r>    0.0099    1.0000 </r>
       <r>    0.0338    1.0000 </r>
       <r>    0.0341    1.0000 </r>
       <r>    0.0445    1.0000 </r>
       <r>    0.0448    1.0000 </r>
       <r>    0.0993    1.0000 </r>
       <r>    0.1130    1.0000 </r>
       <r>    0.1346    1.0000 </r>
       <r>    0.1364    1.0000 </r>
       <r>    0.1914    1.0000 </r>
       <r>    0.2008    1.0000 </r>
       <r>    0.2011    1.0000 </r>
       <r>    0.2416    1.0000 </r>
       <r>    0.2432    1.0000 </r>
       <r>    0.2914    1.0000 </r>
       <r>    0.2926    1.0000 </r>
       <r>    0.2971    1.0000 </r>
       <r>    0.2977    1.0000 </r>
       <r>    0.3892    1.0000 </r>
       <r>    0.3898    1.0000 </r>
       <r>    0.4028    1.0000 </r>
       <r>    0.5665    1.0000 </r>
       <r>    0.6183    1.0000 </r>
       <r>    0.6201    1.0000 </r>
       <r>    0.6729    1.0000 </r>
       <r>    0.6991    1.0000 </r>
       <r>    0.8964    1.0000 </r>
       <r>    0.9070    1.0000 </r>
       <r>    0.9071    1.0000 </r>
       <r>    0.9090    1.0000 </r>
       <r>    0.9631    1.0000 </r>
       <r>    0.9633    1.0000 </r>
       <r>    0.9875    1.0000 </r>
       <r>    1.0033    1.0000 </r>
       <r>    1.0042    1.0000 </r>
       <r>    1.0526    1.0000 </r>
       <r>    1.0540    1.0000 </r>
       <r>    1.0555    1.0000 </r>
       <r>    1.1090    1.0000 </r>
       <r>    1.6108    1.0000 </r>
       <r>    1.6108    1.0000 </r>
       <r>    1.6716    1.0000 </r>
       <r>    1.6970    1.0000 </r>
       <r>    1.6975    1.0000 </r>
       <r>    2.3489    1.0000 </r>
       <r>    3.5612    0.0000 </r>
       <r>    3.5612    0.0000 </r>
       <r>    3.6388    0.0000 </r>
       <r>    3.6393    0.0000 </r>
       <r>    3.7787    0.0000 </r>
       <r>    3.7792    0.0000 </r>
       <r>    3.8640    0.0000 </r>
       <r>    3.8837    0.0000 </r>
       <r>    3.8843    0.0000 </r>
       <r>    3.9409    0.0000 </r>
       <r>    3.9825    0.0000 </r>
       <r>    3.9829    0.0000 </r>
       <r>    4.0198    0.0000 </r>
       <r>    4.0208    0.0000 </r>
       <r>    4.0356    0.0000 </r>
       <r>    4.0387    0.0000 </r>
       <r>    4.1695    0.0000 </r>
       <r>    4.1702    0.0000 </r>
       <r>    4.1901    0.0000 </r>
       <r>    4.2265    0.0000 </r>
       <r>    4.2270    0.0000 </r>
       <r>    4.2391    0.0000 </r>
       <r>    4.2791    0.0000 </r>
       <r>    4.3507    0.0000 </r>
       <r>    4.3516    0.0000 </r>
       <r>    4.4210    0.0000 </r>
       <r>    4.4413    0.0000 </r>
       <r>    4.4418    0.0000 </r>
       <r>    4.4965    0.0000 </r>
       <r>    4.5086    0.0000 </r>
       <r>    4.5825    0.0000 </r>
       <r>    4.6273    0.0000 </r>
       <r>    4.6637    0.0000 </r>
       <r>    4.7102    0.0000 </r>
       <r>    4.7385    0.0000 </r>
       <r>    4.7434    0.0000 </r>
       <r>    4.8087    0.0000 </r>
       <r>    4.8095    0.0000 </r>
       <r>    4.8141    0.0000 </r>
       <r>    4.8424    0.0000 </r>
       <r>    4.8431    0.0000 </r>
       <r>    4.9050    0.0000 </r>
       <r>    4.9051    0.0000 </r>
       <r>    5.1182    0.0000 </r>
       <r>    5.1410    0.0000 </r>
       <r>    5.1415    0.0000 </r>
       <r>    5.1726    0.0000 </r>
       <r>    5.1753    0.0000 </r>
       <r>    5.1829    0.0000 </r>
       <r>    5.1840    0.0000 </r>
       <r>    5.3382    0.0000 </r>
       <r>    5.3783    0.0000 </r>
      </set>
      <set comment="kpoint 5">
       <r>  -59.0836    1.0000 </r>
       <r>  -59.0771    1.0000 </r>
       <r>  -59.0668    1.0000 </r>
       <r>  -59.0668    1.0000 </r>
       <r>  -59.0551    1.0000 </r>
       <r>  -59.0551    1.0000 </r>
       <r>  -59.0538    1.0000 </r>
       <r>  -59.0519    1.0000 </r>
       <r>  -59.0519    1.0000 </r>
       <r>  -59.0118    1.0000 </r>
       <r>  -59.0053    1.0000 </r>
       <r>  -58.9950    1.0000 </r>
       <r>  -58.9949    1.0000 </r>
       <r>  -58.9835    1.0000 </r>
       <r>  -58.9833    1.0000 </r>
       <r>  -58.9819    1.0000 </r>
       <r>  -58.9800    1.0000 </r>
       <r>  -58.9800    1.0000 </r>
       <r>  -33.3905    1.0000 </r>
       <r>  -33.3485    1.0000 </r>
       <r>  -33.3485    1.0000 </r>
       <r>  -33.3458    1.0000 </r>
       <r>  -33.3458    1.0000 </r>
       <r>  -33.3183    1.0000 </r>
       <r>  -33.2766    1.0000 </r>
       <r>  -33.2760    1.0000 </r>
       <r>  -33.2739    1.0000 </r>
       <r>  -33.2733    1.0000 </r>
       <r>  -33.2481    1.0000 </r>
       <r>  -33.2481    1.0000 </r>
       <r>  -33.2146    1.0000 </r>
       <r>  -33.2015    1.0000 </r>
       <r>  -33.1862    1.0000 </r>
       <r>  -33.1862    1.0000 </r>
       <r>  -33.1808    1.0000 </r>
       <r>  -33.1808    1.0000 </r>
       <r>  -33.1762    1.0000 </r>
       <r>  -33.1757    1.0000 </r>
       <r>  -33.1603    1.0000 </r>
       <r>  -33.1573    1.0000 </r>
       <r>  -33.1573    1.0000 </r>
       <r>  -33.1546    1.0000 </r>
       <r>  -33.1507    1.0000 </r>
       <r>  -33.1507    1.0000 </r>
       <r>  -33.1432    1.0000 </r>
       <r>  -33.1432    1.0000 </r>
       <r>  -33.1430    1.0000 </r>
       <r>  -33.1300    1.0000 </r>
       <r>  -33.1160    1.0000 </r>
       <r>  -33.1142    1.0000 </r>
       <r>  -33.1139    1.0000 </r>
       <r>  -33.1093    1.0000 </r>
       <r>  -33.1092    1.0000 </r>
       <r>  -33.1017    1.0000 </r>
       <r>  -33.1017    1.0000 </r>
       <r>  -33.0944    1.0000 </r>
       <r>  -33.0882    1.0000 </r>
       <r>  -33.0858    1.0000 </r>
       <r>  -33.0857    1.0000 </r>
       <r>  -33.0830    1.0000 </r>
       <r>  -33.0792    1.0000 </r>
       <r>  -33.0791    1.0000 </r>
       <r>  -33.0713    1.0000 </r>
       <r>  -33.0709    1.0000 </r>
       <r>  -33.0622    1.0000 </r>
       <r>  -33.0471    1.0000 </r>
       <r>  -33.0439    1.0000 </r>
       <r>  -33.0298    1.0000 </r>
       <r>  -33.0294    1.0000 </r>
       <r>  -33.0222    1.0000 </r>
       <r>  -32.9901    1.0000 </r>
       <r>  -32.9750    1.0000 </r>
       <r>  -12.1355    1.0000 </r>
       <r>  -11.9345    1.0000 </r>
       <r>  -11.8408    1.0000 </r>
       <r>  -11.6449    1.0000 </r>
       <r>  -11.3282    1.0000 </r>
       <r>  -11.3275    1.0000 </r>
       <r>  -11.1487    1.0000 </r>
       <r>  -11.1464    1.0000 </r>
       <r>  -10.9788    1.0000 </r>
       <r>  -10.8473    1.0000 </r>
       <r>  -10.7072    1.0000 </r>
       <r>  -10.6413    1.0000 </r>
       <r>  -10.6408    1.0000 </r>
       <r>  -10.6175    1.0000 </r>
       <r>  -10.6169    1.0000 </r>
       <r>  -10.6021    1.0000 </r>
       <r>  -10.5314    1.0000 </r>
       <r>  -10.5089    1.0000 </r>
       <r>  -10.5066    1.0000 </r>
       <r>  -10.4290    1.0000 </r>
       <r>  -10.4287    1.0000 </r>
       <r>  -10.4216    1.0000 </r>
       <r>  -10.4212    1.0000 </r>
       <r>  -10.4178    1.0000 </r>
       <r>  -10.3212    1.0000 </r>
       <r>  -10.3192    1.0000 </r>
       <r>  -10.3130    1.0000 </r>
       <r>  -10.3119    1.0000 </r>
       <r>  -10.2831    1.0000 </r>
       <r>  -10.2091    1.0000 </r>
       <r>  -10.2084    1.0000 </r>
       <r>  -10.1981    1.0000 </r>
       <r>  -10.1969    1.0000 </r>
       <r>  -10.1862    1.0000 </r>
       <r>  -10.1205    1.0000 </r>
       <r>  -10.1186    1.0000 </r>
       <r>   -4.0120    1.0000 </r>
       <r>   -3.8876    1.0000 </r>
       <r>   -3.8819    1.0000 </r>
       <r>   -3.6642    1.0000 </r>
       <r>   -3.6640    1.0000 </r>
       <r>   -3.6262    1.0000 </r>
       <r>   -3.5128    1.0000 </r>
       <r>   -3.5125    1.0000 </r>
       <r>   -3.4983    1.0000 </r>
       <r>   -3.4979    1.0000 </r>
       <r>   -3.4007    1.0000 </r>
       <r>   -3.3996    1.0000 </r>
       <r>   -3.3489    1.0000 </r>
       <r>   -3.3483    1.0000 </r>
       <r>   -3.2758    1.0000 </r>
       <r>   -3.2758    1.0000 </r>
       <r>   -3.2487    1.0000 </r>
       <r>   -3.2018    1.0000 </r>
       <r>   -3.2008    1.0000 </r>
       <r>   -3.0433    1.0000 </r>
       <r>   -3.0319    1.0000 </r>
       <r>   -3.0015    1.0000 </r>
       <r>   -3.0002    1.0000 </r>
       <r>   -2.9680    1.0000 </r>
       <r>   -2.9679    1.0000 </r>
       <r>   -2.8697    1.0000 </r>
       <r>   -2.8649    1.0000 </r>
       <r>   -2.8643    1.0000 </r>
       <r>   -2.3604    1.0000 </r>
       <r>   -2.1888    1.0000 </r>
       <r>   -2.1885    1.0000 </r>
       <r>   -2.1877    1.0000 </r>
       <r>   -2.1862    1.0000 </r>
       <r>   -2.1573    1.0000 </r>
       <r>   -2.1564    1.0000 </r>
       <r>   -2.1224    1.0000 </r>
       <r>   -2.0708    1.0000 </r>
       <r>   -2.0707    1.0000 </r>
       <r>   -1.9590    1.0000 </r>
       <r>   -1.9577    1.0000 </r>
       <r>   -1.9330    1.0000 </r>
       <r>   -1.9319    1.0000 </r>
       <r>   -1.9178    1.0000 </r>
       <r>   -1.9174    1.0000 </r>
       <r>   -1.8486    1.0000 </r>
       <r>   -1.7884    1.0000 </r>
       <r>   -1.7870    1.0000 </r>
       <r>   -1.7752    1.0000 </r>
       <r>   -1.5511    1.0000 </r>
       <r>   -1.4918    1.0000 </r>
       <r>   -1.4910    1.0000 </r>
       <r>   -1.4504    1.0000 </r>
       <r>   -1.4496    1.0000 </r>
       <r>   -1.4187    1.0000 </r>
       <r>   -1.4099    1.0000 </r>
       <r>   -1.4050    1.0000 </r>
       <r>   -1.4046    1.0000 </r>
       <r>   -1.3339    1.0000 </r>
       <r>   -1.3256    1.0000 </r>
       <r>   -1.2915    1.0000 </r>
       <r>   -1.2902    1.0000 </r>
       <r>   -1.2305    1.0000 </r>
       <r>   -1.2296    1.0000 </r>
       <r>   -1.1559    1.0000 </r>
       <r>   -1.1549    1.0000 </r>
       <r>   -1.1483    1.0000 </r>
       <r>   -1.1115    1.0000 </r>
       <r>   -1.0157    1.0000 </r>
       <r>   -1.0152    1.0000 </r>
       <r>   -0.8058    1.0000 </r>
       <r>   -0.8049    1.0000 </r>
       <r>   -0.6253    1.0000 </r>
       <r>   -0.5968    1.0000 </r>
       <r>   -0.5487    1.0000 </r>
       <r>   -0.5046    1.0000 </r>
       <r>   -0.4185    1.0000 </r>
       <r>   -0.3343    1.0000 </r>
       <r>   -0.3339    1.0000 </r>
       <r>   -0.3263    1.0000 </r>
       <r>   -0.2486    1.0000 </r>
       <r>   -0.2083    1.0000 </r>
       <r>   -0.2082    1.0000 </r>
       <r>   -0.2052    1.0000 </r>
       <r>   -0.1690    1.0000 </r>
       <r>   -0.1681    1.0000 </r>
       <r>   -0.1572    1.0000 </r>
       <r>   -0.1166    1.0000 </r>
       <r>   -0.1134    1.0000 </r>
       <r>   -0.0765    1.0000 </r>
       <r>   -0.0329    1.0000 </r>
       <r>   -0.0328    1.0000 </r>
       <r>    0.0871    1.0000 </r>
       <r>    0.0873    1.0000 </r>
       <r>    0.1167    1.0000 </r>
       <r>    0.1178    1.0000 </r>
       <r>    0.1563    1.0000 </r>
       <r>    0.2906    1.0000 </r>
       <r>    0.2918    1.0000 </r>
       <r>    0.4578    1.0000 </r>
       <r>    0.5290    1.0000 </r>
       <r>    0.6204    1.0000 </r>
       <r>    0.6205    1.0000 </r>
       <r>    0.6865    1.0000 </r>
       <r>    0.8366    1.0000 </r>
       <r>    0.8486    1.0000 </r>
       <r>    0.8497    1.0000 </r>
       <r>    0.9250    1.0000 </r>
       <r>    0.9792    1.0000 </r>
       <r>    0.9792    1.0000 </r>
       <r>    1.0330    1.0000 </r>
       <r>    1.0592    1.0000 </r>
       <r>    1.0597    1.0000 </r>
       <r>    1.0973    1.0000 </r>
       <r>    1.1628    1.0000 </r>
       <r>    1.1628    1.0000 </r>
       <r>    1.2170    1.0000 </r>
       <r>    1.2506    1.0000 </r>
       <r>    1.2514    1.0000 </r>
       <r>    1.3337    1.0000 </r>
       <r>    1.3671    1.0000 </r>
       <r>    1.3671    1.0000 </r>
       <r>    1.4575    1.0000 </r>
       <r>    1.4578    1.0000 </r>
       <r>    1.5221    1.0000 </r>
       <r>    1.5785    1.0000 </r>
       <r>    2.0059    1.0000 </r>
       <r>    3.6344    0.0000 </r>
       <r>    3.6348    0.0000 </r>
       <r>    3.8295    0.0000 </r>
       <r>    3.8299    0.0000 </r>
       <r>    3.9027    0.0000 </r>
       <r>    3.9037    0.0000 </r>
       <r>    3.9251    0.0000 </r>
       <r>    3.9295    0.0000 </r>
       <r>    3.9300    0.0000 </r>
       <r>    3.9674    0.0000 </r>
       <r>    3.9682    0.0000 </r>
       <r>    3.9743    0.0000 </r>
       <r>    4.0554    0.0000 </r>
       <r>    4.1381    0.0000 </r>
       <r>    4.1394    0.0000 </r>
       <r>    4.2256    0.0000 </r>
       <r>    4.2308    0.0000 </r>
       <r>    4.2321    0.0000 </r>
       <r>    4.2364    0.0000 </r>
       <r>    4.2416    0.0000 </r>
       <r>    4.3060    0.0000 </r>
       <r>    4.3151    0.0000 </r>
       <r>    4.3154    0.0000 </r>
       <r>    4.3735    0.0000 </r>
       <r>    4.3897    0.0000 </r>
       <r>    4.3906    0.0000 </r>
       <r>    4.3907    0.0000 </r>
       <r>    4.4384    0.0000 </r>
       <r>    4.4441    0.0000 </r>
       <r>    4.4579    0.0000 </r>
       <r>    4.4985    0.0000 </r>
       <r>    4.4990    0.0000 </r>
       <r>    4.5156    0.0000 </r>
       <r>    4.5160    0.0000 </r>
       <r>    4.5902    0.0000 </r>
       <r>    4.5996    0.0000 </r>
       <r>    4.6159    0.0000 </r>
       <r>    4.6556    0.0000 </r>
       <r>    4.6558    0.0000 </r>
       <r>    4.7785    0.0000 </r>
       <r>    4.8509    0.0000 </r>
       <r>    4.8522    0.0000 </r>
       <r>    4.8576    0.0000 </r>
       <r>    4.8585    0.0000 </r>
       <r>    4.9093    0.0000 </r>
       <r>    5.0268    0.0000 </r>
       <r>    5.0343    0.0000 </r>
       <r>    5.0347    0.0000 </r>
       <r>    5.1272    0.0000 </r>
       <r>    5.1282    0.0000 </r>
       <r>    5.2256    0.0000 </r>
       <r>    5.2354    0.0000 </r>
      </set>
      <set comment="kpoint 6">
       <r>  -59.0836    1.0000 </r>
       <r>  -59.0771    1.0000 </r>
       <r>  -59.0668    1.0000 </r>
       <r>  -59.0668    1.0000 </r>
       <r>  -59.0551    1.0000 </r>
       <r>  -59.0551    1.0000 </r>
       <r>  -59.0538    1.0000 </r>
       <r>  -59.0519    1.0000 </r>
       <r>  -59.0519    1.0000 </r>
       <r>  -59.0118    1.0000 </r>
       <r>  -59.0053    1.0000 </r>
       <r>  -58.9951    1.0000 </r>
       <r>  -58.9949    1.0000 </r>
       <r>  -58.9834    1.0000 </r>
       <r>  -58.9834    1.0000 </r>
       <r>  -58.9819    1.0000 </r>
       <r>  -58.9801    1.0000 </r>
       <r>  -58.9799    1.0000 </r>
       <r>  -33.3905    1.0000 </r>
       <r>  -33.3485    1.0000 </r>
       <r>  -33.3485    1.0000 </r>
       <r>  -33.3458    1.0000 </r>
       <r>  -33.3458    1.0000 </r>
       <r>  -33.3184    1.0000 </r>
       <r>  -33.2766    1.0000 </r>
       <r>  -33.2760    1.0000 </r>
       <r>  -33.2739    1.0000 </r>
       <r>  -33.2733    1.0000 </r>
       <r>  -33.2481    1.0000 </r>
       <r>  -33.2481    1.0000 </r>
       <r>  -33.2146    1.0000 </r>
       <r>  -33.2015    1.0000 </r>
       <r>  -33.1862    1.0000 </r>
       <r>  -33.1862    1.0000 </r>
       <r>  -33.1808    1.0000 </r>
       <r>  -33.1808    1.0000 </r>
       <r>  -33.1761    1.0000 </r>
       <r>  -33.1756    1.0000 </r>
       <r>  -33.1603    1.0000 </r>
       <r>  -33.1573    1.0000 </r>
       <r>  -33.1573    1.0000 </r>
       <r>  -33.1546    1.0000 </r>
       <r>  -33.1507    1.0000 </r>
       <r>  -33.1507    1.0000 </r>
       <r>  -33.1432    1.0000 </r>
       <r>  -33.1432    1.0000 </r>
       <r>  -33.1430    1.0000 </r>
       <r>  -33.1300    1.0000 </r>
       <r>  -33.1160    1.0000 </r>
       <r>  -33.1143    1.0000 </r>
       <r>  -33.1139    1.0000 </r>
       <r>  -33.1093    1.0000 </r>
       <r>  -33.1092    1.0000 </r>
       <r>  -33.1017    1.0000 </r>
       <r>  -33.1017    1.0000 </r>
       <r>  -33.0944    1.0000 </r>
       <r>  -33.0882    1.0000 </r>
       <r>  -33.0858    1.0000 </r>
       <r>  -33.0857    1.0000 </r>
       <r>  -33.0830    1.0000 </r>
       <r>  -33.0792    1.0000 </r>
       <r>  -33.0791    1.0000 </r>
       <r>  -33.0713    1.0000 </r>
       <r>  -33.0709    1.0000 </r>
       <r>  -33.0622    1.0000 </r>
       <r>  -33.0471    1.0000 </r>
       <r>  -33.0438    1.0000 </r>
       <r>  -33.0299    1.0000 </r>
       <r>  -33.0294    1.0000 </r>
       <r>  -33.0223    1.0000 </r>
       <r>  -32.9901    1.0000 </r>
       <r>  -32.9750    1.0000 </r>
       <r>  -12.1354    1.0000 </r>
       <r>  -11.9344    1.0000 </r>
       <r>  -11.8407    1.0000 </r>
       <r>  -11.6448    1.0000 </r>
       <r>  -11.3282    1.0000 </r>
       <r>  -11.3276    1.0000 </r>
       <r>  -11.1487    1.0000 </r>
       <r>  -11.1465    1.0000 </r>
       <r>  -10.9788    1.0000 </r>
       <r>  -10.8474    1.0000 </r>
       <r>  -10.7072    1.0000 </r>
       <r>  -10.6413    1.0000 </r>
       <r>  -10.6409    1.0000 </r>
       <r>  -10.6175    1.0000 </r>
       <r>  -10.6167    1.0000 </r>
       <r>  -10.6021    1.0000 </r>
       <r>  -10.5314    1.0000 </r>
       <r>  -10.5089    1.0000 </r>
       <r>  -10.5067    1.0000 </r>
       <r>  -10.4290    1.0000 </r>
       <r>  -10.4288    1.0000 </r>
       <r>  -10.4216    1.0000 </r>
       <r>  -10.4210    1.0000 </r>
       <r>  -10.4174    1.0000 </r>
       <r>  -10.3212    1.0000 </r>
       <r>  -10.3193    1.0000 </r>
       <r>  -10.3131    1.0000 </r>
       <r>  -10.3119    1.0000 </r>
       <r>  -10.2831    1.0000 </r>
       <r>  -10.2091    1.0000 </r>
       <r>  -10.2083    1.0000 </r>
       <r>  -10.1981    1.0000 </r>
       <r>  -10.1967    1.0000 </r>
       <r>  -10.1866    1.0000 </r>
       <r>  -10.1205    1.0000 </r>
       <r>  -10.1185    1.0000 </r>
       <r>   -4.0121    1.0000 </r>
       <r>   -3.8877    1.0000 </r>
       <r>   -3.8819    1.0000 </r>
       <r>   -3.6642    1.0000 </r>
       <r>   -3.6639    1.0000 </r>
       <r>   -3.6261    1.0000 </r>
       <r>   -3.5128    1.0000 </r>
       <r>   -3.5125    1.0000 </r>
       <r>   -3.4983    1.0000 </r>
       <r>   -3.4977    1.0000 </r>
       <r>   -3.4007    1.0000 </r>
       <r>   -3.3997    1.0000 </r>
       <r>   -3.3488    1.0000 </r>
       <r>   -3.3482    1.0000 </r>
       <r>   -3.2758    1.0000 </r>
       <r>   -3.2757    1.0000 </r>
       <r>   -3.2487    1.0000 </r>
       <r>   -3.2018    1.0000 </r>
       <r>   -3.2007    1.0000 </r>
       <r>   -3.0433    1.0000 </r>
       <r>   -3.0319    1.0000 </r>
       <r>   -3.0015    1.0000 </r>
       <r>   -3.0002    1.0000 </r>
       <r>   -2.9680    1.0000 </r>
       <r>   -2.9679    1.0000 </r>
       <r>   -2.8693    1.0000 </r>
       <r>   -2.8648    1.0000 </r>
       <r>   -2.8642    1.0000 </r>
       <r>   -2.3603    1.0000 </r>
       <r>   -2.1886    1.0000 </r>
       <r>   -2.1886    1.0000 </r>
       <r>   -2.1879    1.0000 </r>
       <r>   -2.1863    1.0000 </r>
       <r>   -2.1571    1.0000 </r>
       <r>   -2.1569    1.0000 </r>
       <r>   -2.1219    1.0000 </r>
       <r>   -2.0709    1.0000 </r>
       <r>   -2.0708    1.0000 </r>
       <r>   -1.9588    1.0000 </r>
       <r>   -1.9582    1.0000 </r>
       <r>   -1.9329    1.0000 </r>
       <r>   -1.9323    1.0000 </r>
       <r>   -1.9180    1.0000 </r>
       <r>   -1.9176    1.0000 </r>
       <r>   -1.8487    1.0000 </r>
       <r>   -1.7887    1.0000 </r>
       <r>   -1.7875    1.0000 </r>
       <r>   -1.7750    1.0000 </r>
       <r>   -1.5514    1.0000 </r>
       <r>   -1.4917    1.0000 </r>
       <r>   -1.4913    1.0000 </r>
       <r>   -1.4503    1.0000 </r>
       <r>   -1.4498    1.0000 </r>
       <r>   -1.4186    1.0000 </r>
       <r>   -1.4099    1.0000 </r>
       <r>   -1.4052    1.0000 </r>
       <r>   -1.4047    1.0000 </r>
       <r>   -1.3335    1.0000 </r>
       <r>   -1.3250    1.0000 </r>
       <r>   -1.2917    1.0000 </r>
       <r>   -1.2911    1.0000 </r>
       <r>   -1.2310    1.0000 </r>
       <r>   -1.2300    1.0000 </r>
       <r>   -1.1553    1.0000 </r>
       <r>   -1.1546    1.0000 </r>
       <r>   -1.1489    1.0000 </r>
       <r>   -1.1119    1.0000 </r>
       <r>   -1.0156    1.0000 </r>
       <r>   -1.0150    1.0000 </r>
       <r>   -0.8057    1.0000 </r>
       <r>   -0.8046    1.0000 </r>
       <r>   -0.6253    1.0000 </r>
       <r>   -0.5974    1.0000 </r>
       <r>   -0.5491    1.0000 </r>
       <r>   -0.5046    1.0000 </r>
       <r>   -0.4175    1.0000 </r>
       <r>   -0.3342    1.0000 </r>
       <r>   -0.3337    1.0000 </r>
       <r>   -0.3262    1.0000 </r>
       <r>   -0.2488    1.0000 </r>
       <r>   -0.2083    1.0000 </r>
       <r>   -0.2081    1.0000 </r>
       <r>   -0.2054    1.0000 </r>
       <r>   -0.1688    1.0000 </r>
       <r>   -0.1677    1.0000 </r>
       <r>   -0.1572    1.0000 </r>
       <r>   -0.1165    1.0000 </r>
       <r>   -0.1134    1.0000 </r>
       <r>   -0.0751    1.0000 </r>
       <r>   -0.0329    1.0000 </r>
       <r>   -0.0328    1.0000 </r>
       <r>    0.0872    1.0000 </r>
       <r>    0.0873    1.0000 </r>
       <r>    0.1170    1.0000 </r>
       <r>    0.1182    1.0000 </r>
       <r>    0.1558    1.0000 </r>
       <r>    0.2912    1.0000 </r>
       <r>    0.2920    1.0000 </r>
       <r>    0.4579    1.0000 </r>
       <r>    0.5288    1.0000 </r>
       <r>    0.6202    1.0000 </r>
       <r>    0.6206    1.0000 </r>
       <r>    0.6865    1.0000 </r>
       <r>    0.8368    1.0000 </r>
       <r>    0.8479    1.0000 </r>
       <r>    0.8500    1.0000 </r>
       <r>    0.9250    1.0000 </r>
       <r>    0.9792    1.0000 </r>
       <r>    0.9792    1.0000 </r>
       <r>    1.0329    1.0000 </r>
       <r>    1.0600    1.0000 </r>
       <r>    1.0605    1.0000 </r>
       <r>    1.0971    1.0000 </r>
       <r>    1.1628    1.0000 </r>
       <r>    1.1628    1.0000 </r>
       <r>    1.2164    1.0000 </r>
       <r>    1.2502    1.0000 </r>
       <r>    1.2515    1.0000 </r>
       <r>    1.3335    1.0000 </r>
       <r>    1.3671    1.0000 </r>
       <r>    1.3671    1.0000 </r>
       <r>    1.4573    1.0000 </r>
       <r>    1.4581    1.0000 </r>
       <r>    1.5217    1.0000 </r>
       <r>    1.5783    1.0000 </r>
       <r>    2.0057    1.0000 </r>
       <r>    3.6343    0.0000 </r>
       <r>    3.6346    0.0000 </r>
       <r>    3.8295    0.0000 </r>
       <r>    3.8298    0.0000 </r>
       <r>    3.9029    0.0000 </r>
       <r>    3.9037    0.0000 </r>
       <r>    3.9250    0.0000 </r>
       <r>    3.9294    0.0000 </r>
       <r>    3.9297    0.0000 </r>
       <r>    3.9676    0.0000 </r>
       <r>    3.9681    0.0000 </r>
       <r>    3.9743    0.0000 </r>
       <r>    4.0551    0.0000 </r>
       <r>    4.1382    0.0000 </r>
       <r>    4.1394    0.0000 </r>
       <r>    4.2257    0.0000 </r>
       <r>    4.2314    0.0000 </r>
       <r>    4.2323    0.0000 </r>
       <r>    4.2362    0.0000 </r>
       <r>    4.2420    0.0000 </r>
       <r>    4.3060    0.0000 </r>
       <r>    4.3150    0.0000 </r>
       <r>    4.3155    0.0000 </r>
       <r>    4.3750    0.0000 </r>
       <r>    4.3899    0.0000 </r>
       <r>    4.3905    0.0000 </r>
       <r>    4.3907    0.0000 </r>
       <r>    4.4390    0.0000 </r>
       <r>    4.4441    0.0000 </r>
       <r>    4.4582    0.0000 </r>
       <r>    4.4979    0.0000 </r>
       <r>    4.4987    0.0000 </r>
       <r>    4.5153    0.0000 </r>
       <r>    4.5158    0.0000 </r>
       <r>    4.5902    0.0000 </r>
       <r>    4.5993    0.0000 </r>
       <r>    4.6164    0.0000 </r>
       <r>    4.6556    0.0000 </r>
       <r>    4.6557    0.0000 </r>
       <r>    4.7786    0.0000 </r>
       <r>    4.8508    0.0000 </r>
       <r>    4.8519    0.0000 </r>
       <r>    4.8582    0.0000 </r>
       <r>    4.8591    0.0000 </r>
       <r>    4.9089    0.0000 </r>
       <r>    5.0256    0.0000 </r>
       <r>    5.0344    0.0000 </r>
       <r>    5.0347    0.0000 </r>
       <r>    5.1270    0.0000 </r>
       <r>    5.1281    0.0000 </r>
       <r>    5.2254    0.0000 </r>
       <r>    5.2338    0.0000 </r>
      </set>
      <set comment="kpoint 7">
       <r>  -59.0836    1.0000 </r>
       <r>  -59.0771    1.0000 </r>
       <r>  -59.0668    1.0000 </r>
       <r>  -59.0668    1.0000 </r>
       <r>  -59.0551    1.0000 </r>
       <r>  -59.0551    1.0000 </r>
       <r>  -59.0538    1.0000 </r>
       <r>  -59.0519    1.0000 </r>
       <r>  -59.0519    1.0000 </r>
       <r>  -59.0118    1.0000 </r>
       <r>  -59.0053    1.0000 </r>
       <r>  -58.9951    1.0000 </r>
       <r>  -58.9949    1.0000 </r>
       <r>  -58.9835    1.0000 </r>
       <r>  -58.9833    1.0000 </r>
       <r>  -58.9819    1.0000 </r>
       <r>  -58.9801    1.0000 </r>
       <r>  -58.9800    1.0000 </r>
       <r>  -33.3905    1.0000 </r>
       <r>  -33.3485    1.0000 </r>
       <r>  -33.3485    1.0000 </r>
       <r>  -33.3458    1.0000 </r>
       <r>  -33.3458    1.0000 </r>
       <r>  -33.3184    1.0000 </r>
       <r>  -33.2766    1.0000 </r>
       <r>  -33.2760    1.0000 </r>
       <r>  -33.2739    1.0000 </r>
       <r>  -33.2733    1.0000 </r>
       <r>  -33.2481    1.0000 </r>
       <r>  -33.2481    1.0000 </r>
       <r>  -33.2146    1.0000 </r>
       <r>  -33.2015    1.0000 </r>
       <r>  -33.1862    1.0000 </r>
       <r>  -33.1862    1.0000 </r>
       <r>  -33.1808    1.0000 </r>
       <r>  -33.1808    1.0000 </r>
       <r>  -33.1761    1.0000 </r>
       <r>  -33.1757    1.0000 </r>
       <r>  -33.1603    1.0000 </r>
       <r>  -33.1573    1.0000 </r>
       <r>  -33.1573    1.0000 </r>
       <r>  -33.1546    1.0000 </r>
       <r>  -33.1507    1.0000 </r>
       <r>  -33.1507    1.0000 </r>
       <r>  -33.1432    1.0000 </r>
       <r>  -33.1432    1.0000 </r>
       <r>  -33.1430    1.0000 </r>
       <r>  -33.1300    1.0000 </r>
       <r>  -33.1160    1.0000 </r>
       <r>  -33.1143    1.0000 </r>
       <r>  -33.1139    1.0000 </r>
       <r>  -33.1093    1.0000 </r>
       <r>  -33.1092    1.0000 </r>
       <r>  -33.1017    1.0000 </r>
       <r>  -33.1017    1.0000 </r>
       <r>  -33.0944    1.0000 </r>
       <r>  -33.0882    1.0000 </r>
       <r>  -33.0858    1.0000 </r>
       <r>  -33.0857    1.0000 </r>
       <r>  -33.0830    1.0000 </r>
       <r>  -33.0792    1.0000 </r>
       <r>  -33.0791    1.0000 </r>
       <r>  -33.0713    1.0000 </r>
       <r>  -33.0709    1.0000 </r>
       <r>  -33.0622    1.0000 </r>
       <r>  -33.0471    1.0000 </r>
       <r>  -33.0439    1.0000 </r>
       <r>  -33.0298    1.0000 </r>
       <r>  -33.0294    1.0000 </r>
       <r>  -33.0222    1.0000 </r>
       <r>  -32.9901    1.0000 </r>
       <r>  -32.9750    1.0000 </r>
       <r>  -12.1354    1.0000 </r>
       <r>  -11.9345    1.0000 </r>
       <r>  -11.8407    1.0000 </r>
       <r>  -11.6449    1.0000 </r>
       <r>  -11.3283    1.0000 </r>
       <r>  -11.3275    1.0000 </r>
       <r>  -11.1488    1.0000 </r>
       <r>  -11.1464    1.0000 </r>
       <r>  -10.9788    1.0000 </r>
       <r>  -10.8473    1.0000 </r>
       <r>  -10.7072    1.0000 </r>
       <r>  -10.6413    1.0000 </r>
       <r>  -10.6408    1.0000 </r>
       <r>  -10.6176    1.0000 </r>
       <r>  -10.6168    1.0000 </r>
       <r>  -10.6021    1.0000 </r>
       <r>  -10.5314    1.0000 </r>
       <r>  -10.5089    1.0000 </r>
       <r>  -10.5067    1.0000 </r>
       <r>  -10.4290    1.0000 </r>
       <r>  -10.4288    1.0000 </r>
       <r>  -10.4217    1.0000 </r>
       <r>  -10.4211    1.0000 </r>
       <r>  -10.4176    1.0000 </r>
       <r>  -10.3212    1.0000 </r>
       <r>  -10.3193    1.0000 </r>
       <r>  -10.3131    1.0000 </r>
       <r>  -10.3119    1.0000 </r>
       <r>  -10.2831    1.0000 </r>
       <r>  -10.2091    1.0000 </r>
       <r>  -10.2083    1.0000 </r>
       <r>  -10.1981    1.0000 </r>
       <r>  -10.1967    1.0000 </r>
       <r>  -10.1864    1.0000 </r>
       <r>  -10.1205    1.0000 </r>
       <r>  -10.1185    1.0000 </r>
       <r>   -4.0120    1.0000 </r>
       <r>   -3.8876    1.0000 </r>
       <r>   -3.8819    1.0000 </r>
       <r>   -3.6642    1.0000 </r>
       <r>   -3.6639    1.0000 </r>
       <r>   -3.6261    1.0000 </r>
       <r>   -3.5128    1.0000 </r>
       <r>   -3.5125    1.0000 </r>
       <r>   -3.4985    1.0000 </r>
       <r>   -3.4976    1.0000 </r>
       <r>   -3.4007    1.0000 </r>
       <r>   -3.3996    1.0000 </r>
       <r>   -3.3491    1.0000 </r>
       <r>   -3.3480    1.0000 </r>
       <r>   -3.2758    1.0000 </r>
       <r>   -3.2757    1.0000 </r>
       <r>   -3.2487    1.0000 </r>
       <r>   -3.2018    1.0000 </r>
       <r>   -3.2007    1.0000 </r>
       <r>   -3.0433    1.0000 </r>
       <r>   -3.0319    1.0000 </r>
       <r>   -3.0015    1.0000 </r>
       <r>   -3.0002    1.0000 </r>
       <r>   -2.9680    1.0000 </r>
       <r>   -2.9679    1.0000 </r>
       <r>   -2.8695    1.0000 </r>
       <r>   -2.8649    1.0000 </r>
       <r>   -2.8641    1.0000 </r>
       <r>   -2.3604    1.0000 </r>
       <r>   -2.1887    1.0000 </r>
       <r>   -2.1885    1.0000 </r>
       <r>   -2.1878    1.0000 </r>
       <r>   -2.1863    1.0000 </r>
       <r>   -2.1572    1.0000 </r>
       <r>   -2.1566    1.0000 </r>
       <r>   -2.1221    1.0000 </r>
       <r>   -2.0709    1.0000 </r>
       <r>   -2.0707    1.0000 </r>
       <r>   -1.9589    1.0000 </r>
       <r>   -1.9579    1.0000 </r>
       <r>   -1.9330    1.0000 </r>
       <r>   -1.9321    1.0000 </r>
       <r>   -1.9181    1.0000 </r>
       <r>   -1.9173    1.0000 </r>
       <r>   -1.8486    1.0000 </r>
       <r>   -1.7886    1.0000 </r>
       <r>   -1.7872    1.0000 </r>
       <r>   -1.7751    1.0000 </r>
       <r>   -1.5512    1.0000 </r>
       <r>   -1.4918    1.0000 </r>
       <r>   -1.4911    1.0000 </r>
       <r>   -1.4505    1.0000 </r>
       <r>   -1.4496    1.0000 </r>
       <r>   -1.4187    1.0000 </r>
       <r>   -1.4099    1.0000 </r>
       <r>   -1.4051    1.0000 </r>
       <r>   -1.4046    1.0000 </r>
       <r>   -1.3337    1.0000 </r>
       <r>   -1.3253    1.0000 </r>
       <r>   -1.2916    1.0000 </r>
       <r>   -1.2906    1.0000 </r>
       <r>   -1.2308    1.0000 </r>
       <r>   -1.2298    1.0000 </r>
       <r>   -1.1557    1.0000 </r>
       <r>   -1.1547    1.0000 </r>
       <r>   -1.1486    1.0000 </r>
       <r>   -1.1117    1.0000 </r>
       <r>   -1.0158    1.0000 </r>
       <r>   -1.0150    1.0000 </r>
       <r>   -0.8062    1.0000 </r>
       <r>   -0.8044    1.0000 </r>
       <r>   -0.6253    1.0000 </r>
       <r>   -0.5971    1.0000 </r>
       <r>   -0.5489    1.0000 </r>
       <r>   -0.5046    1.0000 </r>
       <r>   -0.4180    1.0000 </r>
       <r>   -0.3344    1.0000 </r>
       <r>   -0.3336    1.0000 </r>
       <r>   -0.3262    1.0000 </r>
       <r>   -0.2487    1.0000 </r>
       <r>   -0.2083    1.0000 </r>
       <r>   -0.2081    1.0000 </r>
       <r>   -0.2053    1.0000 </r>
       <r>   -0.1693    1.0000 </r>
       <r>   -0.1675    1.0000 </r>
       <r>   -0.1572    1.0000 </r>
       <r>   -0.1167    1.0000 </r>
       <r>   -0.1133    1.0000 </r>
       <r>   -0.0758    1.0000 </r>
       <r>   -0.0329    1.0000 </r>
       <r>   -0.0328    1.0000 </r>
       <r>    0.0871    1.0000 </r>
       <r>    0.0873    1.0000 </r>
       <r>    0.1168    1.0000 </r>
       <r>    0.1181    1.0000 </r>
       <r>    0.1561    1.0000 </r>
       <r>    0.2909    1.0000 </r>
       <r>    0.2919    1.0000 </r>
       <r>    0.4578    1.0000 </r>
       <r>    0.5289    1.0000 </r>
       <r>    0.6203    1.0000 </r>
       <r>    0.6206    1.0000 </r>
       <r>    0.6865    1.0000 </r>
       <r>    0.8367    1.0000 </r>
       <r>    0.8482    1.0000 </r>
       <r>    0.8499    1.0000 </r>
       <r>    0.9250    1.0000 </r>
       <r>    0.9791    1.0000 </r>
       <r>    0.9792    1.0000 </r>
       <r>    1.0330    1.0000 </r>
       <r>    1.0594    1.0000 </r>
       <r>    1.0603    1.0000 </r>
       <r>    1.0972    1.0000 </r>
       <r>    1.1628    1.0000 </r>
       <r>    1.1628    1.0000 </r>
       <r>    1.2167    1.0000 </r>
       <r>    1.2503    1.0000 </r>
       <r>    1.2515    1.0000 </r>
       <r>    1.3336    1.0000 </r>
       <r>    1.3671    1.0000 </r>
       <r>    1.3671    1.0000 </r>
       <r>    1.4573    1.0000 </r>
       <r>    1.4580    1.0000 </r>
       <r>    1.5219    1.0000 </r>
       <r>    1.5784    1.0000 </r>
       <r>    2.0058    1.0000 </r>
       <r>    3.6343    0.0000 </r>
       <r>    3.6347    0.0000 </r>
       <r>    3.8295    0.0000 </r>
       <r>    3.8299    0.0000 </r>
       <r>    3.9028    0.0000 </r>
       <r>    3.9037    0.0000 </r>
       <r>    3.9251    0.0000 </r>
       <r>    3.9295    0.0000 </r>
       <r>    3.9298    0.0000 </r>
       <r>    3.9675    0.0000 </r>
       <r>    3.9682    0.0000 </r>
       <r>    3.9743    0.0000 </r>
       <r>    4.0552    0.0000 </r>
       <r>    4.1382    0.0000 </r>
       <r>    4.1394    0.0000 </r>
       <r>    4.2256    0.0000 </r>
       <r>    4.2311    0.0000 </r>
       <r>    4.2322    0.0000 </r>
       <r>    4.2363    0.0000 </r>
       <r>    4.2418    0.0000 </r>
       <r>    4.3060    0.0000 </r>
       <r>    4.3150    0.0000 </r>
       <r>    4.3155    0.0000 </r>
       <r>    4.3742    0.0000 </r>
       <r>    4.3899    0.0000 </r>
       <r>    4.3906    0.0000 </r>
       <r>    4.3907    0.0000 </r>
       <r>    4.4387    0.0000 </r>
       <r>    4.4441    0.0000 </r>
       <r>    4.4581    0.0000 </r>
       <r>    4.4980    0.0000 </r>
       <r>    4.4991    0.0000 </r>
       <r>    4.5154    0.0000 </r>
       <r>    4.5160    0.0000 </r>
       <r>    4.5902    0.0000 </r>
       <r>    4.5994    0.0000 </r>
       <r>    4.6162    0.0000 </r>
       <r>    4.6556    0.0000 </r>
       <r>    4.6558    0.0000 </r>
       <r>    4.7785    0.0000 </r>
       <r>    4.8508    0.0000 </r>
       <r>    4.8521    0.0000 </r>
       <r>    4.8583    0.0000 </r>
       <r>    4.8584    0.0000 </r>
       <r>    4.9091    0.0000 </r>
       <r>    5.0262    0.0000 </r>
       <r>    5.0343    0.0000 </r>
       <r>    5.0347    0.0000 </r>
       <r>    5.1270    0.0000 </r>
       <r>    5.1282    0.0000 </r>
       <r>    5.2250    0.0000 </r>
       <r>    5.2358    0.0000 </r>
      </set>
      <set comment="kpoint 8">
       <r>  -59.0850    1.0000 </r>
       <r>  -59.0726    1.0000 </r>
       <r>  -59.0726    1.0000 </r>
       <r>  -59.0603    1.0000 </r>
       <r>  -59.0603    1.0000 </r>
       <r>  -59.0546    1.0000 </r>
       <r>  -59.0545    1.0000 </r>
       <r>  -59.0517    1.0000 </r>
       <r>  -59.0506    1.0000 </r>
       <r>  -59.0132    1.0000 </r>
       <r>  -59.0010    1.0000 </r>
       <r>  -59.0005    1.0000 </r>
       <r>  -58.9887    1.0000 </r>
       <r>  -58.9882    1.0000 </r>
       <r>  -58.9830    1.0000 </r>
       <r>  -58.9825    1.0000 </r>
       <r>  -58.9799    1.0000 </r>
       <r>  -58.9788    1.0000 </r>
       <r>  -33.3750    1.0000 </r>
       <r>  -33.3750    1.0000 </r>
       <r>  -33.3530    1.0000 </r>
       <r>  -33.3303    1.0000 </r>
       <r>  -33.3047    1.0000 </r>
       <r>  -33.3047    1.0000 </r>
       <r>  -33.3030    1.0000 </r>
       <r>  -33.3027    1.0000 </r>
       <r>  -33.2808    1.0000 </r>
       <r>  -33.2581    1.0000 </r>
       <r>  -33.2328    1.0000 </r>
       <r>  -33.2323    1.0000 </r>
       <r>  -33.2175    1.0000 </r>
       <r>  -33.2041    1.0000 </r>
       <r>  -33.2020    1.0000 </r>
       <r>  -33.2020    1.0000 </r>
       <r>  -33.1944    1.0000 </r>
       <r>  -33.1924    1.0000 </r>
       <r>  -33.1924    1.0000 </r>
       <r>  -33.1676    1.0000 </r>
       <r>  -33.1676    1.0000 </r>
       <r>  -33.1561    1.0000 </r>
       <r>  -33.1561    1.0000 </r>
       <r>  -33.1504    1.0000 </r>
       <r>  -33.1482    1.0000 </r>
       <r>  -33.1459    1.0000 </r>
       <r>  -33.1320    1.0000 </r>
       <r>  -33.1300    1.0000 </r>
       <r>  -33.1296    1.0000 </r>
       <r>  -33.1249    1.0000 </r>
       <r>  -33.1249    1.0000 </r>
       <r>  -33.1229    1.0000 </r>
       <r>  -33.1229    1.0000 </r>
       <r>  -33.1223    1.0000 </r>
       <r>  -33.1210    1.0000 </r>
       <r>  -33.1207    1.0000 </r>
       <r>  -33.0963    1.0000 </r>
       <r>  -33.0959    1.0000 </r>
       <r>  -33.0847    1.0000 </r>
       <r>  -33.0844    1.0000 </r>
       <r>  -33.0793    1.0000 </r>
       <r>  -33.0788    1.0000 </r>
       <r>  -33.0766    1.0000 </r>
       <r>  -33.0765    1.0000 </r>
       <r>  -33.0765    1.0000 </r>
       <r>  -33.0530    1.0000 </r>
       <r>  -33.0528    1.0000 </r>
       <r>  -33.0509    1.0000 </r>
       <r>  -33.0505    1.0000 </r>
       <r>  -33.0443    1.0000 </r>
       <r>  -33.0072    1.0000 </r>
       <r>  -33.0046    1.0000 </r>
       <r>  -33.0042    1.0000 </r>
       <r>  -32.9722    1.0000 </r>
       <r>  -12.1976    1.0000 </r>
       <r>  -11.9958    1.0000 </r>
       <r>  -11.6239    1.0000 </r>
       <r>  -11.6232    1.0000 </r>
       <r>  -11.4342    1.0000 </r>
       <r>  -11.4321    1.0000 </r>
       <r>  -11.0066    1.0000 </r>
       <r>  -10.9615    1.0000 </r>
       <r>  -10.9609    1.0000 </r>
       <r>  -10.8014    1.0000 </r>
       <r>  -10.7993    1.0000 </r>
       <r>  -10.7506    1.0000 </r>
       <r>  -10.7501    1.0000 </r>
       <r>  -10.7295    1.0000 </r>
       <r>  -10.5902    1.0000 </r>
       <r>  -10.5898    1.0000 </r>
       <r>  -10.5256    1.0000 </r>
       <r>  -10.5253    1.0000 </r>
       <r>  -10.4673    1.0000 </r>
       <r>  -10.4653    1.0000 </r>
       <r>  -10.4539    1.0000 </r>
       <r>  -10.4530    1.0000 </r>
       <r>  -10.4239    1.0000 </r>
       <r>  -10.3355    1.0000 </r>
       <r>  -10.3139    1.0000 </r>
       <r>  -10.3020    1.0000 </r>
       <r>  -10.3013    1.0000 </r>
       <r>  -10.2983    1.0000 </r>
       <r>  -10.2973    1.0000 </r>
       <r>  -10.2440    1.0000 </r>
       <r>  -10.2005    1.0000 </r>
       <r>  -10.1967    1.0000 </r>
       <r>  -10.1951    1.0000 </r>
       <r>  -10.1703    1.0000 </r>
       <r>  -10.1108    1.0000 </r>
       <r>  -10.0912    1.0000 </r>
       <r>   -3.9450    1.0000 </r>
       <r>   -3.8871    1.0000 </r>
       <r>   -3.8867    1.0000 </r>
       <r>   -3.7524    1.0000 </r>
       <r>   -3.7511    1.0000 </r>
       <r>   -3.5202    1.0000 </r>
       <r>   -3.4984    1.0000 </r>
       <r>   -3.4980    1.0000 </r>
       <r>   -3.4943    1.0000 </r>
       <r>   -3.4929    1.0000 </r>
       <r>   -3.4001    1.0000 </r>
       <r>   -3.3925    1.0000 </r>
       <r>   -3.3703    1.0000 </r>
       <r>   -3.3085    1.0000 </r>
       <r>   -3.3052    1.0000 </r>
       <r>   -3.3016    1.0000 </r>
       <r>   -3.2547    1.0000 </r>
       <r>   -3.2534    1.0000 </r>
       <r>   -3.2525    1.0000 </r>
       <r>   -3.1638    1.0000 </r>
       <r>   -3.0039    1.0000 </r>
       <r>   -3.0037    1.0000 </r>
       <r>   -2.9662    1.0000 </r>
       <r>   -2.9640    1.0000 </r>
       <r>   -2.8488    1.0000 </r>
       <r>   -2.8471    1.0000 </r>
       <r>   -2.5598    1.0000 </r>
       <r>   -2.5593    1.0000 </r>
       <r>   -2.4529    1.0000 </r>
       <r>   -2.4513    1.0000 </r>
       <r>   -2.3052    1.0000 </r>
       <r>   -2.3047    1.0000 </r>
       <r>   -2.2556    1.0000 </r>
       <r>   -2.0941    1.0000 </r>
       <r>   -2.0937    1.0000 </r>
       <r>   -2.0666    1.0000 </r>
       <r>   -2.0650    1.0000 </r>
       <r>   -2.0501    1.0000 </r>
       <r>   -2.0499    1.0000 </r>
       <r>   -2.0173    1.0000 </r>
       <r>   -1.9739    1.0000 </r>
       <r>   -1.9732    1.0000 </r>
       <r>   -1.9413    1.0000 </r>
       <r>   -1.9008    1.0000 </r>
       <r>   -1.9000    1.0000 </r>
       <r>   -1.8819    1.0000 </r>
       <r>   -1.7493    1.0000 </r>
       <r>   -1.7486    1.0000 </r>
       <r>   -1.5046    1.0000 </r>
       <r>   -1.5038    1.0000 </r>
       <r>   -1.4487    1.0000 </r>
       <r>   -1.4289    1.0000 </r>
       <r>   -1.4280    1.0000 </r>
       <r>   -1.4064    1.0000 </r>
       <r>   -1.4063    1.0000 </r>
       <r>   -1.3610    1.0000 </r>
       <r>   -1.3562    1.0000 </r>
       <r>   -1.3162    1.0000 </r>
       <r>   -1.3142    1.0000 </r>
       <r>   -1.2932    1.0000 </r>
       <r>   -1.2731    1.0000 </r>
       <r>   -1.2498    1.0000 </r>
       <r>   -1.2484    1.0000 </r>
       <r>   -1.2234    1.0000 </r>
       <r>   -1.2178    1.0000 </r>
       <r>   -1.1519    1.0000 </r>
       <r>   -1.0433    1.0000 </r>
       <r>   -0.9848    1.0000 </r>
       <r>   -0.8799    1.0000 </r>
       <r>   -0.8795    1.0000 </r>
       <r>   -0.8135    1.0000 </r>
       <r>   -0.7864    1.0000 </r>
       <r>   -0.7854    1.0000 </r>
       <r>   -0.6905    1.0000 </r>
       <r>   -0.6155    1.0000 </r>
       <r>   -0.4246    1.0000 </r>
       <r>   -0.2885    1.0000 </r>
       <r>   -0.2881    1.0000 </r>
       <r>   -0.1831    1.0000 </r>
       <r>   -0.1830    1.0000 </r>
       <r>   -0.1760    1.0000 </r>
       <r>   -0.1736    1.0000 </r>
       <r>   -0.1450    1.0000 </r>
       <r>   -0.1250    1.0000 </r>
       <r>   -0.1245    1.0000 </r>
       <r>   -0.1219    1.0000 </r>
       <r>   -0.0989    1.0000 </r>
       <r>   -0.0981    1.0000 </r>
       <r>   -0.0434    1.0000 </r>
       <r>   -0.0204    1.0000 </r>
       <r>   -0.0060    1.0000 </r>
       <r>    0.1292    1.0000 </r>
       <r>    0.1925    1.0000 </r>
       <r>    0.1937    1.0000 </r>
       <r>    0.3149    1.0000 </r>
       <r>    0.3153    1.0000 </r>
       <r>    0.3633    1.0000 </r>
       <r>    0.3638    1.0000 </r>
       <r>    0.4643    1.0000 </r>
       <r>    0.4654    1.0000 </r>
       <r>    0.5254    1.0000 </r>
       <r>    0.5262    1.0000 </r>
       <r>    0.5558    1.0000 </r>
       <r>    0.5577    1.0000 </r>
       <r>    0.5598    1.0000 </r>
       <r>    0.8917    1.0000 </r>
       <r>    0.8941    1.0000 </r>
       <r>    0.9827    1.0000 </r>
       <r>    0.9827    1.0000 </r>
       <r>    1.0450    1.0000 </r>
       <r>    1.0710    1.0000 </r>
       <r>    1.0725    1.0000 </r>
       <r>    1.1423    1.0000 </r>
       <r>    1.1429    1.0000 </r>
       <r>    1.1532    1.0000 </r>
       <r>    1.1535    1.0000 </r>
       <r>    1.2531    1.0000 </r>
       <r>    1.2546    1.0000 </r>
       <r>    1.2550    1.0000 </r>
       <r>    1.2565    1.0000 </r>
       <r>    1.3692    1.0000 </r>
       <r>    1.4553    1.0000 </r>
       <r>    1.4957    1.0000 </r>
       <r>    1.5938    1.0000 </r>
       <r>    1.6169    1.0000 </r>
       <r>    2.1204    1.0000 </r>
       <r>    3.7202    0.0000 </r>
       <r>    3.7207    0.0000 </r>
       <r>    3.7590    0.0000 </r>
       <r>    3.7705    0.0000 </r>
       <r>    3.7895    0.0000 </r>
       <r>    3.7898    0.0000 </r>
       <r>    3.8312    0.0000 </r>
       <r>    3.9302    0.0000 </r>
       <r>    3.9812    0.0000 </r>
       <r>    3.9814    0.0000 </r>
       <r>    4.0501    0.0000 </r>
       <r>    4.0513    0.0000 </r>
       <r>    4.0527    0.0000 </r>
       <r>    4.0548    0.0000 </r>
       <r>    4.0614    0.0000 </r>
       <r>    4.0619    0.0000 </r>
       <r>    4.2246    0.0000 </r>
       <r>    4.2257    0.0000 </r>
       <r>    4.2884    0.0000 </r>
       <r>    4.2890    0.0000 </r>
       <r>    4.2933    0.0000 </r>
       <r>    4.2945    0.0000 </r>
       <r>    4.2984    0.0000 </r>
       <r>    4.3436    0.0000 </r>
       <r>    4.3800    0.0000 </r>
       <r>    4.3812    0.0000 </r>
       <r>    4.3817    0.0000 </r>
       <r>    4.3883    0.0000 </r>
       <r>    4.3886    0.0000 </r>
       <r>    4.4757    0.0000 </r>
       <r>    4.4765    0.0000 </r>
       <r>    4.5338    0.0000 </r>
       <r>    4.5610    0.0000 </r>
       <r>    4.5624    0.0000 </r>
       <r>    4.5658    0.0000 </r>
       <r>    4.6610    0.0000 </r>
       <r>    4.6758    0.0000 </r>
       <r>    4.8006    0.0000 </r>
       <r>    4.8009    0.0000 </r>
       <r>    4.8279    0.0000 </r>
       <r>    4.8286    0.0000 </r>
       <r>    4.8377    0.0000 </r>
       <r>    4.8512    0.0000 </r>
       <r>    4.8612    0.0000 </r>
       <r>    4.9276    0.0000 </r>
       <r>    4.9547    0.0000 </r>
       <r>    5.0131    0.0000 </r>
       <r>    5.0851    0.0000 </r>
       <r>    5.1014    0.0000 </r>
       <r>    5.1024    0.0000 </r>
       <r>    5.1369    0.0000 </r>
       <r>    5.3005    0.0000 </r>
      </set>
      <set comment="kpoint 9">
       <r>  -59.0850    1.0000 </r>
       <r>  -59.0726    1.0000 </r>
       <r>  -59.0726    1.0000 </r>
       <r>  -59.0603    1.0000 </r>
       <r>  -59.0603    1.0000 </r>
       <r>  -59.0546    1.0000 </r>
       <r>  -59.0545    1.0000 </r>
       <r>  -59.0517    1.0000 </r>
       <r>  -59.0506    1.0000 </r>
       <r>  -59.0132    1.0000 </r>
       <r>  -59.0010    1.0000 </r>
       <r>  -59.0005    1.0000 </r>
       <r>  -58.9887    1.0000 </r>
       <r>  -58.9882    1.0000 </r>
       <r>  -58.9830    1.0000 </r>
       <r>  -58.9825    1.0000 </r>
       <r>  -58.9799    1.0000 </r>
       <r>  -58.9788    1.0000 </r>
       <r>  -33.3750    1.0000 </r>
       <r>  -33.3750    1.0000 </r>
       <r>  -33.3530    1.0000 </r>
       <r>  -33.3303    1.0000 </r>
       <r>  -33.3047    1.0000 </r>
       <r>  -33.3047    1.0000 </r>
       <r>  -33.3030    1.0000 </r>
       <r>  -33.3027    1.0000 </r>
       <r>  -33.2808    1.0000 </r>
       <r>  -33.2582    1.0000 </r>
       <r>  -33.2328    1.0000 </r>
       <r>  -33.2323    1.0000 </r>
       <r>  -33.2175    1.0000 </r>
       <r>  -33.2041    1.0000 </r>
       <r>  -33.2020    1.0000 </r>
       <r>  -33.2020    1.0000 </r>
       <r>  -33.1944    1.0000 </r>
       <r>  -33.1924    1.0000 </r>
       <r>  -33.1924    1.0000 </r>
       <r>  -33.1676    1.0000 </r>
       <r>  -33.1676    1.0000 </r>
       <r>  -33.1561    1.0000 </r>
       <r>  -33.1561    1.0000 </r>
       <r>  -33.1504    1.0000 </r>
       <r>  -33.1482    1.0000 </r>
       <r>  -33.1459    1.0000 </r>
       <r>  -33.1319    1.0000 </r>
       <r>  -33.1300    1.0000 </r>
       <r>  -33.1297    1.0000 </r>
       <r>  -33.1249    1.0000 </r>
       <r>  -33.1249    1.0000 </r>
       <r>  -33.1229    1.0000 </r>
       <r>  -33.1229    1.0000 </r>
       <r>  -33.1223    1.0000 </r>
       <r>  -33.1211    1.0000 </r>
       <r>  -33.1207    1.0000 </r>
       <r>  -33.0963    1.0000 </r>
       <r>  -33.0958    1.0000 </r>
       <r>  -33.0848    1.0000 </r>
       <r>  -33.0843    1.0000 </r>
       <r>  -33.0793    1.0000 </r>
       <r>  -33.0788    1.0000 </r>
       <r>  -33.0766    1.0000 </r>
       <r>  -33.0765    1.0000 </r>
       <r>  -33.0765    1.0000 </r>
       <r>  -33.0530    1.0000 </r>
       <r>  -33.0528    1.0000 </r>
       <r>  -33.0508    1.0000 </r>
       <r>  -33.0505    1.0000 </r>
       <r>  -33.0443    1.0000 </r>
       <r>  -33.0072    1.0000 </r>
       <r>  -33.0046    1.0000 </r>
       <r>  -33.0043    1.0000 </r>
       <r>  -32.9722    1.0000 </r>
       <r>  -12.1975    1.0000 </r>
       <r>  -11.9958    1.0000 </r>
       <r>  -11.6239    1.0000 </r>
       <r>  -11.6232    1.0000 </r>
       <r>  -11.4342    1.0000 </r>
       <r>  -11.4320    1.0000 </r>
       <r>  -11.0066    1.0000 </r>
       <r>  -10.9615    1.0000 </r>
       <r>  -10.9609    1.0000 </r>
       <r>  -10.8014    1.0000 </r>
       <r>  -10.7994    1.0000 </r>
       <r>  -10.7506    1.0000 </r>
       <r>  -10.7500    1.0000 </r>
       <r>  -10.7296    1.0000 </r>
       <r>  -10.5902    1.0000 </r>
       <r>  -10.5898    1.0000 </r>
       <r>  -10.5257    1.0000 </r>
       <r>  -10.5252    1.0000 </r>
       <r>  -10.4674    1.0000 </r>
       <r>  -10.4652    1.0000 </r>
       <r>  -10.4540    1.0000 </r>
       <r>  -10.4529    1.0000 </r>
       <r>  -10.4239    1.0000 </r>
       <r>  -10.3355    1.0000 </r>
       <r>  -10.3138    1.0000 </r>
       <r>  -10.3020    1.0000 </r>
       <r>  -10.3013    1.0000 </r>
       <r>  -10.2983    1.0000 </r>
       <r>  -10.2970    1.0000 </r>
       <r>  -10.2441    1.0000 </r>
       <r>  -10.2004    1.0000 </r>
       <r>  -10.1967    1.0000 </r>
       <r>  -10.1954    1.0000 </r>
       <r>  -10.1703    1.0000 </r>
       <r>  -10.1109    1.0000 </r>
       <r>  -10.0911    1.0000 </r>
       <r>   -3.9450    1.0000 </r>
       <r>   -3.8871    1.0000 </r>
       <r>   -3.8867    1.0000 </r>
       <r>   -3.7526    1.0000 </r>
       <r>   -3.7509    1.0000 </r>
       <r>   -3.5202    1.0000 </r>
       <r>   -3.4985    1.0000 </r>
       <r>   -3.4979    1.0000 </r>
       <r>   -3.4943    1.0000 </r>
       <r>   -3.4929    1.0000 </r>
       <r>   -3.4001    1.0000 </r>
       <r>   -3.3925    1.0000 </r>
       <r>   -3.3702    1.0000 </r>
       <r>   -3.3085    1.0000 </r>
       <r>   -3.3053    1.0000 </r>
       <r>   -3.3016    1.0000 </r>
       <r>   -3.2546    1.0000 </r>
       <r>   -3.2536    1.0000 </r>
       <r>   -3.2524    1.0000 </r>
       <r>   -3.1638    1.0000 </r>
       <r>   -3.0039    1.0000 </r>
       <r>   -3.0037    1.0000 </r>
       <r>   -2.9662    1.0000 </r>
       <r>   -2.9639    1.0000 </r>
       <r>   -2.8486    1.0000 </r>
       <r>   -2.8468    1.0000 </r>
       <r>   -2.5598    1.0000 </r>
       <r>   -2.5592    1.0000 </r>
       <r>   -2.4530    1.0000 </r>
       <r>   -2.4514    1.0000 </r>
       <r>   -2.3052    1.0000 </r>
       <r>   -2.3046    1.0000 </r>
       <r>   -2.2556    1.0000 </r>
       <r>   -2.0941    1.0000 </r>
       <r>   -2.0937    1.0000 </r>
       <r>   -2.0669    1.0000 </r>
       <r>   -2.0646    1.0000 </r>
       <r>   -2.0501    1.0000 </r>
       <r>   -2.0499    1.0000 </r>
       <r>   -2.0174    1.0000 </r>
       <r>   -1.9738    1.0000 </r>
       <r>   -1.9734    1.0000 </r>
       <r>   -1.9415    1.0000 </r>
       <r>   -1.9010    1.0000 </r>
       <r>   -1.9000    1.0000 </r>
       <r>   -1.8818    1.0000 </r>
       <r>   -1.7492    1.0000 </r>
       <r>   -1.7488    1.0000 </r>
       <r>   -1.5046    1.0000 </r>
       <r>   -1.5039    1.0000 </r>
       <r>   -1.4487    1.0000 </r>
       <r>   -1.4289    1.0000 </r>
       <r>   -1.4283    1.0000 </r>
       <r>   -1.4064    1.0000 </r>
       <r>   -1.4063    1.0000 </r>
       <r>   -1.3610    1.0000 </r>
       <r>   -1.3561    1.0000 </r>
       <r>   -1.3162    1.0000 </r>
       <r>   -1.3141    1.0000 </r>
       <r>   -1.2932    1.0000 </r>
       <r>   -1.2729    1.0000 </r>
       <r>   -1.2498    1.0000 </r>
       <r>   -1.2486    1.0000 </r>
       <r>   -1.2236    1.0000 </r>
       <r>   -1.2176    1.0000 </r>
       <r>   -1.1521    1.0000 </r>
       <r>   -1.0433    1.0000 </r>
       <r>   -0.9850    1.0000 </r>
       <r>   -0.8799    1.0000 </r>
       <r>   -0.8795    1.0000 </r>
       <r>   -0.8134    1.0000 </r>
       <r>   -0.7865    1.0000 </r>
       <r>   -0.7847    1.0000 </r>
       <r>   -0.6905    1.0000 </r>
       <r>   -0.6157    1.0000 </r>
       <r>   -0.4249    1.0000 </r>
       <r>   -0.2885    1.0000 </r>
       <r>   -0.2881    1.0000 </r>
       <r>   -0.1831    1.0000 </r>
       <r>   -0.1830    1.0000 </r>
       <r>   -0.1761    1.0000 </r>
       <r>   -0.1732    1.0000 </r>
       <r>   -0.1450    1.0000 </r>
       <r>   -0.1251    1.0000 </r>
       <r>   -0.1246    1.0000 </r>
       <r>   -0.1219    1.0000 </r>
       <r>   -0.0989    1.0000 </r>
       <r>   -0.0982    1.0000 </r>
       <r>   -0.0426    1.0000 </r>
       <r>   -0.0204    1.0000 </r>
       <r>   -0.0057    1.0000 </r>
       <r>    0.1292    1.0000 </r>
       <r>    0.1924    1.0000 </r>
       <r>    0.1936    1.0000 </r>
       <r>    0.3150    1.0000 </r>
       <r>    0.3153    1.0000 </r>
       <r>    0.3632    1.0000 </r>
       <r>    0.3638    1.0000 </r>
       <r>    0.4643    1.0000 </r>
       <r>    0.4655    1.0000 </r>
       <r>    0.5253    1.0000 </r>
       <r>    0.5263    1.0000 </r>
       <r>    0.5557    1.0000 </r>
       <r>    0.5578    1.0000 </r>
       <r>    0.5597    1.0000 </r>
       <r>    0.8915    1.0000 </r>
       <r>    0.8941    1.0000 </r>
       <r>    0.9827    1.0000 </r>
       <r>    0.9827    1.0000 </r>
       <r>    1.0450    1.0000 </r>
       <r>    1.0711    1.0000 </r>
       <r>    1.0727    1.0000 </r>
       <r>    1.1422    1.0000 </r>
       <r>    1.1429    1.0000 </r>
       <r>    1.1532    1.0000 </r>
       <r>    1.1534    1.0000 </r>
       <r>    1.2530    1.0000 </r>
       <r>    1.2546    1.0000 </r>
       <r>    1.2551    1.0000 </r>
       <r>    1.2561    1.0000 </r>
       <r>    1.3692    1.0000 </r>
       <r>    1.4553    1.0000 </r>
       <r>    1.4957    1.0000 </r>
       <r>    1.5939    1.0000 </r>
       <r>    1.6169    1.0000 </r>
       <r>    2.1204    1.0000 </r>
       <r>    3.7203    0.0000 </r>
       <r>    3.7206    0.0000 </r>
       <r>    3.7590    0.0000 </r>
       <r>    3.7705    0.0000 </r>
       <r>    3.7894    0.0000 </r>
       <r>    3.7898    0.0000 </r>
       <r>    3.8313    0.0000 </r>
       <r>    3.9301    0.0000 </r>
       <r>    3.9812    0.0000 </r>
       <r>    3.9814    0.0000 </r>
       <r>    4.0503    0.0000 </r>
       <r>    4.0512    0.0000 </r>
       <r>    4.0526    0.0000 </r>
       <r>    4.0548    0.0000 </r>
       <r>    4.0614    0.0000 </r>
       <r>    4.0618    0.0000 </r>
       <r>    4.2246    0.0000 </r>
       <r>    4.2257    0.0000 </r>
       <r>    4.2885    0.0000 </r>
       <r>    4.2890    0.0000 </r>
       <r>    4.2935    0.0000 </r>
       <r>    4.2945    0.0000 </r>
       <r>    4.2983    0.0000 </r>
       <r>    4.3435    0.0000 </r>
       <r>    4.3798    0.0000 </r>
       <r>    4.3817    0.0000 </r>
       <r>    4.3820    0.0000 </r>
       <r>    4.3883    0.0000 </r>
       <r>    4.3885    0.0000 </r>
       <r>    4.4757    0.0000 </r>
       <r>    4.4765    0.0000 </r>
       <r>    4.5340    0.0000 </r>
       <r>    4.5610    0.0000 </r>
       <r>    4.5623    0.0000 </r>
       <r>    4.5658    0.0000 </r>
       <r>    4.6610    0.0000 </r>
       <r>    4.6757    0.0000 </r>
       <r>    4.8004    0.0000 </r>
       <r>    4.8010    0.0000 </r>
       <r>    4.8283    0.0000 </r>
       <r>    4.8286    0.0000 </r>
       <r>    4.8377    0.0000 </r>
       <r>    4.8511    0.0000 </r>
       <r>    4.8610    0.0000 </r>
       <r>    4.9273    0.0000 </r>
       <r>    4.9540    0.0000 </r>
       <r>    5.0133    0.0000 </r>
       <r>    5.0851    0.0000 </r>
       <r>    5.1017    0.0000 </r>
       <r>    5.1023    0.0000 </r>
       <r>    5.1368    0.0000 </r>
       <r>    5.3004    0.0000 </r>
      </set>
      <set comment="kpoint 10">
       <r>  -59.0850    1.0000 </r>
       <r>  -59.0726    1.0000 </r>
       <r>  -59.0726    1.0000 </r>
       <r>  -59.0603    1.0000 </r>
       <r>  -59.0603    1.0000 </r>
       <r>  -59.0546    1.0000 </r>
       <r>  -59.0545    1.0000 </r>
       <r>  -59.0517    1.0000 </r>
       <r>  -59.0506    1.0000 </r>
       <r>  -59.0132    1.0000 </r>
       <r>  -59.0010    1.0000 </r>
       <r>  -59.0005    1.0000 </r>
       <r>  -58.9887    1.0000 </r>
       <r>  -58.9882    1.0000 </r>
       <r>  -58.9831    1.0000 </r>
       <r>  -58.9825    1.0000 </r>
       <r>  -58.9798    1.0000 </r>
       <r>  -58.9788    1.0000 </r>
       <r>  -33.3750    1.0000 </r>
       <r>  -33.3750    1.0000 </r>
       <r>  -33.3530    1.0000 </r>
       <r>  -33.3303    1.0000 </r>
       <r>  -33.3047    1.0000 </r>
       <r>  -33.3047    1.0000 </r>
       <r>  -33.3030    1.0000 </r>
       <r>  -33.3026    1.0000 </r>
       <r>  -33.2808    1.0000 </r>
       <r>  -33.2581    1.0000 </r>
       <r>  -33.2328    1.0000 </r>
       <r>  -33.2323    1.0000 </r>
       <r>  -33.2175    1.0000 </r>
       <r>  -33.2041    1.0000 </r>
       <r>  -33.2020    1.0000 </r>
       <r>  -33.2020    1.0000 </r>
       <r>  -33.1944    1.0000 </r>
       <r>  -33.1924    1.0000 </r>
       <r>  -33.1924    1.0000 </r>
       <r>  -33.1676    1.0000 </r>
       <r>  -33.1676    1.0000 </r>
       <r>  -33.1561    1.0000 </r>
       <r>  -33.1561    1.0000 </r>
       <r>  -33.1504    1.0000 </r>
       <r>  -33.1482    1.0000 </r>
       <r>  -33.1459    1.0000 </r>
       <r>  -33.1320    1.0000 </r>
       <r>  -33.1300    1.0000 </r>
       <r>  -33.1296    1.0000 </r>
       <r>  -33.1249    1.0000 </r>
       <r>  -33.1249    1.0000 </r>
       <r>  -33.1229    1.0000 </r>
       <r>  -33.1229    1.0000 </r>
       <r>  -33.1222    1.0000 </r>
       <r>  -33.1210    1.0000 </r>
       <r>  -33.1208    1.0000 </r>
       <r>  -33.0962    1.0000 </r>
       <r>  -33.0959    1.0000 </r>
       <r>  -33.0847    1.0000 </r>
       <r>  -33.0844    1.0000 </r>
       <r>  -33.0793    1.0000 </r>
       <r>  -33.0788    1.0000 </r>
       <r>  -33.0766    1.0000 </r>
       <r>  -33.0765    1.0000 </r>
       <r>  -33.0765    1.0000 </r>
       <r>  -33.0530    1.0000 </r>
       <r>  -33.0527    1.0000 </r>
       <r>  -33.0509    1.0000 </r>
       <r>  -33.0505    1.0000 </r>
       <r>  -33.0443    1.0000 </r>
       <r>  -33.0071    1.0000 </r>
       <r>  -33.0046    1.0000 </r>
       <r>  -33.0042    1.0000 </r>
       <r>  -32.9722    1.0000 </r>
       <r>  -12.1976    1.0000 </r>
       <r>  -11.9958    1.0000 </r>
       <r>  -11.6239    1.0000 </r>
       <r>  -11.6232    1.0000 </r>
       <r>  -11.4342    1.0000 </r>
       <r>  -11.4320    1.0000 </r>
       <r>  -11.0066    1.0000 </r>
       <r>  -10.9615    1.0000 </r>
       <r>  -10.9609    1.0000 </r>
       <r>  -10.8014    1.0000 </r>
       <r>  -10.7992    1.0000 </r>
       <r>  -10.7506    1.0000 </r>
       <r>  -10.7500    1.0000 </r>
       <r>  -10.7295    1.0000 </r>
       <r>  -10.5902    1.0000 </r>
       <r>  -10.5899    1.0000 </r>
       <r>  -10.5257    1.0000 </r>
       <r>  -10.5252    1.0000 </r>
       <r>  -10.4673    1.0000 </r>
       <r>  -10.4654    1.0000 </r>
       <r>  -10.4540    1.0000 </r>
       <r>  -10.4531    1.0000 </r>
       <r>  -10.4239    1.0000 </r>
       <r>  -10.3355    1.0000 </r>
       <r>  -10.3139    1.0000 </r>
       <r>  -10.3020    1.0000 </r>
       <r>  -10.3012    1.0000 </r>
       <r>  -10.2983    1.0000 </r>
       <r>  -10.2975    1.0000 </r>
       <r>  -10.2439    1.0000 </r>
       <r>  -10.2005    1.0000 </r>
       <r>  -10.1967    1.0000 </r>
       <r>  -10.1949    1.0000 </r>
       <r>  -10.1702    1.0000 </r>
       <r>  -10.1107    1.0000 </r>
       <r>  -10.0914    1.0000 </r>
       <r>   -3.9450    1.0000 </r>
       <r>   -3.8870    1.0000 </r>
       <r>   -3.8867    1.0000 </r>
       <r>   -3.7522    1.0000 </r>
       <r>   -3.7512    1.0000 </r>
       <r>   -3.5202    1.0000 </r>
       <r>   -3.4984    1.0000 </r>
       <r>   -3.4980    1.0000 </r>
       <r>   -3.4943    1.0000 </r>
       <r>   -3.4929    1.0000 </r>
       <r>   -3.4002    1.0000 </r>
       <r>   -3.3925    1.0000 </r>
       <r>   -3.3704    1.0000 </r>
       <r>   -3.3085    1.0000 </r>
       <r>   -3.3051    1.0000 </r>
       <r>   -3.3016    1.0000 </r>
       <r>   -3.2548    1.0000 </r>
       <r>   -3.2533    1.0000 </r>
       <r>   -3.2528    1.0000 </r>
       <r>   -3.1638    1.0000 </r>
       <r>   -3.0039    1.0000 </r>
       <r>   -3.0038    1.0000 </r>
       <r>   -2.9662    1.0000 </r>
       <r>   -2.9640    1.0000 </r>
       <r>   -2.8488    1.0000 </r>
       <r>   -2.8473    1.0000 </r>
       <r>   -2.5598    1.0000 </r>
       <r>   -2.5593    1.0000 </r>
       <r>   -2.4529    1.0000 </r>
       <r>   -2.4510    1.0000 </r>
       <r>   -2.3051    1.0000 </r>
       <r>   -2.3048    1.0000 </r>
       <r>   -2.2555    1.0000 </r>
       <r>   -2.0940    1.0000 </r>
       <r>   -2.0937    1.0000 </r>
       <r>   -2.0664    1.0000 </r>
       <r>   -2.0655    1.0000 </r>
       <r>   -2.0501    1.0000 </r>
       <r>   -2.0499    1.0000 </r>
       <r>   -2.0172    1.0000 </r>
       <r>   -1.9741    1.0000 </r>
       <r>   -1.9731    1.0000 </r>
       <r>   -1.9412    1.0000 </r>
       <r>   -1.9005    1.0000 </r>
       <r>   -1.8999    1.0000 </r>
       <r>   -1.8819    1.0000 </r>
       <r>   -1.7496    1.0000 </r>
       <r>   -1.7482    1.0000 </r>
       <r>   -1.5047    1.0000 </r>
       <r>   -1.5035    1.0000 </r>
       <r>   -1.4487    1.0000 </r>
       <r>   -1.4290    1.0000 </r>
       <r>   -1.4276    1.0000 </r>
       <r>   -1.4064    1.0000 </r>
       <r>   -1.4063    1.0000 </r>
       <r>   -1.3609    1.0000 </r>
       <r>   -1.3562    1.0000 </r>
       <r>   -1.3161    1.0000 </r>
       <r>   -1.3144    1.0000 </r>
       <r>   -1.2932    1.0000 </r>
       <r>   -1.2732    1.0000 </r>
       <r>   -1.2499    1.0000 </r>
       <r>   -1.2482    1.0000 </r>
       <r>   -1.2232    1.0000 </r>
       <r>   -1.2180    1.0000 </r>
       <r>   -1.1518    1.0000 </r>
       <r>   -1.0433    1.0000 </r>
       <r>   -0.9847    1.0000 </r>
       <r>   -0.8799    1.0000 </r>
       <r>   -0.8795    1.0000 </r>
       <r>   -0.8135    1.0000 </r>
       <r>   -0.7866    1.0000 </r>
       <r>   -0.7855    1.0000 </r>
       <r>   -0.6905    1.0000 </r>
       <r>   -0.6153    1.0000 </r>
       <r>   -0.4242    1.0000 </r>
       <r>   -0.2885    1.0000 </r>
       <r>   -0.2881    1.0000 </r>
       <r>   -0.1831    1.0000 </r>
       <r>   -0.1830    1.0000 </r>
       <r>   -0.1759    1.0000 </r>
       <r>   -0.1739    1.0000 </r>
       <r>   -0.1450    1.0000 </r>
       <r>   -0.1250    1.0000 </r>
       <r>   -0.1245    1.0000 </r>
       <r>   -0.1219    1.0000 </r>
       <r>   -0.0989    1.0000 </r>
       <r>   -0.0980    1.0000 </r>
       <r>   -0.0442    1.0000 </r>
       <r>   -0.0205    1.0000 </r>
       <r>   -0.0063    1.0000 </r>
       <r>    0.1293    1.0000 </r>
       <r>    0.1928    1.0000 </r>
       <r>    0.1936    1.0000 </r>
       <r>    0.3149    1.0000 </r>
       <r>    0.3152    1.0000 </r>
       <r>    0.3633    1.0000 </r>
       <r>    0.3638    1.0000 </r>
       <r>    0.4642    1.0000 </r>
       <r>    0.4655    1.0000 </r>
       <r>    0.5254    1.0000 </r>
       <r>    0.5261    1.0000 </r>
       <r>    0.5560    1.0000 </r>
       <r>    0.5575    1.0000 </r>
       <r>    0.5598    1.0000 </r>
       <r>    0.8919    1.0000 </r>
       <r>    0.8940    1.0000 </r>
       <r>    0.9827    1.0000 </r>
       <r>    0.9827    1.0000 </r>
       <r>    1.0451    1.0000 </r>
       <r>    1.0709    1.0000 </r>
       <r>    1.0722    1.0000 </r>
       <r>    1.1424    1.0000 </r>
       <r>    1.1429    1.0000 </r>
       <r>    1.1533    1.0000 </r>
       <r>    1.1535    1.0000 </r>
       <r>    1.2534    1.0000 </r>
       <r>    1.2545    1.0000 </r>
       <r>    1.2549    1.0000 </r>
       <r>    1.2567    1.0000 </r>
       <r>    1.3692    1.0000 </r>
       <r>    1.4554    1.0000 </r>
       <r>    1.4957    1.0000 </r>
       <r>    1.5938    1.0000 </r>
       <r>    1.6170    1.0000 </r>
       <r>    2.1205    1.0000 </r>
       <r>    3.7202    0.0000 </r>
       <r>    3.7207    0.0000 </r>
       <r>    3.7590    0.0000 </r>
       <r>    3.7706    0.0000 </r>
       <r>    3.7895    0.0000 </r>
       <r>    3.7898    0.0000 </r>
       <r>    3.8311    0.0000 </r>
       <r>    3.9303    0.0000 </r>
       <r>    3.9812    0.0000 </r>
       <r>    3.9814    0.0000 </r>
       <r>    4.0500    0.0000 </r>
       <r>    4.0515    0.0000 </r>
       <r>    4.0527    0.0000 </r>
       <r>    4.0548    0.0000 </r>
       <r>    4.0614    0.0000 </r>
       <r>    4.0620    0.0000 </r>
       <r>    4.2245    0.0000 </r>
       <r>    4.2258    0.0000 </r>
       <r>    4.2884    0.0000 </r>
       <r>    4.2890    0.0000 </r>
       <r>    4.2930    0.0000 </r>
       <r>    4.2944    0.0000 </r>
       <r>    4.2984    0.0000 </r>
       <r>    4.3437    0.0000 </r>
       <r>    4.3798    0.0000 </r>
       <r>    4.3810    0.0000 </r>
       <r>    4.3815    0.0000 </r>
       <r>    4.3883    0.0000 </r>
       <r>    4.3887    0.0000 </r>
       <r>    4.4759    0.0000 </r>
       <r>    4.4766    0.0000 </r>
       <r>    4.5336    0.0000 </r>
       <r>    4.5609    0.0000 </r>
       <r>    4.5625    0.0000 </r>
       <r>    4.5659    0.0000 </r>
       <r>    4.6610    0.0000 </r>
       <r>    4.6759    0.0000 </r>
       <r>    4.8006    0.0000 </r>
       <r>    4.8011    0.0000 </r>
       <r>    4.8277    0.0000 </r>
       <r>    4.8284    0.0000 </r>
       <r>    4.8377    0.0000 </r>
       <r>    4.8512    0.0000 </r>
       <r>    4.8614    0.0000 </r>
       <r>    4.9278    0.0000 </r>
       <r>    4.9554    0.0000 </r>
       <r>    5.0129    0.0000 </r>
       <r>    5.0851    0.0000 </r>
       <r>    5.1014    0.0000 </r>
       <r>    5.1023    0.0000 </r>
       <r>    5.1370    0.0000 </r>
       <r>    5.3004    0.0000 </r>
      </set>
      <set comment="kpoint 11">
       <r>  -59.0795    1.0000 </r>
       <r>  -59.0795    1.0000 </r>
       <r>  -59.0736    1.0000 </r>
       <r>  -59.0607    1.0000 </r>
       <r>  -59.0555    1.0000 </r>
       <r>  -59.0555    1.0000 </r>
       <r>  -59.0530    1.0000 </r>
       <r>  -59.0523    1.0000 </r>
       <r>  -59.0523    1.0000 </r>
       <r>  -59.0080    1.0000 </r>
       <r>  -59.0075    1.0000 </r>
       <r>  -59.0018    1.0000 </r>
       <r>  -58.9890    1.0000 </r>
       <r>  -58.9839    1.0000 </r>
       <r>  -58.9835    1.0000 </r>
       <r>  -58.9813    1.0000 </r>
       <r>  -58.9806    1.0000 </r>
       <r>  -58.9802    1.0000 </r>
       <r>  -33.3895    1.0000 </r>
       <r>  -33.3722    1.0000 </r>
       <r>  -33.3722    1.0000 </r>
       <r>  -33.3246    1.0000 </r>
       <r>  -33.3246    1.0000 </r>
       <r>  -33.3173    1.0000 </r>
       <r>  -33.3002    1.0000 </r>
       <r>  -33.2999    1.0000 </r>
       <r>  -33.2908    1.0000 </r>
       <r>  -33.2526    1.0000 </r>
       <r>  -33.2522    1.0000 </r>
       <r>  -33.2187    1.0000 </r>
       <r>  -33.2065    1.0000 </r>
       <r>  -33.2065    1.0000 </r>
       <r>  -33.1946    1.0000 </r>
       <r>  -33.1877    1.0000 </r>
       <r>  -33.1686    1.0000 </r>
       <r>  -33.1639    1.0000 </r>
       <r>  -33.1639    1.0000 </r>
       <r>  -33.1580    1.0000 </r>
       <r>  -33.1579    1.0000 </r>
       <r>  -33.1532    1.0000 </r>
       <r>  -33.1532    1.0000 </r>
       <r>  -33.1530    1.0000 </r>
       <r>  -33.1516    1.0000 </r>
       <r>  -33.1516    1.0000 </r>
       <r>  -33.1352    1.0000 </r>
       <r>  -33.1347    1.0000 </r>
       <r>  -33.1334    1.0000 </r>
       <r>  -33.1334    1.0000 </r>
       <r>  -33.1332    1.0000 </r>
       <r>  -33.1268    1.0000 </r>
       <r>  -33.1230    1.0000 </r>
       <r>  -33.1156    1.0000 </r>
       <r>  -33.0971    1.0000 </r>
       <r>  -33.0919    1.0000 </r>
       <r>  -33.0916    1.0000 </r>
       <r>  -33.0867    1.0000 </r>
       <r>  -33.0862    1.0000 </r>
       <r>  -33.0815    1.0000 </r>
       <r>  -33.0812    1.0000 </r>
       <r>  -33.0809    1.0000 </r>
       <r>  -33.0803    1.0000 </r>
       <r>  -33.0798    1.0000 </r>
       <r>  -33.0780    1.0000 </r>
       <r>  -33.0615    1.0000 </r>
       <r>  -33.0611    1.0000 </r>
       <r>  -33.0610    1.0000 </r>
       <r>  -33.0584    1.0000 </r>
       <r>  -33.0584    1.0000 </r>
       <r>  -33.0547    1.0000 </r>
       <r>  -33.0058    1.0000 </r>
       <r>  -32.9864    1.0000 </r>
       <r>  -32.9862    1.0000 </r>
       <r>  -11.9556    1.0000 </r>
       <r>  -11.9548    1.0000 </r>
       <r>  -11.7581    1.0000 </r>
       <r>  -11.7559    1.0000 </r>
       <r>  -11.6753    1.0000 </r>
       <r>  -11.4833    1.0000 </r>
       <r>  -10.9923    1.0000 </r>
       <r>  -10.8985    1.0000 </r>
       <r>  -10.8979    1.0000 </r>
       <r>  -10.8287    1.0000 </r>
       <r>  -10.7728    1.0000 </r>
       <r>  -10.6708    1.0000 </r>
       <r>  -10.6703    1.0000 </r>
       <r>  -10.6427    1.0000 </r>
       <r>  -10.6422    1.0000 </r>
       <r>  -10.5428    1.0000 </r>
       <r>  -10.5329    1.0000 </r>
       <r>  -10.5307    1.0000 </r>
       <r>  -10.4803    1.0000 </r>
       <r>  -10.4646    1.0000 </r>
       <r>  -10.4462    1.0000 </r>
       <r>  -10.4459    1.0000 </r>
       <r>  -10.3734    1.0000 </r>
       <r>  -10.3409    1.0000 </r>
       <r>  -10.3387    1.0000 </r>
       <r>  -10.3179    1.0000 </r>
       <r>  -10.3169    1.0000 </r>
       <r>  -10.3045    1.0000 </r>
       <r>  -10.2581    1.0000 </r>
       <r>  -10.2310    1.0000 </r>
       <r>  -10.2302    1.0000 </r>
       <r>  -10.1967    1.0000 </r>
       <r>  -10.1955    1.0000 </r>
       <r>  -10.1668    1.0000 </r>
       <r>  -10.1425    1.0000 </r>
       <r>  -10.1407    1.0000 </r>
       <r>   -3.9719    1.0000 </r>
       <r>   -3.8496    1.0000 </r>
       <r>   -3.7719    1.0000 </r>
       <r>   -3.7717    1.0000 </r>
       <r>   -3.7113    1.0000 </r>
       <r>   -3.7102    1.0000 </r>
       <r>   -3.6433    1.0000 </r>
       <r>   -3.6420    1.0000 </r>
       <r>   -3.5008    1.0000 </r>
       <r>   -3.4818    1.0000 </r>
       <r>   -3.4814    1.0000 </r>
       <r>   -3.4172    1.0000 </r>
       <r>   -3.2736    1.0000 </r>
       <r>   -3.2730    1.0000 </r>
       <r>   -3.1971    1.0000 </r>
       <r>   -3.1970    1.0000 </r>
       <r>   -3.1410    1.0000 </r>
       <r>   -3.1070    1.0000 </r>
       <r>   -3.0930    1.0000 </r>
       <r>   -3.0926    1.0000 </r>
       <r>   -3.0911    1.0000 </r>
       <r>   -3.0897    1.0000 </r>
       <r>   -2.9580    1.0000 </r>
       <r>   -2.9404    1.0000 </r>
       <r>   -2.9403    1.0000 </r>
       <r>   -2.9384    1.0000 </r>
       <r>   -2.8825    1.0000 </r>
       <r>   -2.8793    1.0000 </r>
       <r>   -2.4618    1.0000 </r>
       <r>   -2.4131    1.0000 </r>
       <r>   -2.3595    1.0000 </r>
       <r>   -2.2991    1.0000 </r>
       <r>   -2.2981    1.0000 </r>
       <r>   -2.1206    1.0000 </r>
       <r>   -2.0592    1.0000 </r>
       <r>   -2.0572    1.0000 </r>
       <r>   -2.0466    1.0000 </r>
       <r>   -2.0243    1.0000 </r>
       <r>   -2.0231    1.0000 </r>
       <r>   -1.9861    1.0000 </r>
       <r>   -1.9220    1.0000 </r>
       <r>   -1.8864    1.0000 </r>
       <r>   -1.8535    1.0000 </r>
       <r>   -1.8532    1.0000 </r>
       <r>   -1.6905    1.0000 </r>
       <r>   -1.6904    1.0000 </r>
       <r>   -1.6187    1.0000 </r>
       <r>   -1.6155    1.0000 </r>
       <r>   -1.6105    1.0000 </r>
       <r>   -1.5981    1.0000 </r>
       <r>   -1.5524    1.0000 </r>
       <r>   -1.5519    1.0000 </r>
       <r>   -1.4333    1.0000 </r>
       <r>   -1.4331    1.0000 </r>
       <r>   -1.4302    1.0000 </r>
       <r>   -1.3574    1.0000 </r>
       <r>   -1.3571    1.0000 </r>
       <r>   -1.3484    1.0000 </r>
       <r>   -1.3099    1.0000 </r>
       <r>   -1.3087    1.0000 </r>
       <r>   -1.2654    1.0000 </r>
       <r>   -1.2577    1.0000 </r>
       <r>   -1.2566    1.0000 </r>
       <r>   -1.2511    1.0000 </r>
       <r>   -1.0311    1.0000 </r>
       <r>   -0.9236    1.0000 </r>
       <r>   -0.8889    1.0000 </r>
       <r>   -0.8869    1.0000 </r>
       <r>   -0.8466    1.0000 </r>
       <r>   -0.8462    1.0000 </r>
       <r>   -0.7119    1.0000 </r>
       <r>   -0.7111    1.0000 </r>
       <r>   -0.5149    1.0000 </r>
       <r>   -0.5148    1.0000 </r>
       <r>   -0.5026    1.0000 </r>
       <r>   -0.4566    1.0000 </r>
       <r>   -0.4566    1.0000 </r>
       <r>   -0.4331    1.0000 </r>
       <r>   -0.4323    1.0000 </r>
       <r>   -0.4019    1.0000 </r>
       <r>   -0.3775    1.0000 </r>
       <r>   -0.3720    1.0000 </r>
       <r>   -0.3268    1.0000 </r>
       <r>   -0.3261    1.0000 </r>
       <r>   -0.2756    1.0000 </r>
       <r>   -0.1933    1.0000 </r>
       <r>   -0.1822    1.0000 </r>
       <r>   -0.1466    1.0000 </r>
       <r>   -0.1457    1.0000 </r>
       <r>   -0.0614    1.0000 </r>
       <r>   -0.0610    1.0000 </r>
       <r>    0.1266    1.0000 </r>
       <r>    0.1282    1.0000 </r>
       <r>    0.1389    1.0000 </r>
       <r>    0.2432    1.0000 </r>
       <r>    0.2433    1.0000 </r>
       <r>    0.3622    1.0000 </r>
       <r>    0.3780    1.0000 </r>
       <r>    0.3799    1.0000 </r>
       <r>    0.5152    1.0000 </r>
       <r>    0.5239    1.0000 </r>
       <r>    0.6363    1.0000 </r>
       <r>    0.6376    1.0000 </r>
       <r>    0.6523    1.0000 </r>
       <r>    0.7231    1.0000 </r>
       <r>    0.9751    1.0000 </r>
       <r>    1.0407    1.0000 </r>
       <r>    1.0677    1.0000 </r>
       <r>    1.0710    1.0000 </r>
       <r>    1.0767    1.0000 </r>
       <r>    1.1295    1.0000 </r>
       <r>    1.1296    1.0000 </r>
       <r>    1.2132    1.0000 </r>
       <r>    1.2253    1.0000 </r>
       <r>    1.2262    1.0000 </r>
       <r>    1.2567    1.0000 </r>
       <r>    1.3135    1.0000 </r>
       <r>    1.3443    1.0000 </r>
       <r>    1.3444    1.0000 </r>
       <r>    1.3618    1.0000 </r>
       <r>    1.4456    1.0000 </r>
       <r>    1.4471    1.0000 </r>
       <r>    1.4478    1.0000 </r>
       <r>    1.4487    1.0000 </r>
       <r>    1.7026    1.0000 </r>
       <r>    1.7034    1.0000 </r>
       <r>    3.6492    0.0000 </r>
       <r>    3.7486    0.0000 </r>
       <r>    3.8154    0.0000 </r>
       <r>    3.8159    0.0000 </r>
       <r>    3.9528    0.0000 </r>
       <r>    3.9528    0.0000 </r>
       <r>    3.9905    0.0000 </r>
       <r>    3.9909    0.0000 </r>
       <r>    4.0033    0.0000 </r>
       <r>    4.0156    0.0000 </r>
       <r>    4.0389    0.0000 </r>
       <r>    4.0392    0.0000 </r>
       <r>    4.0535    0.0000 </r>
       <r>    4.0673    0.0000 </r>
       <r>    4.1937    0.0000 </r>
       <r>    4.1940    0.0000 </r>
       <r>    4.2019    0.0000 </r>
       <r>    4.2029    0.0000 </r>
       <r>    4.2163    0.0000 </r>
       <r>    4.2561    0.0000 </r>
       <r>    4.2676    0.0000 </r>
       <r>    4.2694    0.0000 </r>
       <r>    4.3114    0.0000 </r>
       <r>    4.3329    0.0000 </r>
       <r>    4.3344    0.0000 </r>
       <r>    4.3470    0.0000 </r>
       <r>    4.3545    0.0000 </r>
       <r>    4.4015    0.0000 </r>
       <r>    4.4015    0.0000 </r>
       <r>    4.4358    0.0000 </r>
       <r>    4.4373    0.0000 </r>
       <r>    4.4895    0.0000 </r>
       <r>    4.4898    0.0000 </r>
       <r>    4.5080    0.0000 </r>
       <r>    4.5909    0.0000 </r>
       <r>    4.5912    0.0000 </r>
       <r>    4.6231    0.0000 </r>
       <r>    4.6299    0.0000 </r>
       <r>    4.6330    0.0000 </r>
       <r>    4.6337    0.0000 </r>
       <r>    4.7010    0.0000 </r>
       <r>    4.7319    0.0000 </r>
       <r>    4.7325    0.0000 </r>
       <r>    4.8475    0.0000 </r>
       <r>    4.8479    0.0000 </r>
       <r>    4.9441    0.0000 </r>
       <r>    5.0811    0.0000 </r>
       <r>    5.0826    0.0000 </r>
       <r>    5.2197    0.0000 </r>
       <r>    5.2204    0.0000 </r>
       <r>    5.3205    0.0000 </r>
       <r>    5.3256    0.0000 </r>
      </set>
      <set comment="kpoint 12">
       <r>  -59.0795    1.0000 </r>
       <r>  -59.0795    1.0000 </r>
       <r>  -59.0736    1.0000 </r>
       <r>  -59.0607    1.0000 </r>
       <r>  -59.0555    1.0000 </r>
       <r>  -59.0555    1.0000 </r>
       <r>  -59.0530    1.0000 </r>
       <r>  -59.0523    1.0000 </r>
       <r>  -59.0523    1.0000 </r>
       <r>  -59.0080    1.0000 </r>
       <r>  -59.0075    1.0000 </r>
       <r>  -59.0018    1.0000 </r>
       <r>  -58.9890    1.0000 </r>
       <r>  -58.9840    1.0000 </r>
       <r>  -58.9834    1.0000 </r>
       <r>  -58.9813    1.0000 </r>
       <r>  -58.9806    1.0000 </r>
       <r>  -58.9802    1.0000 </r>
       <r>  -33.3895    1.0000 </r>
       <r>  -33.3722    1.0000 </r>
       <r>  -33.3722    1.0000 </r>
       <r>  -33.3246    1.0000 </r>
       <r>  -33.3246    1.0000 </r>
       <r>  -33.3174    1.0000 </r>
       <r>  -33.3003    1.0000 </r>
       <r>  -33.2998    1.0000 </r>
       <r>  -33.2908    1.0000 </r>
       <r>  -33.2526    1.0000 </r>
       <r>  -33.2522    1.0000 </r>
       <r>  -33.2186    1.0000 </r>
       <r>  -33.2065    1.0000 </r>
       <r>  -33.2065    1.0000 </r>
       <r>  -33.1946    1.0000 </r>
       <r>  -33.1877    1.0000 </r>
       <r>  -33.1686    1.0000 </r>
       <r>  -33.1639    1.0000 </r>
       <r>  -33.1639    1.0000 </r>
       <r>  -33.1580    1.0000 </r>
       <r>  -33.1579    1.0000 </r>
       <r>  -33.1532    1.0000 </r>
       <r>  -33.1532    1.0000 </r>
       <r>  -33.1530    1.0000 </r>
       <r>  -33.1516    1.0000 </r>
       <r>  -33.1516    1.0000 </r>
       <r>  -33.1351    1.0000 </r>
       <r>  -33.1348    1.0000 </r>
       <r>  -33.1334    1.0000 </r>
       <r>  -33.1334    1.0000 </r>
       <r>  -33.1332    1.0000 </r>
       <r>  -33.1268    1.0000 </r>
       <r>  -33.1230    1.0000 </r>
       <r>  -33.1155    1.0000 </r>
       <r>  -33.0971    1.0000 </r>
       <r>  -33.0919    1.0000 </r>
       <r>  -33.0916    1.0000 </r>
       <r>  -33.0866    1.0000 </r>
       <r>  -33.0863    1.0000 </r>
       <r>  -33.0815    1.0000 </r>
       <r>  -33.0813    1.0000 </r>
       <r>  -33.0809    1.0000 </r>
       <r>  -33.0802    1.0000 </r>
       <r>  -33.0799    1.0000 </r>
       <r>  -33.0780    1.0000 </r>
       <r>  -33.0616    1.0000 </r>
       <r>  -33.0612    1.0000 </r>
       <r>  -33.0610    1.0000 </r>
       <r>  -33.0584    1.0000 </r>
       <r>  -33.0584    1.0000 </r>
       <r>  -33.0546    1.0000 </r>
       <r>  -33.0059    1.0000 </r>
       <r>  -32.9864    1.0000 </r>
       <r>  -32.9862    1.0000 </r>
       <r>  -11.9556    1.0000 </r>
       <r>  -11.9548    1.0000 </r>
       <r>  -11.7581    1.0000 </r>
       <r>  -11.7559    1.0000 </r>
       <r>  -11.6753    1.0000 </r>
       <r>  -11.4833    1.0000 </r>
       <r>  -10.9923    1.0000 </r>
       <r>  -10.8985    1.0000 </r>
       <r>  -10.8980    1.0000 </r>
       <r>  -10.8288    1.0000 </r>
       <r>  -10.7728    1.0000 </r>
       <r>  -10.6708    1.0000 </r>
       <r>  -10.6703    1.0000 </r>
       <r>  -10.6427    1.0000 </r>
       <r>  -10.6423    1.0000 </r>
       <r>  -10.5428    1.0000 </r>
       <r>  -10.5329    1.0000 </r>
       <r>  -10.5307    1.0000 </r>
       <r>  -10.4802    1.0000 </r>
       <r>  -10.4646    1.0000 </r>
       <r>  -10.4462    1.0000 </r>
       <r>  -10.4460    1.0000 </r>
       <r>  -10.3732    1.0000 </r>
       <r>  -10.3408    1.0000 </r>
       <r>  -10.3389    1.0000 </r>
       <r>  -10.3179    1.0000 </r>
       <r>  -10.3169    1.0000 </r>
       <r>  -10.3043    1.0000 </r>
       <r>  -10.2581    1.0000 </r>
       <r>  -10.2310    1.0000 </r>
       <r>  -10.2302    1.0000 </r>
       <r>  -10.1967    1.0000 </r>
       <r>  -10.1956    1.0000 </r>
       <r>  -10.1672    1.0000 </r>
       <r>  -10.1425    1.0000 </r>
       <r>  -10.1404    1.0000 </r>
       <r>   -3.9720    1.0000 </r>
       <r>   -3.8498    1.0000 </r>
       <r>   -3.7719    1.0000 </r>
       <r>   -3.7717    1.0000 </r>
       <r>   -3.7113    1.0000 </r>
       <r>   -3.7101    1.0000 </r>
       <r>   -3.6428    1.0000 </r>
       <r>   -3.6423    1.0000 </r>
       <r>   -3.5009    1.0000 </r>
       <r>   -3.4818    1.0000 </r>
       <r>   -3.4814    1.0000 </r>
       <r>   -3.4172    1.0000 </r>
       <r>   -3.2736    1.0000 </r>
       <r>   -3.2728    1.0000 </r>
       <r>   -3.1971    1.0000 </r>
       <r>   -3.1969    1.0000 </r>
       <r>   -3.1411    1.0000 </r>
       <r>   -3.1069    1.0000 </r>
       <r>   -3.0932    1.0000 </r>
       <r>   -3.0928    1.0000 </r>
       <r>   -3.0907    1.0000 </r>
       <r>   -3.0899    1.0000 </r>
       <r>   -2.9575    1.0000 </r>
       <r>   -2.9404    1.0000 </r>
       <r>   -2.9403    1.0000 </r>
       <r>   -2.9384    1.0000 </r>
       <r>   -2.8824    1.0000 </r>
       <r>   -2.8788    1.0000 </r>
       <r>   -2.4619    1.0000 </r>
       <r>   -2.4137    1.0000 </r>
       <r>   -2.3594    1.0000 </r>
       <r>   -2.2989    1.0000 </r>
       <r>   -2.2984    1.0000 </r>
       <r>   -2.1202    1.0000 </r>
       <r>   -2.0589    1.0000 </r>
       <r>   -2.0578    1.0000 </r>
       <r>   -2.0468    1.0000 </r>
       <r>   -2.0242    1.0000 </r>
       <r>   -2.0234    1.0000 </r>
       <r>   -1.9861    1.0000 </r>
       <r>   -1.9223    1.0000 </r>
       <r>   -1.8866    1.0000 </r>
       <r>   -1.8535    1.0000 </r>
       <r>   -1.8533    1.0000 </r>
       <r>   -1.6905    1.0000 </r>
       <r>   -1.6904    1.0000 </r>
       <r>   -1.6188    1.0000 </r>
       <r>   -1.6148    1.0000 </r>
       <r>   -1.6102    1.0000 </r>
       <r>   -1.5981    1.0000 </r>
       <r>   -1.5524    1.0000 </r>
       <r>   -1.5521    1.0000 </r>
       <r>   -1.4334    1.0000 </r>
       <r>   -1.4331    1.0000 </r>
       <r>   -1.4302    1.0000 </r>
       <r>   -1.3577    1.0000 </r>
       <r>   -1.3574    1.0000 </r>
       <r>   -1.3478    1.0000 </r>
       <r>   -1.3101    1.0000 </r>
       <r>   -1.3092    1.0000 </r>
       <r>   -1.2650    1.0000 </r>
       <r>   -1.2577    1.0000 </r>
       <r>   -1.2573    1.0000 </r>
       <r>   -1.2511    1.0000 </r>
       <r>   -1.0314    1.0000 </r>
       <r>   -0.9238    1.0000 </r>
       <r>   -0.8887    1.0000 </r>
       <r>   -0.8881    1.0000 </r>
       <r>   -0.8465    1.0000 </r>
       <r>   -0.8462    1.0000 </r>
       <r>   -0.7118    1.0000 </r>
       <r>   -0.7107    1.0000 </r>
       <r>   -0.5149    1.0000 </r>
       <r>   -0.5148    1.0000 </r>
       <r>   -0.5026    1.0000 </r>
       <r>   -0.4567    1.0000 </r>
       <r>   -0.4565    1.0000 </r>
       <r>   -0.4335    1.0000 </r>
       <r>   -0.4306    1.0000 </r>
       <r>   -0.4018    1.0000 </r>
       <r>   -0.3776    1.0000 </r>
       <r>   -0.3718    1.0000 </r>
       <r>   -0.3267    1.0000 </r>
       <r>   -0.3260    1.0000 </r>
       <r>   -0.2756    1.0000 </r>
       <r>   -0.1932    1.0000 </r>
       <r>   -0.1824    1.0000 </r>
       <r>   -0.1465    1.0000 </r>
       <r>   -0.1456    1.0000 </r>
       <r>   -0.0613    1.0000 </r>
       <r>   -0.0612    1.0000 </r>
       <r>    0.1272    1.0000 </r>
       <r>    0.1285    1.0000 </r>
       <r>    0.1383    1.0000 </r>
       <r>    0.2431    1.0000 </r>
       <r>    0.2433    1.0000 </r>
       <r>    0.3623    1.0000 </r>
       <r>    0.3786    1.0000 </r>
       <r>    0.3800    1.0000 </r>
       <r>    0.5153    1.0000 </r>
       <r>    0.5239    1.0000 </r>
       <r>    0.6363    1.0000 </r>
       <r>    0.6375    1.0000 </r>
       <r>    0.6519    1.0000 </r>
       <r>    0.7231    1.0000 </r>
       <r>    0.9751    1.0000 </r>
       <r>    1.0406    1.0000 </r>
       <r>    1.0681    1.0000 </r>
       <r>    1.0707    1.0000 </r>
       <r>    1.0772    1.0000 </r>
       <r>    1.1295    1.0000 </r>
       <r>    1.1296    1.0000 </r>
       <r>    1.2133    1.0000 </r>
       <r>    1.2249    1.0000 </r>
       <r>    1.2264    1.0000 </r>
       <r>    1.2566    1.0000 </r>
       <r>    1.3140    1.0000 </r>
       <r>    1.3443    1.0000 </r>
       <r>    1.3444    1.0000 </r>
       <r>    1.3615    1.0000 </r>
       <r>    1.4458    1.0000 </r>
       <r>    1.4472    1.0000 </r>
       <r>    1.4478    1.0000 </r>
       <r>    1.4483    1.0000 </r>
       <r>    1.7025    1.0000 </r>
       <r>    1.7030    1.0000 </r>
       <r>    3.6491    0.0000 </r>
       <r>    3.7485    0.0000 </r>
       <r>    3.8154    0.0000 </r>
       <r>    3.8160    0.0000 </r>
       <r>    3.9528    0.0000 </r>
       <r>    3.9528    0.0000 </r>
       <r>    3.9904    0.0000 </r>
       <r>    3.9908    0.0000 </r>
       <r>    4.0033    0.0000 </r>
       <r>    4.0153    0.0000 </r>
       <r>    4.0389    0.0000 </r>
       <r>    4.0395    0.0000 </r>
       <r>    4.0535    0.0000 </r>
       <r>    4.0670    0.0000 </r>
       <r>    4.1936    0.0000 </r>
       <r>    4.1943    0.0000 </r>
       <r>    4.2021    0.0000 </r>
       <r>    4.2030    0.0000 </r>
       <r>    4.2165    0.0000 </r>
       <r>    4.2561    0.0000 </r>
       <r>    4.2681    0.0000 </r>
       <r>    4.2695    0.0000 </r>
       <r>    4.3115    0.0000 </r>
       <r>    4.3337    0.0000 </r>
       <r>    4.3344    0.0000 </r>
       <r>    4.3460    0.0000 </r>
       <r>    4.3547    0.0000 </r>
       <r>    4.4014    0.0000 </r>
       <r>    4.4015    0.0000 </r>
       <r>    4.4369    0.0000 </r>
       <r>    4.4374    0.0000 </r>
       <r>    4.4889    0.0000 </r>
       <r>    4.4898    0.0000 </r>
       <r>    4.5080    0.0000 </r>
       <r>    4.5910    0.0000 </r>
       <r>    4.5911    0.0000 </r>
       <r>    4.6229    0.0000 </r>
       <r>    4.6297    0.0000 </r>
       <r>    4.6325    0.0000 </r>
       <r>    4.6335    0.0000 </r>
       <r>    4.7018    0.0000 </r>
       <r>    4.7321    0.0000 </r>
       <r>    4.7323    0.0000 </r>
       <r>    4.8471    0.0000 </r>
       <r>    4.8480    0.0000 </r>
       <r>    4.9447    0.0000 </r>
       <r>    5.0805    0.0000 </r>
       <r>    5.0823    0.0000 </r>
       <r>    5.2196    0.0000 </r>
       <r>    5.2202    0.0000 </r>
       <r>    5.3242    0.0000 </r>
       <r>    5.3346    0.0000 </r>
      </set>
      <set comment="kpoint 13">
       <r>  -59.0795    1.0000 </r>
       <r>  -59.0795    1.0000 </r>
       <r>  -59.0736    1.0000 </r>
       <r>  -59.0607    1.0000 </r>
       <r>  -59.0555    1.0000 </r>
       <r>  -59.0555    1.0000 </r>
       <r>  -59.0530    1.0000 </r>
       <r>  -59.0523    1.0000 </r>
       <r>  -59.0523    1.0000 </r>
       <r>  -59.0080    1.0000 </r>
       <r>  -59.0075    1.0000 </r>
       <r>  -59.0018    1.0000 </r>
       <r>  -58.9890    1.0000 </r>
       <r>  -58.9839    1.0000 </r>
       <r>  -58.9834    1.0000 </r>
       <r>  -58.9813    1.0000 </r>
       <r>  -58.9806    1.0000 </r>
       <r>  -58.9802    1.0000 </r>
       <r>  -33.3895    1.0000 </r>
       <r>  -33.3722    1.0000 </r>
       <r>  -33.3722    1.0000 </r>
       <r>  -33.3246    1.0000 </r>
       <r>  -33.3246    1.0000 </r>
       <r>  -33.3173    1.0000 </r>
       <r>  -33.3002    1.0000 </r>
       <r>  -33.2998    1.0000 </r>
       <r>  -33.2908    1.0000 </r>
       <r>  -33.2526    1.0000 </r>
       <r>  -33.2522    1.0000 </r>
       <r>  -33.2187    1.0000 </r>
       <r>  -33.2065    1.0000 </r>
       <r>  -33.2065    1.0000 </r>
       <r>  -33.1946    1.0000 </r>
       <r>  -33.1877    1.0000 </r>
       <r>  -33.1686    1.0000 </r>
       <r>  -33.1639    1.0000 </r>
       <r>  -33.1639    1.0000 </r>
       <r>  -33.1580    1.0000 </r>
       <r>  -33.1579    1.0000 </r>
       <r>  -33.1532    1.0000 </r>
       <r>  -33.1532    1.0000 </r>
       <r>  -33.1530    1.0000 </r>
       <r>  -33.1516    1.0000 </r>
       <r>  -33.1516    1.0000 </r>
       <r>  -33.1351    1.0000 </r>
       <r>  -33.1348    1.0000 </r>
       <r>  -33.1334    1.0000 </r>
       <r>  -33.1334    1.0000 </r>
       <r>  -33.1332    1.0000 </r>
       <r>  -33.1268    1.0000 </r>
       <r>  -33.1230    1.0000 </r>
       <r>  -33.1155    1.0000 </r>
       <r>  -33.0971    1.0000 </r>
       <r>  -33.0919    1.0000 </r>
       <r>  -33.0916    1.0000 </r>
       <r>  -33.0866    1.0000 </r>
       <r>  -33.0862    1.0000 </r>
       <r>  -33.0815    1.0000 </r>
       <r>  -33.0813    1.0000 </r>
       <r>  -33.0809    1.0000 </r>
       <r>  -33.0802    1.0000 </r>
       <r>  -33.0799    1.0000 </r>
       <r>  -33.0780    1.0000 </r>
       <r>  -33.0615    1.0000 </r>
       <r>  -33.0611    1.0000 </r>
       <r>  -33.0610    1.0000 </r>
       <r>  -33.0584    1.0000 </r>
       <r>  -33.0584    1.0000 </r>
       <r>  -33.0547    1.0000 </r>
       <r>  -33.0059    1.0000 </r>
       <r>  -32.9864    1.0000 </r>
       <r>  -32.9862    1.0000 </r>
       <r>  -11.9556    1.0000 </r>
       <r>  -11.9548    1.0000 </r>
       <r>  -11.7581    1.0000 </r>
       <r>  -11.7560    1.0000 </r>
       <r>  -11.6753    1.0000 </r>
       <r>  -11.4833    1.0000 </r>
       <r>  -10.9923    1.0000 </r>
       <r>  -10.8984    1.0000 </r>
       <r>  -10.8980    1.0000 </r>
       <r>  -10.8287    1.0000 </r>
       <r>  -10.7728    1.0000 </r>
       <r>  -10.6708    1.0000 </r>
       <r>  -10.6703    1.0000 </r>
       <r>  -10.6425    1.0000 </r>
       <r>  -10.6424    1.0000 </r>
       <r>  -10.5428    1.0000 </r>
       <r>  -10.5329    1.0000 </r>
       <r>  -10.5307    1.0000 </r>
       <r>  -10.4803    1.0000 </r>
       <r>  -10.4646    1.0000 </r>
       <r>  -10.4462    1.0000 </r>
       <r>  -10.4460    1.0000 </r>
       <r>  -10.3733    1.0000 </r>
       <r>  -10.3409    1.0000 </r>
       <r>  -10.3388    1.0000 </r>
       <r>  -10.3179    1.0000 </r>
       <r>  -10.3169    1.0000 </r>
       <r>  -10.3044    1.0000 </r>
       <r>  -10.2581    1.0000 </r>
       <r>  -10.2310    1.0000 </r>
       <r>  -10.2302    1.0000 </r>
       <r>  -10.1967    1.0000 </r>
       <r>  -10.1956    1.0000 </r>
       <r>  -10.1670    1.0000 </r>
       <r>  -10.1425    1.0000 </r>
       <r>  -10.1405    1.0000 </r>
       <r>   -3.9719    1.0000 </r>
       <r>   -3.8497    1.0000 </r>
       <r>   -3.7719    1.0000 </r>
       <r>   -3.7717    1.0000 </r>
       <r>   -3.7113    1.0000 </r>
       <r>   -3.7102    1.0000 </r>
       <r>   -3.6430    1.0000 </r>
       <r>   -3.6421    1.0000 </r>
       <r>   -3.5009    1.0000 </r>
       <r>   -3.4818    1.0000 </r>
       <r>   -3.4814    1.0000 </r>
       <r>   -3.4172    1.0000 </r>
       <r>   -3.2736    1.0000 </r>
       <r>   -3.2729    1.0000 </r>
       <r>   -3.1971    1.0000 </r>
       <r>   -3.1970    1.0000 </r>
       <r>   -3.1410    1.0000 </r>
       <r>   -3.1070    1.0000 </r>
       <r>   -3.0931    1.0000 </r>
       <r>   -3.0928    1.0000 </r>
       <r>   -3.0911    1.0000 </r>
       <r>   -3.0897    1.0000 </r>
       <r>   -2.9577    1.0000 </r>
       <r>   -2.9404    1.0000 </r>
       <r>   -2.9403    1.0000 </r>
       <r>   -2.9384    1.0000 </r>
       <r>   -2.8824    1.0000 </r>
       <r>   -2.8790    1.0000 </r>
       <r>   -2.4619    1.0000 </r>
       <r>   -2.4134    1.0000 </r>
       <r>   -2.3594    1.0000 </r>
       <r>   -2.2990    1.0000 </r>
       <r>   -2.2983    1.0000 </r>
       <r>   -2.1204    1.0000 </r>
       <r>   -2.0591    1.0000 </r>
       <r>   -2.0575    1.0000 </r>
       <r>   -2.0467    1.0000 </r>
       <r>   -2.0243    1.0000 </r>
       <r>   -2.0232    1.0000 </r>
       <r>   -1.9861    1.0000 </r>
       <r>   -1.9222    1.0000 </r>
       <r>   -1.8865    1.0000 </r>
       <r>   -1.8535    1.0000 </r>
       <r>   -1.8532    1.0000 </r>
       <r>   -1.6905    1.0000 </r>
       <r>   -1.6904    1.0000 </r>
       <r>   -1.6188    1.0000 </r>
       <r>   -1.6152    1.0000 </r>
       <r>   -1.6104    1.0000 </r>
       <r>   -1.5981    1.0000 </r>
       <r>   -1.5523    1.0000 </r>
       <r>   -1.5521    1.0000 </r>
       <r>   -1.4334    1.0000 </r>
       <r>   -1.4331    1.0000 </r>
       <r>   -1.4302    1.0000 </r>
       <r>   -1.3575    1.0000 </r>
       <r>   -1.3573    1.0000 </r>
       <r>   -1.3481    1.0000 </r>
       <r>   -1.3100    1.0000 </r>
       <r>   -1.3090    1.0000 </r>
       <r>   -1.2652    1.0000 </r>
       <r>   -1.2577    1.0000 </r>
       <r>   -1.2570    1.0000 </r>
       <r>   -1.2511    1.0000 </r>
       <r>   -1.0312    1.0000 </r>
       <r>   -0.9237    1.0000 </r>
       <r>   -0.8888    1.0000 </r>
       <r>   -0.8875    1.0000 </r>
       <r>   -0.8466    1.0000 </r>
       <r>   -0.8462    1.0000 </r>
       <r>   -0.7119    1.0000 </r>
       <r>   -0.7109    1.0000 </r>
       <r>   -0.5149    1.0000 </r>
       <r>   -0.5148    1.0000 </r>
       <r>   -0.5026    1.0000 </r>
       <r>   -0.4566    1.0000 </r>
       <r>   -0.4566    1.0000 </r>
       <r>   -0.4333    1.0000 </r>
       <r>   -0.4315    1.0000 </r>
       <r>   -0.4019    1.0000 </r>
       <r>   -0.3776    1.0000 </r>
       <r>   -0.3719    1.0000 </r>
       <r>   -0.3267    1.0000 </r>
       <r>   -0.3260    1.0000 </r>
       <r>   -0.2756    1.0000 </r>
       <r>   -0.1932    1.0000 </r>
       <r>   -0.1823    1.0000 </r>
       <r>   -0.1466    1.0000 </r>
       <r>   -0.1457    1.0000 </r>
       <r>   -0.0614    1.0000 </r>
       <r>   -0.0611    1.0000 </r>
       <r>    0.1268    1.0000 </r>
       <r>    0.1284    1.0000 </r>
       <r>    0.1386    1.0000 </r>
       <r>    0.2432    1.0000 </r>
       <r>    0.2433    1.0000 </r>
       <r>    0.3623    1.0000 </r>
       <r>    0.3783    1.0000 </r>
       <r>    0.3799    1.0000 </r>
       <r>    0.5153    1.0000 </r>
       <r>    0.5239    1.0000 </r>
       <r>    0.6364    1.0000 </r>
       <r>    0.6375    1.0000 </r>
       <r>    0.6521    1.0000 </r>
       <r>    0.7231    1.0000 </r>
       <r>    0.9751    1.0000 </r>
       <r>    1.0407    1.0000 </r>
       <r>    1.0680    1.0000 </r>
       <r>    1.0708    1.0000 </r>
       <r>    1.0770    1.0000 </r>
       <r>    1.1295    1.0000 </r>
       <r>    1.1296    1.0000 </r>
       <r>    1.2133    1.0000 </r>
       <r>    1.2251    1.0000 </r>
       <r>    1.2263    1.0000 </r>
       <r>    1.2567    1.0000 </r>
       <r>    1.3138    1.0000 </r>
       <r>    1.3443    1.0000 </r>
       <r>    1.3444    1.0000 </r>
       <r>    1.3616    1.0000 </r>
       <r>    1.4457    1.0000 </r>
       <r>    1.4472    1.0000 </r>
       <r>    1.4478    1.0000 </r>
       <r>    1.4485    1.0000 </r>
       <r>    1.7026    1.0000 </r>
       <r>    1.7031    1.0000 </r>
       <r>    3.6492    0.0000 </r>
       <r>    3.7485    0.0000 </r>
       <r>    3.8154    0.0000 </r>
       <r>    3.8160    0.0000 </r>
       <r>    3.9528    0.0000 </r>
       <r>    3.9528    0.0000 </r>
       <r>    3.9905    0.0000 </r>
       <r>    3.9908    0.0000 </r>
       <r>    4.0033    0.0000 </r>
       <r>    4.0154    0.0000 </r>
       <r>    4.0389    0.0000 </r>
       <r>    4.0394    0.0000 </r>
       <r>    4.0535    0.0000 </r>
       <r>    4.0671    0.0000 </r>
       <r>    4.1938    0.0000 </r>
       <r>    4.1941    0.0000 </r>
       <r>    4.2021    0.0000 </r>
       <r>    4.2029    0.0000 </r>
       <r>    4.2164    0.0000 </r>
       <r>    4.2561    0.0000 </r>
       <r>    4.2680    0.0000 </r>
       <r>    4.2693    0.0000 </r>
       <r>    4.3114    0.0000 </r>
       <r>    4.3332    0.0000 </r>
       <r>    4.3345    0.0000 </r>
       <r>    4.3465    0.0000 </r>
       <r>    4.3546    0.0000 </r>
       <r>    4.4015    0.0000 </r>
       <r>    4.4015    0.0000 </r>
       <r>    4.4363    0.0000 </r>
       <r>    4.4375    0.0000 </r>
       <r>    4.4891    0.0000 </r>
       <r>    4.4899    0.0000 </r>
       <r>    4.5080    0.0000 </r>
       <r>    4.5909    0.0000 </r>
       <r>    4.5912    0.0000 </r>
       <r>    4.6230    0.0000 </r>
       <r>    4.6298    0.0000 </r>
       <r>    4.6327    0.0000 </r>
       <r>    4.6337    0.0000 </r>
       <r>    4.7014    0.0000 </r>
       <r>    4.7320    0.0000 </r>
       <r>    4.7324    0.0000 </r>
       <r>    4.8473    0.0000 </r>
       <r>    4.8480    0.0000 </r>
       <r>    4.9444    0.0000 </r>
       <r>    5.0808    0.0000 </r>
       <r>    5.0825    0.0000 </r>
       <r>    5.2198    0.0000 </r>
       <r>    5.2208    0.0000 </r>
       <r>    5.3197    0.0000 </r>
       <r>    5.3350    0.0000 </r>
      </set>
     </set>
    </set>
   </array>
  </eigenvalues>
  <separator name="orbital magnetization" >
   <v name="MAGDIPOLOUT">      0.00000000      0.00000000      0.00000000</v>
  </separator>
  <dos>
   <i name="efermi">      2.80766537 </i>
   <total>
    <array>
     <dimension dim="1">gridpoints</dimension>
     <dimension dim="2">spin</dimension>
     <field>energy</field>
     <field>total</field>
     <field>integrated</field>
     <set>
      <set comment="spin 1">
       <r>   -62.3174     0.0000     0.0000 </r>
       <r>   -62.0807     0.0000     0.0000 </r>
       <r>   -61.8440     0.0000     0.0000 </r>
       <r>   -61.6073     0.0000     0.0000 </r>
       <r>   -61.3705     0.0000     0.0000 </r>
       <r>   -61.1338     0.0000     0.0000 </r>
       <r>   -60.8971     0.0000     0.0000 </r>
       <r>   -60.6604     0.0000     0.0000 </r>
       <r>   -60.4237     0.0000     0.0000 </r>
       <r>   -60.1870     0.0000     0.0000 </r>
       <r>   -59.9503     0.0000     0.0000 </r>
       <r>   -59.7136     0.0000     0.0000 </r>
       <r>   -59.4769     0.0000     0.0000 </r>
       <r>   -59.2401     0.0001     0.0000 </r>
       <r>   -59.0034    99.5258    23.5588 </r>
       <r>   -58.7667    52.5585    36.0000 </r>
       <r>   -58.5300     0.0000    36.0000 </r>
       <r>   -58.2933     0.0000    36.0000 </r>
       <r>   -58.0566     0.0000    36.0000 </r>
       <r>   -57.8199     0.0000    36.0000 </r>
       <r>   -57.5832     0.0000    36.0000 </r>
       <r>   -57.3465     0.0000    36.0000 </r>
       <r>   -57.1097     0.0000    36.0000 </r>
       <r>   -56.8730     0.0000    36.0000 </r>
       <r>   -56.6363     0.0000    36.0000 </r>
       <r>   -56.3996     0.0000    36.0000 </r>
       <r>   -56.1629     0.0000    36.0000 </r>
       <r>   -55.9262     0.0000    36.0000 </r>
       <r>   -55.6895     0.0000    36.0000 </r>
       <r>   -55.4528     0.0000    36.0000 </r>
       <r>   -55.2161     0.0000    36.0000 </r>
       <r>   -54.9794     0.0000    36.0000 </r>
       <r>   -54.7426     0.0000    36.0000 </r>
       <r>   -54.5059     0.0000    36.0000 </r>
       <r>   -54.2692     0.0000    36.0000 </r>
       <r>   -54.0325     0.0000    36.0000 </r>
       <r>   -53.7958     0.0000    36.0000 </r>
       <r>   -53.5591     0.0000    36.0000 </r>
       <r>   -53.3224     0.0000    36.0000 </r>
       <r>   -53.0857     0.0000    36.0000 </r>
       <r>   -52.8490     0.0000    36.0000 </r>
       <r>   -52.6122     0.0000    36.0000 </r>
       <r>   -52.3755     0.0000    36.0000 </r>
       <r>   -52.1388     0.0000    36.0000 </r>
       <r>   -51.9021     0.0000    36.0000 </r>
       <r>   -51.6654     0.0000    36.0000 </r>
       <r>   -51.4287     0.0000    36.0000 </r>
       <r>   -51.1920     0.0000    36.0000 </r>
       <r>   -50.9553     0.0000    36.0000 </r>
       <r>   -50.7186     0.0000    36.0000 </r>
       <r>   -50.4818     0.0000    36.0000 </r>
       <r>   -50.2451     0.0000    36.0000 </r>
       <r>   -50.0084     0.0000    36.0000 </r>
       <r>   -49.7717     0.0000    36.0000 </r>
       <r>   -49.5350     0.0000    36.0000 </r>
       <r>   -49.2983     0.0000    36.0000 </r>
       <r>   -49.0616     0.0000    36.0000 </r>
       <r>   -48.8249     0.0000    36.0000 </r>
       <r>   -48.5882     0.0000    36.0000 </r>
       <r>   -48.3515     0.0000    36.0000 </r>
       <r>   -48.1147     0.0000    36.0000 </r>
       <r>   -47.8780     0.0000    36.0000 </r>
       <r>   -47.6413     0.0000    36.0000 </r>
       <r>   -47.4046     0.0000    36.0000 </r>
       <r>   -47.1679     0.0000    36.0000 </r>
       <r>   -46.9312     0.0000    36.0000 </r>
       <r>   -46.6945     0.0000    36.0000 </r>
       <r>   -46.4578     0.0000    36.0000 </r>
       <r>   -46.2211     0.0000    36.0000 </r>
       <r>   -45.9843     0.0000    36.0000 </r>
       <r>   -45.7476     0.0000    36.0000 </r>
       <r>   -45.5109     0.0000    36.0000 </r>
       <r>   -45.2742     0.0000    36.0000 </r>
       <r>   -45.0375     0.0000    36.0000 </r>
       <r>   -44.8008     0.0000    36.0000 </r>
       <r>   -44.5641     0.0000    36.0000 </r>
       <r>   -44.3274     0.0000    36.0000 </r>
       <r>   -44.0907     0.0000    36.0000 </r>
       <r>   -43.8539     0.0000    36.0000 </r>
       <r>   -43.6172     0.0000    36.0000 </r>
       <r>   -43.3805     0.0000    36.0000 </r>
       <r>   -43.1438     0.0000    36.0000 </r>
       <r>   -42.9071     0.0000    36.0000 </r>
       <r>   -42.6704     0.0000    36.0000 </r>
       <r>   -42.4337     0.0000    36.0000 </r>
       <r>   -42.1970     0.0000    36.0000 </r>
       <r>   -41.9603     0.0000    36.0000 </r>
       <r>   -41.7235     0.0000    36.0000 </r>
       <r>   -41.4868     0.0000    36.0000 </r>
       <r>   -41.2501     0.0000    36.0000 </r>
       <r>   -41.0134     0.0000    36.0000 </r>
       <r>   -40.7767     0.0000    36.0000 </r>
       <r>   -40.5400     0.0000    36.0000 </r>
       <r>   -40.3033     0.0000    36.0000 </r>
       <r>   -40.0666     0.0000    36.0000 </r>
       <r>   -39.8299     0.0000    36.0000 </r>
       <r>   -39.5932     0.0000    36.0000 </r>
       <r>   -39.3564     0.0000    36.0000 </r>
       <r>   -39.1197     0.0000    36.0000 </r>
       <r>   -38.8830     0.0000    36.0000 </r>
       <r>   -38.6463     0.0000    36.0000 </r>
       <r>   -38.4096     0.0000    36.0000 </r>
       <r>   -38.1729     0.0000    36.0000 </r>
       <r>   -37.9362     0.0000    36.0000 </r>
       <r>   -37.6995     0.0000    36.0000 </r>
       <r>   -37.4628     0.0000    36.0000 </r>
       <r>   -37.2260     0.0000    36.0000 </r>
       <r>   -36.9893     0.0000    36.0000 </r>
       <r>   -36.7526     0.0000    36.0000 </r>
       <r>   -36.5159     0.0000    36.0000 </r>
       <r>   -36.2792     0.0000    36.0000 </r>
       <r>   -36.0425     0.0000    36.0000 </r>
       <r>   -35.8058     0.0000    36.0000 </r>
       <r>   -35.5691     0.0000    36.0000 </r>
       <r>   -35.3324     0.0000    36.0000 </r>
       <r>   -35.0956     0.0000    36.0000 </r>
       <r>   -34.8589     0.0000    36.0000 </r>
       <r>   -34.6222     0.0000    36.0000 </r>
       <r>   -34.3855     0.0000    36.0000 </r>
       <r>   -34.1488     0.0000    36.0000 </r>
       <r>   -33.9121     0.0000    36.0000 </r>
       <r>   -33.6754     0.0000    36.0000 </r>
       <r>   -33.4387     0.7091    36.1679 </r>
       <r>   -33.2020   134.4913    68.0034 </r>
       <r>   -32.9653   313.4078   142.1904 </r>
       <r>   -32.7285     7.6447   144.0000 </r>
       <r>   -32.4918     0.0000   144.0000 </r>
       <r>   -32.2551     0.0000   144.0000 </r>
       <r>   -32.0184     0.0000   144.0000 </r>
       <r>   -31.7817     0.0000   144.0000 </r>
       <r>   -31.5450     0.0000   144.0000 </r>
       <r>   -31.3083     0.0000   144.0000 </r>
       <r>   -31.0716     0.0000   144.0000 </r>
       <r>   -30.8349     0.0000   144.0000 </r>
       <r>   -30.5981     0.0000   144.0000 </r>
       <r>   -30.3614     0.0000   144.0000 </r>
       <r>   -30.1247     0.0000   144.0000 </r>
       <r>   -29.8880     0.0000   144.0000 </r>
       <r>   -29.6513     0.0000   144.0000 </r>
       <r>   -29.4146     0.0000   144.0000 </r>
       <r>   -29.1779     0.0000   144.0000 </r>
       <r>   -28.9412     0.0000   144.0000 </r>
       <r>   -28.7045     0.0000   144.0000 </r>
       <r>   -28.4677     0.0000   144.0000 </r>
       <r>   -28.2310     0.0000   144.0000 </r>
       <r>   -27.9943     0.0000   144.0000 </r>
       <r>   -27.7576     0.0000   144.0000 </r>
       <r>   -27.5209     0.0000   144.0000 </r>
       <r>   -27.2842     0.0000   144.0000 </r>
       <r>   -27.0475     0.0000   144.0000 </r>
       <r>   -26.8108     0.0000   144.0000 </r>
       <r>   -26.5741     0.0000   144.0000 </r>
       <r>   -26.3373     0.0000   144.0000 </r>
       <r>   -26.1006     0.0000   144.0000 </r>
       <r>   -25.8639     0.0000   144.0000 </r>
       <r>   -25.6272     0.0000   144.0000 </r>
       <r>   -25.3905     0.0000   144.0000 </r>
       <r>   -25.1538     0.0000   144.0000 </r>
       <r>   -24.9171     0.0000   144.0000 </r>
       <r>   -24.6804     0.0000   144.0000 </r>
       <r>   -24.4437     0.0000   144.0000 </r>
       <r>   -24.2070     0.0000   144.0000 </r>
       <r>   -23.9702     0.0000   144.0000 </r>
       <r>   -23.7335     0.0000   144.0000 </r>
       <r>   -23.4968     0.0000   144.0000 </r>
       <r>   -23.2601     0.0000   144.0000 </r>
       <r>   -23.0234     0.0000   144.0000 </r>
       <r>   -22.7867     0.0000   144.0000 </r>
       <r>   -22.5500     0.0000   144.0000 </r>
       <r>   -22.3133     0.0000   144.0000 </r>
       <r>   -22.0766     0.0000   144.0000 </r>
       <r>   -21.8398     0.0000   144.0000 </r>
       <r>   -21.6031     0.0000   144.0000 </r>
       <r>   -21.3664     0.0000   144.0000 </r>
       <r>   -21.1297     0.0000   144.0000 </r>
       <r>   -20.8930     0.0000   144.0000 </r>
       <r>   -20.6563     0.0000   144.0000 </r>
       <r>   -20.4196     0.0000   144.0000 </r>
       <r>   -20.1829     0.0000   144.0000 </r>
       <r>   -19.9462     0.0000   144.0000 </r>
       <r>   -19.7094     0.0000   144.0000 </r>
       <r>   -19.4727     0.0000   144.0000 </r>
       <r>   -19.2360     0.0000   144.0000 </r>
       <r>   -18.9993     0.0000   144.0000 </r>
       <r>   -18.7626     0.0000   144.0000 </r>
       <r>   -18.5259     0.0000   144.0000 </r>
       <r>   -18.2892     0.0000   144.0000 </r>
       <r>   -18.0525     0.0000   144.0000 </r>
       <r>   -17.8158     0.0000   144.0000 </r>
       <r>   -17.5791     0.0000   144.0000 </r>
       <r>   -17.3423     0.0000   144.0000 </r>
       <r>   -17.1056     0.0000   144.0000 </r>
       <r>   -16.8689     0.0000   144.0000 </r>
       <r>   -16.6322     0.0000   144.0000 </r>
       <r>   -16.3955     0.0000   144.0000 </r>
       <r>   -16.1588     0.0000   144.0000 </r>
       <r>   -15.9221     0.0000   144.0000 </r>
       <r>   -15.6854     0.0000   144.0000 </r>
       <r>   -15.4487     0.0000   144.0000 </r>
       <r>   -15.2119     0.0000   144.0000 </r>
       <r>   -14.9752     0.0000   144.0000 </r>
       <r>   -14.7385     0.0000   144.0000 </r>
       <r>   -14.5018     0.0000   144.0000 </r>
       <r>   -14.2651     0.0000   144.0000 </r>
       <r>   -14.0284     0.0000   144.0000 </r>
       <r>   -13.7917     0.0000   144.0000 </r>
       <r>   -13.5550     0.0000   144.0000 </r>
       <r>   -13.3183     0.0000   144.0000 </r>
       <r>   -13.0815     0.0000   144.0000 </r>
       <r>   -12.8448     0.0000   144.0000 </r>
       <r>   -12.6081     0.0000   144.0000 </r>
       <r>   -12.3714     0.4296   144.1017 </r>
       <r>   -12.1347     5.9593   145.5123 </r>
       <r>   -11.8980    10.0897   147.9007 </r>
       <r>   -11.6613     9.0467   150.0421 </r>
       <r>   -11.4246    11.7872   152.8323 </r>
       <r>   -11.1879    12.3103   155.7463 </r>
       <r>   -10.9511    20.6522   160.6348 </r>
       <r>   -10.7144    34.6307   168.8323 </r>
       <r>   -10.4777    57.7166   182.4945 </r>
       <r>   -10.2410    85.9242   202.8336 </r>
       <r>   -10.0043    55.2517   215.9123 </r>
       <r>    -9.7676     0.3704   216.0000 </r>
       <r>    -9.5309     0.0000   216.0000 </r>
       <r>    -9.2942     0.0000   216.0000 </r>
       <r>    -9.0575     0.0000   216.0000 </r>
       <r>    -8.8208     0.0000   216.0000 </r>
       <r>    -8.5840     0.0000   216.0000 </r>
       <r>    -8.3473     0.0000   216.0000 </r>
       <r>    -8.1106     0.0000   216.0000 </r>
       <r>    -7.8739     0.0000   216.0000 </r>
       <r>    -7.6372     0.0000   216.0000 </r>
       <r>    -7.4005     0.0000   216.0000 </r>
       <r>    -7.1638     0.0000   216.0000 </r>
       <r>    -6.9271     0.0000   216.0000 </r>
       <r>    -6.6904     0.0000   216.0000 </r>
       <r>    -6.4536     0.0000   216.0000 </r>
       <r>    -6.2169     0.0000   216.0000 </r>
       <r>    -5.9802     0.0000   216.0000 </r>
       <r>    -5.7435     0.0000   216.0000 </r>
       <r>    -5.5068     0.0000   216.0000 </r>
       <r>    -5.2701     0.0000   216.0000 </r>
       <r>    -5.0334     0.0000   216.0000 </r>
       <r>    -4.7967     0.0000   216.0000 </r>
       <r>    -4.5600     0.0000   216.0000 </r>
       <r>    -4.3232     0.0000   216.0000 </r>
       <r>    -4.0865     1.2981   216.3073 </r>
       <r>    -3.8498    15.8563   220.0606 </r>
       <r>    -3.6131    31.1557   227.4355 </r>
       <r>    -3.3764    59.0657   241.4170 </r>
       <r>    -3.1397    47.5196   252.6654 </r>
       <r>    -2.9030    49.0463   264.2752 </r>
       <r>    -2.6663    21.1894   269.2910 </r>
       <r>    -2.4296    16.9064   273.2929 </r>
       <r>    -2.1928    36.1764   281.8563 </r>
       <r>    -1.9561    74.4945   299.4899 </r>
       <r>    -1.7194    49.3767   311.1779 </r>
       <r>    -1.4827    32.9754   318.9836 </r>
       <r>    -1.2460    78.2647   337.5097 </r>
       <r>    -1.0093    53.4058   350.1514 </r>
       <r>    -0.7726    36.5247   358.7972 </r>
       <r>    -0.5359    23.0723   364.2587 </r>
       <r>    -0.2992    36.8650   372.9850 </r>
       <r>    -0.0625    67.6558   388.9999 </r>
       <r>     0.1743    52.8186   401.5026 </r>
       <r>     0.4110    51.9554   413.8010 </r>
       <r>     0.6477    40.6242   423.4172 </r>
       <r>     0.8844    23.5843   428.9998 </r>
       <r>     1.1211    64.8546   444.3516 </r>
       <r>     1.3578    46.3398   455.3208 </r>
       <r>     1.5945    29.4150   462.2836 </r>
       <r>     1.8312    17.3874   466.3994 </r>
       <r>     2.0679     2.4280   466.9741 </r>
       <r>     2.3047     2.1815   467.4905 </r>
       <r>     2.5414     2.1480   467.9990 </r>
       <r>     2.7781     0.0043   468.0000 </r>
       <r>     3.0148     0.0000   468.0000 </r>
       <r>     3.2515     0.0000   468.0000 </r>
       <r>     3.4882     1.2665   468.2998 </r>
       <r>     3.7249    17.8993   472.5368 </r>
       <r>     3.9616    53.2585   485.1436 </r>
       <r>     4.1983    71.5489   502.0800 </r>
       <r>     4.4351    94.5375   524.4581 </r>
       <r>     4.6718    69.9685   541.0203 </r>
       <r>     4.9085    60.7764   555.4068 </r>
       <r>     5.1452    37.6164   564.3110 </r>
       <r>     5.3819    29.5648   571.3093 </r>
       <r>     5.6186     2.9179   572.0000 </r>
       <r>     5.8553     0.0000   572.0000 </r>
       <r>     6.0920     0.0000   572.0000 </r>
       <r>     6.3287     0.0000   572.0000 </r>
       <r>     6.5654     0.0000   572.0000 </r>
       <r>     6.8022     0.0000   572.0000 </r>
       <r>     7.0389     0.0000   572.0000 </r>
       <r>     7.2756     0.0000   572.0000 </r>
       <r>     7.5123     0.0000   572.0000 </r>
       <r>     7.7490     0.0000   572.0000 </r>
       <r>     7.9857     0.0000   572.0000 </r>
       <r>     8.2224     0.0000   572.0000 </r>
       <r>     8.4591     0.0000   572.0000 </r>
       <r>     8.6958     0.0000   572.0000 </r>
      </set>
     </set>
    </array>
   </total>
  </dos>
 </calculation>
 <structure name="finalpos" >
  <crystal>
   <varray name="basis" >
    <v>       9.57671374       0.00000000       0.00000000 </v>
    <v>       4.78835687       8.29367738       0.00000000 </v>
    <v>       0.00000000       0.00000000      20.00000000 </v>
   </varray>
   <i name="volume">   1588.52348190 </i>
   <varray name="rec_basis" >
    <v>       0.10441995      -0.06028689       0.00000000 </v>
    <v>       0.00000000       0.12057378       0.00000000 </v>
    <v>       0.00000000       0.00000000       0.05000000 </v>
   </varray>
  </crystal>
  <varray name="positions" >
   <v>       0.00000000       0.00000000       0.51296834 </v>
   <v>       0.33333333       0.00000000       0.51296834 </v>
   <v>       0.66666667       0.00000000       0.51296834 </v>
   <v>       0.00000000       0.33333333       0.51296834 </v>
   <v>       0.33333333       0.33333333       0.51296834 </v>
   <v>       0.66666667       0.33333333       0.51296834 </v>
   <v>       0.00000000       0.66666667       0.51296834 </v>
   <v>       0.33333333       0.66666667       0.51296834 </v>
   <v>       0.66666667       0.66666667       0.51296834 </v>
   <v>       0.11111111       0.11111111       0.81206902 </v>
   <v>       0.44444444       0.11111111       0.81206902 </v>
   <v>       0.77777778       0.11111111       0.81206902 </v>
   <v>       0.11111111       0.44444444       0.81206902 </v>
   <v>       0.44444444       0.44444444       0.81206902 </v>
   <v>       0.77777778       0.44444444       0.81206902 </v>
   <v>       0.11111111       0.77777778       0.81206902 </v>
   <v>       0.44444444       0.77777778       0.81206902 </v>
   <v>       0.77777778       0.77777778       0.81206902 </v>
   <v>       0.11066014       0.11111111       0.43481196 </v>
   <v>       0.44444444       0.11111111       0.43526293 </v>
   <v>       0.77777778       0.11111111       0.43526293 </v>
   <v>       0.11111111       0.44444444       0.43526293 </v>
   <v>       0.44444444       0.44444444       0.43526293 </v>
   <v>       0.77777778       0.44444444       0.43526293 </v>
   <v>       0.11111111       0.77777778       0.43526293 </v>
   <v>       0.44444444       0.77777778       0.43526293 </v>
   <v>       0.77777778       0.77777778       0.43526293 </v>
   <v>       0.11111111       0.11111111       0.59047446 </v>
   <v>       0.44444444       0.11111111       0.59047446 </v>
   <v>       0.77777778       0.11111111       0.59047446 </v>
   <v>       0.11111111       0.44444444       0.59047446 </v>
   <v>       0.44444444       0.44444444       0.59047446 </v>
   <v>       0.77777778       0.44444444       0.59047446 </v>
   <v>       0.11111111       0.77777778       0.59047446 </v>
   <v>       0.44444444       0.77777778       0.59047446 </v>
   <v>       0.77777778       0.77777778       0.59047446 </v>
   <v>       0.22222222       0.22222222       0.73449922 </v>
   <v>       0.55555556       0.22222222       0.73449922 </v>
   <v>       0.88888889       0.22222222       0.73449922 </v>
   <v>       0.22222222       0.55555556       0.73449922 </v>
   <v>       0.55555556       0.55555556       0.73449922 </v>
   <v>       0.88888889       0.55555556       0.73449922 </v>
   <v>       0.22222222       0.88888889       0.73449922 </v>
   <v>       0.55555556       0.88888889       0.73449922 </v>
   <v>       0.88888889       0.88888889       0.73449922 </v>
   <v>       0.22222222       0.22222222       0.88972603 </v>
   <v>       0.55555556       0.22222222       0.88972603 </v>
   <v>       0.88888889       0.22222222       0.88972603 </v>
   <v>       0.22222222       0.55555556       0.88972603 </v>
   <v>       0.55555556       0.55555556       0.88972603 </v>
   <v>       0.88888889       0.55555556       0.88972603 </v>
   <v>       0.22222222       0.88888889       0.88972603 </v>
   <v>       0.55555556       0.88888889       0.88972603 </v>
   <v>       0.88888889       0.88888889       0.88972603 </v>
  </varray>
 </structure>
</modeling>
