  54  54   0   0
  0.3055217E+02  0.9759725E-09  0.9759725E-09  0.2000000E-08  0.5000000E-15
  1.000000000000000E-004
  CAR 
 MoSe2_WS2_2H phonon                     
      9.44131505    -76.35523555  301      2.64908813      1.00000000
    -76.355  0.0000E+00  0.0000E+00
    -76.069  0.0000E+00  0.0000E+00
    -75.783  0.0000E+00  0.0000E+00
    -75.497  0.0000E+00  0.0000E+00
    -75.211  0.0000E+00  0.0000E+00
    -74.925  0.0000E+00  0.0000E+00
    -74.639  0.0000E+00  0.0000E+00
    -74.353  0.0000E+00  0.0000E+00
    -74.067  0.0000E+00  0.0000E+00
    -73.781  0.0000E+00  0.0000E+00
    -73.495  0.0000E+00  0.0000E+00
    -73.209  0.0000E+00  0.0000E+00
    -72.923  0.0000E+00  0.0000E+00
    -72.637  0.2466E-05  0.7053E-06
    -72.351  0.6270E+02  0.1793E+02
    -72.065  0.2391E+00  0.1800E+02
    -71.779  0.0000E+00  0.1800E+02
    -71.493  0.0000E+00  0.1800E+02
    -71.207  0.0000E+00  0.1800E+02
    -70.921  0.0000E+00  0.1800E+02
    -70.635  0.0000E+00  0.1800E+02
    -70.349  0.0000E+00  0.1800E+02
    -70.063  0.0000E+00  0.1800E+02
    -69.777  0.0000E+00  0.1800E+02
    -69.492  0.0000E+00  0.1800E+02
    -69.206  0.0000E+00  0.1800E+02
    -68.920  0.0000E+00  0.1800E+02
    -68.634  0.0000E+00  0.1800E+02
    -68.348  0.0000E+00  0.1800E+02
    -68.062  0.0000E+00  0.1800E+02
    -67.776  0.0000E+00  0.1800E+02
    -67.490  0.0000E+00  0.1800E+02
    -67.204  0.0000E+00  0.1800E+02
    -66.918  0.0000E+00  0.1800E+02
    -66.632  0.0000E+00  0.1800E+02
    -66.346  0.0000E+00  0.1800E+02
    -66.060  0.0000E+00  0.1800E+02
    -65.774  0.0000E+00  0.1800E+02
    -65.488  0.0000E+00  0.1800E+02
    -65.202  0.0000E+00  0.1800E+02
    -64.916  0.0000E+00  0.1800E+02
    -64.630  0.0000E+00  0.1800E+02
    -64.344  0.0000E+00  0.1800E+02
    -64.058  0.0000E+00  0.1800E+02
    -63.772  0.0000E+00  0.1800E+02
    -63.486  0.0000E+00  0.1800E+02
    -63.200  0.0000E+00  0.1800E+02
    -62.914  0.0000E+00  0.1800E+02
    -62.628  0.0000E+00  0.1800E+02
    -62.342  0.0000E+00  0.1800E+02
    -62.056  0.0000E+00  0.1800E+02
    -61.770  0.0000E+00  0.1800E+02
    -61.484  0.0000E+00  0.1800E+02
    -61.198  0.0000E+00  0.1800E+02
    -60.912  0.0000E+00  0.1800E+02
    -60.626  0.0000E+00  0.1800E+02
    -60.340  0.0000E+00  0.1800E+02
    -60.054  0.0000E+00  0.1800E+02
    -59.768  0.0000E+00  0.1800E+02
    -59.482  0.0000E+00  0.1800E+02
    -59.196  0.0000E+00  0.1800E+02
    -58.910  0.4341E-12  0.1800E+02
    -58.624  0.3485E+02  0.2797E+02
    -58.338  0.2809E+02  0.3600E+02
    -58.052  0.0000E+00  0.3600E+02
    -57.766  0.0000E+00  0.3600E+02
    -57.480  0.0000E+00  0.3600E+02
    -57.194  0.0000E+00  0.3600E+02
    -56.908  0.0000E+00  0.3600E+02
    -56.622  0.0000E+00  0.3600E+02
    -56.336  0.0000E+00  0.3600E+02
    -56.050  0.0000E+00  0.3600E+02
    -55.764  0.0000E+00  0.3600E+02
    -55.478  0.0000E+00  0.3600E+02
    -55.192  0.0000E+00  0.3600E+02
    -54.906  0.0000E+00  0.3600E+02
    -54.620  0.0000E+00  0.3600E+02
    -54.334  0.0000E+00  0.3600E+02
    -54.048  0.0000E+00  0.3600E+02
    -53.762  0.0000E+00  0.3600E+02
    -53.476  0.0000E+00  0.3600E+02
    -53.190  0.0000E+00  0.3600E+02
    -52.904  0.0000E+00  0.3600E+02
    -52.618  0.0000E+00  0.3600E+02
    -52.332  0.0000E+00  0.3600E+02
    -52.046  0.0000E+00  0.3600E+02
    -51.760  0.0000E+00  0.3600E+02
    -51.474  0.0000E+00  0.3600E+02
    -51.188  0.0000E+00  0.3600E+02
    -50.902  0.0000E+00  0.3600E+02
    -50.616  0.0000E+00  0.3600E+02
    -50.330  0.0000E+00  0.3600E+02
    -50.044  0.0000E+00  0.3600E+02
    -49.758  0.0000E+00  0.3600E+02
    -49.472  0.0000E+00  0.3600E+02
    -49.186  0.0000E+00  0.3600E+02
    -48.900  0.0000E+00  0.3600E+02
    -48.614  0.0000E+00  0.3600E+02
    -48.328  0.0000E+00  0.3600E+02
    -48.042  0.0000E+00  0.3600E+02
    -47.756  0.0000E+00  0.3600E+02
    -47.470  0.0000E+00  0.3600E+02
    -47.184  0.0000E+00  0.3600E+02
    -46.898  0.0000E+00  0.3600E+02
    -46.612  0.0000E+00  0.3600E+02
    -46.326  0.0000E+00  0.3600E+02
    -46.040  0.0000E+00  0.3600E+02
    -45.754  0.0000E+00  0.3600E+02
    -45.468  0.0000E+00  0.3600E+02
    -45.182  0.0000E+00  0.3600E+02
    -44.897  0.0000E+00  0.3600E+02
    -44.611  0.0000E+00  0.3600E+02
    -44.325  0.0000E+00  0.3600E+02
    -44.039  0.0000E+00  0.3600E+02
    -43.753  0.0000E+00  0.3600E+02
    -43.467  0.0000E+00  0.3600E+02
    -43.181  0.0000E+00  0.3600E+02
    -42.895  0.0000E+00  0.3600E+02
    -42.609  0.0000E+00  0.3600E+02
    -42.323  0.0000E+00  0.3600E+02
    -42.037  0.0000E+00  0.3600E+02
    -41.751  0.0000E+00  0.3600E+02
    -41.465  0.0000E+00  0.3600E+02
    -41.179  0.0000E+00  0.3600E+02
    -40.893  0.0000E+00  0.3600E+02
    -40.607  0.0000E+00  0.3600E+02
    -40.321  0.0000E+00  0.3600E+02
    -40.035  0.0000E+00  0.3600E+02
    -39.749  0.0000E+00  0.3600E+02
    -39.463  0.0000E+00  0.3600E+02
    -39.177  0.0000E+00  0.3600E+02
    -38.891  0.0000E+00  0.3600E+02
    -38.605  0.0000E+00  0.3600E+02
    -38.319  0.0000E+00  0.3600E+02
    -38.033  0.0000E+00  0.3600E+02
    -37.747  0.0000E+00  0.3600E+02
    -37.461  0.0000E+00  0.3600E+02
    -37.175  0.0000E+00  0.3600E+02
    -36.889  0.2584E+00  0.3607E+02
    -36.603  0.1342E+03  0.7445E+02
    -36.317  0.5436E+02  0.9000E+02
    -36.031  0.0000E+00  0.9000E+02
    -35.745  0.0000E+00  0.9000E+02
    -35.459  0.0000E+00  0.9000E+02
    -35.173  0.0000E+00  0.9000E+02
    -34.887  0.0000E+00  0.9000E+02
    -34.601  0.0000E+00  0.9000E+02
    -34.315  0.0000E+00  0.9000E+02
    -34.029  0.0000E+00  0.9000E+02
    -33.743  0.0000E+00  0.9000E+02
    -33.457  0.0000E+00  0.9000E+02
    -33.171  0.2404E-13  0.9000E+02
    -32.885  0.1139E+02  0.9326E+02
    -32.599  0.1727E+03  0.1426E+03
    -32.313  0.4752E+01  0.1440E+03
    -32.027  0.0000E+00  0.1440E+03
    -31.741  0.0000E+00  0.1440E+03
    -31.455  0.0000E+00  0.1440E+03
    -31.169  0.0000E+00  0.1440E+03
    -30.883  0.0000E+00  0.1440E+03
    -30.597  0.0000E+00  0.1440E+03
    -30.311  0.0000E+00  0.1440E+03
    -30.025  0.0000E+00  0.1440E+03
    -29.739  0.0000E+00  0.1440E+03
    -29.453  0.0000E+00  0.1440E+03
    -29.167  0.0000E+00  0.1440E+03
    -28.881  0.0000E+00  0.1440E+03
    -28.595  0.0000E+00  0.1440E+03
    -28.309  0.0000E+00  0.1440E+03
    -28.023  0.0000E+00  0.1440E+03
    -27.737  0.0000E+00  0.1440E+03
    -27.451  0.0000E+00  0.1440E+03
    -27.165  0.0000E+00  0.1440E+03
    -26.879  0.0000E+00  0.1440E+03
    -26.593  0.0000E+00  0.1440E+03
    -26.307  0.0000E+00  0.1440E+03
    -26.021  0.0000E+00  0.1440E+03
    -25.735  0.0000E+00  0.1440E+03
    -25.449  0.0000E+00  0.1440E+03
    -25.163  0.0000E+00  0.1440E+03
    -24.877  0.0000E+00  0.1440E+03
    -24.591  0.0000E+00  0.1440E+03
    -24.305  0.0000E+00  0.1440E+03
    -24.019  0.0000E+00  0.1440E+03
    -23.733  0.0000E+00  0.1440E+03
    -23.447  0.0000E+00  0.1440E+03
    -23.161  0.0000E+00  0.1440E+03
    -22.875  0.0000E+00  0.1440E+03
    -22.589  0.0000E+00  0.1440E+03
    -22.303  0.0000E+00  0.1440E+03
    -22.017  0.0000E+00  0.1440E+03
    -21.731  0.0000E+00  0.1440E+03
    -21.445  0.0000E+00  0.1440E+03
    -21.159  0.0000E+00  0.1440E+03
    -20.873  0.0000E+00  0.1440E+03
    -20.587  0.0000E+00  0.1440E+03
    -20.301  0.0000E+00  0.1440E+03
    -20.016  0.0000E+00  0.1440E+03
    -19.730  0.0000E+00  0.1440E+03
    -19.444  0.0000E+00  0.1440E+03
    -19.158  0.0000E+00  0.1440E+03
    -18.872  0.0000E+00  0.1440E+03
    -18.586  0.0000E+00  0.1440E+03
    -18.300  0.0000E+00  0.1440E+03
    -18.014  0.0000E+00  0.1440E+03
    -17.728  0.0000E+00  0.1440E+03
    -17.442  0.0000E+00  0.1440E+03
    -17.156  0.0000E+00  0.1440E+03
    -16.870  0.0000E+00  0.1440E+03
    -16.584  0.0000E+00  0.1440E+03
    -16.298  0.0000E+00  0.1440E+03
    -16.012  0.0000E+00  0.1440E+03
    -15.726  0.0000E+00  0.1440E+03
    -15.440  0.0000E+00  0.1440E+03
    -15.154  0.0000E+00  0.1440E+03
    -14.868  0.0000E+00  0.1440E+03
    -14.582  0.0000E+00  0.1440E+03
    -14.296  0.0000E+00  0.1440E+03
    -14.010  0.0000E+00  0.1440E+03
    -13.724  0.0000E+00  0.1440E+03
    -13.438  0.0000E+00  0.1440E+03
    -13.152  0.9239E-09  0.1440E+03
    -12.866  0.1368E+01  0.1444E+03
    -12.580  0.3982E+01  0.1455E+03
    -12.294  0.5035E+01  0.1470E+03
    -12.008  0.9916E+01  0.1498E+03
    -11.722  0.1233E+02  0.1533E+03
    -11.436  0.1316E+02  0.1571E+03
    -11.150  0.2464E+02  0.1641E+03
    -10.864  0.4816E+02  0.1779E+03
    -10.578  0.5706E+02  0.1942E+03
    -10.292  0.3515E+02  0.2043E+03
    -10.006  0.3972E+02  0.2157E+03
     -9.720  0.1222E+01  0.2160E+03
     -9.434  0.0000E+00  0.2160E+03
     -9.148  0.0000E+00  0.2160E+03
     -8.862  0.0000E+00  0.2160E+03
     -8.576  0.0000E+00  0.2160E+03
     -8.290  0.0000E+00  0.2160E+03
     -8.004  0.0000E+00  0.2160E+03
     -7.718  0.0000E+00  0.2160E+03
     -7.432  0.0000E+00  0.2160E+03
     -7.146  0.0000E+00  0.2160E+03
     -6.860  0.0000E+00  0.2160E+03
     -6.574  0.0000E+00  0.2160E+03
     -6.288  0.0000E+00  0.2160E+03
     -6.002  0.0000E+00  0.2160E+03
     -5.716  0.0000E+00  0.2160E+03
     -5.430  0.0000E+00  0.2160E+03
     -5.144  0.0000E+00  0.2160E+03
     -4.858  0.4560E-09  0.2160E+03
     -4.572  0.3327E+01  0.2170E+03
     -4.286  0.1304E+02  0.2207E+03
     -4.000  0.1841E+02  0.2259E+03
     -3.714  0.2912E+02  0.2343E+03
     -3.428  0.2104E+02  0.2403E+03
     -3.142  0.2749E+02  0.2482E+03
     -2.856  0.5459E+02  0.2638E+03
     -2.570  0.5244E+02  0.2788E+03
     -2.284  0.3693E+02  0.2893E+03
     -1.998  0.1689E+02  0.2942E+03
     -1.712  0.5721E+02  0.3105E+03
     -1.426  0.5956E+02  0.3276E+03
     -1.140  0.3013E+02  0.3362E+03
     -0.854  0.5354E+02  0.3515E+03
     -0.568  0.4117E+02  0.3633E+03
     -0.282  0.4491E+02  0.3761E+03
      0.004  0.4171E+02  0.3880E+03
      0.290  0.5184E+02  0.4029E+03
      0.576  0.4372E+02  0.4154E+03
      0.862  0.4782E+02  0.4290E+03
      1.148  0.4175E+02  0.4410E+03
      1.434  0.3771E+02  0.4518E+03
      1.720  0.3481E+02  0.4617E+03
      2.006  0.1606E+02  0.4663E+03
      2.292  0.5707E+01  0.4679E+03
      2.578  0.1970E+00  0.4680E+03
      2.864  0.0000E+00  0.4680E+03
      3.150  0.2048E+00  0.4681E+03
      3.436  0.2765E+01  0.4688E+03
      3.722  0.1453E+02  0.4730E+03
      4.008  0.3963E+02  0.4843E+03
      4.294  0.8221E+02  0.5079E+03
      4.580  0.8506E+02  0.5322E+03
      4.865  0.6164E+02  0.5498E+03
      5.151  0.3654E+02  0.5603E+03
      5.437  0.3737E+02  0.5709E+03
      5.723  0.3679E+01  0.5720E+03
      6.009  0.0000E+00  0.5720E+03
      6.295  0.0000E+00  0.5720E+03
      6.581  0.0000E+00  0.5720E+03
      6.867  0.0000E+00  0.5720E+03
      7.153  0.0000E+00  0.5720E+03
      7.439  0.0000E+00  0.5720E+03
      7.725  0.0000E+00  0.5720E+03
      8.011  0.0000E+00  0.5720E+03
      8.297  0.0000E+00  0.5720E+03
      8.583  0.0000E+00  0.5720E+03
      8.869  0.0000E+00  0.5720E+03
      9.155  0.0000E+00  0.5720E+03
      9.441  0.0000E+00  0.5720E+03
