cpu-bind=MASK - c112, task  0  0 [1976380]: mask 0x7ffefffefffe set
 running  264 mpi-ranks, with    1 threads/rank, on    6 nodes
 distrk:  each k-point on   44 cores,    6 groups
 distr:  one band on    4 cores,   11 groups
 vasp.6.5.1 10Mar25 (build Aug 29 2025 00:30:47) complex                        
  
 POSCAR found type information on POSCAR MoSeW S 
 POSCAR found :  4 types and      54 ions
 scaLAPACK will be used
 LDA part: xc-table for (Slater+PW92), standard interpolation
 POSCAR, INCAR and KPOINTS ok, starting setup
 FFT: planning ... GRIDC
 FFT: planning ... GRID_SOFT
 FFT: planning ... GRID
 WAVECAR not read
 entering main loop
       N       E                     dE             d eps       ncg     rms          rms(c)
DAV:   1     0.457397085360E+04    0.45740E+04   -0.24738E+05  8855   0.147E+03
DAV:   2    -0.364740495423E+02   -0.46104E+04   -0.44813E+04  8822   0.375E+02
DAV:   3    -0.397150252567E+03   -0.36068E+03   -0.35392E+03  8844   0.986E+01
DAV:   4    -0.413368837222E+03   -0.16219E+02   -0.16094E+02  9900   0.192E+01
DAV:   5    -0.413846672399E+03   -0.47784E+00   -0.47601E+00 10197   0.337E+00    0.920E+01
DAV:   6    -0.396432800350E+03    0.17414E+02   -0.11770E+02  8811   0.211E+01    0.374E+01
DAV:   7    -0.394993342557E+03    0.14395E+01   -0.50401E+01  8712   0.126E+01    0.206E+01
DAV:   8    -0.391814331296E+03    0.31790E+01   -0.12119E+01  8448   0.664E+00    0.540E+00
DAV:   9    -0.391726222201E+03    0.88109E-01   -0.12955E+00  9295   0.194E+00    0.228E+00
DAV:  10    -0.391699128995E+03    0.27093E-01   -0.11637E-01  9372   0.656E-01    0.110E+00
DAV:  11    -0.391680818581E+03    0.18310E-01   -0.34109E-02  9812   0.448E-01    0.426E-01
DAV:  12    -0.391673234892E+03    0.75837E-02   -0.17360E-02  8987   0.352E-01    0.333E-01
DAV:  13    -0.391663350248E+03    0.98846E-02   -0.70640E-03  9581   0.232E-01    0.154E-01
DAV:  14    -0.391656119941E+03    0.72303E-02   -0.54729E-03  9504   0.202E-01    0.157E-01
DAV:  15    -0.391652062200E+03    0.40577E-02   -0.54893E-03  9229   0.199E-01    0.131E-01
DAV:  16    -0.391650452259E+03    0.16099E-02   -0.33536E-03  9119   0.160E-01    0.106E-01
DAV:  17    -0.391652968066E+03   -0.25158E-02   -0.29585E-03  8965   0.110E-01    0.899E-02
DAV:  18    -0.391655248292E+03   -0.22802E-02   -0.76190E-04  9361   0.640E-02    0.717E-02
DAV:  19    -0.391656710267E+03   -0.14620E-02   -0.16188E-04  8789   0.367E-02    0.445E-02
DAV:  20    -0.391659217960E+03   -0.25077E-02   -0.27209E-04  8547   0.395E-02    0.292E-02
DAV:  21    -0.391660051801E+03   -0.83384E-03   -0.89680E-05  8943   0.301E-02    0.266E-02
DAV:  22    -0.391660245361E+03   -0.19356E-03   -0.24299E-05  8976   0.155E-02    0.171E-02
DAV:  23    -0.391660565267E+03   -0.31991E-03   -0.25665E-05  8338   0.184E-02    0.125E-02
DAV:  24    -0.391660731811E+03   -0.16654E-03   -0.57133E-05  7843   0.179E-02    0.146E-02
DAV:  25    -0.391660696391E+03    0.35420E-04   -0.23370E-05  7909   0.844E-03    0.110E-02
DAV:  26    -0.391660688401E+03    0.79899E-05   -0.14335E-06  6380   0.424E-03    0.715E-03
DAV:  27    -0.391660688633E+03   -0.23217E-06   -0.23329E-06  6919   0.654E-03
   1 F= -.41239904E+03 E0= -.41239904E+03  d E =-.514647E-23
