Bilayer WSe2/GaN TM_TX (relaxed monolaye
   1.00000000000000     
     3.2621829201756736    0.0000000000000000    0.0000000000000000
     1.6310914600878368    2.8251332806638367    0.0000000000000000
     0.0000000000000000    0.0000000000000000   20.0000000000000000
   W    Se   Ga   N 
     1     2     1     1
Direct
     0.0000000000000000    0.0000000000000000    0.5237349478283720
     0.3333333333333357    0.3333333333333357    0.4388727040673764
     0.3333333333333357    0.3333333333333357    0.6086110610764880
     0.0000000000000000   -0.0000000000000000    0.7890245885499726
     0.3333333333333357    0.3333333333333357    0.7897566984777856
 
  0.00000000E+00  0.00000000E+00  0.00000000E+00
  0.00000000E+00  0.00000000E+00  0.00000000E+00
  0.00000000E+00  0.00000000E+00  0.00000000E+00
  0.00000000E+00  0.00000000E+00  0.00000000E+00
  0.00000000E+00  0.00000000E+00  0.00000000E+00
