Bilayer BN/BN AB (relaxed monolayers)   
   1.00000000000000     
     2.5099000000000000    0.0000000000000000    0.0000000000000000
     1.2549500000000000    2.1736371609585623    0.0000000000000000
     0.0000000000000000    0.0000000000000000   20.0000000000000000
   B    N 
     2     2
Direct
     0.0000000000000000    0.0000000000000000    0.5010767407527318
     0.3333333333333357    0.3333333333333357    0.8239216758590974
     0.3333333333333357    0.3333333333333357    0.5010709364685344
     0.6666666666666714    0.6666666666666714    0.8239306469196239
 
  0.00000000E+00  0.00000000E+00  0.00000000E+00
  0.00000000E+00  0.00000000E+00  0.00000000E+00
  0.00000000E+00  0.00000000E+00  0.00000000E+00
  0.00000000E+00  0.00000000E+00  0.00000000E+00
