Bilayer MoTe2/silicene TM_H2 (relaxed mo
   1.00000000000000     
     3.6671383160094297    0.0000000000000000    0.0000000000000000
     1.8335691580047149    3.1758349408554527    0.0000000000000000
     0.0000000000000000    0.0000000000000000   20.0000000000000000
   Mo   Te   Si
     1     2     2
Direct
    -0.0000000000000000   -0.0000000000000000    0.4965821321095013
     0.3333333333333357    0.3333333333333357    0.4085453621708509
     0.3333333333333357    0.3333333333333357    0.5846223739047322
     0.6666666666666643    0.6666666666666643    0.9465270710760354
    -0.0000000000000000    0.0000000000000000    0.9135331657752478
 
  0.00000000E+00  0.00000000E+00  0.00000000E+00
  0.00000000E+00  0.00000000E+00  0.00000000E+00
  0.00000000E+00  0.00000000E+00  0.00000000E+00
  0.00000000E+00  0.00000000E+00  0.00000000E+00
  0.00000000E+00  0.00000000E+00  0.00000000E+00
