  54  54   0   0
  0.2941710E+02  0.9576714E-09  0.9576714E-09  0.2000000E-08  0.5000000E-15
  1.000000000000000E-004
  CAR 
 MoS2_bilayer_3R phonon                  
      8.69801460    -62.31702128  301      2.80968454      1.00000000
    -62.317  0.0000E+00  0.0000E+00
    -62.080  0.0000E+00  0.0000E+00
    -61.844  0.0000E+00  0.0000E+00
    -61.607  0.0000E+00  0.0000E+00
    -61.370  0.0000E+00  0.0000E+00
    -61.133  0.0000E+00  0.0000E+00
    -60.897  0.0000E+00  0.0000E+00
    -60.660  0.0000E+00  0.0000E+00
    -60.423  0.0000E+00  0.0000E+00
    -60.187  0.0000E+00  0.0000E+00
    -59.950  0.0000E+00  0.0000E+00
    -59.713  0.0000E+00  0.0000E+00
    -59.476  0.0000E+00  0.0000E+00
    -59.240  0.7305E-04  0.1729E-04
    -59.003  0.1001E+03  0.2369E+02
    -58.766  0.5201E+02  0.3600E+02
    -58.530  0.0000E+00  0.3600E+02
    -58.293  0.0000E+00  0.3600E+02
    -58.056  0.0000E+00  0.3600E+02
    -57.819  0.0000E+00  0.3600E+02
    -57.583  0.0000E+00  0.3600E+02
    -57.346  0.0000E+00  0.3600E+02
    -57.109  0.0000E+00  0.3600E+02
    -56.873  0.0000E+00  0.3600E+02
    -56.636  0.0000E+00  0.3600E+02
    -56.399  0.0000E+00  0.3600E+02
    -56.162  0.0000E+00  0.3600E+02
    -55.926  0.0000E+00  0.3600E+02
    -55.689  0.0000E+00  0.3600E+02
    -55.452  0.0000E+00  0.3600E+02
    -55.216  0.0000E+00  0.3600E+02
    -54.979  0.0000E+00  0.3600E+02
    -54.742  0.0000E+00  0.3600E+02
    -54.505  0.0000E+00  0.3600E+02
    -54.269  0.0000E+00  0.3600E+02
    -54.032  0.0000E+00  0.3600E+02
    -53.795  0.0000E+00  0.3600E+02
    -53.559  0.0000E+00  0.3600E+02
    -53.322  0.0000E+00  0.3600E+02
    -53.085  0.0000E+00  0.3600E+02
    -52.848  0.0000E+00  0.3600E+02
    -52.612  0.0000E+00  0.3600E+02
    -52.375  0.0000E+00  0.3600E+02
    -52.138  0.0000E+00  0.3600E+02
    -51.901  0.0000E+00  0.3600E+02
    -51.665  0.0000E+00  0.3600E+02
    -51.428  0.0000E+00  0.3600E+02
    -51.191  0.0000E+00  0.3600E+02
    -50.955  0.0000E+00  0.3600E+02
    -50.718  0.0000E+00  0.3600E+02
    -50.481  0.0000E+00  0.3600E+02
    -50.244  0.0000E+00  0.3600E+02
    -50.008  0.0000E+00  0.3600E+02
    -49.771  0.0000E+00  0.3600E+02
    -49.534  0.0000E+00  0.3600E+02
    -49.298  0.0000E+00  0.3600E+02
    -49.061  0.0000E+00  0.3600E+02
    -48.824  0.0000E+00  0.3600E+02
    -48.587  0.0000E+00  0.3600E+02
    -48.351  0.0000E+00  0.3600E+02
    -48.114  0.0000E+00  0.3600E+02
    -47.877  0.0000E+00  0.3600E+02
    -47.641  0.0000E+00  0.3600E+02
    -47.404  0.0000E+00  0.3600E+02
    -47.167  0.0000E+00  0.3600E+02
    -46.930  0.0000E+00  0.3600E+02
    -46.694  0.0000E+00  0.3600E+02
    -46.457  0.0000E+00  0.3600E+02
    -46.220  0.0000E+00  0.3600E+02
    -45.984  0.0000E+00  0.3600E+02
    -45.747  0.0000E+00  0.3600E+02
    -45.510  0.0000E+00  0.3600E+02
    -45.273  0.0000E+00  0.3600E+02
    -45.037  0.0000E+00  0.3600E+02
    -44.800  0.0000E+00  0.3600E+02
    -44.563  0.0000E+00  0.3600E+02
    -44.327  0.0000E+00  0.3600E+02
    -44.090  0.0000E+00  0.3600E+02
    -43.853  0.0000E+00  0.3600E+02
    -43.616  0.0000E+00  0.3600E+02
    -43.380  0.0000E+00  0.3600E+02
    -43.143  0.0000E+00  0.3600E+02
    -42.906  0.0000E+00  0.3600E+02
    -42.670  0.0000E+00  0.3600E+02
    -42.433  0.0000E+00  0.3600E+02
    -42.196  0.0000E+00  0.3600E+02
    -41.959  0.0000E+00  0.3600E+02
    -41.723  0.0000E+00  0.3600E+02
    -41.486  0.0000E+00  0.3600E+02
    -41.249  0.0000E+00  0.3600E+02
    -41.013  0.0000E+00  0.3600E+02
    -40.776  0.0000E+00  0.3600E+02
    -40.539  0.0000E+00  0.3600E+02
    -40.302  0.0000E+00  0.3600E+02
    -40.066  0.0000E+00  0.3600E+02
    -39.829  0.0000E+00  0.3600E+02
    -39.592  0.0000E+00  0.3600E+02
    -39.355  0.0000E+00  0.3600E+02
    -39.119  0.0000E+00  0.3600E+02
    -38.882  0.0000E+00  0.3600E+02
    -38.645  0.0000E+00  0.3600E+02
    -38.409  0.0000E+00  0.3600E+02
    -38.172  0.0000E+00  0.3600E+02
    -37.935  0.0000E+00  0.3600E+02
    -37.698  0.0000E+00  0.3600E+02
    -37.462  0.0000E+00  0.3600E+02
    -37.225  0.0000E+00  0.3600E+02
    -36.988  0.0000E+00  0.3600E+02
    -36.752  0.0000E+00  0.3600E+02
    -36.515  0.0000E+00  0.3600E+02
    -36.278  0.0000E+00  0.3600E+02
    -36.041  0.0000E+00  0.3600E+02
    -35.805  0.0000E+00  0.3600E+02
    -35.568  0.0000E+00  0.3600E+02
    -35.331  0.0000E+00  0.3600E+02
    -35.095  0.0000E+00  0.3600E+02
    -34.858  0.0000E+00  0.3600E+02
    -34.621  0.0000E+00  0.3600E+02
    -34.384  0.0000E+00  0.3600E+02
    -34.148  0.0000E+00  0.3600E+02
    -33.911  0.0000E+00  0.3600E+02
    -33.674  0.1576E-14  0.3600E+02
    -33.438  0.7376E+00  0.3617E+02
    -33.201  0.1356E+03  0.6827E+02
    -32.964  0.3127E+03  0.1423E+03
    -32.727  0.7208E+01  0.1440E+03
    -32.491  0.0000E+00  0.1440E+03
    -32.254  0.0000E+00  0.1440E+03
    -32.017  0.0000E+00  0.1440E+03
    -31.781  0.0000E+00  0.1440E+03
    -31.544  0.0000E+00  0.1440E+03
    -31.307  0.0000E+00  0.1440E+03
    -31.070  0.0000E+00  0.1440E+03
    -30.834  0.0000E+00  0.1440E+03
    -30.597  0.0000E+00  0.1440E+03
    -30.360  0.0000E+00  0.1440E+03
    -30.124  0.0000E+00  0.1440E+03
    -29.887  0.0000E+00  0.1440E+03
    -29.650  0.0000E+00  0.1440E+03
    -29.413  0.0000E+00  0.1440E+03
    -29.177  0.0000E+00  0.1440E+03
    -28.940  0.0000E+00  0.1440E+03
    -28.703  0.0000E+00  0.1440E+03
    -28.467  0.0000E+00  0.1440E+03
    -28.230  0.0000E+00  0.1440E+03
    -27.993  0.0000E+00  0.1440E+03
    -27.756  0.0000E+00  0.1440E+03
    -27.520  0.0000E+00  0.1440E+03
    -27.283  0.0000E+00  0.1440E+03
    -27.046  0.0000E+00  0.1440E+03
    -26.810  0.0000E+00  0.1440E+03
    -26.573  0.0000E+00  0.1440E+03
    -26.336  0.0000E+00  0.1440E+03
    -26.099  0.0000E+00  0.1440E+03
    -25.863  0.0000E+00  0.1440E+03
    -25.626  0.0000E+00  0.1440E+03
    -25.389  0.0000E+00  0.1440E+03
    -25.152  0.0000E+00  0.1440E+03
    -24.916  0.0000E+00  0.1440E+03
    -24.679  0.0000E+00  0.1440E+03
    -24.442  0.0000E+00  0.1440E+03
    -24.206  0.0000E+00  0.1440E+03
    -23.969  0.0000E+00  0.1440E+03
    -23.732  0.0000E+00  0.1440E+03
    -23.495  0.0000E+00  0.1440E+03
    -23.259  0.0000E+00  0.1440E+03
    -23.022  0.0000E+00  0.1440E+03
    -22.785  0.0000E+00  0.1440E+03
    -22.549  0.0000E+00  0.1440E+03
    -22.312  0.0000E+00  0.1440E+03
    -22.075  0.0000E+00  0.1440E+03
    -21.838  0.0000E+00  0.1440E+03
    -21.602  0.0000E+00  0.1440E+03
    -21.365  0.0000E+00  0.1440E+03
    -21.128  0.0000E+00  0.1440E+03
    -20.892  0.0000E+00  0.1440E+03
    -20.655  0.0000E+00  0.1440E+03
    -20.418  0.0000E+00  0.1440E+03
    -20.181  0.0000E+00  0.1440E+03
    -19.945  0.0000E+00  0.1440E+03
    -19.708  0.0000E+00  0.1440E+03
    -19.471  0.0000E+00  0.1440E+03
    -19.235  0.0000E+00  0.1440E+03
    -18.998  0.0000E+00  0.1440E+03
    -18.761  0.0000E+00  0.1440E+03
    -18.524  0.0000E+00  0.1440E+03
    -18.288  0.0000E+00  0.1440E+03
    -18.051  0.0000E+00  0.1440E+03
    -17.814  0.0000E+00  0.1440E+03
    -17.578  0.0000E+00  0.1440E+03
    -17.341  0.0000E+00  0.1440E+03
    -17.104  0.0000E+00  0.1440E+03
    -16.867  0.0000E+00  0.1440E+03
    -16.631  0.0000E+00  0.1440E+03
    -16.394  0.0000E+00  0.1440E+03
    -16.157  0.0000E+00  0.1440E+03
    -15.921  0.0000E+00  0.1440E+03
    -15.684  0.0000E+00  0.1440E+03
    -15.447  0.0000E+00  0.1440E+03
    -15.210  0.0000E+00  0.1440E+03
    -14.974  0.0000E+00  0.1440E+03
    -14.737  0.0000E+00  0.1440E+03
    -14.500  0.0000E+00  0.1440E+03
    -14.264  0.0000E+00  0.1440E+03
    -14.027  0.0000E+00  0.1440E+03
    -13.790  0.0000E+00  0.1440E+03
    -13.553  0.0000E+00  0.1440E+03
    -13.317  0.0000E+00  0.1440E+03
    -13.080  0.0000E+00  0.1440E+03
    -12.843  0.0000E+00  0.1440E+03
    -12.606  0.1755E-09  0.1440E+03
    -12.370  0.4569E+00  0.1441E+03
    -12.133  0.6055E+01  0.1455E+03
    -11.896  0.1004E+02  0.1479E+03
    -11.660  0.9131E+01  0.1501E+03
    -11.423  0.1179E+02  0.1529E+03
    -11.186  0.1225E+02  0.1558E+03
    -10.949  0.2077E+02  0.1607E+03
    -10.713  0.3482E+02  0.1689E+03
    -10.476  0.5803E+02  0.1827E+03
    -10.239  0.8600E+02  0.2030E+03
    -10.003  0.5450E+02  0.2159E+03
     -9.766  0.3191E+00  0.2160E+03
     -9.529  0.0000E+00  0.2160E+03
     -9.292  0.0000E+00  0.2160E+03
     -9.056  0.0000E+00  0.2160E+03
     -8.819  0.0000E+00  0.2160E+03
     -8.582  0.0000E+00  0.2160E+03
     -8.346  0.0000E+00  0.2160E+03
     -8.109  0.0000E+00  0.2160E+03
     -7.872  0.0000E+00  0.2160E+03
     -7.635  0.0000E+00  0.2160E+03
     -7.399  0.0000E+00  0.2160E+03
     -7.162  0.0000E+00  0.2160E+03
     -6.925  0.0000E+00  0.2160E+03
     -6.689  0.0000E+00  0.2160E+03
     -6.452  0.0000E+00  0.2160E+03
     -6.215  0.0000E+00  0.2160E+03
     -5.978  0.0000E+00  0.2160E+03
     -5.742  0.0000E+00  0.2160E+03
     -5.505  0.0000E+00  0.2160E+03
     -5.268  0.0000E+00  0.2160E+03
     -5.032  0.0000E+00  0.2160E+03
     -4.795  0.0000E+00  0.2160E+03
     -4.558  0.0000E+00  0.2160E+03
     -4.321  0.5734E-06  0.2160E+03
     -4.085  0.1365E+01  0.2163E+03
     -3.848  0.1606E+02  0.2201E+03
     -3.611  0.3121E+02  0.2275E+03
     -3.375  0.5924E+02  0.2415E+03
     -3.138  0.4754E+02  0.2528E+03
     -2.901  0.4900E+02  0.2644E+03
     -2.664  0.2080E+02  0.2693E+03
     -2.428  0.1706E+02  0.2733E+03
     -2.191  0.3656E+02  0.2820E+03
     -1.954  0.7488E+02  0.2997E+03
     -1.718  0.4865E+02  0.3112E+03
     -1.481  0.3321E+02  0.3191E+03
     -1.244  0.7881E+02  0.3378E+03
     -1.007  0.5284E+02  0.3503E+03
     -0.771  0.3656E+02  0.3589E+03
     -0.534  0.2280E+02  0.3643E+03
     -0.297  0.3695E+02  0.3731E+03
     -0.061  0.6796E+02  0.3892E+03
      0.176  0.5261E+02  0.4016E+03
      0.413  0.5189E+02  0.4139E+03
      0.650  0.4055E+02  0.4235E+03
      0.886  0.2364E+02  0.4291E+03
      1.123  0.6495E+02  0.4445E+03
      1.360  0.4616E+02  0.4554E+03
      1.597  0.2933E+02  0.4623E+03
      1.833  0.1719E+02  0.4664E+03
      2.070  0.2411E+01  0.4670E+03
      2.307  0.2177E+01  0.4675E+03
      2.543  0.2145E+01  0.4680E+03
      2.780  0.4303E-02  0.4680E+03
      3.017  0.0000E+00  0.4680E+03
      3.254  0.2948E-04  0.4680E+03
      3.490  0.1299E+01  0.4683E+03
      3.727  0.1803E+02  0.4726E+03
      3.964  0.5380E+02  0.4853E+03
      4.200  0.7148E+02  0.5022E+03
      4.437  0.9459E+02  0.5246E+03
      4.674  0.6960E+02  0.5411E+03
      4.911  0.6074E+02  0.5555E+03
      5.147  0.3764E+02  0.5644E+03
      5.384  0.2919E+02  0.5713E+03
      5.621  0.2975E+01  0.5720E+03
      5.857  0.7075E-05  0.5720E+03
      6.094  0.0000E+00  0.5720E+03
      6.331  0.0000E+00  0.5720E+03
      6.568  0.0000E+00  0.5720E+03
      6.804  0.0000E+00  0.5720E+03
      7.041  0.0000E+00  0.5720E+03
      7.278  0.0000E+00  0.5720E+03
      7.514  0.0000E+00  0.5720E+03
      7.751  0.0000E+00  0.5720E+03
      7.988  0.0000E+00  0.5720E+03
      8.225  0.0000E+00  0.5720E+03
      8.461  0.0000E+00  0.5720E+03
      8.698  0.0000E+00  0.5720E+03
