Bilayer MoSe2/WS2 2H (relaxed monolayers
   1.00000000000000     
     3.2339027514997682    0.0000000000000000    0.0000000000000000
     1.6169513757498841    2.8006419361671937    0.0000000000000000
     0.0000000000000000    0.0000000000000000   20.0000000000000000
   Mo   Se   W    S 
     1     2     1     2
Direct
     0.0000000000000000   -0.0000000000000000    0.5066742310886312
     0.3333333333333357    0.3333333333333357    0.4219930347854718
     0.3333333333333357    0.3333333333333357    0.5913025619852562
     0.3333333333333357    0.3333333333333357    0.8183317578144902
     0.0000000000000000   -0.0000000000000000    0.7408896702413945
    -0.0000000000000000    0.0000000000000000    0.8958087440847275
 
  0.00000000E+00  0.00000000E+00  0.00000000E+00
  0.00000000E+00  0.00000000E+00  0.00000000E+00
  0.00000000E+00  0.00000000E+00  0.00000000E+00
  0.00000000E+00  0.00000000E+00  0.00000000E+00
  0.00000000E+00  0.00000000E+00  0.00000000E+00
  0.00000000E+00  0.00000000E+00  0.00000000E+00
