cpu-bind=MASK - c046, task  0  0 [303532]: mask 0xfffffffffff0 set
 running  264 mpi-ranks, with    1 threads/rank, on    6 nodes
 distrk:  each k-point on   44 cores,    6 groups
 distr:  one band on    4 cores,   11 groups
 vasp.6.5.1 10Mar25 (build Aug 29 2025 00:30:47) complex                        
  
 POSCAR found type information on POSCAR MoSe
 POSCAR found :  2 types and      27 ions
 scaLAPACK will be used
 LDA part: xc-table for (Slater+PW92), standard interpolation
 POSCAR, INCAR and KPOINTS ok, starting setup
 FFT: planning ... GRIDC
 FFT: planning ... GRID_SOFT
 FFT: planning ... GRID
 WAVECAR not read
 entering main loop
       N       E                     dE             d eps       ncg     rms          rms(c)
DAV:   1     0.199105903348E+04    0.19911E+04   -0.11308E+05  4598   0.130E+03
DAV:   2     0.126580355157E+02   -0.19784E+04   -0.19390E+04  5104   0.290E+02
DAV:   3    -0.182492298285E+03   -0.19515E+03   -0.19308E+03  4356   0.839E+01
DAV:   4    -0.189092512213E+03   -0.66002E+01   -0.65299E+01  4675   0.149E+01
DAV:   5    -0.189308320600E+03   -0.21581E+00   -0.21492E+00  5258   0.243E+00    0.513E+01
DAV:   6    -0.183547972625E+03    0.57603E+01   -0.67526E+01  4257   0.208E+01    0.158E+01
DAV:   7    -0.181685614859E+03    0.18624E+01   -0.39134E+01  4334   0.148E+01    0.138E+01
DAV:   8    -0.179946796612E+03    0.17388E+01   -0.57125E+00  4510   0.637E+00    0.343E+00
DAV:   9    -0.179932507333E+03    0.14289E-01   -0.88043E-01  4906   0.199E+00    0.201E+00
DAV:  10    -0.179888439654E+03    0.44068E-01   -0.13414E-01  4796   0.108E+00    0.450E-01
DAV:  11    -0.179878462128E+03    0.99775E-02   -0.21912E-02  5093   0.544E-01    0.327E-01
DAV:  12    -0.179867472654E+03    0.10989E-01   -0.95604E-03  4840   0.339E-01    0.151E-01
DAV:  13    -0.179861081324E+03    0.63913E-02   -0.46436E-03  4631   0.209E-01    0.153E-01
DAV:  14    -0.179857010789E+03    0.40705E-02   -0.27759E-03  4807   0.203E-01    0.132E-01
DAV:  15    -0.179851986537E+03    0.50243E-02   -0.33047E-03  4356   0.150E-01    0.720E-02
DAV:  16    -0.179844943174E+03    0.70434E-02   -0.36909E-03  4191   0.942E-02    0.947E-02
DAV:  17    -0.179841536627E+03    0.34065E-02   -0.95125E-04  4400   0.519E-02    0.659E-02
DAV:  18    -0.179845299570E+03   -0.37629E-02   -0.11720E-03  4466   0.993E-02    0.776E-02
DAV:  19    -0.179848429165E+03   -0.31296E-02   -0.59434E-04  4818   0.867E-02    0.797E-02
DAV:  20    -0.179855168612E+03   -0.67394E-02   -0.13193E-03  4389   0.565E-02    0.369E-02
DAV:  21    -0.179857712837E+03   -0.25442E-02   -0.33163E-04  4752   0.296E-02    0.210E-02
DAV:  22    -0.179858733412E+03   -0.10206E-02   -0.88442E-05  4752   0.299E-02    0.225E-02
DAV:  23    -0.179859357066E+03   -0.62365E-03   -0.48524E-05  4147   0.207E-02    0.127E-02
DAV:  24    -0.179859812756E+03   -0.45569E-03   -0.25301E-05  3751   0.747E-03    0.437E-03
DAV:  25    -0.179859921616E+03   -0.10886E-03   -0.33852E-06  3553   0.360E-03    0.295E-03
DAV:  26    -0.179859967767E+03   -0.46151E-04   -0.11046E-06  3190   0.347E-03    0.217E-03
DAV:  27    -0.179860013866E+03   -0.46099E-04   -0.19601E-06  3245   0.273E-03    0.654E-04
DAV:  28    -0.179860023353E+03   -0.94877E-05   -0.27760E-07  2992   0.710E-04    0.515E-04
DAV:  29    -0.179860025794E+03   -0.24403E-05   -0.43250E-08  2508   0.287E-04    0.362E-04
DAV:  30    -0.179860028636E+03   -0.28419E-05   -0.11093E-07  2739   0.348E-04    0.104E-04
DAV:  31    -0.179860028941E+03   -0.30586E-06   -0.16281E-08  2288   0.201E-04
   1 F= -.18904446E+03 E0= -.18904446E+03  d E =-.183825E-27
