Bilayer MoS2/TiS2 2H (relaxed monolayers
   1.00000000000000     
     3.2268176735608853    0.0000000000000027    0.0000000000000000
     1.6134088367804063    2.7945060786843374    0.0000000000000000
     0.0000000000000000    0.0000000000000000   20.5413255882229677
   Mo   S    Ti
     1     4     1
Direct
     0.0000000000000000    0.0000000000000000    0.5024184637942278
     0.3333333333333357    0.3333333333333357    0.4273044551375691
     0.3333333333333357    0.3333333333333357    0.5775335226921200
    -0.0000000000000000   -0.0000000000000000    0.9007995847508353
     0.0000000000000000   -0.0000000000000000    0.0498450265252309
     0.3333333333333357    0.3333333333333357    0.9753606279878105
 
  0.00000000E+00  0.00000000E+00  0.00000000E+00
  0.00000000E+00  0.00000000E+00  0.00000000E+00
  0.00000000E+00  0.00000000E+00  0.00000000E+00
  0.00000000E+00  0.00000000E+00  0.00000000E+00
  0.00000000E+00  0.00000000E+00  0.00000000E+00
  0.00000000E+00  0.00000000E+00  0.00000000E+00
