Bilayer WS2/WS2 2H (relaxed monolayers) 
   1.00000000000000     
     3.1842228947230637    0.0000000000000000    0.0000000000000000
     1.5921114473615319    2.7576179181421954    0.0000000000000000
     0.0000000000000000    0.0000000000000000   20.0000000000000000
   W    S 
     2     4
Direct
    -0.0000000000000000    0.0000000000000000    0.5106854775492273
     0.3333333333333357    0.3333333333333357    0.8143145224507754
     0.3333333333333357    0.3333333333333357    0.4323429917186368
     0.3333333333333357    0.3333333333333357    0.5889347390897312
     0.0000000000000000   -0.0000000000000000    0.7360652609102717
    -0.0000000000000000   -0.0000000000000000    0.8926570082813388
 
  0.00000000E+00  0.00000000E+00  0.00000000E+00
  0.00000000E+00  0.00000000E+00  0.00000000E+00
  0.00000000E+00  0.00000000E+00  0.00000000E+00
  0.00000000E+00  0.00000000E+00  0.00000000E+00
  0.00000000E+00  0.00000000E+00  0.00000000E+00
  0.00000000E+00  0.00000000E+00  0.00000000E+00
