Bilayer structure
 1.0000000000000000
  3.3100800000000001   0.0000000000000000   0.0000000000000000
  1.6550400000000001   2.8666133685587947   0.0000000000000000
  0.0000000000000000   0.0000000000000000  20.0000000000000000
   Mo   Te   W   S
     1     2     1     2
Direct
  0.0000000000000000   0.0000000000000000   0.5000000000000000
  0.3333333333333333   0.3333333333333333   0.4151306250000000
  0.3333333333333333   0.3333333333333333   0.5848693750000000
  0.3333333333333333   0.3333333333333333   0.8237387500000001
  0.0000000000000000   0.0000000000000000   0.7388693750000001
  0.0000000000000000   0.0000000000000000   0.9086081250000001
