generated by phonopy
   1.0
     8.5594821040624822    0.0000000000000000    0.0000000000000000
     4.2797410520312411    7.4127289453563865    0.0000000000000000
     0.0000000000000000    0.0000000000000000   20.0000000000000000
B N Ga
   9   18    9
Direct
  0.9995403281292613  0.0000000000000000  0.5046734746792545
  0.3333333333333333  0.0000000000000000  0.5051331465499932
  0.6666666666666666  0.0000000000000000  0.5051331465499932
  0.0000000000000000  0.3333333333333333  0.5051331465499932
  0.3333333333333333  0.3333333333333333  0.5051331465499932
  0.6666666666666667  0.3333333333333333  0.5051331465499932
  0.0000000000000000  0.6666666666666666  0.5051331465499932
  0.3333333333333333  0.6666666666666666  0.5051331465499932
  0.6666666666666666  0.6666666666666666  0.5051331465499932
  0.1111111111111119  0.1111111111111119  0.5051294135238457
  0.4444444444444451  0.1111111111111119  0.5051294135238457
  0.7777777777777787  0.1111111111111119  0.5051294135238457
  0.1111111111111119  0.4444444444444452  0.5051294135238457
  0.4444444444444453  0.4444444444444452  0.5051294135238457
  0.7777777777777787  0.4444444444444452  0.5051294135238457
  0.1111111111111118  0.7777777777777786  0.5051294135238457
  0.4444444444444453  0.7777777777777786  0.5051294135238457
  0.7777777777777786  0.7777777777777786  0.5051294135238457
  0.0000000000000000  0.0000000000000000  0.8198623343902883
  0.3333333333333333  0.0000000000000000  0.8198623343902883
  0.6666666666666666  0.0000000000000000  0.8198623343902883
  0.0000000000000000  0.3333333333333333  0.8198623343902883
  0.3333333333333333  0.3333333333333333  0.8198623343902883
  0.6666666666666667  0.3333333333333333  0.8198623343902883
  0.0000000000000000  0.6666666666666666  0.8198623343902883
  0.3333333333333333  0.6666666666666666  0.8198623343902883
  0.6666666666666666  0.6666666666666666  0.8198623343902883
  0.2222222222222214  0.2222222222222214  0.8198751055357182
  0.5555555555555548  0.2222222222222214  0.8198751055357182
  0.8888888888888881  0.2222222222222214  0.8198751055357182
  0.2222222222222214  0.5555555555555547  0.8198751055357182
  0.5555555555555547  0.5555555555555547  0.8198751055357182
  0.8888888888888881  0.5555555555555547  0.8198751055357182
  0.2222222222222215  0.8888888888888882  0.8198751055357182
  0.5555555555555547  0.8888888888888882  0.8198751055357182
  0.8888888888888881  0.8888888888888882  0.8198751055357182
