Bilayer structure
 1.0000000000000000
  3.3900660000000000   0.0000000000000000   0.0000000000000000
  1.6950330000000000   2.9358832765058964   0.0000000000000000
  0.0000000000000000   0.0000000000000000  20.0000000000000000
   Mo   Te   W   Se
     1     2     1     2
Direct
  0.0000000000000000   0.0000000000000000   0.5000000000000000
  0.3333333333333333   0.3333333333333333   0.4123654250000000
  0.3333333333333333   0.3333333333333333   0.5876345750000000
  0.3333333333333333   0.3333333333333333   0.8322691500000001
  0.6666666666666666   0.6666666666666666   0.7446345750000001
  0.6666666666666666   0.6666666666666666   0.9199037250000002
