generated by phonopy
   1.0
    10.6846399434205068    0.0000000000000000    0.0000000000000000
     5.3423199717102534    9.2531696212920860    0.0000000000000000
     0.0000000000000000    0.0000000000000000   20.0000000000000000
W Te
   9   18
Direct
  0.0000000000000000  0.0000000000000000  0.5000000000000000
  0.3333333333333333  0.0000000000000000  0.5000000000000000
  0.6666666666666666  0.0000000000000000  0.5000000000000000
  0.0000000000000000  0.3333333333333333  0.5000000000000000
  0.3333333333333333  0.3333333333333333  0.5000000000000000
  0.6666666666666666  0.3333333333333333  0.5000000000000000
  0.0000000000000000  0.6666666666666666  0.5000000000000000
  0.3333333333333333  0.6666666666666666  0.5000000000000000
  0.6666666666666666  0.6666666666666666  0.5000000000000000
  0.1115521229112989  0.1111111111111119  0.4102076374967892
  0.4444444444444451  0.1111111111111119  0.4097666256966022
  0.7777777777777786  0.1111111111111119  0.4097666256966022
  0.1111111111111119  0.4444444444444451  0.4097666256966022
  0.4444444444444451  0.4444444444444451  0.4097666256966022
  0.7777777777777786  0.4444444444444451  0.4097666256966022
  0.1111111111111118  0.7777777777777786  0.4097666256966022
  0.4444444444444452  0.7777777777777786  0.4097666256966022
  0.7777777777777786  0.7777777777777786  0.4097666256966022
  0.1111111111111119  0.1111111111111119  0.5902333743033976
  0.4444444444444451  0.1111111111111119  0.5902333743033976
  0.7777777777777786  0.1111111111111119  0.5902333743033976
  0.1111111111111119  0.4444444444444451  0.5902333743033976
  0.4444444444444451  0.4444444444444451  0.5902333743033976
  0.7777777777777786  0.4444444444444451  0.5902333743033976
  0.1111111111111118  0.7777777777777786  0.5902333743033976
  0.4444444444444452  0.7777777777777786  0.5902333743033976
  0.7777777777777786  0.7777777777777786  0.5902333743033976
