cpu-bind=MASK - c197, task  0  0 [3174380]: mask 0x7ffefffefffe set
 running  264 mpi-ranks, with    1 threads/rank, on    6 nodes
 distrk:  each k-point on   44 cores,    6 groups
 distr:  one band on    4 cores,   11 groups
 vasp.6.5.1 10Mar25 (build Aug 29 2025 00:30:47) complex                        
  
 POSCAR found type information on POSCAR W Te
 POSCAR found :  2 types and      27 ions
 scaLAPACK will be used
 LDA part: xc-table for (Slater+PW92), standard interpolation
 POSCAR, INCAR and KPOINTS ok, starting setup
 FFT: planning ... GRIDC
 FFT: planning ... GRID_SOFT
 FFT: planning ... GRID
 WAVECAR not read
 entering main loop
       N       E                     dE             d eps       ncg     rms          rms(c)
DAV:   1     0.189996025591E+04    0.19000E+04   -0.11062E+05  4576   0.129E+03
DAV:   2    -0.309178848314E+01   -0.19031E+04   -0.18629E+04  4752   0.287E+02
DAV:   3    -0.172705222025E+03   -0.16961E+03   -0.16745E+03  4554   0.803E+01
DAV:   4    -0.181076207303E+03   -0.83710E+01   -0.82837E+01  5148   0.171E+01
DAV:   5    -0.181339976526E+03   -0.26377E+00   -0.26232E+00  5797   0.335E+00    0.551E+01
DAV:   6    -0.176718628561E+03    0.46213E+01   -0.29244E+01  4774   0.140E+01    0.244E+01
DAV:   7    -0.175856862198E+03    0.86177E+00   -0.16531E+01  4345   0.810E+00    0.115E+01
DAV:   8    -0.174993518128E+03    0.86334E+00   -0.24848E+00  4631   0.402E+00    0.423E+00
DAV:   9    -0.174943276070E+03    0.50242E-01   -0.95847E-01  4774   0.215E+00    0.208E+00
DAV:  10    -0.174904324557E+03    0.38952E-01   -0.16100E-01  4631   0.120E+00    0.573E-01
DAV:  11    -0.174896129267E+03    0.81953E-02   -0.26410E-02  4796   0.642E-01    0.375E-01
DAV:  12    -0.174889814652E+03    0.63146E-02   -0.10563E-02  4763   0.369E-01    0.330E-01
DAV:  13    -0.174886453754E+03    0.33609E-02   -0.27045E-03  4939   0.167E-01    0.274E-01
DAV:  14    -0.174878871057E+03    0.75827E-02   -0.62613E-03  4345   0.227E-01    0.133E-01
DAV:  15    -0.174874982141E+03    0.38889E-02   -0.25539E-03  4532   0.167E-01    0.199E-01
DAV:  16    -0.174871582806E+03    0.33993E-02   -0.19665E-03  4092   0.114E-01    0.220E-01
DAV:  17    -0.174866440106E+03    0.51427E-02   -0.29388E-03  4213   0.879E-02    0.999E-02
DAV:  18    -0.174865074500E+03    0.13656E-02   -0.11950E-03  4587   0.947E-02    0.895E-02
DAV:  19    -0.174867417286E+03   -0.23428E-02   -0.36767E-04  4565   0.787E-02    0.109E-01
DAV:  20    -0.174876351100E+03   -0.89338E-02   -0.17311E-03  4312   0.704E-02    0.102E-01
DAV:  21    -0.174879219865E+03   -0.28688E-02   -0.49864E-04  4763   0.620E-02    0.521E-02
DAV:  22    -0.174880529243E+03   -0.13094E-02   -0.16547E-04  4576   0.435E-02    0.293E-02
DAV:  23    -0.174881613402E+03   -0.10842E-02   -0.82162E-05  4345   0.220E-02    0.233E-02
DAV:  24    -0.174882650661E+03   -0.10373E-02   -0.12056E-04  3949   0.148E-02    0.183E-02
DAV:  25    -0.174882921150E+03   -0.27049E-03   -0.19805E-05  3960   0.659E-03    0.104E-02
DAV:  26    -0.174883086003E+03   -0.16485E-03   -0.12134E-05  3619   0.543E-03    0.245E-03
DAV:  27    -0.174883122768E+03   -0.36765E-04   -0.20845E-06  3498   0.356E-03    0.152E-03
DAV:  28    -0.174883142162E+03   -0.19394E-04   -0.74572E-07  3102   0.150E-03    0.879E-04
DAV:  29    -0.174883150961E+03   -0.87990E-05   -0.22503E-07  2739   0.739E-04    0.636E-04
DAV:  30    -0.174883163141E+03   -0.12180E-04   -0.12124E-06  3157   0.836E-04    0.560E-04
DAV:  31    -0.174883163538E+03   -0.39688E-06   -0.30804E-08  2475   0.347E-04
   1 F= -.18513315E+03 E0= -.18513315E+03  d E =-.692806E-29
