Mo1 W1 Se4                              
   1.00000000000000     
     3.2513213699999994    0.0000000000000000   -0.0000000000000001
     1.6256606850000177    2.8157269022872207    0.0000000000000000
    -0.0000000000000003    0.0000000000000002   20.2202819452995080
   Mo   Se   W 
     1     4     1
Direct
     0.0000000000000000   -0.0000000000000000    0.5043306602575062
     0.3333333333333357    0.3333333333333357    0.4209024111879353
     0.3333333333333357    0.3333333333333357    0.5877483056185506
    -0.0000000000000000   -0.0000000000000000    0.7366287800933947
     0.0000000000000000    0.0000000000000000    0.9047217800523144
     0.3333333333333357    0.3333333333333357    0.8206680627905818
 
  0.00000000E+00  0.00000000E+00  0.00000000E+00
  0.00000000E+00  0.00000000E+00  0.00000000E+00
  0.00000000E+00  0.00000000E+00  0.00000000E+00
  0.00000000E+00  0.00000000E+00  0.00000000E+00
  0.00000000E+00  0.00000000E+00  0.00000000E+00
  0.00000000E+00  0.00000000E+00  0.00000000E+00
