Bilayer MoS2/MoS2 3R (relaxed monolayers
   1.00000000000000     
     3.1539860000000002   -0.0000000000000065    0.0000000000000000
     1.5769930000000114    2.7314319991805611    0.0000000000000001
     0.0000000000000002    0.0000000000000005   20.4873075947635499
   Mo   S 
     2     4
Direct
    -0.0000000000000000   -0.0000000000000000    0.5154598913863222
     0.3333333333333357    0.3333333333333357    0.8095714586694163
     0.3333333333333357    0.3333333333333357    0.4389877199271937
     0.3333333333333357    0.3333333333333357    0.5917460719095786
     0.6666666666666714    0.6666666666666714    0.7332321367292475
     0.6666666666666714    0.6666666666666714    0.8860027213791415
 
  0.00000000E+00  0.00000000E+00  0.00000000E+00
  0.00000000E+00  0.00000000E+00  0.00000000E+00
  0.00000000E+00  0.00000000E+00  0.00000000E+00
  0.00000000E+00  0.00000000E+00  0.00000000E+00
  0.00000000E+00  0.00000000E+00  0.00000000E+00
  0.00000000E+00  0.00000000E+00  0.00000000E+00
