  45  45   0   0
  0.3686441E+02  0.9786549E-09  0.9786549E-09  0.2000000E-08  0.5000000E-15
  1.000000000000000E-004
  CAR 
 WSe2_GaN_TM_TX phonon                   
      7.86061916    -78.28721180  301     -0.10805520      1.00000000
    -78.287  0.0000E+00  0.0000E+00
    -78.000  0.0000E+00  0.0000E+00
    -77.713  0.0000E+00  0.0000E+00
    -77.426  0.0000E+00  0.0000E+00
    -77.139  0.0000E+00  0.0000E+00
    -76.851  0.0000E+00  0.0000E+00
    -76.564  0.0000E+00  0.0000E+00
    -76.277  0.0000E+00  0.0000E+00
    -75.990  0.0000E+00  0.0000E+00
    -75.703  0.0000E+00  0.0000E+00
    -75.416  0.0000E+00  0.0000E+00
    -75.128  0.0000E+00  0.0000E+00
    -74.841  0.0000E+00  0.0000E+00
    -74.554  0.2278E-05  0.6542E-06
    -74.267  0.6246E+02  0.1794E+02
    -73.980  0.2223E+00  0.1800E+02
    -73.693  0.0000E+00  0.1800E+02
    -73.406  0.0000E+00  0.1800E+02
    -73.118  0.0000E+00  0.1800E+02
    -72.831  0.0000E+00  0.1800E+02
    -72.544  0.0000E+00  0.1800E+02
    -72.257  0.0000E+00  0.1800E+02
    -71.970  0.0000E+00  0.1800E+02
    -71.683  0.0000E+00  0.1800E+02
    -71.395  0.0000E+00  0.1800E+02
    -71.108  0.0000E+00  0.1800E+02
    -70.821  0.0000E+00  0.1800E+02
    -70.534  0.0000E+00  0.1800E+02
    -70.247  0.0000E+00  0.1800E+02
    -69.960  0.0000E+00  0.1800E+02
    -69.672  0.0000E+00  0.1800E+02
    -69.385  0.0000E+00  0.1800E+02
    -69.098  0.0000E+00  0.1800E+02
    -68.811  0.0000E+00  0.1800E+02
    -68.524  0.0000E+00  0.1800E+02
    -68.237  0.0000E+00  0.1800E+02
    -67.949  0.0000E+00  0.1800E+02
    -67.662  0.0000E+00  0.1800E+02
    -67.375  0.0000E+00  0.1800E+02
    -67.088  0.0000E+00  0.1800E+02
    -66.801  0.0000E+00  0.1800E+02
    -66.514  0.0000E+00  0.1800E+02
    -66.227  0.0000E+00  0.1800E+02
    -65.939  0.0000E+00  0.1800E+02
    -65.652  0.0000E+00  0.1800E+02
    -65.365  0.0000E+00  0.1800E+02
    -65.078  0.0000E+00  0.1800E+02
    -64.791  0.0000E+00  0.1800E+02
    -64.504  0.0000E+00  0.1800E+02
    -64.216  0.0000E+00  0.1800E+02
    -63.929  0.0000E+00  0.1800E+02
    -63.642  0.0000E+00  0.1800E+02
    -63.355  0.0000E+00  0.1800E+02
    -63.068  0.0000E+00  0.1800E+02
    -62.781  0.0000E+00  0.1800E+02
    -62.493  0.0000E+00  0.1800E+02
    -62.206  0.0000E+00  0.1800E+02
    -61.919  0.0000E+00  0.1800E+02
    -61.632  0.0000E+00  0.1800E+02
    -61.345  0.0000E+00  0.1800E+02
    -61.058  0.0000E+00  0.1800E+02
    -60.770  0.0000E+00  0.1800E+02
    -60.483  0.0000E+00  0.1800E+02
    -60.196  0.0000E+00  0.1800E+02
    -59.909  0.0000E+00  0.1800E+02
    -59.622  0.0000E+00  0.1800E+02
    -59.335  0.0000E+00  0.1800E+02
    -59.048  0.0000E+00  0.1800E+02
    -58.760  0.0000E+00  0.1800E+02
    -58.473  0.0000E+00  0.1800E+02
    -58.186  0.0000E+00  0.1800E+02
    -57.899  0.0000E+00  0.1800E+02
    -57.612  0.0000E+00  0.1800E+02
    -57.325  0.0000E+00  0.1800E+02
    -57.037  0.0000E+00  0.1800E+02
    -56.750  0.0000E+00  0.1800E+02
    -56.463  0.0000E+00  0.1800E+02
    -56.176  0.0000E+00  0.1800E+02
    -55.889  0.0000E+00  0.1800E+02
    -55.602  0.0000E+00  0.1800E+02
    -55.314  0.0000E+00  0.1800E+02
    -55.027  0.0000E+00  0.1800E+02
    -54.740  0.0000E+00  0.1800E+02
    -54.453  0.0000E+00  0.1800E+02
    -54.166  0.0000E+00  0.1800E+02
    -53.879  0.0000E+00  0.1800E+02
    -53.592  0.0000E+00  0.1800E+02
    -53.304  0.0000E+00  0.1800E+02
    -53.017  0.0000E+00  0.1800E+02
    -52.730  0.0000E+00  0.1800E+02
    -52.443  0.0000E+00  0.1800E+02
    -52.156  0.0000E+00  0.1800E+02
    -51.869  0.0000E+00  0.1800E+02
    -51.581  0.0000E+00  0.1800E+02
    -51.294  0.0000E+00  0.1800E+02
    -51.007  0.0000E+00  0.1800E+02
    -50.720  0.0000E+00  0.1800E+02
    -50.433  0.0000E+00  0.1800E+02
    -50.146  0.0000E+00  0.1800E+02
    -49.858  0.0000E+00  0.1800E+02
    -49.571  0.0000E+00  0.1800E+02
    -49.284  0.0000E+00  0.1800E+02
    -48.997  0.0000E+00  0.1800E+02
    -48.710  0.0000E+00  0.1800E+02
    -48.423  0.0000E+00  0.1800E+02
    -48.135  0.0000E+00  0.1800E+02
    -47.848  0.0000E+00  0.1800E+02
    -47.561  0.0000E+00  0.1800E+02
    -47.274  0.0000E+00  0.1800E+02
    -46.987  0.0000E+00  0.1800E+02
    -46.700  0.0000E+00  0.1800E+02
    -46.413  0.0000E+00  0.1800E+02
    -46.125  0.0000E+00  0.1800E+02
    -45.838  0.0000E+00  0.1800E+02
    -45.551  0.0000E+00  0.1800E+02
    -45.264  0.0000E+00  0.1800E+02
    -44.977  0.0000E+00  0.1800E+02
    -44.690  0.0000E+00  0.1800E+02
    -44.402  0.0000E+00  0.1800E+02
    -44.115  0.0000E+00  0.1800E+02
    -43.828  0.0000E+00  0.1800E+02
    -43.541  0.0000E+00  0.1800E+02
    -43.254  0.0000E+00  0.1800E+02
    -42.967  0.0000E+00  0.1800E+02
    -42.679  0.0000E+00  0.1800E+02
    -42.392  0.0000E+00  0.1800E+02
    -42.105  0.0000E+00  0.1800E+02
    -41.818  0.0000E+00  0.1800E+02
    -41.531  0.0000E+00  0.1800E+02
    -41.244  0.0000E+00  0.1800E+02
    -40.956  0.0000E+00  0.1800E+02
    -40.669  0.0000E+00  0.1800E+02
    -40.382  0.0000E+00  0.1800E+02
    -40.095  0.0000E+00  0.1800E+02
    -39.808  0.0000E+00  0.1800E+02
    -39.521  0.0000E+00  0.1800E+02
    -39.234  0.0000E+00  0.1800E+02
    -38.946  0.3212E-09  0.1800E+02
    -38.659  0.3519E+02  0.2811E+02
    -38.372  0.1528E+03  0.7200E+02
    -38.085  0.8867E-02  0.7200E+02
    -37.798  0.0000E+00  0.7200E+02
    -37.511  0.0000E+00  0.7200E+02
    -37.223  0.0000E+00  0.7200E+02
    -36.936  0.0000E+00  0.7200E+02
    -36.649  0.0000E+00  0.7200E+02
    -36.362  0.0000E+00  0.7200E+02
    -36.075  0.0000E+00  0.7200E+02
    -35.788  0.0000E+00  0.7200E+02
    -35.500  0.0000E+00  0.7200E+02
    -35.213  0.0000E+00  0.7200E+02
    -34.926  0.0000E+00  0.7200E+02
    -34.639  0.0000E+00  0.7200E+02
    -34.352  0.0000E+00  0.7200E+02
    -34.065  0.0000E+00  0.7200E+02
    -33.777  0.0000E+00  0.7200E+02
    -33.490  0.0000E+00  0.7200E+02
    -33.203  0.0000E+00  0.7200E+02
    -32.916  0.0000E+00  0.7200E+02
    -32.629  0.0000E+00  0.7200E+02
    -32.342  0.0000E+00  0.7200E+02
    -32.055  0.0000E+00  0.7200E+02
    -31.767  0.0000E+00  0.7200E+02
    -31.480  0.0000E+00  0.7200E+02
    -31.193  0.0000E+00  0.7200E+02
    -30.906  0.0000E+00  0.7200E+02
    -30.619  0.0000E+00  0.7200E+02
    -30.332  0.0000E+00  0.7200E+02
    -30.044  0.0000E+00  0.7200E+02
    -29.757  0.0000E+00  0.7200E+02
    -29.470  0.0000E+00  0.7200E+02
    -29.183  0.0000E+00  0.7200E+02
    -28.896  0.0000E+00  0.7200E+02
    -28.609  0.0000E+00  0.7200E+02
    -28.321  0.0000E+00  0.7200E+02
    -28.034  0.0000E+00  0.7200E+02
    -27.747  0.0000E+00  0.7200E+02
    -27.460  0.0000E+00  0.7200E+02
    -27.173  0.0000E+00  0.7200E+02
    -26.886  0.0000E+00  0.7200E+02
    -26.599  0.0000E+00  0.7200E+02
    -26.311  0.0000E+00  0.7200E+02
    -26.024  0.0000E+00  0.7200E+02
    -25.737  0.0000E+00  0.7200E+02
    -25.450  0.0000E+00  0.7200E+02
    -25.163  0.0000E+00  0.7200E+02
    -24.876  0.0000E+00  0.7200E+02
    -24.588  0.0000E+00  0.7200E+02
    -24.301  0.0000E+00  0.7200E+02
    -24.014  0.0000E+00  0.7200E+02
    -23.727  0.0000E+00  0.7200E+02
    -23.440  0.0000E+00  0.7200E+02
    -23.153  0.0000E+00  0.7200E+02
    -22.865  0.0000E+00  0.7200E+02
    -22.578  0.0000E+00  0.7200E+02
    -22.291  0.0000E+00  0.7200E+02
    -22.004  0.0000E+00  0.7200E+02
    -21.717  0.0000E+00  0.7200E+02
    -21.430  0.0000E+00  0.7200E+02
    -21.142  0.0000E+00  0.7200E+02
    -20.855  0.0000E+00  0.7200E+02
    -20.568  0.0000E+00  0.7200E+02
    -20.281  0.0000E+00  0.7200E+02
    -19.994  0.0000E+00  0.7200E+02
    -19.707  0.0000E+00  0.7200E+02
    -19.420  0.0000E+00  0.7200E+02
    -19.132  0.0000E+00  0.7200E+02
    -18.845  0.0000E+00  0.7200E+02
    -18.558  0.0000E+00  0.7200E+02
    -18.271  0.0000E+00  0.7200E+02
    -17.984  0.0000E+00  0.7200E+02
    -17.697  0.0000E+00  0.7200E+02
    -17.409  0.0000E+00  0.7200E+02
    -17.122  0.0000E+00  0.7200E+02
    -16.835  0.0000E+00  0.7200E+02
    -16.548  0.0000E+00  0.7200E+02
    -16.261  0.0000E+00  0.7200E+02
    -15.974  0.0000E+00  0.7200E+02
    -15.686  0.0000E+00  0.7200E+02
    -15.399  0.5778E-06  0.7200E+02
    -15.112  0.1871E+01  0.7254E+02
    -14.825  0.5254E+01  0.7405E+02
    -14.538  0.1116E+02  0.7725E+02
    -14.251  0.1300E+02  0.8098E+02
    -13.963  0.1502E+02  0.8530E+02
    -13.676  0.2338E+02  0.9201E+02
    -13.389  0.3177E+02  0.1011E+03
    -13.102  0.4376E+02  0.1137E+03
    -12.815  0.3915E+02  0.1249E+03
    -12.528  0.3687E+01  0.1260E+03
    -12.241  0.0000E+00  0.1260E+03
    -11.953  0.0000E+00  0.1260E+03
    -11.666  0.0000E+00  0.1260E+03
    -11.379  0.0000E+00  0.1260E+03
    -11.092  0.0000E+00  0.1260E+03
    -10.805  0.0000E+00  0.1260E+03
    -10.518  0.0000E+00  0.1260E+03
    -10.230  0.0000E+00  0.1260E+03
     -9.943  0.0000E+00  0.1260E+03
     -9.656  0.0000E+00  0.1260E+03
     -9.369  0.0000E+00  0.1260E+03
     -9.082  0.0000E+00  0.1260E+03
     -8.795  0.0000E+00  0.1260E+03
     -8.507  0.0000E+00  0.1260E+03
     -8.220  0.0000E+00  0.1260E+03
     -7.933  0.0000E+00  0.1260E+03
     -7.646  0.0000E+00  0.1260E+03
     -7.359  0.0000E+00  0.1260E+03
     -7.072  0.1516E-14  0.1260E+03
     -6.785  0.1760E+01  0.1265E+03
     -6.497  0.1660E+02  0.1313E+03
     -6.210  0.2508E+02  0.1385E+03
     -5.923  0.2413E+02  0.1454E+03
     -5.636  0.2556E+02  0.1527E+03
     -5.349  0.2970E+02  0.1613E+03
     -5.062  0.1311E+02  0.1650E+03
     -4.774  0.2066E+02  0.1710E+03
     -4.487  0.3834E+02  0.1820E+03
     -4.200  0.2114E+02  0.1881E+03
     -3.913  0.1739E+02  0.1930E+03
     -3.626  0.3359E+02  0.2027E+03
     -3.339  0.3536E+02  0.2128E+03
     -3.051  0.2648E+02  0.2205E+03
     -2.764  0.1972E+02  0.2261E+03
     -2.477  0.6027E+02  0.2434E+03
     -2.190  0.3995E+02  0.2549E+03
     -1.903  0.2899E+02  0.2632E+03
     -1.616  0.2683E+02  0.2709E+03
     -1.328  0.3325E+02  0.2805E+03
     -1.041  0.4181E+02  0.2925E+03
     -0.754  0.3780E+02  0.3033E+03
     -0.467  0.8297E+01  0.3057E+03
     -0.180  0.9947E+00  0.3060E+03
      0.107  0.0000E+00  0.3060E+03
      0.394  0.0000E+00  0.3060E+03
      0.682  0.0000E+00  0.3060E+03
      0.969  0.0000E+00  0.3060E+03
      1.256  0.1129E+01  0.3063E+03
      1.543  0.1912E+02  0.3118E+03
      1.830  0.2587E+02  0.3192E+03
      2.117  0.2685E+02  0.3270E+03
      2.405  0.4419E+02  0.3396E+03
      2.692  0.4359E+02  0.3522E+03
      2.979  0.2254E+02  0.3586E+03
      3.266  0.2006E+02  0.3644E+03
      3.553  0.1322E+02  0.3682E+03
      3.840  0.1712E+02  0.3731E+03
      4.128  0.3110E+01  0.3740E+03
      4.415  0.0000E+00  0.3740E+03
      4.702  0.0000E+00  0.3740E+03
      4.989  0.0000E+00  0.3740E+03
      5.276  0.0000E+00  0.3740E+03
      5.563  0.0000E+00  0.3740E+03
      5.851  0.0000E+00  0.3740E+03
      6.138  0.0000E+00  0.3740E+03
      6.425  0.0000E+00  0.3740E+03
      6.712  0.0000E+00  0.3740E+03
      6.999  0.0000E+00  0.3740E+03
      7.286  0.0000E+00  0.3740E+03
      7.573  0.0000E+00  0.3740E+03
      7.861  0.0000E+00  0.3740E+03
