  27  27   0   0
  0.6758054E+02  0.1026390E-08  0.1026390E-08  0.2000000E-08  0.5000000E-15
  1.000000000000000E-004
  CAR 
 NbSe2 phonon                            
      4.75337746    -59.81958485  301     -1.94332373      1.00000000
    -59.820  0.0000E+00  0.0000E+00
    -59.604  0.0000E+00  0.0000E+00
    -59.389  0.0000E+00  0.0000E+00
    -59.174  0.0000E+00  0.0000E+00
    -58.959  0.0000E+00  0.0000E+00
    -58.743  0.0000E+00  0.0000E+00
    -58.528  0.0000E+00  0.0000E+00
    -58.313  0.0000E+00  0.0000E+00
    -58.098  0.0000E+00  0.0000E+00
    -57.882  0.0000E+00  0.0000E+00
    -57.667  0.0000E+00  0.0000E+00
    -57.452  0.0000E+00  0.0000E+00
    -57.237  0.0000E+00  0.0000E+00
    -57.021  0.7448E-03  0.1603E-03
    -56.806  0.7941E+02  0.1709E+02
    -56.591  0.4220E+01  0.1800E+02
    -56.376  0.0000E+00  0.1800E+02
    -56.160  0.0000E+00  0.1800E+02
    -55.945  0.0000E+00  0.1800E+02
    -55.730  0.0000E+00  0.1800E+02
    -55.515  0.0000E+00  0.1800E+02
    -55.299  0.0000E+00  0.1800E+02
    -55.084  0.0000E+00  0.1800E+02
    -54.869  0.0000E+00  0.1800E+02
    -54.654  0.0000E+00  0.1800E+02
    -54.439  0.0000E+00  0.1800E+02
    -54.223  0.0000E+00  0.1800E+02
    -54.008  0.0000E+00  0.1800E+02
    -53.793  0.0000E+00  0.1800E+02
    -53.578  0.0000E+00  0.1800E+02
    -53.362  0.0000E+00  0.1800E+02
    -53.147  0.0000E+00  0.1800E+02
    -52.932  0.0000E+00  0.1800E+02
    -52.717  0.0000E+00  0.1800E+02
    -52.501  0.0000E+00  0.1800E+02
    -52.286  0.0000E+00  0.1800E+02
    -52.071  0.0000E+00  0.1800E+02
    -51.856  0.0000E+00  0.1800E+02
    -51.640  0.0000E+00  0.1800E+02
    -51.425  0.0000E+00  0.1800E+02
    -51.210  0.0000E+00  0.1800E+02
    -50.995  0.0000E+00  0.1800E+02
    -50.779  0.0000E+00  0.1800E+02
    -50.564  0.0000E+00  0.1800E+02
    -50.349  0.0000E+00  0.1800E+02
    -50.134  0.0000E+00  0.1800E+02
    -49.918  0.0000E+00  0.1800E+02
    -49.703  0.0000E+00  0.1800E+02
    -49.488  0.0000E+00  0.1800E+02
    -49.273  0.0000E+00  0.1800E+02
    -49.057  0.0000E+00  0.1800E+02
    -48.842  0.0000E+00  0.1800E+02
    -48.627  0.0000E+00  0.1800E+02
    -48.412  0.0000E+00  0.1800E+02
    -48.196  0.0000E+00  0.1800E+02
    -47.981  0.0000E+00  0.1800E+02
    -47.766  0.0000E+00  0.1800E+02
    -47.551  0.0000E+00  0.1800E+02
    -47.335  0.0000E+00  0.1800E+02
    -47.120  0.0000E+00  0.1800E+02
    -46.905  0.0000E+00  0.1800E+02
    -46.690  0.0000E+00  0.1800E+02
    -46.475  0.0000E+00  0.1800E+02
    -46.259  0.0000E+00  0.1800E+02
    -46.044  0.0000E+00  0.1800E+02
    -45.829  0.0000E+00  0.1800E+02
    -45.614  0.0000E+00  0.1800E+02
    -45.398  0.0000E+00  0.1800E+02
    -45.183  0.0000E+00  0.1800E+02
    -44.968  0.0000E+00  0.1800E+02
    -44.753  0.0000E+00  0.1800E+02
    -44.537  0.0000E+00  0.1800E+02
    -44.322  0.0000E+00  0.1800E+02
    -44.107  0.0000E+00  0.1800E+02
    -43.892  0.0000E+00  0.1800E+02
    -43.676  0.0000E+00  0.1800E+02
    -43.461  0.0000E+00  0.1800E+02
    -43.246  0.0000E+00  0.1800E+02
    -43.031  0.0000E+00  0.1800E+02
    -42.815  0.0000E+00  0.1800E+02
    -42.600  0.0000E+00  0.1800E+02
    -42.385  0.0000E+00  0.1800E+02
    -42.170  0.0000E+00  0.1800E+02
    -41.954  0.0000E+00  0.1800E+02
    -41.739  0.0000E+00  0.1800E+02
    -41.524  0.0000E+00  0.1800E+02
    -41.309  0.0000E+00  0.1800E+02
    -41.093  0.0000E+00  0.1800E+02
    -40.878  0.0000E+00  0.1800E+02
    -40.663  0.0000E+00  0.1800E+02
    -40.448  0.0000E+00  0.1800E+02
    -40.232  0.0000E+00  0.1800E+02
    -40.017  0.0000E+00  0.1800E+02
    -39.802  0.0000E+00  0.1800E+02
    -39.587  0.0000E+00  0.1800E+02
    -39.371  0.0000E+00  0.1800E+02
    -39.156  0.0000E+00  0.1800E+02
    -38.941  0.0000E+00  0.1800E+02
    -38.726  0.0000E+00  0.1800E+02
    -38.511  0.0000E+00  0.1800E+02
    -38.295  0.0000E+00  0.1800E+02
    -38.080  0.0000E+00  0.1800E+02
    -37.865  0.0000E+00  0.1800E+02
    -37.650  0.0000E+00  0.1800E+02
    -37.434  0.0000E+00  0.1800E+02
    -37.219  0.0000E+00  0.1800E+02
    -37.004  0.0000E+00  0.1800E+02
    -36.789  0.0000E+00  0.1800E+02
    -36.573  0.0000E+00  0.1800E+02
    -36.358  0.0000E+00  0.1800E+02
    -36.143  0.0000E+00  0.1800E+02
    -35.928  0.0000E+00  0.1800E+02
    -35.712  0.0000E+00  0.1800E+02
    -35.497  0.0000E+00  0.1800E+02
    -35.282  0.0000E+00  0.1800E+02
    -35.067  0.0000E+00  0.1800E+02
    -34.851  0.0000E+00  0.1800E+02
    -34.636  0.0000E+00  0.1800E+02
    -34.421  0.0000E+00  0.1800E+02
    -34.206  0.0000E+00  0.1800E+02
    -33.990  0.0000E+00  0.1800E+02
    -33.775  0.0000E+00  0.1800E+02
    -33.560  0.0000E+00  0.1800E+02
    -33.345  0.7645E-09  0.1800E+02
    -33.129  0.7249E+01  0.1956E+02
    -32.914  0.1540E+03  0.5272E+02
    -32.699  0.8959E+02  0.7200E+02
    -32.484  0.1423E-03  0.7200E+02
    -32.268  0.0000E+00  0.7200E+02
    -32.053  0.0000E+00  0.7200E+02
    -31.838  0.0000E+00  0.7200E+02
    -31.623  0.0000E+00  0.7200E+02
    -31.407  0.0000E+00  0.7200E+02
    -31.192  0.0000E+00  0.7200E+02
    -30.977  0.0000E+00  0.7200E+02
    -30.762  0.0000E+00  0.7200E+02
    -30.547  0.0000E+00  0.7200E+02
    -30.331  0.0000E+00  0.7200E+02
    -30.116  0.0000E+00  0.7200E+02
    -29.901  0.0000E+00  0.7200E+02
    -29.686  0.0000E+00  0.7200E+02
    -29.470  0.0000E+00  0.7200E+02
    -29.255  0.0000E+00  0.7200E+02
    -29.040  0.0000E+00  0.7200E+02
    -28.825  0.0000E+00  0.7200E+02
    -28.609  0.0000E+00  0.7200E+02
    -28.394  0.0000E+00  0.7200E+02
    -28.179  0.0000E+00  0.7200E+02
    -27.964  0.0000E+00  0.7200E+02
    -27.748  0.0000E+00  0.7200E+02
    -27.533  0.0000E+00  0.7200E+02
    -27.318  0.0000E+00  0.7200E+02
    -27.103  0.0000E+00  0.7200E+02
    -26.887  0.0000E+00  0.7200E+02
    -26.672  0.0000E+00  0.7200E+02
    -26.457  0.0000E+00  0.7200E+02
    -26.242  0.0000E+00  0.7200E+02
    -26.026  0.0000E+00  0.7200E+02
    -25.811  0.0000E+00  0.7200E+02
    -25.596  0.0000E+00  0.7200E+02
    -25.381  0.0000E+00  0.7200E+02
    -25.165  0.0000E+00  0.7200E+02
    -24.950  0.0000E+00  0.7200E+02
    -24.735  0.0000E+00  0.7200E+02
    -24.520  0.0000E+00  0.7200E+02
    -24.304  0.0000E+00  0.7200E+02
    -24.089  0.0000E+00  0.7200E+02
    -23.874  0.0000E+00  0.7200E+02
    -23.659  0.0000E+00  0.7200E+02
    -23.443  0.0000E+00  0.7200E+02
    -23.228  0.0000E+00  0.7200E+02
    -23.013  0.0000E+00  0.7200E+02
    -22.798  0.0000E+00  0.7200E+02
    -22.583  0.0000E+00  0.7200E+02
    -22.367  0.0000E+00  0.7200E+02
    -22.152  0.0000E+00  0.7200E+02
    -21.937  0.0000E+00  0.7200E+02
    -21.722  0.0000E+00  0.7200E+02
    -21.506  0.0000E+00  0.7200E+02
    -21.291  0.0000E+00  0.7200E+02
    -21.076  0.0000E+00  0.7200E+02
    -20.861  0.0000E+00  0.7200E+02
    -20.645  0.0000E+00  0.7200E+02
    -20.430  0.0000E+00  0.7200E+02
    -20.215  0.0000E+00  0.7200E+02
    -20.000  0.0000E+00  0.7200E+02
    -19.784  0.0000E+00  0.7200E+02
    -19.569  0.0000E+00  0.7200E+02
    -19.354  0.0000E+00  0.7200E+02
    -19.139  0.0000E+00  0.7200E+02
    -18.923  0.0000E+00  0.7200E+02
    -18.708  0.0000E+00  0.7200E+02
    -18.493  0.0000E+00  0.7200E+02
    -18.278  0.0000E+00  0.7200E+02
    -18.062  0.0000E+00  0.7200E+02
    -17.847  0.0000E+00  0.7200E+02
    -17.632  0.0000E+00  0.7200E+02
    -17.417  0.0000E+00  0.7200E+02
    -17.201  0.0000E+00  0.7200E+02
    -16.986  0.0000E+00  0.7200E+02
    -16.771  0.0000E+00  0.7200E+02
    -16.556  0.0000E+00  0.7200E+02
    -16.340  0.0000E+00  0.7200E+02
    -16.125  0.0000E+00  0.7200E+02
    -15.910  0.0000E+00  0.7200E+02
    -15.695  0.4218E-03  0.7200E+02
    -15.479  0.2637E+01  0.7257E+02
    -15.264  0.5239E+01  0.7370E+02
    -15.049  0.6154E+01  0.7502E+02
    -14.834  0.7805E+01  0.7670E+02
    -14.619  0.9819E+01  0.7881E+02
    -14.403  0.2116E+02  0.8337E+02
    -14.188  0.2951E+02  0.8972E+02
    -13.973  0.4803E+02  0.1001E+03
    -13.758  0.3676E+02  0.1080E+03
    -13.542  0.1422E+00  0.1080E+03
    -13.327  0.0000E+00  0.1080E+03
    -13.112  0.0000E+00  0.1080E+03
    -12.897  0.0000E+00  0.1080E+03
    -12.681  0.0000E+00  0.1080E+03
    -12.466  0.0000E+00  0.1080E+03
    -12.251  0.0000E+00  0.1080E+03
    -12.036  0.0000E+00  0.1080E+03
    -11.820  0.0000E+00  0.1080E+03
    -11.605  0.0000E+00  0.1080E+03
    -11.390  0.0000E+00  0.1080E+03
    -11.175  0.0000E+00  0.1080E+03
    -10.959  0.0000E+00  0.1080E+03
    -10.744  0.0000E+00  0.1080E+03
    -10.529  0.0000E+00  0.1080E+03
    -10.314  0.0000E+00  0.1080E+03
    -10.098  0.0000E+00  0.1080E+03
     -9.883  0.0000E+00  0.1080E+03
     -9.668  0.0000E+00  0.1080E+03
     -9.453  0.0000E+00  0.1080E+03
     -9.237  0.0000E+00  0.1080E+03
     -9.022  0.0000E+00  0.1080E+03
     -8.807  0.0000E+00  0.1080E+03
     -8.592  0.0000E+00  0.1080E+03
     -8.376  0.0000E+00  0.1080E+03
     -8.161  0.0000E+00  0.1080E+03
     -7.946  0.0000E+00  0.1080E+03
     -7.731  0.0000E+00  0.1080E+03
     -7.515  0.0000E+00  0.1080E+03
     -7.300  0.0000E+00  0.1080E+03
     -7.085  0.1438E-02  0.1080E+03
     -6.870  0.5036E+01  0.1091E+03
     -6.655  0.1410E+02  0.1121E+03
     -6.439  0.1826E+02  0.1160E+03
     -6.224  0.2784E+02  0.1220E+03
     -6.009  0.4071E+02  0.1308E+03
     -5.794  0.1556E+02  0.1342E+03
     -5.578  0.5244E+01  0.1353E+03
     -5.363  0.2357E+02  0.1404E+03
     -5.148  0.5214E+02  0.1516E+03
     -4.933  0.1273E+02  0.1543E+03
     -4.717  0.9412E+01  0.1563E+03
     -4.502  0.2415E+02  0.1615E+03
     -4.287  0.3548E+02  0.1692E+03
     -4.072  0.2684E+02  0.1750E+03
     -3.856  0.1564E+02  0.1783E+03
     -3.641  0.1246E+02  0.1810E+03
     -3.426  0.3375E+02  0.1883E+03
     -3.211  0.4786E+02  0.1986E+03
     -2.995  0.3057E+02  0.2051E+03
     -2.780  0.2445E+02  0.2104E+03
     -2.565  0.2253E+02  0.2153E+03
     -2.350  0.3722E+01  0.2161E+03
     -2.134  0.1442E+02  0.2192E+03
     -1.919  0.3070E+02  0.2258E+03
     -1.704  0.1851E+02  0.2298E+03
     -1.489  0.1339E+02  0.2326E+03
     -1.273  0.6312E+01  0.2340E+03
     -1.058  0.1056E-01  0.2340E+03
     -0.843  0.0000E+00  0.2340E+03
     -0.628  0.0000E+00  0.2340E+03
     -0.412  0.0000E+00  0.2340E+03
     -0.197  0.0000E+00  0.2340E+03
      0.018  0.7113E-07  0.2340E+03
      0.233  0.6531E+00  0.2341E+03
      0.449  0.2072E+02  0.2386E+03
      0.664  0.3782E+02  0.2467E+03
      0.879  0.5158E+02  0.2578E+03
      1.094  0.4672E+02  0.2679E+03
      1.309  0.3361E+02  0.2751E+03
      1.525  0.2739E+02  0.2810E+03
      1.740  0.1877E+02  0.2851E+03
      1.955  0.4317E+01  0.2860E+03
      2.170  0.4860E-04  0.2860E+03
      2.386  0.0000E+00  0.2860E+03
      2.601  0.0000E+00  0.2860E+03
      2.816  0.0000E+00  0.2860E+03
      3.031  0.0000E+00  0.2860E+03
      3.247  0.0000E+00  0.2860E+03
      3.462  0.0000E+00  0.2860E+03
      3.677  0.0000E+00  0.2860E+03
      3.892  0.0000E+00  0.2860E+03
      4.108  0.0000E+00  0.2860E+03
      4.323  0.0000E+00  0.2860E+03
      4.538  0.0000E+00  0.2860E+03
      4.753  0.0000E+00  0.2860E+03
