Bilayer germanene/InSe TM_H (relaxed mon
   1.00000000000000     
     4.0224191051263478    0.0000000000000000    0.0000000000000000
     2.0112095525631739    3.4835171297072853    0.0000000000000000
     0.0000000000000000    0.0000000000000000   20.0000000000000000
   Ge   In   Se
     2     2     2
Direct
    -0.0000000000000000    0.0000000000000000    0.5194604895436673
     0.3333333333333357    0.3333333333333357    0.4843943649014070
     0.3333333333333357    0.3333333333333357    0.9070012864753674
     0.3333333333333357    0.3333333333333357    0.0462893855571121
     0.6666666666666714    0.6666666666666714    0.8413439482569401
     0.6666666666666714    0.6666666666666714    0.1119271400337467
 
  0.00000000E+00  0.00000000E+00  0.00000000E+00
  0.00000000E+00  0.00000000E+00  0.00000000E+00
  0.00000000E+00  0.00000000E+00  0.00000000E+00
  0.00000000E+00  0.00000000E+00  0.00000000E+00
  0.00000000E+00  0.00000000E+00  0.00000000E+00
  0.00000000E+00  0.00000000E+00  0.00000000E+00
