Bilayer silicene/GaSe TM_H (relaxed mono
   1.00000000000000     
     3.8019460862708931    0.0000000000000000    0.0000000000000000
     1.9009730431354466    3.2925818945294161    0.0000000000000000
     0.0000000000000000    0.0000000000000000   20.0000000000000000
   Si   Ga   Se
     2     2     2
Direct
     0.0000000000000000    0.0000000000000000    0.5116079280068718
     0.3333333333333357    0.3333333333333357    0.4857123797789618
     0.3333333333333357    0.3333333333333357    0.8972486566752004
     0.3333333333333357    0.3333333333333357    0.0199090934443615
     0.6666666666666714    0.6666666666666714    0.8383410433849429
     0.6666666666666714    0.6666666666666714    0.0788041686501257
 
  0.00000000E+00  0.00000000E+00  0.00000000E+00
  0.00000000E+00  0.00000000E+00  0.00000000E+00
  0.00000000E+00  0.00000000E+00  0.00000000E+00
  0.00000000E+00  0.00000000E+00  0.00000000E+00
  0.00000000E+00  0.00000000E+00  0.00000000E+00
  0.00000000E+00  0.00000000E+00  0.00000000E+00
