Bilayer germanene/germanene AB (relaxed 
   1.00000000000000     
     4.0031040427903521    0.0000000000000000    0.0000000000000000
     2.0015520213951761    3.4667897950486335    0.0000000000000000
     0.0000000000000000    0.0000000000000000   20.0000000000000000
   Ge
     4
Direct
     0.0000000000000000   -0.0000000000000000    0.5226518342599851
     0.3333333333333357    0.3333333333333357    0.4848099400748933
     0.3333333333333357    0.3333333333333357    0.7007301067774789
     0.6666666666666714    0.6666666666666714    0.6628882125924032
 
  0.00000000E+00  0.00000000E+00  0.00000000E+00
  0.00000000E+00  0.00000000E+00  0.00000000E+00
  0.00000000E+00  0.00000000E+00  0.00000000E+00
  0.00000000E+00  0.00000000E+00  0.00000000E+00
