  54  54   0   0
  0.2941710E+02  0.9576714E-09  0.9576714E-09  0.2000000E-08  0.5000000E-15
  1.000000000000000E-004
  CAR 
 MoS2_bilayer_3R phonon                  
      8.69549118    -62.31742618  301      2.80733678      1.00000000
    -62.317  0.0000E+00  0.0000E+00
    -62.081  0.0000E+00  0.0000E+00
    -61.844  0.0000E+00  0.0000E+00
    -61.607  0.0000E+00  0.0000E+00
    -61.371  0.0000E+00  0.0000E+00
    -61.134  0.0000E+00  0.0000E+00
    -60.897  0.0000E+00  0.0000E+00
    -60.660  0.0000E+00  0.0000E+00
    -60.424  0.0000E+00  0.0000E+00
    -60.187  0.0000E+00  0.0000E+00
    -59.950  0.0000E+00  0.0000E+00
    -59.714  0.0000E+00  0.0000E+00
    -59.477  0.0000E+00  0.0000E+00
    -59.240  0.7310E-04  0.1730E-04
    -59.003  0.9954E+02  0.2356E+02
    -58.767  0.5254E+02  0.3600E+02
    -58.530  0.0000E+00  0.3600E+02
    -58.293  0.0000E+00  0.3600E+02
    -58.057  0.0000E+00  0.3600E+02
    -57.820  0.0000E+00  0.3600E+02
    -57.583  0.0000E+00  0.3600E+02
    -57.347  0.0000E+00  0.3600E+02
    -57.110  0.0000E+00  0.3600E+02
    -56.873  0.0000E+00  0.3600E+02
    -56.636  0.0000E+00  0.3600E+02
    -56.400  0.0000E+00  0.3600E+02
    -56.163  0.0000E+00  0.3600E+02
    -55.926  0.0000E+00  0.3600E+02
    -55.690  0.0000E+00  0.3600E+02
    -55.453  0.0000E+00  0.3600E+02
    -55.216  0.0000E+00  0.3600E+02
    -54.979  0.0000E+00  0.3600E+02
    -54.743  0.0000E+00  0.3600E+02
    -54.506  0.0000E+00  0.3600E+02
    -54.269  0.0000E+00  0.3600E+02
    -54.033  0.0000E+00  0.3600E+02
    -53.796  0.0000E+00  0.3600E+02
    -53.559  0.0000E+00  0.3600E+02
    -53.322  0.0000E+00  0.3600E+02
    -53.086  0.0000E+00  0.3600E+02
    -52.849  0.0000E+00  0.3600E+02
    -52.612  0.0000E+00  0.3600E+02
    -52.376  0.0000E+00  0.3600E+02
    -52.139  0.0000E+00  0.3600E+02
    -51.902  0.0000E+00  0.3600E+02
    -51.665  0.0000E+00  0.3600E+02
    -51.429  0.0000E+00  0.3600E+02
    -51.192  0.0000E+00  0.3600E+02
    -50.955  0.0000E+00  0.3600E+02
    -50.719  0.0000E+00  0.3600E+02
    -50.482  0.0000E+00  0.3600E+02
    -50.245  0.0000E+00  0.3600E+02
    -50.009  0.0000E+00  0.3600E+02
    -49.772  0.0000E+00  0.3600E+02
    -49.535  0.0000E+00  0.3600E+02
    -49.298  0.0000E+00  0.3600E+02
    -49.062  0.0000E+00  0.3600E+02
    -48.825  0.0000E+00  0.3600E+02
    -48.588  0.0000E+00  0.3600E+02
    -48.352  0.0000E+00  0.3600E+02
    -48.115  0.0000E+00  0.3600E+02
    -47.878  0.0000E+00  0.3600E+02
    -47.641  0.0000E+00  0.3600E+02
    -47.405  0.0000E+00  0.3600E+02
    -47.168  0.0000E+00  0.3600E+02
    -46.931  0.0000E+00  0.3600E+02
    -46.695  0.0000E+00  0.3600E+02
    -46.458  0.0000E+00  0.3600E+02
    -46.221  0.0000E+00  0.3600E+02
    -45.984  0.0000E+00  0.3600E+02
    -45.748  0.0000E+00  0.3600E+02
    -45.511  0.0000E+00  0.3600E+02
    -45.274  0.0000E+00  0.3600E+02
    -45.038  0.0000E+00  0.3600E+02
    -44.801  0.0000E+00  0.3600E+02
    -44.564  0.0000E+00  0.3600E+02
    -44.327  0.0000E+00  0.3600E+02
    -44.091  0.0000E+00  0.3600E+02
    -43.854  0.0000E+00  0.3600E+02
    -43.617  0.0000E+00  0.3600E+02
    -43.381  0.0000E+00  0.3600E+02
    -43.144  0.0000E+00  0.3600E+02
    -42.907  0.0000E+00  0.3600E+02
    -42.671  0.0000E+00  0.3600E+02
    -42.434  0.0000E+00  0.3600E+02
    -42.197  0.0000E+00  0.3600E+02
    -41.960  0.0000E+00  0.3600E+02
    -41.724  0.0000E+00  0.3600E+02
    -41.487  0.0000E+00  0.3600E+02
    -41.250  0.0000E+00  0.3600E+02
    -41.014  0.0000E+00  0.3600E+02
    -40.777  0.0000E+00  0.3600E+02
    -40.540  0.0000E+00  0.3600E+02
    -40.303  0.0000E+00  0.3600E+02
    -40.067  0.0000E+00  0.3600E+02
    -39.830  0.0000E+00  0.3600E+02
    -39.593  0.0000E+00  0.3600E+02
    -39.357  0.0000E+00  0.3600E+02
    -39.120  0.0000E+00  0.3600E+02
    -38.883  0.0000E+00  0.3600E+02
    -38.646  0.0000E+00  0.3600E+02
    -38.410  0.0000E+00  0.3600E+02
    -38.173  0.0000E+00  0.3600E+02
    -37.936  0.0000E+00  0.3600E+02
    -37.700  0.0000E+00  0.3600E+02
    -37.463  0.0000E+00  0.3600E+02
    -37.226  0.0000E+00  0.3600E+02
    -36.989  0.0000E+00  0.3600E+02
    -36.753  0.0000E+00  0.3600E+02
    -36.516  0.0000E+00  0.3600E+02
    -36.279  0.0000E+00  0.3600E+02
    -36.043  0.0000E+00  0.3600E+02
    -35.806  0.0000E+00  0.3600E+02
    -35.569  0.0000E+00  0.3600E+02
    -35.333  0.0000E+00  0.3600E+02
    -35.096  0.0000E+00  0.3600E+02
    -34.859  0.0000E+00  0.3600E+02
    -34.622  0.0000E+00  0.3600E+02
    -34.386  0.0000E+00  0.3600E+02
    -34.149  0.0000E+00  0.3600E+02
    -33.912  0.0000E+00  0.3600E+02
    -33.676  0.1538E-14  0.3600E+02
    -33.439  0.7208E+00  0.3617E+02
    -33.202  0.1346E+03  0.6803E+02
    -32.965  0.3133E+03  0.1422E+03
    -32.729  0.7592E+01  0.1440E+03
    -32.492  0.0000E+00  0.1440E+03
    -32.255  0.0000E+00  0.1440E+03
    -32.019  0.0000E+00  0.1440E+03
    -31.782  0.0000E+00  0.1440E+03
    -31.545  0.0000E+00  0.1440E+03
    -31.308  0.0000E+00  0.1440E+03
    -31.072  0.0000E+00  0.1440E+03
    -30.835  0.0000E+00  0.1440E+03
    -30.598  0.0000E+00  0.1440E+03
    -30.362  0.0000E+00  0.1440E+03
    -30.125  0.0000E+00  0.1440E+03
    -29.888  0.0000E+00  0.1440E+03
    -29.651  0.0000E+00  0.1440E+03
    -29.415  0.0000E+00  0.1440E+03
    -29.178  0.0000E+00  0.1440E+03
    -28.941  0.0000E+00  0.1440E+03
    -28.705  0.0000E+00  0.1440E+03
    -28.468  0.0000E+00  0.1440E+03
    -28.231  0.0000E+00  0.1440E+03
    -27.995  0.0000E+00  0.1440E+03
    -27.758  0.0000E+00  0.1440E+03
    -27.521  0.0000E+00  0.1440E+03
    -27.284  0.0000E+00  0.1440E+03
    -27.048  0.0000E+00  0.1440E+03
    -26.811  0.0000E+00  0.1440E+03
    -26.574  0.0000E+00  0.1440E+03
    -26.338  0.0000E+00  0.1440E+03
    -26.101  0.0000E+00  0.1440E+03
    -25.864  0.0000E+00  0.1440E+03
    -25.627  0.0000E+00  0.1440E+03
    -25.391  0.0000E+00  0.1440E+03
    -25.154  0.0000E+00  0.1440E+03
    -24.917  0.0000E+00  0.1440E+03
    -24.681  0.0000E+00  0.1440E+03
    -24.444  0.0000E+00  0.1440E+03
    -24.207  0.0000E+00  0.1440E+03
    -23.970  0.0000E+00  0.1440E+03
    -23.734  0.0000E+00  0.1440E+03
    -23.497  0.0000E+00  0.1440E+03
    -23.260  0.0000E+00  0.1440E+03
    -23.024  0.0000E+00  0.1440E+03
    -22.787  0.0000E+00  0.1440E+03
    -22.550  0.0000E+00  0.1440E+03
    -22.313  0.0000E+00  0.1440E+03
    -22.077  0.0000E+00  0.1440E+03
    -21.840  0.0000E+00  0.1440E+03
    -21.603  0.0000E+00  0.1440E+03
    -21.367  0.0000E+00  0.1440E+03
    -21.130  0.0000E+00  0.1440E+03
    -20.893  0.0000E+00  0.1440E+03
    -20.657  0.0000E+00  0.1440E+03
    -20.420  0.0000E+00  0.1440E+03
    -20.183  0.0000E+00  0.1440E+03
    -19.946  0.0000E+00  0.1440E+03
    -19.710  0.0000E+00  0.1440E+03
    -19.473  0.0000E+00  0.1440E+03
    -19.236  0.0000E+00  0.1440E+03
    -19.000  0.0000E+00  0.1440E+03
    -18.763  0.0000E+00  0.1440E+03
    -18.526  0.0000E+00  0.1440E+03
    -18.289  0.0000E+00  0.1440E+03
    -18.053  0.0000E+00  0.1440E+03
    -17.816  0.0000E+00  0.1440E+03
    -17.579  0.0000E+00  0.1440E+03
    -17.343  0.0000E+00  0.1440E+03
    -17.106  0.0000E+00  0.1440E+03
    -16.869  0.0000E+00  0.1440E+03
    -16.632  0.0000E+00  0.1440E+03
    -16.396  0.0000E+00  0.1440E+03
    -16.159  0.0000E+00  0.1440E+03
    -15.922  0.0000E+00  0.1440E+03
    -15.686  0.0000E+00  0.1440E+03
    -15.449  0.0000E+00  0.1440E+03
    -15.212  0.0000E+00  0.1440E+03
    -14.975  0.0000E+00  0.1440E+03
    -14.739  0.0000E+00  0.1440E+03
    -14.502  0.0000E+00  0.1440E+03
    -14.265  0.0000E+00  0.1440E+03
    -14.029  0.0000E+00  0.1440E+03
    -13.792  0.0000E+00  0.1440E+03
    -13.555  0.0000E+00  0.1440E+03
    -13.319  0.0000E+00  0.1440E+03
    -13.082  0.0000E+00  0.1440E+03
    -12.845  0.0000E+00  0.1440E+03
    -12.608  0.1594E-09  0.1440E+03
    -12.372  0.4493E+00  0.1441E+03
    -12.135  0.6020E+01  0.1455E+03
    -11.898  0.1006E+02  0.1479E+03
    -11.662  0.9100E+01  0.1501E+03
    -11.425  0.1178E+02  0.1529E+03
    -11.188  0.1227E+02  0.1558E+03
    -10.951  0.2070E+02  0.1607E+03
    -10.715  0.3468E+02  0.1689E+03
    -10.478  0.5792E+02  0.1826E+03
    -10.241  0.8595E+02  0.2029E+03
    -10.005  0.5489E+02  0.2159E+03
     -9.768  0.3427E+00  0.2160E+03
     -9.531  0.0000E+00  0.2160E+03
     -9.294  0.0000E+00  0.2160E+03
     -9.058  0.0000E+00  0.2160E+03
     -8.821  0.0000E+00  0.2160E+03
     -8.584  0.0000E+00  0.2160E+03
     -8.348  0.0000E+00  0.2160E+03
     -8.111  0.0000E+00  0.2160E+03
     -7.874  0.0000E+00  0.2160E+03
     -7.637  0.0000E+00  0.2160E+03
     -7.401  0.0000E+00  0.2160E+03
     -7.164  0.0000E+00  0.2160E+03
     -6.927  0.0000E+00  0.2160E+03
     -6.691  0.0000E+00  0.2160E+03
     -6.454  0.0000E+00  0.2160E+03
     -6.217  0.0000E+00  0.2160E+03
     -5.981  0.0000E+00  0.2160E+03
     -5.744  0.0000E+00  0.2160E+03
     -5.507  0.0000E+00  0.2160E+03
     -5.270  0.0000E+00  0.2160E+03
     -5.034  0.0000E+00  0.2160E+03
     -4.797  0.0000E+00  0.2160E+03
     -4.560  0.0000E+00  0.2160E+03
     -4.324  0.4700E-06  0.2160E+03
     -4.087  0.1329E+01  0.2163E+03
     -3.850  0.1596E+02  0.2201E+03
     -3.613  0.3120E+02  0.2275E+03
     -3.377  0.5916E+02  0.2415E+03
     -3.140  0.4758E+02  0.2527E+03
     -2.903  0.4896E+02  0.2643E+03
     -2.667  0.2097E+02  0.2693E+03
     -2.430  0.1700E+02  0.2733E+03
     -2.193  0.3639E+02  0.2819E+03
     -1.956  0.7457E+02  0.2996E+03
     -1.720  0.4913E+02  0.3112E+03
     -1.483  0.3305E+02  0.3190E+03
     -1.246  0.7842E+02  0.3376E+03
     -1.010  0.5330E+02  0.3502E+03
     -0.773  0.3650E+02  0.3589E+03
     -0.536  0.2299E+02  0.3643E+03
     -0.299  0.3694E+02  0.3730E+03
     -0.063  0.6756E+02  0.3890E+03
      0.174  0.5267E+02  0.4015E+03
      0.411  0.5194E+02  0.4138E+03
      0.647  0.4057E+02  0.4234E+03
      0.884  0.2348E+02  0.4290E+03
      1.121  0.6506E+02  0.4444E+03
      1.357  0.4638E+02  0.4553E+03
      1.594  0.2930E+02  0.4623E+03
      1.831  0.1743E+02  0.4664E+03
      2.068  0.2422E+01  0.4670E+03
      2.304  0.2180E+01  0.4675E+03
      2.541  0.2150E+01  0.4680E+03
      2.778  0.4427E-02  0.4680E+03
      3.014  0.0000E+00  0.4680E+03
      3.251  0.2888E-04  0.4680E+03
      3.488  0.1281E+01  0.4683E+03
      3.725  0.1780E+02  0.4725E+03
      3.961  0.5322E+02  0.4851E+03
      4.198  0.7127E+02  0.5020E+03
      4.435  0.9463E+02  0.5244E+03
      4.671  0.7013E+02  0.5410E+03
      4.908  0.6068E+02  0.5553E+03
      5.145  0.3761E+02  0.5643E+03
      5.382  0.2941E+02  0.5712E+03
      5.618  0.3325E+01  0.5720E+03
      5.855  0.9656E-05  0.5720E+03
      6.092  0.0000E+00  0.5720E+03
      6.328  0.0000E+00  0.5720E+03
      6.565  0.0000E+00  0.5720E+03
      6.802  0.0000E+00  0.5720E+03
      7.039  0.0000E+00  0.5720E+03
      7.275  0.0000E+00  0.5720E+03
      7.512  0.0000E+00  0.5720E+03
      7.749  0.0000E+00  0.5720E+03
      7.985  0.0000E+00  0.5720E+03
      8.222  0.0000E+00  0.5720E+03
      8.459  0.0000E+00  0.5720E+03
      8.695  0.0000E+00  0.5720E+03
