 vasp.6.5.1 10Mar25 (build Aug 29 2025 00:30:47) complex                        
  
 executed on             LinuxIFC date 2026.06.03  20:27:42
 running  264 mpi-ranks, with    1 threads/rank, on    6 nodes
 distrk:  each k-point on   44 cores,    6 groups
 distr:  one band on NCORE=   4 cores,   11 groups


--------------------------------------------------------------------------------------------------------


 INCAR:
   SYSTEM = MoS2_bilayer_3R phonon
   PREC = Accurate
   ENCUT = 520
   EDIFF = 1E-6
   ISMEAR = 0
   SIGMA = 0.05
   LREAL = Auto
   ALGO = Normal
   AMIN = 0.01
   NELM = 200
   NSW = 0
   IBRION = -1
   IVDW = 12
   KPAR = 6
   NCORE = 4
   LWAVE = .FALSE.
   LCHARG = .FALSE.

 POTCAR:    PAW_PBE Mo_sv 02Feb2006               
 POTCAR:    PAW_PBE S 06Sep2000                   
 POTCAR:    PAW_PBE Mo_sv 02Feb2006               
   SHA256 =  2731df97e41766cc617548c5a8267718fdef1f509ac6bafa01e745abea2bdfaa Mo_sv/POTCAR          
   COPYR  = (c) Copyright 02Feb2006 Georg Kresse                                                    
   COPYR  = This file is part of the software VASP. Any use, copying, and all other rights are regul
   COPYR  = If you do not have a valid VASP license, you may not use, copy or distribute this file. 
   VRHFIN =Mo: 4p5s4d                                                                               
   LEXCH  = PE                                                                                      
   EATOM  =  1862.2866 eV,  136.8742 Ry                                                             
                                                                                                    
   TITEL  = PAW_PBE Mo_sv 02Feb2006                                                                 
   LULTRA =        F    use ultrasoft PP ?                                                          
   IUNSCR =        1    unscreen: 0-lin 1-nonlin 2-no                                               
   RPACOR =    2.200    partial core radius                                                         
   POMASS =   95.940; ZVAL   =   14.000    mass and valenz                                          
   RCORE  =    2.500    outmost cutoff radius                                                       
   RWIGS  =    2.750; RWIGS  =    1.455    wigner-seitz radius (au A)                               
   ENMAX  =  242.676; ENMIN  =  182.007 eV                                                          
   ICORE  =        3    local potential                                                             
   LCOR   =        T    correct aug charges                                                         
   LPAW   =        T    paw PP                                                                      
   EAUG   =  446.014                                                                                
   DEXC   =    0.000                                                                                
   RMAX   =    2.563    core radius for proj-oper                                                   
   RAUG   =    1.300    factor for augmentation sphere                                              
   RDEP   =    2.641    radius for radial grids                                                     
   RDEPT  =    2.031    core radius for aug-charge                                                  
                                                                                                    
   Atomic configuration                                                                             
   11 entries                                                                                       
     n  l   j            E        occ.                                                              
     1  0  0.50    -19819.0341   2.0000                                                             
     2  0  0.50     -2799.0127   2.0000                                                             
     2  1  1.50     -2502.0276   6.0000                                                             
     3  0  0.50      -476.4449   2.0000                                                             
     3  1  1.50      -379.1496   6.0000                                                             
     3  2  2.50      -220.9367  10.0000                                                             
     4  0  0.50       -64.3378   2.0000                                                             
     5  0  0.50        -4.0862   1.0000                                                             
     4  1  1.50       -38.4773   6.0000                                                             
     4  2  2.50        -3.7535   5.0000                                                             
     4  3  2.50        -1.3606   0.0000                                                             
   Description                                                                                      
     l       E           TYP  RCUT    TYP  RCUT                                                     
     0    -64.3377829     23  2.100                                                                 
     0     -4.0861640     23  2.400                                                                 
     1    -38.4772993     23  2.100                                                                 
     1     13.6058260     23  2.100                                                                 
     2     -3.7534941     23  2.400                                                                 
     2     -5.1140767     23  2.400                                                                 
     3     -4.0817478     23  2.500                                                                 
  local pseudopotential read in
  partial core-charges read in
  partial kinetic energy density read in
  atomic valenz-charges read in
  non local Contribution for L=           0  read in
    real space projection operators read in
  non local Contribution for L=           0  read in
    real space projection operators read in
  non local Contribution for L=           1  read in
    real space projection operators read in
  non local Contribution for L=           1  read in
    real space projection operators read in
  non local Contribution for L=           2  read in
    real space projection operators read in
  non local Contribution for L=           2  read in
    real space projection operators read in
    PAW grid and wavefunctions read in
 
   number of l-projection  operators is LMAX  =           6
   number of lm-projection operators is LMMAX =          18
 
 POTCAR:    PAW_PBE S 06Sep2000                   
   SHA256 =  0fc7481fb0695f01bdc6462160264c5c84044ae9ec85a907d398b887a2bc3132 S/POTCAR              
   COPYR  = (c) Copyright 06Sep2000 Georg Kresse                                                    
   COPYR  = This file is part of the software VASP. Any use, copying, and all other rights are regul
   COPYR  = If you do not have a valid VASP license, you may not use, copy or distribute this file. 
   VRHFIN =S : s2p4                                                                                 
   LEXCH  = PE                                                                                      
   EATOM  =   276.8230 eV,   20.3459 Ry                                                             
                                                                                                    
   TITEL  = PAW_PBE S 06Sep2000                                                                     
   LULTRA =        F    use ultrasoft PP ?                                                          
   IUNSCR =        1    unscreen: 0-lin 1-nonlin 2-no                                               
   RPACOR =    1.500    partial core radius                                                         
   POMASS =   32.066; ZVAL   =    6.000    mass and valenz                                          
   RCORE  =    1.900    outmost cutoff radius                                                       
   RWIGS  =    2.200; RWIGS  =    1.164    wigner-seitz radius (au A)                               
   ENMAX  =  258.689; ENMIN  =  194.016 eV                                                          
   ICORE  =        2    local potential                                                             
   LCOR   =        T    correct aug charges                                                         
   LPAW   =        T    paw PP                                                                      
   EAUG   =  335.092                                                                                
   DEXC   =    0.000                                                                                
   RMAX   =    1.942    core radius for proj-oper                                                   
   RAUG   =    1.300    factor for augmentation sphere                                              
   RDEP   =    1.954    radius for radial grids                                                     
   RDEPT  =    1.744    core radius for aug-charge                                                  
                                                                                                    
   Atomic configuration                                                                             
    6 entries                                                                                       
     n  l   j            E        occ.                                                              
     1  0  0.50     -2405.8406   2.0000                                                             
     2  0  0.50      -211.7007   2.0000                                                             
     2  1  1.50      -156.4958   6.0000                                                             
     3  0  0.50       -17.2562   2.0000                                                             
     3  1  0.50        -7.0085   4.0000                                                             
     3  2  1.50        -6.8029   0.0000                                                             
   Description                                                                                      
     l       E           TYP  RCUT    TYP  RCUT                                                     
     0    -17.2561641     23  1.900                                                                 
     0    -15.8743224     23  1.900                                                                 
     1     -7.0085400     23  1.900                                                                 
     1     -2.7779785     23  1.900                                                                 
     2     -6.8029130     23  1.900                                                                 
  local pseudopotential read in
  partial core-charges read in
  partial kinetic energy density read in
  atomic valenz-charges read in
  non local Contribution for L=           0  read in
    real space projection operators read in
  non local Contribution for L=           0  read in
    real space projection operators read in
  non local Contribution for L=           1  read in
    real space projection operators read in
  non local Contribution for L=           1  read in
    real space projection operators read in
    PAW grid and wavefunctions read in
 
   number of l-projection  operators is LMAX  =           4
   number of lm-projection operators is LMMAX =           8
 
 Optimization of the real space projectors (new method)

 maximal supplied QI-value         = 15.12
 optimisation between [QCUT,QGAM] = [ 11.64, 23.28] = [ 37.95,151.78] Ry 
 Optimized for a Real-space Cutoff    1.53 Angstroem

   l    n(q)    QCUT    max X(q) W(low)/X(q) W(high)/X(q)  e(spline) 
   0     11    11.641     3.559    0.80E-05    0.27E-04    0.27E-06
   0     11    11.641    20.730    0.39E-04    0.26E-04    0.29E-06
   1     10    11.641     3.279    0.18E-05    0.27E-05    0.28E-07
   1     10    11.641     4.693    0.11E-03    0.12E-04    0.28E-06
   2     10    11.641    67.616    0.19E-03    0.29E-03    0.91E-06
   2     10    11.641    62.420    0.19E-03    0.29E-03    0.92E-06
 Optimization of the real space projectors (new method)

 maximal supplied QI-value         = 19.84
 optimisation between [QCUT,QGAM] = [ 11.51, 23.22] = [ 37.09,150.92] Ry 
 Optimized for a Real-space Cutoff    1.21 Angstroem

   l    n(q)    QCUT    max X(q) W(low)/X(q) W(high)/X(q)  e(spline) 
   0      8    11.508   187.594    0.96E-04    0.18E-03    0.54E-07
   0      8    11.508   164.243    0.96E-04    0.18E-03    0.54E-07
   1      8    11.508    67.533    0.18E-03    0.65E-04    0.94E-07
   1      8    11.508    50.729    0.18E-03    0.63E-04    0.92E-07
  PAW_PBE Mo_sv 02Feb2006               :
 energy of atom  1       EATOM=-1862.2866
 kinetic energy error for atom=    0.0070 (will be added to EATOM!!)
  PAW_PBE S 06Sep2000                   :
 energy of atom  2       EATOM= -276.8230
 kinetic energy error for atom=    0.0016 (will be added to EATOM!!)
 
 
 POSCAR: generated by phonopy
  positions in direct lattice
  No initial velocities read in
 IVDW         = 12
 VDW_S6       =    1.0000
 VDW_S8       =    0.7875
 VDW_A1       =    0.4289
 VDW_A2       =    4.4407
 VDW_RADIUS   =   50.2022 A
 VDW_CNRADIUS =   21.1671 A


 exchange-correlation table for PE
   RHO(1)=    0.500       N(1)  =     2000
   RHO(2)=  100.500       N(2)  =     4000
 


--------------------------------------------------------------------------------------------------------


 ion  position               nearest neighbor table
   1  0.000  0.000  0.513-  30 2.41  34 2.41  28 2.41  25 2.41  21 2.41  19 2.41   7 3.19   8 3.19
                             4 3.19   6 3.19   2 3.19   3 3.19
   2  0.333  0.000  0.513-  28 2.41  29 2.41  35 2.41  19 2.41  20 2.41  26 2.41   3 3.19   9 3.19
                             5 3.19   8 3.19   4 3.19   1 3.19
   3  0.667  0.000  0.513-  29 2.41  36 2.41  30 2.41  27 2.41  20 2.41  21 2.41   2 3.19   5 3.19
                             6 3.19   7 3.19   9 3.19   1 3.19
   4  0.000  0.333  0.513-  28 2.41  31 2.41  33 2.41  19 2.41  22 2.41  24 2.41   7 3.19   9 3.19
                             1 3.19   2 3.19   5 3.19   6 3.19
   5  0.333  0.333  0.513-  32 2.41  31 2.41  29 2.41  23 2.41  20 2.41  22 2.41   8 3.19   6 3.19
                             3 3.19   7 3.19   2 3.19   4 3.19
   6  0.667  0.333  0.513-  30 2.41  32 2.41  33 2.41  21 2.41  23 2.41  24 2.41   8 3.19   9 3.19
                             5 3.19   3 3.19   1 3.19   4 3.19
   7  0.000  0.667  0.513-  31 2.41  36 2.41  34 2.41  27 2.41  22 2.41  25 2.41   4 3.19   5 3.19
                             1 3.19   3 3.19   8 3.19   9 3.19
   8  0.333  0.667  0.513-  32 2.41  34 2.41  35 2.41  23 2.41  25 2.41  26 2.41   5 3.19   6 3.19
                             9 3.19   2 3.19   1 3.19   7 3.19
   9  0.667  0.667  0.513-  33 2.41  35 2.41  36 2.41  26 2.41  24 2.41  27 2.41   6 3.19   8 3.19
                             2 3.19   4 3.19   3 3.19   7 3.19
  10  0.111  0.111  0.812-  46 2.40  37 2.41  43 2.41  39 2.41  48 2.41  52 2.41  13 3.19  11 3.19
                            17 3.19  15 3.19  16 3.19  12 3.19
  11  0.444  0.111  0.812-  46 2.41  44 2.41  37 2.41  38 2.41  53 2.41  47 2.41  13 3.19  14 3.19
                            10 3.19  17 3.19  18 3.19  12 3.19
  12  0.778  0.111  0.812-  45 2.41  39 2.41  38 2.41  47 2.41  54 2.41  48 2.41  15 3.19  14 3.19
                            16 3.19  18 3.19  10 3.19  11 3.19
  13  0.111  0.444  0.812-  46 2.40  37 2.41  42 2.41  40 2.41  49 2.41  51 2.41  10 3.19  11 3.19
                            14 3.19  16 3.19  18 3.19  15 3.19
  14  0.444  0.444  0.812-  38 2.41  40 2.41  41 2.41  47 2.41  49 2.41  50 2.41  11 3.19  13 3.19
                            16 3.19  12 3.19  17 3.19  15 3.19
  15  0.778  0.444  0.812-  39 2.41  41 2.41  42 2.41  48 2.41  50 2.41  51 2.41  12 3.19  10 3.19
                            17 3.19  18 3.19  13 3.19  14 3.19
  16  0.111  0.778  0.812-  40 2.41  43 2.41  45 2.41  49 2.41  52 2.41  54 2.41  17 3.19  14 3.19
                            13 3.19  10 3.19  12 3.19  18 3.19
  17  0.444  0.778  0.812-  41 2.41  43 2.41  44 2.41  50 2.41  52 2.41  53 2.41  16 3.19  10 3.19
                            14 3.19  15 3.19  11 3.19  18 3.19
  18  0.778  0.778  0.812-  42 2.41  44 2.41  45 2.41  51 2.41  53 2.41  54 2.41  13 3.19  15 3.19
                            11 3.19  12 3.19  16 3.19  17 3.19
  19  0.111  0.111  0.435-   2 2.41   4 2.41   1 2.41
  20  0.444  0.111  0.435-   2 2.41   3 2.41   5 2.41
  21  0.778  0.111  0.435-   1 2.41   6 2.41   3 2.41
  22  0.111  0.444  0.435-   4 2.41   5 2.41   7 2.41
  23  0.444  0.444  0.435-   5 2.41   6 2.41   8 2.41
  24  0.778  0.444  0.435-   4 2.41   6 2.41   9 2.41
  25  0.111  0.778  0.435-   1 2.41   8 2.41   7 2.41
  26  0.444  0.778  0.435-   2 2.41   8 2.41   9 2.41
  27  0.778  0.778  0.435-   3 2.41   7 2.41   9 2.41
  28  0.111  0.111  0.590-   2 2.41   4 2.41   1 2.41
  29  0.444  0.111  0.590-   2 2.41   3 2.41   5 2.41
  30  0.778  0.111  0.590-   1 2.41   6 2.41   3 2.41
  31  0.111  0.444  0.590-   4 2.41   5 2.41   7 2.41
  32  0.444  0.444  0.590-   5 2.41   6 2.41   8 2.41
  33  0.778  0.444  0.590-   4 2.41   6 2.41   9 2.41
  34  0.111  0.778  0.590-   1 2.41   8 2.41   7 2.41
  35  0.444  0.778  0.590-   2 2.41   8 2.41   9 2.41
  36  0.778  0.778  0.590-   3 2.41   7 2.41   9 2.41
  37  0.222  0.222  0.734-  10 2.41  13 2.41  11 2.41
  38  0.556  0.222  0.734-  14 2.41  12 2.41  11 2.41
  39  0.889  0.222  0.734-  15 2.41  12 2.41  10 2.41
  40  0.222  0.556  0.734-  16 2.41  14 2.41  13 2.41
  41  0.556  0.556  0.734-  17 2.41  15 2.41  14 2.41
  42  0.889  0.556  0.734-  18 2.41  13 2.41  15 2.41
  43  0.222  0.889  0.734-  10 2.41  16 2.41  17 2.41
  44  0.556  0.889  0.734-  11 2.41  18 2.41  17 2.41
  45  0.889  0.889  0.734-  12 2.41  16 2.41  18 2.41
  46  0.222  0.222  0.889-  10 2.40  13 2.40  11 2.41
  47  0.556  0.222  0.890-  12 2.41  14 2.41  11 2.41
  48  0.889  0.222  0.890-  10 2.41  15 2.41  12 2.41
  49  0.222  0.556  0.890-  16 2.41  14 2.41  13 2.41
  50  0.556  0.556  0.890-  17 2.41  15 2.41  14 2.41
  51  0.889  0.556  0.890-  18 2.41  13 2.41  15 2.41
  52  0.222  0.889  0.890-  10 2.41  16 2.41  17 2.41
  53  0.556  0.889  0.890-  11 2.41  18 2.41  17 2.41
  54  0.889  0.889  0.890-  12 2.41  16 2.41  18 2.41
 
  LATTYP: Found a hexagonal cell.
 ALAT       =     9.5767137364
 C/A-ratio  =     2.0883990637
  
  Lattice vectors:
  
 A1 = (  -4.7883568682,  -8.2936773805,   0.0000000000)
 A2 = (   9.5767137364,   0.0000000000,   0.0000000000)
 A3 = (   0.0000000000,   0.0000000000,  20.0000000000)


Analysis of symmetry for initial positions (statically):
=====================================================================
 Subroutine PRICEL returns:
 Original cell was already a primitive cell.
 

 Routine SETGRP: Setting up the symmetry group for a 
 hexagonal supercell.


 Subroutine GETGRP returns: Found  1 space group operations
 (whereof  1 operations were pure point group operations)
 out of a pool of 24 trial point group operations.


The static configuration has the point symmetry C_1 .


Analysis of symmetry for dynamics (positions and initial velocities):
=====================================================================
 Subroutine PRICEL returns:
 Original cell was already a primitive cell.
 

 Routine SETGRP: Setting up the symmetry group for a 
 hexagonal supercell.


 Subroutine GETGRP returns: Found  1 space group operations
 (whereof  1 operations were pure point group operations)
 out of a pool of 24 trial point group operations.


The dynamic configuration has the point symmetry C_1 .


 Subroutine INISYM returns: Found  1 space group operations
 (whereof  1 operations are pure point group operations),
 and found     1 'primitive' translations


----------------------------------------------------------------------------------------

                                     Primitive cell                                     

  volume of cell :    1588.5235

  direct lattice vectors                    reciprocal lattice vectors
     9.576713736  0.000000000  0.000000000     0.104419953 -0.060286888  0.000000000
     4.788356868  8.293677380  0.000000000     0.000000000  0.120573776  0.000000000
     0.000000000  0.000000000 20.000000000     0.000000000  0.000000000  0.050000000

  length of vectors
     9.576713736  9.576713736 20.000000000     0.120573776  0.120573776  0.050000000

  position of ions in fractional coordinates (direct lattice)
     0.000000000  0.000000000  0.512968345
     0.333333333  0.000000000  0.512968345
     0.666666667  0.000000000  0.512968345
     1.000000000  0.333333333  0.512968345
     0.333333333  0.333333333  0.512968345
     0.666666667  0.333333333  0.512968345
     1.000000000  0.666666667  0.512968345
     0.333333333  0.666666667  0.512968345
     0.666666667  0.666666667  0.512968345
     0.111111111  0.111111111  0.812069022
     0.444444444  0.111111111  0.812069022
     0.777777778  0.111111111  0.812069022
     0.111111111  0.444444444  0.812069022
     0.444444444  0.444444444  0.812069022
     0.777777778  0.444444444  0.812069022
     0.111111111  0.777777778  0.812069022
     0.444444444  0.777777778  0.812069022
     0.777777778  0.777777778  0.812069022
     0.111111111  0.111111111  0.435262930
     0.444444444  0.111111111  0.435262930
     0.777777778  0.111111111  0.435262930
     0.111111111  0.444444444  0.435262930
     0.444444444  0.444444444  0.435262930
     0.777777778  0.444444444  0.435262930
     0.111111111  0.777777778  0.435262930
     0.444444444  0.777777778  0.435262930
     0.777777778  0.777777778  0.435262930
     0.111111111  0.111111111  0.590474459
     0.444444444  0.111111111  0.590474459
     0.777777778  0.111111111  0.590474459
     0.111111111  0.444444444  0.590474459
     0.444444444  0.444444444  0.590474459
     0.777777778  0.444444444  0.590474459
     0.111111111  0.777777778  0.590474459
     0.444444444  0.777777778  0.590474459
     0.777777778  0.777777778  0.590474459
     0.222222222  0.222222222  0.734499218
     0.555555556  0.222222222  0.734499218
     0.888888889  0.222222222  0.734499218
     0.222222222  0.555555556  0.734499218
     0.555555556  0.555555556  0.734499218
     0.888888889  0.555555556  0.734499218
     0.222222222  0.888888889  0.734499218
     0.555555556  0.888888889  0.734499218
     0.888888889  0.888888889  0.734499218
     0.221771256  0.222222222  0.889275060
     0.555555556  0.222222222  0.889726027
     0.888888889  0.222222222  0.889726027
     0.222222222  0.555555556  0.889726027
     0.555555556  0.555555556  0.889726027
     0.888888889  0.555555556  0.889726027
     0.222222222  0.888888889  0.889726027
     0.555555556  0.888888889  0.889726027
     0.888888889  0.888888889  0.889726027

  ion indices of the primitive-cell ions
   primitive index   ion index
                 1           1
                 2           2
                 3           3
                 4           4
                 5           5
                 6           6
                 7           7
                 8           8
                 9           9
                10          10
                11          11
                12          12
                13          13
                14          14
                15          15
                16          16
                17          17
                18          18
                19          19
                20          20
                21          21
                22          22
                23          23
                24          24
                25          25
                26          26
                27          27
                28          28
                29          29
                30          30
                31          31
                32          32
                33          33
                34          34
                35          35
                36          36
                37          37
                38          38
                39          39
                40          40
                41          41
                42          42
                43          43
                44          44
                45          45
                46          46
                47          47
                48          48
                49          49
                50          50
                51          51
                52          52
                53          53
                54          54

----------------------------------------------------------------------------------------

 
 
 KPOINTS: Automatic mesh                          

Automatic generation of k-mesh.
 Grid dimensions read from file:
 generate k-points for:    5    5    1

 Generating k-lattice:

  Cartesian coordinates                     Fractional coordinates (reciprocal lattice)
     0.020883991 -0.012057378  0.000000000     0.200000000  0.000000000  0.000000000
     0.000000000  0.024114755  0.000000000     0.000000000  0.200000000  0.000000000
     0.000000000  0.000000000  0.050000000     0.000000000  0.000000000  1.000000000

  Length of vectors
     0.024114755  0.024114755  0.050000000

  Shift w.r.t. Gamma in fractional coordinates (k-lattice)
     0.000000000  0.000000000  0.000000000

 
 Subroutine IBZKPT returns following result:
 ===========================================
 
 Found     13 irreducible k-points:
 
 Following reciprocal coordinates:
            Coordinates               Weight
  0.000000  0.000000  0.000000      1.000000
  0.200000  0.000000  0.000000      2.000000
  0.200000  0.200000  0.000000      2.000000
  0.000000  0.200000  0.000000      2.000000
  0.400000  0.000000  0.000000      2.000000
  0.400000  0.400000  0.000000      2.000000
  0.000000  0.400000  0.000000      2.000000
  0.400000  0.200000  0.000000      2.000000
  0.200000  0.400000  0.000000      2.000000
 -0.200000  0.200000  0.000000      2.000000
 -0.400000  0.200000  0.000000      2.000000
  0.400000 -0.400000  0.000000      2.000000
 -0.200000  0.400000  0.000000      2.000000
 
 Following cartesian coordinates:
            Coordinates               Weight
  0.000000  0.000000  0.000000      1.000000
  0.020884 -0.012057  0.000000      2.000000
  0.020884  0.012057  0.000000      2.000000
  0.000000  0.024115  0.000000      2.000000
  0.041768 -0.024115  0.000000      2.000000
  0.041768  0.024115  0.000000      2.000000
  0.000000  0.048230  0.000000      2.000000
  0.041768  0.000000  0.000000      2.000000
  0.020884  0.036172  0.000000      2.000000
 -0.020884  0.036172  0.000000      2.000000
 -0.041768  0.048230  0.000000      2.000000
  0.041768 -0.072344  0.000000      2.000000
 -0.020884  0.060287  0.000000      2.000000
 


--------------------------------------------------------------------------------------------------------




 Dimension of arrays:
   k-points           NKPTS =     13   k-points in BZ     NKDIM =     13   number of bands    NBANDS=    286
   number of dos      NEDOS =    301   number of ions     NIONS =     54
   non local maximal  LDIM  =      6   non local SUM 2l+1 LMDIM =     18
   total plane-waves  NPLWV = 777600
   max r-space proj   IRMAX =   7448   max aug-charges    IRDMAX=  21604
   dimension x,y,z NGX =    72 NGY =   72 NGZ =  150
   dimension x,y,z NGXF=   144 NGYF=  144 NGZF=  300
   support grid    NGXF=   144 NGYF=  144 NGZF=  300
   ions per type =              18  36
   NGX,Y,Z   is equivalent  to a cutoff of  12.50, 12.50, 12.47 a.u.
   NGXF,Y,Z  is equivalent  to a cutoff of  25.00, 25.00, 24.94 a.u.

 SYSTEM =  MoS2_bilayer_3R phonon                  
 POSCAR =  generated by phonopy                    

 Startparameter for this run:
   NWRITE =      2    write-flag & timer
   PREC   = accura    normal or accurate (medium, high low for compatibility)
   ISTART =      0    job   : 0-new  1-cont  2-samecut
   ICHARG =      2    charge: 1-file 2-atom 10-const
   ISPIN  =      1    spin polarized calculation?
   LNONCOLLINEAR =      F non collinear calculations
   LSORBIT =      F    spin-orbit coupling
   INIWAV =      1    electr: 0-lowe 1-rand  2-diag
   LASPH  =      F    aspherical Exc in radial PAW
 Electronic Relaxation 1
   ENCUT  =  520.0 eV  38.22 Ry    6.18 a.u.  17.81 17.81 37.19*2*pi/ulx,y,z
   ENINI  =  520.0     initial cutoff
   ENAUG  =  446.0 eV  augmentation charge cutoff
   NELM   =    200;   NELMIN=  2; NELMDL= -5     # of ELM steps 
   EDIFF  = 0.1E-05   stopping-criterion for ELM
   LREAL  =      T    real-space projection
   NLSPLINE    = F    spline interpolate recip. space projectors
   LCOMPAT=      F    compatible to vasp.4.4
   GGA_COMPAT  = T    GGA compatible to vasp.4.4-vasp.4.6
   LMAXPAW     = -100 max onsite density
   LMAXMIX     =    2 max onsite mixed and CHGCAR
   VOSKOWN=      0    Vosko Wilk Nusair interpolation
   ROPT   =   -0.00025  -0.00025
 Ionic relaxation
   EDIFFG = 0.1E-04   stopping-criterion for IOM
   NSW    =      0    number of steps for IOM
   NBLOCK =      1;   KBLOCK =      1    inner block; outer block 
   IBRION =     -1    ionic relax: 0-MD 1-quasi-New 2-CG
   NFREE  =      0    steps in history (QN), initial steepest desc. (CG)
   ISIF   =      2    stress and relaxation
   IWAVPR =     10    prediction:  0-non 1-charg 2-wave 3-comb
   ISYM   =      2    0-nonsym 1-usesym 2-fastsym
   LCORR  =      T    Harris-Foulkes like correction to forces

   POTIM  = 0.5000    time-step for ionic-motion
   TEIN   =    0.0    initial temperature
   TEBEG  =    0.0;   TEEND  =   0.0 temperature during run
   SMASS  =  -3.00    Nose mass-parameter (am)
   estimated Nose-frequenzy (Omega)   =  0.10E-29 period in steps = 0.13E+47 mass=  -0.210E-26a.u.
   SCALEE = 1.0000    scale energy and forces
   NPACO  =    256;   APACO  = 10.0  distance and # of slots for P.C.
   PSTRESS=    0.0 pullay stress

  Mass of Ions in am
   POMASS =  95.94 32.07
  Ionic Valenz
   ZVAL   =  14.00  6.00
  Atomic Wigner-Seitz radii
   RWIGS  =  -1.00 -1.00
  virtual crystal weights 
   VCA    =   1.00  1.00
   NELECT =     468.0000    total number of electrons
   NUPDOWN=      -1.0000    fix difference up-down

 DOS related values:
   EMIN   =  10.00;   EMAX   =-10.00  energy-range for DOS
   EFERMI =   0.00;   METHOD = LEGACY      
   ISMEAR =     0;   SIGMA  =   0.05  broadening in eV -4-tet -1-fermi 0-gaus
   EFERMI_NEDOS =   21; number of points for ismear=-14 and -15

 Electronic relaxation 2 (details)
   IALGO  =     38    algorithm
   LDIAG  =      T    sub-space diagonalisation (order eigenvalues)
   LSUBROT=      F    optimize rotation matrix (better conditioning)
   LROBUST=      F    robust break criterion during scf (extrapolated energy error)
   ISEARCH=      0    line search for conjugate gradient (0, 1=use gradient)
   TURBO    =      0    0=normal 1=particle mesh
   IRESTART =      0    0=no restart 2=restart with 2 vectors
   NREBOOT  =      0    no. of reboots
   NMIN     =      0    reboot dimension
   EREF     =   0.00    reference energy to select bands
   IMIX   =      4    mixing-type and parameters
     AMIX     =   0.40;   BMIX     =  1.00
     AMIX_MAG =   1.60;   BMIX_MAG =  1.00
     AMIN     =   0.01
     WC   =   100.;   INIMIX=   1;  MIXPRE=   1;  MAXMIX= -45

 Intra band minimization:
   WEIMIN = 0.0000     energy-eigenvalue tresh-hold
   EBREAK =  0.87E-09  absolut break condition
   DEPER  =   0.30     relativ break condition  

   TIME   =   0.40     timestep for ELM

  volume/ion in A,a.u.               =      29.42       198.52
  Fermi-wavevector in a.u.,A,eV,Ry     =   1.089329  2.058533 16.145174  1.186637
  Thomas-Fermi vector in A             =   2.225529
 
 Write flags
   LWAVE        =      F    write WAVECAR
   LDOWNSAMPLE  =      F    k-point downsampling of WAVECAR
   LCHARG       =      F    write CHGCAR
   LVTOT        =      F    write LOCPOT, total local potential
   LVHAR        =      F    write LOCPOT, Hartree potential only
   WRT_POTENTIAL= false  ! write potential to hdf5 file
   LELF         =      F    write electronic localiz. function (ELF)
   LORBIT       =      0    0 simple, 1 ext, 2 COOP (PROOUT), +10 PAW based schemes


 Python interface
   PLUGINS active      =      F    recompile with -DPLUGINS to activate
 
 Dipole corrections
   LMONO      =      F    monopole corrections only (constant potential shift)
   LDIPOL     =      F    correct potential (dipole corrections)
   IDIPOL     =      0    1-x, 2-y, 3-z, 4-all directions 
   EPSILON    =  1.0000000 bulk dielectric constant
   LVACPOTAV  =      F  vacuum potentials using an averaging scheme for the charge density
   VACPOTFLAT =  0.1000000 required flatness to determine vacuum potential
 
Coulomb truncation method
  LTRUNCATE          =      F  Coulomb kernel truncation to be used

 
 Exchange correlation treatment:
   GGA     = PE    functional components
   XC_C    = 1    coefficients multiplying the functional components
   LIBXC   =     F    Libxc                    
   VOSKOWN =     0    Vosko Wilk Nusair interpolation
   LHFCALC =     F    Hartree Fock is set to
   LHFONE  =     F    Hartree Fock one center treatment
   AEXX    =    0.0000 exact exchange contribution

 Parameters of functionals:
   PE:
     No parameter
 
 Van der Waals corrections
   IVDW    =    12    specifies the selected vdW correction

 Linear response parameters
   LEPSILON=     F    determine dielectric tensor
   LRPA    =     F    only Hartree local field effects (RPA)
   LNABLA  =     F    use nabla operator in PAW spheres
   LVEL    =     F    velocity operator in full k-point grid
   CSHIFT  =0.1000    complex shift for real part using Kramers Kronig
   OMEGAMAX=  -1.0    maximum frequency
   DEG_THRESHOLD= 0.2000000E-02 threshold for treating states as degnerate
   RTIME   =   -0.100 relaxation time in fs
  (WPLASMAI=    0.000 imaginary part of plasma frequency in eV, 0.658/RTIME)
   DFIELD  = 0.0000000 0.0000000 0.0000000 field for delta impulse in time
 
  Optional k-point grid parameters
   LKPOINTS_OPT  =     F    use optional k-point grid
   KPOINTS_OPT_MODE=     1    mode for optional k-point grid
 
 Orbital magnetization related:
   ORBITALMAG=     F  switch on orbital magnetization
   LCHIMAG   =     F  perturbation theory with respect to B field
   DQ        =  0.001000  dq finite difference perturbation B field
   LLRAUG    =     F  two centre corrections for induced B field
   LBONE     =     F  B-component reconstruction in AE one-centre
   LVGVCALC  =     T  calculate vGv susceptibility
   LVGVAPPL  =     F  apply vGv susceptibility instead of pGv for G=0

 Random number generation:
   RANDOM_GENERATOR = DEFAULT
   PCG_SEED         = not used


--------------------------------------------------------------------------------------------------------


 Static calculation
 charge density and potential will be updated during run
 non-spin polarized calculation
 Variant of blocked Davidson
 Davidson routine will perform the subspace rotation
 perform sub-space diagonalisation
    after iterative eigenvector-optimisation
 modified Broyden-mixing scheme, WC =      100.0
 initial mixing is a Kerker type mixing with AMIX =  0.4000 and BMIX =      1.0000
 Hartree-type preconditioning will be used
 using additional bands           52
 real space projection scheme for non local part
 use partial core corrections
 calculate Harris-corrections to forces 
   (improved forces if not selfconsistent)
 use gradient corrections 
 use of overlap-Matrix (Vanderbilt PP)
 Gauss-broadening in eV      SIGMA  =   0.05


--------------------------------------------------------------------------------------------------------


  energy-cutoff  :      520.00
  volume of cell :     1588.52
      direct lattice vectors                 reciprocal lattice vectors
     9.576713736  0.000000000  0.000000000     0.104419953 -0.060286888  0.000000000
     4.788356868  8.293677380  0.000000000     0.000000000  0.120573776  0.000000000
     0.000000000  0.000000000 20.000000000     0.000000000  0.000000000  0.050000000

  length of vectors
     9.576713736  9.576713736 20.000000000     0.120573776  0.120573776  0.050000000


 
 k-points in units of 2pi/SCALE and weight: Automatic mesh                          
   0.00000000  0.00000000  0.00000000       0.040
   0.02088399 -0.01205738  0.00000000       0.080
   0.02088399  0.01205738  0.00000000       0.080
   0.00000000  0.02411476  0.00000000       0.080
   0.04176798 -0.02411476  0.00000000       0.080
   0.04176798  0.02411476  0.00000000       0.080
   0.00000000  0.04822951  0.00000000       0.080
   0.04176798  0.00000000  0.00000000       0.080
   0.02088399  0.03617213  0.00000000       0.080
  -0.02088399  0.03617213  0.00000000       0.080
  -0.04176798  0.04822951  0.00000000       0.080
   0.04176798 -0.07234427  0.00000000       0.080
  -0.02088399  0.06028689  0.00000000       0.080
 
 k-points in reciprocal lattice and weights: Automatic mesh                          
   0.00000000  0.00000000  0.00000000       0.040
   0.20000000  0.00000000  0.00000000       0.080
   0.20000000  0.20000000  0.00000000       0.080
   0.00000000  0.20000000  0.00000000       0.080
   0.40000000  0.00000000  0.00000000       0.080
   0.40000000  0.40000000  0.00000000       0.080
   0.00000000  0.40000000  0.00000000       0.080
   0.40000000  0.20000000  0.00000000       0.080
   0.20000000  0.40000000  0.00000000       0.080
  -0.20000000  0.20000000  0.00000000       0.080
  -0.40000000  0.20000000  0.00000000       0.080
   0.40000000 -0.40000000  0.00000000       0.080
  -0.20000000  0.40000000  0.00000000       0.080
 
 position of ions in fractional coordinates (direct lattice) 
   0.00000000  0.00000000  0.51296834
   0.33333333  0.00000000  0.51296834
   0.66666667  0.00000000  0.51296834
   0.00000000  0.33333333  0.51296834
   0.33333333  0.33333333  0.51296834
   0.66666667  0.33333333  0.51296834
   0.00000000  0.66666667  0.51296834
   0.33333333  0.66666667  0.51296834
   0.66666667  0.66666667  0.51296834
   0.11111111  0.11111111  0.81206902
   0.44444444  0.11111111  0.81206902
   0.77777778  0.11111111  0.81206902
   0.11111111  0.44444444  0.81206902
   0.44444444  0.44444444  0.81206902
   0.77777778  0.44444444  0.81206902
   0.11111111  0.77777778  0.81206902
   0.44444444  0.77777778  0.81206902
   0.77777778  0.77777778  0.81206902
   0.11111111  0.11111111  0.43526293
   0.44444444  0.11111111  0.43526293
   0.77777778  0.11111111  0.43526293
   0.11111111  0.44444444  0.43526293
   0.44444444  0.44444444  0.43526293
   0.77777778  0.44444444  0.43526293
   0.11111111  0.77777778  0.43526293
   0.44444444  0.77777778  0.43526293
   0.77777778  0.77777778  0.43526293
   0.11111111  0.11111111  0.59047446
   0.44444444  0.11111111  0.59047446
   0.77777778  0.11111111  0.59047446
   0.11111111  0.44444444  0.59047446
   0.44444444  0.44444444  0.59047446
   0.77777778  0.44444444  0.59047446
   0.11111111  0.77777778  0.59047446
   0.44444444  0.77777778  0.59047446
   0.77777778  0.77777778  0.59047446
   0.22222222  0.22222222  0.73449922
   0.55555556  0.22222222  0.73449922
   0.88888889  0.22222222  0.73449922
   0.22222222  0.55555556  0.73449922
   0.55555556  0.55555556  0.73449922
   0.88888889  0.55555556  0.73449922
   0.22222222  0.88888889  0.73449922
   0.55555556  0.88888889  0.73449922
   0.88888889  0.88888889  0.73449922
   0.22177126  0.22222222  0.88927506
   0.55555556  0.22222222  0.88972603
   0.88888889  0.22222222  0.88972603
   0.22222222  0.55555556  0.88972603
   0.55555556  0.55555556  0.88972603
   0.88888889  0.55555556  0.88972603
   0.22222222  0.88888889  0.88972603
   0.55555556  0.88888889  0.88972603
   0.88888889  0.88888889  0.88972603
 
 position of ions in cartesian coordinates  (Angst):
   0.00000000  0.00000000 10.25936690
   3.19223791  0.00000000 10.25936690
   6.38447582  0.00000000 10.25936690
   1.59611896  2.76455913 10.25936690
   4.78835687  2.76455913 10.25936690
   7.98059478  2.76455913 10.25936690
   3.19223791  5.52911825 10.25936690
   6.38447582  5.52911825 10.25936690
   9.57671374  5.52911825 10.25936690
   1.59611896  0.92151971 16.24138043
   4.78835687  0.92151971 16.24138043
   7.98059478  0.92151971 16.24138043
   3.19223791  3.68607884 16.24138043
   6.38447582  3.68607884 16.24138043
   9.57671374  3.68607884 16.24138043
   4.78835687  6.45063796 16.24138043
   7.98059478  6.45063796 16.24138043
  11.17283269  6.45063796 16.24138043
   1.59611896  0.92151971  8.70525861
   4.78835687  0.92151971  8.70525861
   7.98059478  0.92151971  8.70525861
   3.19223791  3.68607884  8.70525861
   6.38447582  3.68607884  8.70525861
   9.57671374  3.68607884  8.70525861
   4.78835687  6.45063796  8.70525861
   7.98059478  6.45063796  8.70525861
  11.17283269  6.45063796  8.70525861
   1.59611896  0.92151971 11.80948917
   4.78835687  0.92151971 11.80948917
   7.98059478  0.92151971 11.80948917
   3.19223791  3.68607884 11.80948917
   6.38447582  3.68607884 11.80948917
   9.57671374  3.68607884 11.80948917
   4.78835687  6.45063796 11.80948917
   7.98059478  6.45063796 11.80948917
  11.17283269  6.45063796 11.80948917
   3.19223791  1.84303942 14.68998436
   6.38447582  1.84303942 14.68998436
   9.57671374  1.84303942 14.68998436
   4.78835687  4.60759854 14.68998436
   7.98059478  4.60759854 14.68998436
  11.17283269  4.60759854 14.68998436
   6.38447582  7.37215767 14.68998436
   9.57671374  7.37215767 14.68998436
  12.76895165  7.37215767 14.68998436
   3.18791914  1.84303942 17.78550121
   6.38447582  1.84303942 17.79452053
   9.57671374  1.84303942 17.79452053
   4.78835687  4.60759854 17.79452053
   7.98059478  4.60759854 17.79452053
  11.17283269  4.60759854 17.79452053
   6.38447582  7.37215767 17.79452053
   9.57671374  7.37215767 17.79452053
  12.76895165  7.37215767 17.79452053
 


--------------------------------------------------------------------------------------------------------


 k-point     1 :   0.0000 0.0000 0.0000  plane waves:   42765
 k-point     2 :   0.2000 0.0000 0.0000  plane waves:   42749
 k-point     3 :   0.2000 0.2000 0.0000  plane waves:   42749
 k-point     4 :   0.0000 0.2000 0.0000  plane waves:   42749
 k-point     5 :   0.4000 0.0000 0.0000  plane waves:   42789
 k-point     6 :   0.4000 0.4000 0.0000  plane waves:   42789
 k-point     7 :   0.0000 0.4000 0.0000  plane waves:   42789
 k-point     8 :   0.4000 0.2000 0.0000  plane waves:   42756
 k-point     9 :   0.2000 0.4000 0.0000  plane waves:   42756
 k-point    10 :  -0.2000 0.2000 0.0000  plane waves:   42756
 k-point    11 :  -0.4000 0.2000 0.0000  plane waves:   42772
 k-point    12 :   0.4000-0.4000 0.0000  plane waves:   42772
 k-point    13 :  -0.2000 0.4000 0.0000  plane waves:   42772

 maximum and minimum number of plane-waves per node :     10740    10644

 maximum number of plane-waves:     42789
 maximum index in each direction: 
   IXMAX=   18   IYMAX=   18   IZMAX=   37
   IXMIN=  -18   IYMIN=  -18   IZMIN=  -37


 real space projection operators:
  total allocation   :      26196.12 KBytes
  max/ min on nodes  :       6582.16       6516.78


 parallel 3D FFT for wavefunctions:
    minimum data exchange during FFTs selected (reduces bandwidth)
 parallel 3D FFT for charge:
    minimum data exchange during FFTs selected (reduces bandwidth)


 total amount of memory used by VASP MPI-rank0   132777. kBytes
=======================================================================

   base                                    :      30000. kBytes
   nonlr-proj                              :      14941. kBytes
   fftplans                                :      11326. kBytes
   grid                                    :      17519. kBytes
   one-center                              :        217. kBytes
   wavefun                                 :      58774. kBytes
 
     INWAV:  cpu time      0.0000: real time      0.0004
 Broyden mixing: mesh for mixing (old mesh)
   NGX = 35   NGY = 35   NGZ = 75
  (NGX  =144   NGY  =144   NGZ  =300)
  gives a total of  91875 points

 initial charge density was supplied:
 charge density of overlapping atoms calculated
 number of electron     468.0000000 magnetization 
 keeping initial charge density in first step


--------------------------------------------------------------------------------------------------------


 Maximum index for non-local projection operator         1809
 Maximum index for augmentation-charges         1326 (set IRDMAX)


--------------------------------------------------------------------------------------------------------


 First call to EWALD:  gamma=   0.152
 Maximum number of real-space cells   4x   4x   2
 Maximum number of reciprocal cells   2x   2x   4

    FEWALD:  cpu time      0.1437: real time      0.1437


--------------------------------------- Ionic step        1  -------------------------------------------




--------------------------------------- Iteration      1(   1)  ---------------------------------------


    POTLOK:  cpu time      0.2171: real time      0.2173
    SETDIJ:  cpu time      0.0145: real time      0.0145
     EDDAV:  cpu time      6.0949: real time      6.0951
       DOS:  cpu time      0.0110: real time      0.0110
    --------------------------------------------
      LOOP:  cpu time      6.3376: real time      6.3380

 eigenvalue-minimisations  :  9130
 total energy-change (2. order) : 0.4173498E+04  (-0.2538144E+05)
 number of electron     468.0000000 magnetization 
 augmentation part      468.0000000 magnetization 

 Free energy of the ion-electron system (eV)
  ---------------------------------------------------
  alpha Z        PSCENC =       964.87981809
  Ewald energy   TEWEN  =     52460.47473705
  -Hartree energ DENC   =    -92752.11018899
  -exchange      EXHF   =         0.00000000
  -V(xc)+E(xc)   XCENC  =      1646.92705841
  PAW double counting   =     34790.20238322   -34342.63393317
  entropy T*S    EENTRO =        -0.01965966
  eigenvalues    EBANDS =     -2080.82526811
  atomic energy  EATOM  =     43486.60354843
  Solvation  Ediel_sol  =         0.00000000
  ---------------------------------------------------
  free energy    TOTEN  =      4173.49849526 eV

  energy without entropy =     4173.51815492  energy(sigma->0) =     4173.50832509


--------------------------------------------------------------------------------------------------------




--------------------------------------- Iteration      1(   2)  ---------------------------------------


     EDDAV:  cpu time      5.5410: real time      5.5417
       DOS:  cpu time      0.0100: real time      0.0100
    --------------------------------------------
      LOOP:  cpu time      5.5509: real time      5.5517

 eigenvalue-minimisations  :  8976
 total energy-change (2. order) :-0.4249684E+04  (-0.4125642E+04)
 number of electron     468.0000000 magnetization 
 augmentation part      468.0000000 magnetization 

 Free energy of the ion-electron system (eV)
  ---------------------------------------------------
  alpha Z        PSCENC =       964.87981809
  Ewald energy   TEWEN  =     52460.47473705
  -Hartree energ DENC   =    -92752.11018899
  -exchange      EXHF   =         0.00000000
  -V(xc)+E(xc)   XCENC  =      1646.92705841
  PAW double counting   =     34790.20238322   -34342.63393317
  entropy T*S    EENTRO =        -0.00000000
  eigenvalues    EBANDS =     -6330.52858284
  atomic energy  EATOM  =     43486.60354843
  Solvation  Ediel_sol  =         0.00000000
  ---------------------------------------------------
  free energy    TOTEN  =       -76.18515982 eV

  energy without entropy =      -76.18515982  energy(sigma->0) =      -76.18515982


--------------------------------------------------------------------------------------------------------




--------------------------------------- Iteration      1(   3)  ---------------------------------------


     EDDAV:  cpu time      5.4380: real time      5.4387
       DOS:  cpu time      0.0019: real time      0.0019
    --------------------------------------------
      LOOP:  cpu time      5.4399: real time      5.4406

 eigenvalue-minimisations  :  8866
 total energy-change (2. order) :-0.3278372E+03  (-0.3213485E+03)
 number of electron     468.0000000 magnetization 
 augmentation part      468.0000000 magnetization 

 Free energy of the ion-electron system (eV)
  ---------------------------------------------------
  alpha Z        PSCENC =       964.87981809
  Ewald energy   TEWEN  =     52460.47473705
  -Hartree energ DENC   =    -92752.11018899
  -exchange      EXHF   =         0.00000000
  -V(xc)+E(xc)   XCENC  =      1646.92705841
  PAW double counting   =     34790.20238322   -34342.63393317
  entropy T*S    EENTRO =        -0.00000000
  eigenvalues    EBANDS =     -6658.36580242
  atomic energy  EATOM  =     43486.60354843
  Solvation  Ediel_sol  =         0.00000000
  ---------------------------------------------------
  free energy    TOTEN  =      -404.02237939 eV

  energy without entropy =     -404.02237939  energy(sigma->0) =     -404.02237939


--------------------------------------------------------------------------------------------------------




--------------------------------------- Iteration      1(   4)  ---------------------------------------


     EDDAV:  cpu time      6.0085: real time      6.0093
       DOS:  cpu time      0.0020: real time      0.0020
    --------------------------------------------
      LOOP:  cpu time      6.0106: real time      6.0114

 eigenvalue-minimisations  :  9889
 total energy-change (2. order) :-0.1541611E+02  (-0.1530789E+02)
 number of electron     468.0000000 magnetization 
 augmentation part      468.0000000 magnetization 

 Free energy of the ion-electron system (eV)
  ---------------------------------------------------
  alpha Z        PSCENC =       964.87981809
  Ewald energy   TEWEN  =     52460.47473705
  -Hartree energ DENC   =    -92752.11018899
  -exchange      EXHF   =         0.00000000
  -V(xc)+E(xc)   XCENC  =      1646.92705841
  PAW double counting   =     34790.20238322   -34342.63393317
  entropy T*S    EENTRO =        -0.00000000
  eigenvalues    EBANDS =     -6673.78191341
  atomic energy  EATOM  =     43486.60354843
  Solvation  Ediel_sol  =         0.00000000
  ---------------------------------------------------
  free energy    TOTEN  =      -419.43849038 eV

  energy without entropy =     -419.43849038  energy(sigma->0) =     -419.43849038


--------------------------------------------------------------------------------------------------------




--------------------------------------- Iteration      1(   5)  ---------------------------------------


     EDDAV:  cpu time      5.9979: real time      5.9987
       DOS:  cpu time      0.0173: real time      0.0173
    CHARGE:  cpu time      0.3478: real time      0.3478
    MIXING:  cpu time      0.0310: real time      0.0310
    --------------------------------------------
      LOOP:  cpu time      6.3939: real time      6.3947

 eigenvalue-minimisations  : 10087
 total energy-change (2. order) :-0.4862735E+00  (-0.4844443E+00)
 number of electron     468.0000002 magnetization 
 augmentation part        6.4692868 magnetization 

 Broyden mixing:
  rms(total) = 0.10056E+02    rms(broyden)= 0.10056E+02
  rms(prec ) = 0.10187E+02
  weight for this iteration     100.00

 Free energy of the ion-electron system (eV)
  ---------------------------------------------------
  alpha Z        PSCENC =       964.87981809
  Ewald energy   TEWEN  =     52460.47473705
  -Hartree energ DENC   =    -92752.11018899
  -exchange      EXHF   =         0.00000000
  -V(xc)+E(xc)   XCENC  =      1646.92705841
  PAW double counting   =     34790.20238322   -34342.63393317
  entropy T*S    EENTRO =        -0.00000000
  eigenvalues    EBANDS =     -6674.26818687
  atomic energy  EATOM  =     43486.60354843
  Solvation  Ediel_sol  =         0.00000000
  ---------------------------------------------------
  free energy    TOTEN  =      -419.92476384 eV

  energy without entropy =     -419.92476384  energy(sigma->0) =     -419.92476384


--------------------------------------------------------------------------------------------------------




--------------------------------------- Iteration      1(   6)  ---------------------------------------


    POTLOK:  cpu time      0.0991: real time      0.1000
    SETDIJ:  cpu time      0.0046: real time      0.0046
     EDDAV:  cpu time      5.3380: real time      5.3381
       DOS:  cpu time      0.0020: real time      0.0020
    CHARGE:  cpu time      0.3469: real time      0.3470
    MIXING:  cpu time      0.0310: real time      0.0310
    --------------------------------------------
      LOOP:  cpu time      5.8217: real time      5.8226

 eigenvalue-minimisations  :  8404
 total energy-change (2. order) : 0.2036799E+02  (-0.1782532E+02)
 number of electron     467.9999991 magnetization 
 augmentation part       17.6283494 magnetization 

 Broyden mixing:
  rms(total) = 0.39820E+01    rms(broyden)= 0.39820E+01
  rms(prec ) = 0.41159E+01
  weight for this iteration     100.00

 eigenvalues of (default mixing * dielectric matrix)
  average eigenvalue GAMMA=   1.0928
  1.0928

 Free energy of the ion-electron system (eV)
  ---------------------------------------------------
  alpha Z        PSCENC =       964.87981809
  Ewald energy   TEWEN  =     52460.47473705
  -Hartree energ DENC   =    -92228.36771552
  -exchange      EXHF   =         0.00000000
  -V(xc)+E(xc)   XCENC  =      1632.63467090
  PAW double counting   =     41135.61482214   -40749.38870665
  entropy T*S    EENTRO =        -0.00000000
  eigenvalues    EBANDS =     -7102.00794526
  atomic energy  EATOM  =     43486.60354843
  Solvation  Ediel_sol  =         0.00000000
  ---------------------------------------------------
  free energy    TOTEN  =      -399.55677083 eV

  energy without entropy =     -399.55677083  energy(sigma->0) =     -399.55677083


--------------------------------------------------------------------------------------------------------




--------------------------------------- Iteration      1(   7)  ---------------------------------------


    POTLOK:  cpu time      0.0945: real time      0.0956
    SETDIJ:  cpu time      0.0051: real time      0.0051
     EDDAV:  cpu time      5.0862: real time      5.0863
       DOS:  cpu time      0.0052: real time      0.0052
    CHARGE:  cpu time      0.3280: real time      0.3280
    MIXING:  cpu time      0.0279: real time      0.0279
    --------------------------------------------
      LOOP:  cpu time      5.5469: real time      5.5480

 eigenvalue-minimisations  :  8217
 total energy-change (2. order) : 0.3717752E+01  (-0.7141094E+01)
 number of electron     467.9999997 magnetization 
 augmentation part       11.7406167 magnetization 

 Broyden mixing:
  rms(total) = 0.23864E+01    rms(broyden)= 0.23864E+01
  rms(prec ) = 0.24708E+01
  weight for this iteration     100.00

 eigenvalues of (default mixing * dielectric matrix)
  average eigenvalue GAMMA=   1.2079
  1.7677  0.6480

 Free energy of the ion-electron system (eV)
  ---------------------------------------------------
  alpha Z        PSCENC =       964.87981809
  Ewald energy   TEWEN  =     52460.47473705
  -Hartree energ DENC   =    -92588.53372147
  -exchange      EXHF   =         0.00000000
  -V(xc)+E(xc)   XCENC  =      1638.43722073
  PAW double counting   =     46761.78140786   -46361.20521923
  entropy T*S    EENTRO =        -0.00000000
  eigenvalues    EBANDS =     -6758.27681021
  atomic energy  EATOM  =     43486.60354843
  Solvation  Ediel_sol  =         0.00000000
  ---------------------------------------------------
  free energy    TOTEN  =      -395.83901875 eV

  energy without entropy =     -395.83901875  energy(sigma->0) =     -395.83901875


--------------------------------------------------------------------------------------------------------




--------------------------------------- Iteration      1(   8)  ---------------------------------------


    POTLOK:  cpu time      0.0929: real time      0.0937
    SETDIJ:  cpu time      0.0050: real time      0.0050
     EDDAV:  cpu time      5.4098: real time      5.4099
       DOS:  cpu time      0.0022: real time      0.0022
    CHARGE:  cpu time      0.3345: real time      0.3346
    MIXING:  cpu time      0.0246: real time      0.0246
    --------------------------------------------
      LOOP:  cpu time      5.8691: real time      5.8699

 eigenvalue-minimisations  :  8756
 total energy-change (2. order) : 0.3202998E+01  (-0.1137243E+01)
 number of electron     467.9999995 magnetization 
 augmentation part       13.7853534 magnetization 

 Broyden mixing:
  rms(total) = 0.82054E+00    rms(broyden)= 0.82054E+00
  rms(prec ) = 0.82770E+00
  weight for this iteration     100.00

 eigenvalues of (default mixing * dielectric matrix)
  average eigenvalue GAMMA=   1.2482
  2.2795  0.8571  0.6080

 Free energy of the ion-electron system (eV)
  ---------------------------------------------------
  alpha Z        PSCENC =       964.87981809
  Ewald energy   TEWEN  =     52460.47473705
  -Hartree energ DENC   =    -92443.95308409
  -exchange      EXHF   =         0.00000000
  -V(xc)+E(xc)   XCENC  =      1634.95637500
  PAW double counting   =     51140.80526065   -50759.73078331
  entropy T*S    EENTRO =        -0.00000000
  eigenvalues    EBANDS =     -6876.67189275
  atomic energy  EATOM  =     43486.60354843
  Solvation  Ediel_sol  =         0.00000000
  ---------------------------------------------------
  free energy    TOTEN  =      -392.63602095 eV

  energy without entropy =     -392.63602095  energy(sigma->0) =     -392.63602095


--------------------------------------------------------------------------------------------------------




--------------------------------------- Iteration      1(   9)  ---------------------------------------


    POTLOK:  cpu time      0.0926: real time      0.0933
    SETDIJ:  cpu time      0.0057: real time      0.0057
     EDDAV:  cpu time      5.8667: real time      5.8668
       DOS:  cpu time      0.0022: real time      0.0022
    CHARGE:  cpu time      0.3280: real time      0.3280
    MIXING:  cpu time      0.0240: real time      0.0240
    --------------------------------------------
      LOOP:  cpu time      6.3192: real time      6.3199

 eigenvalue-minimisations  :  9812
 total energy-change (2. order) :-0.1243448E+00  (-0.2154397E+00)
 number of electron     467.9999994 magnetization 
 augmentation part       14.6532825 magnetization 

 Broyden mixing:
  rms(total) = 0.40004E+00    rms(broyden)= 0.40004E+00
  rms(prec ) = 0.42412E+00
  weight for this iteration     100.00

 eigenvalues of (default mixing * dielectric matrix)
  average eigenvalue GAMMA=   1.1999
  2.1553  1.2729  0.6858  0.6858

 Free energy of the ion-electron system (eV)
  ---------------------------------------------------
  alpha Z        PSCENC =       964.87981809
  Ewald energy   TEWEN  =     52460.47473705
  -Hartree energ DENC   =    -92433.79838759
  -exchange      EXHF   =         0.00000000
  -V(xc)+E(xc)   XCENC  =      1634.66016730
  PAW double counting   =     53124.60716573   -52748.74582117
  entropy T*S    EENTRO =        -0.00000000
  eigenvalues    EBANDS =     -6881.44159356
  atomic energy  EATOM  =     43486.60354843
  Solvation  Ediel_sol  =         0.00000000
  ---------------------------------------------------
  free energy    TOTEN  =      -392.76036573 eV

  energy without entropy =     -392.76036573  energy(sigma->0) =     -392.76036573


--------------------------------------------------------------------------------------------------------




--------------------------------------- Iteration      1(  10)  ---------------------------------------


    POTLOK:  cpu time      0.0929: real time      0.0936
    SETDIJ:  cpu time      0.0047: real time      0.0047
     EDDAV:  cpu time      5.4213: real time      5.4214
       DOS:  cpu time      0.0021: real time      0.0021
    CHARGE:  cpu time      0.3336: real time      0.3336
    MIXING:  cpu time      0.0241: real time      0.0241
    --------------------------------------------
      LOOP:  cpu time      5.8787: real time      5.8796

 eigenvalue-minimisations  :  8789
 total energy-change (2. order) : 0.1182599E+00  (-0.5113738E-01)
 number of electron     467.9999994 magnetization 
 augmentation part       14.0798125 magnetization 

 Broyden mixing:
  rms(total) = 0.11778E+00    rms(broyden)= 0.11778E+00
  rms(prec ) = 0.12888E+00
  weight for this iteration     100.00

 eigenvalues of (default mixing * dielectric matrix)
  average eigenvalue GAMMA=   1.3044
  2.3904  1.8424  0.9642  0.6625  0.6625

 Free energy of the ion-electron system (eV)
  ---------------------------------------------------
  alpha Z        PSCENC =       964.87981809
  Ewald energy   TEWEN  =     52460.47473705
  -Hartree energ DENC   =    -92473.95521292
  -exchange      EXHF   =         0.00000000
  -V(xc)+E(xc)   XCENC  =      1635.63409748
  PAW double counting   =     52963.66518431   -52585.03675131
  entropy T*S    EENTRO =        -0.00000000
  eigenvalues    EBANDS =     -6844.90752694
  atomic energy  EATOM  =     43486.60354843
  Solvation  Ediel_sol  =         0.00000000
  ---------------------------------------------------
  free energy    TOTEN  =      -392.64210582 eV

  energy without entropy =     -392.64210582  energy(sigma->0) =     -392.64210582


--------------------------------------------------------------------------------------------------------




--------------------------------------- Iteration      1(  11)  ---------------------------------------


    POTLOK:  cpu time      0.0926: real time      0.0932
    SETDIJ:  cpu time      0.0048: real time      0.0048
     EDDAV:  cpu time      5.9005: real time      5.9005
       DOS:  cpu time      0.0019: real time      0.0019
    CHARGE:  cpu time      0.3298: real time      0.3298
    MIXING:  cpu time      0.0232: real time      0.0232
    --------------------------------------------
      LOOP:  cpu time      6.3528: real time      6.3534

 eigenvalue-minimisations  :  9812
 total energy-change (2. order) : 0.1047630E-01  (-0.5349790E-02)
 number of electron     467.9999994 magnetization 
 augmentation part       14.0603337 magnetization 

 Broyden mixing:
  rms(total) = 0.68145E-01    rms(broyden)= 0.68145E-01
  rms(prec ) = 0.84536E-01
  weight for this iteration     100.00

 eigenvalues of (default mixing * dielectric matrix)
  average eigenvalue GAMMA=   1.2749
  2.6661  2.0396  1.0911  0.6467  0.6467  0.5594

 Free energy of the ion-electron system (eV)
  ---------------------------------------------------
  alpha Z        PSCENC =       964.87981809
  Ewald energy   TEWEN  =     52460.47473705
  -Hartree energ DENC   =    -92488.67252471
  -exchange      EXHF   =         0.00000000
  -V(xc)+E(xc)   XCENC  =      1635.91328805
  PAW double counting   =     53127.76808585   -52749.10457547
  entropy T*S    EENTRO =        -0.00000000
  eigenvalues    EBANDS =     -6830.49400680
  atomic energy  EATOM  =     43486.60354843
  Solvation  Ediel_sol  =         0.00000000
  ---------------------------------------------------
  free energy    TOTEN  =      -392.63162952 eV

  energy without entropy =     -392.63162952  energy(sigma->0) =     -392.63162952


--------------------------------------------------------------------------------------------------------




--------------------------------------- Iteration      1(  12)  ---------------------------------------


    POTLOK:  cpu time      0.0936: real time      0.0942
    SETDIJ:  cpu time      0.0039: real time      0.0039
     EDDAV:  cpu time      5.7367: real time      5.7369
       DOS:  cpu time      0.0021: real time      0.0021
    CHARGE:  cpu time      0.3347: real time      0.3347
    MIXING:  cpu time      0.0238: real time      0.0238
    --------------------------------------------
      LOOP:  cpu time      6.1948: real time      6.1955

 eigenvalue-minimisations  :  9284
 total energy-change (2. order) : 0.1152894E-01  (-0.1802632E-02)
 number of electron     467.9999994 magnetization 
 augmentation part       14.0798903 magnetization 

 Broyden mixing:
  rms(total) = 0.33704E-01    rms(broyden)= 0.33703E-01
  rms(prec ) = 0.51180E-01
  weight for this iteration     100.00

 eigenvalues of (default mixing * dielectric matrix)
  average eigenvalue GAMMA=   1.1983
  2.2778  2.2778  1.2198  0.7788  0.6982  0.6982  0.4377

 Free energy of the ion-electron system (eV)
  ---------------------------------------------------
  alpha Z        PSCENC =       964.87981809
  Ewald energy   TEWEN  =     52460.47473705
  -Hartree energ DENC   =    -92497.73869788
  -exchange      EXHF   =         0.00000000
  -V(xc)+E(xc)   XCENC  =      1636.01932436
  PAW double counting   =     53146.73041194   -52768.08177342
  entropy T*S    EENTRO =        -0.00000000
  eigenvalues    EBANDS =     -6821.50746913
  atomic energy  EATOM  =     43486.60354843
  Solvation  Ediel_sol  =         0.00000000
  ---------------------------------------------------
  free energy    TOTEN  =      -392.62010058 eV

  energy without entropy =     -392.62010058  energy(sigma->0) =     -392.62010058


--------------------------------------------------------------------------------------------------------




--------------------------------------- Iteration      1(  13)  ---------------------------------------


    POTLOK:  cpu time      0.0927: real time      0.0933
    SETDIJ:  cpu time      0.0053: real time      0.0053
     EDDAV:  cpu time      5.5514: real time      5.5515
       DOS:  cpu time      0.0022: real time      0.0022
    CHARGE:  cpu time      0.3315: real time      0.3316
    MIXING:  cpu time      0.0241: real time      0.0241
    --------------------------------------------
      LOOP:  cpu time      6.0071: real time      6.0079

 eigenvalue-minimisations  :  9284
 total energy-change (2. order) : 0.2941349E-02  (-0.3312474E-03)
 number of electron     467.9999994 magnetization 
 augmentation part       14.0894173 magnetization 

 Broyden mixing:
  rms(total) = 0.19883E-01    rms(broyden)= 0.19883E-01
  rms(prec ) = 0.39615E-01
  weight for this iteration     100.00

 eigenvalues of (default mixing * dielectric matrix)
  average eigenvalue GAMMA=   1.1653
  2.3245  2.3245  1.2759  0.8378  0.8378  0.6454  0.6454  0.4306

 Free energy of the ion-electron system (eV)
  ---------------------------------------------------
  alpha Z        PSCENC =       964.87981809
  Ewald energy   TEWEN  =     52460.47473705
  -Hartree energ DENC   =    -92501.76825561
  -exchange      EXHF   =         0.00000000
  -V(xc)+E(xc)   XCENC  =      1636.00392374
  PAW double counting   =     53078.30414527   -52699.63920246
  entropy T*S    EENTRO =        -0.00000000
  eigenvalues    EBANDS =     -6817.47587372
  atomic energy  EATOM  =     43486.60354843
  Solvation  Ediel_sol  =         0.00000000
  ---------------------------------------------------
  free energy    TOTEN  =      -392.61715923 eV

  energy without entropy =     -392.61715923  energy(sigma->0) =     -392.61715923


--------------------------------------------------------------------------------------------------------




--------------------------------------- Iteration      1(  14)  ---------------------------------------


    POTLOK:  cpu time      0.2296: real time      0.2318
    SETDIJ:  cpu time      0.0149: real time      0.0149
     EDDAV:  cpu time      7.4313: real time      7.4314
       DOS:  cpu time      0.0019: real time      0.0019
    CHARGE:  cpu time      0.4299: real time      0.4299
    MIXING:  cpu time      0.0301: real time      0.0301
    --------------------------------------------
      LOOP:  cpu time      8.1377: real time      8.1400

 eigenvalue-minimisations  :  8701
 total energy-change (2. order) : 0.5147949E-02  (-0.3954667E-03)
 number of electron     467.9999994 magnetization 
 augmentation part       14.1095314 magnetization 

 Broyden mixing:
  rms(total) = 0.15324E-01    rms(broyden)= 0.15323E-01
  rms(prec ) = 0.33755E-01
  weight for this iteration     100.00

 eigenvalues of (default mixing * dielectric matrix)
  average eigenvalue GAMMA=   1.1901
  2.4483  2.4483  1.4730  1.0492  1.0492  0.6659  0.6659  0.4775  0.4333

 Free energy of the ion-electron system (eV)
  ---------------------------------------------------
  alpha Z        PSCENC =       964.87981809
  Ewald energy   TEWEN  =     52460.47473705
  -Hartree energ DENC   =    -92511.32360265
  -exchange      EXHF   =         0.00000000
  -V(xc)+E(xc)   XCENC  =      1636.04461971
  PAW double counting   =     53045.84509873   -52667.21485169
  entropy T*S    EENTRO =        -0.00000000
  eigenvalues    EBANDS =     -6807.92137894
  atomic energy  EATOM  =     43486.60354843
  Solvation  Ediel_sol  =         0.00000000
  ---------------------------------------------------
  free energy    TOTEN  =      -392.61201128 eV

  energy without entropy =     -392.61201128  energy(sigma->0) =     -392.61201128


--------------------------------------------------------------------------------------------------------




--------------------------------------- Iteration      1(  15)  ---------------------------------------


    POTLOK:  cpu time      0.0931: real time      0.0937
    SETDIJ:  cpu time      0.0042: real time      0.0042
     EDDAV:  cpu time      5.3246: real time      5.3247
       DOS:  cpu time      0.0022: real time      0.0022
    CHARGE:  cpu time      0.3293: real time      0.3293
    MIXING:  cpu time      0.0240: real time      0.0240
    --------------------------------------------
      LOOP:  cpu time      5.7774: real time      5.7781

 eigenvalue-minimisations  :  8613
 total energy-change (2. order) : 0.6796889E-02  (-0.7485119E-03)
 number of electron     467.9999994 magnetization 
 augmentation part       14.1339068 magnetization 

 Broyden mixing:
  rms(total) = 0.23559E-01    rms(broyden)= 0.23559E-01
  rms(prec ) = 0.31662E-01
  weight for this iteration     100.00

 eigenvalues of (default mixing * dielectric matrix)
  average eigenvalue GAMMA=   1.2718
  3.2507  2.4309  2.0471  1.2611  0.7714  0.7714  0.6603  0.6603  0.4514  0.4139

 Free energy of the ion-electron system (eV)
  ---------------------------------------------------
  alpha Z        PSCENC =       964.87981809
  Ewald energy   TEWEN  =     52460.47473705
  -Hartree energ DENC   =    -92529.64016576
  -exchange      EXHF   =         0.00000000
  -V(xc)+E(xc)   XCENC  =      1636.13350388
  PAW double counting   =     53014.46490392   -52635.88806522
  entropy T*S    EENTRO =        -0.00000000
  eigenvalues    EBANDS =     -6789.63349477
  atomic energy  EATOM  =     43486.60354843
  Solvation  Ediel_sol  =         0.00000000
  ---------------------------------------------------
  free energy    TOTEN  =      -392.60521439 eV

  energy without entropy =     -392.60521439  energy(sigma->0) =     -392.60521439


--------------------------------------------------------------------------------------------------------




--------------------------------------- Iteration      1(  16)  ---------------------------------------


    POTLOK:  cpu time      0.0929: real time      0.0935
    SETDIJ:  cpu time      0.0047: real time      0.0047
     EDDAV:  cpu time      5.6735: real time      5.6736
       DOS:  cpu time      0.0018: real time      0.0018
    CHARGE:  cpu time      0.3350: real time      0.3350
    MIXING:  cpu time      0.0236: real time      0.0236
    --------------------------------------------
      LOOP:  cpu time      6.1316: real time      6.1323

 eigenvalue-minimisations  :  9185
 total energy-change (2. order) : 0.1753522E-02  (-0.3613123E-03)
 number of electron     467.9999994 magnetization 
 augmentation part       14.1389083 magnetization 

 Broyden mixing:
  rms(total) = 0.26834E-01    rms(broyden)= 0.26834E-01
  rms(prec ) = 0.30195E-01
  weight for this iteration     100.00

 eigenvalues of (default mixing * dielectric matrix)
  average eigenvalue GAMMA=   1.3443
  3.8704  2.3969  2.2383  1.3184  0.9843  0.9843  0.7906  0.6719  0.6719  0.4460
  0.4141

 Free energy of the ion-electron system (eV)
  ---------------------------------------------------
  alpha Z        PSCENC =       964.87981809
  Ewald energy   TEWEN  =     52460.47473705
  -Hartree energ DENC   =    -92545.78425771
  -exchange      EXHF   =         0.00000000
  -V(xc)+E(xc)   XCENC  =      1636.20384061
  PAW double counting   =     53000.48827553   -52621.92745927
  entropy T*S    EENTRO =        -0.00000000
  eigenvalues    EBANDS =     -6773.54196358
  atomic energy  EATOM  =     43486.60354843
  Solvation  Ediel_sol  =         0.00000000
  ---------------------------------------------------
  free energy    TOTEN  =      -392.60346087 eV

  energy without entropy =     -392.60346087  energy(sigma->0) =     -392.60346087


--------------------------------------------------------------------------------------------------------




--------------------------------------- Iteration      1(  17)  ---------------------------------------


    POTLOK:  cpu time      0.0930: real time      0.0938
    SETDIJ:  cpu time      0.0042: real time      0.0042
     EDDAV:  cpu time      5.4599: real time      5.4600
       DOS:  cpu time      0.0020: real time      0.0020
    CHARGE:  cpu time      0.3295: real time      0.3295
    MIXING:  cpu time      0.0235: real time      0.0235
    --------------------------------------------
      LOOP:  cpu time      5.9121: real time      5.9130

 eigenvalue-minimisations  :  9020
 total energy-change (2. order) :-0.1815292E-02  (-0.1591329E-03)
 number of electron     467.9999994 magnetization 
 augmentation part       14.1221281 magnetization 

 Broyden mixing:
  rms(total) = 0.12687E-01    rms(broyden)= 0.12687E-01
  rms(prec ) = 0.14955E-01
  weight for this iteration     100.00

 eigenvalues of (default mixing * dielectric matrix)
  average eigenvalue GAMMA=   1.4660
  5.1154  2.5979  2.2460  1.4634  1.4634  1.0045  0.6725  0.6725  0.7479  0.7479
  0.4486  0.4125

 Free energy of the ion-electron system (eV)
  ---------------------------------------------------
  alpha Z        PSCENC =       964.87981809
  Ewald energy   TEWEN  =     52460.47473705
  -Hartree energ DENC   =    -92557.68547625
  -exchange      EXHF   =         0.00000000
  -V(xc)+E(xc)   XCENC  =      1636.25516148
  PAW double counting   =     53021.42192364   -52642.84581414
  entropy T*S    EENTRO =        -0.00000000
  eigenvalues    EBANDS =     -6761.70917445
  atomic energy  EATOM  =     43486.60354843
  Solvation  Ediel_sol  =         0.00000000
  ---------------------------------------------------
  free energy    TOTEN  =      -392.60527616 eV

  energy without entropy =     -392.60527616  energy(sigma->0) =     -392.60527616


--------------------------------------------------------------------------------------------------------




--------------------------------------- Iteration      1(  18)  ---------------------------------------


    POTLOK:  cpu time      0.0937: real time      0.0944
    SETDIJ:  cpu time      0.0038: real time      0.0038
     EDDAV:  cpu time      5.8826: real time      5.8827
       DOS:  cpu time      0.0019: real time      0.0019
    CHARGE:  cpu time      0.3351: real time      0.3351
    MIXING:  cpu time      0.0237: real time      0.0237
    --------------------------------------------
      LOOP:  cpu time      6.3408: real time      6.3416

 eigenvalue-minimisations  :  9669
 total energy-change (2. order) :-0.2773544E-02  (-0.6513953E-04)
 number of electron     467.9999994 magnetization 
 augmentation part       14.1126372 magnetization 

 Broyden mixing:
  rms(total) = 0.72802E-02    rms(broyden)= 0.72802E-02
  rms(prec ) = 0.87018E-02
  weight for this iteration     100.00

 eigenvalues of (default mixing * dielectric matrix)
  average eigenvalue GAMMA=   1.4732
  6.0389  2.6706  2.1793  1.5246  1.5246  0.9936  0.7528  0.7528  0.6635  0.6635
  0.4124  0.4475  0.5274

 Free energy of the ion-electron system (eV)
  ---------------------------------------------------
  alpha Z        PSCENC =       964.87981809
  Ewald energy   TEWEN  =     52460.47473705
  -Hartree energ DENC   =    -92564.87180716
  -exchange      EXHF   =         0.00000000
  -V(xc)+E(xc)   XCENC  =      1636.27780717
  PAW double counting   =     53032.19257867   -52653.61488164
  entropy T*S    EENTRO =        -0.00000000
  eigenvalues    EBANDS =     -6754.54985031
  atomic energy  EATOM  =     43486.60354843
  Solvation  Ediel_sol  =         0.00000000
  ---------------------------------------------------
  free energy    TOTEN  =      -392.60804971 eV

  energy without entropy =     -392.60804971  energy(sigma->0) =     -392.60804971


--------------------------------------------------------------------------------------------------------




--------------------------------------- Iteration      1(  19)  ---------------------------------------


    POTLOK:  cpu time      0.0927: real time      0.0933
    SETDIJ:  cpu time      0.0045: real time      0.0045
     EDDAV:  cpu time      5.7648: real time      5.7649
       DOS:  cpu time      0.0016: real time      0.0016
    CHARGE:  cpu time      0.3288: real time      0.3288
    MIXING:  cpu time      0.0235: real time      0.0235
    --------------------------------------------
      LOOP:  cpu time      6.2161: real time      6.2167

 eigenvalue-minimisations  :  9416
 total energy-change (2. order) :-0.1319387E-02  (-0.1602974E-04)
 number of electron     467.9999994 magnetization 
 augmentation part       14.1124197 magnetization 

 Broyden mixing:
  rms(total) = 0.56554E-02    rms(broyden)= 0.56553E-02
  rms(prec ) = 0.66925E-02
  weight for this iteration     100.00

 eigenvalues of (default mixing * dielectric matrix)
  average eigenvalue GAMMA=   1.4894
  6.7486  2.6921  2.1404  1.5195  1.5195  1.0380  0.9202  0.9202  0.6666  0.6666
  0.7035  0.4131  0.4463  0.4571

 Free energy of the ion-electron system (eV)
  ---------------------------------------------------
  alpha Z        PSCENC =       964.87981809
  Ewald energy   TEWEN  =     52460.47473705
  -Hartree energ DENC   =    -92567.27002972
  -exchange      EXHF   =         0.00000000
  -V(xc)+E(xc)   XCENC  =      1636.28136641
  PAW double counting   =     53028.98228596   -52650.40873887
  entropy T*S    EENTRO =        -0.00000000
  eigenvalues    EBANDS =     -6752.15235644
  atomic energy  EATOM  =     43486.60354843
  Solvation  Ediel_sol  =         0.00000000
  ---------------------------------------------------
  free energy    TOTEN  =      -392.60936910 eV

  energy without entropy =     -392.60936910  energy(sigma->0) =     -392.60936910


--------------------------------------------------------------------------------------------------------




--------------------------------------- Iteration      1(  20)  ---------------------------------------


    POTLOK:  cpu time      0.2300: real time      0.2327
    SETDIJ:  cpu time      0.0159: real time      0.0159
     EDDAV:  cpu time      7.5872: real time      7.5874
       DOS:  cpu time      0.0009: real time      0.0015
    CHARGE:  cpu time      0.4336: real time      0.4337
    MIXING:  cpu time      0.0301: real time      0.0303
    --------------------------------------------
      LOOP:  cpu time      8.2977: real time      8.3018

 eigenvalue-minimisations  :  9031
 total energy-change (2. order) :-0.1826639E-02  (-0.8943552E-05)
 number of electron     467.9999994 magnetization 
 augmentation part       14.1131441 magnetization 

 Broyden mixing:
  rms(total) = 0.34582E-02    rms(broyden)= 0.34581E-02
  rms(prec ) = 0.42504E-02
  weight for this iteration     100.00

 eigenvalues of (default mixing * dielectric matrix)
  average eigenvalue GAMMA=   1.8471
 10.8163  2.9052  2.3517  2.3517  1.8473  1.4397  0.9147  0.9147  0.6695  0.6695
  0.7776  0.7776  0.4481  0.4111  0.4111

 Free energy of the ion-electron system (eV)
  ---------------------------------------------------
  alpha Z        PSCENC =       964.87981809
  Ewald energy   TEWEN  =     52460.47473705
  -Hartree energ DENC   =    -92569.27271026
  -exchange      EXHF   =         0.00000000
  -V(xc)+E(xc)   XCENC  =      1636.28127144
  PAW double counting   =     53024.54448869   -52645.97679783
  entropy T*S    EENTRO =        -0.00000000
  eigenvalues    EBANDS =     -6750.14555133
  atomic energy  EATOM  =     43486.60354843
  Solvation  Ediel_sol  =         0.00000000
  ---------------------------------------------------
  free energy    TOTEN  =      -392.61119573 eV

  energy without entropy =     -392.61119573  energy(sigma->0) =     -392.61119573


--------------------------------------------------------------------------------------------------------




--------------------------------------- Iteration      1(  21)  ---------------------------------------


    POTLOK:  cpu time      0.1031: real time      0.1097
    SETDIJ:  cpu time      0.0033: real time      0.0036
     EDDAV:  cpu time      5.3629: real time      5.3632
       DOS:  cpu time      0.0017: real time      0.0022
    CHARGE:  cpu time      0.3317: real time      0.3318
    MIXING:  cpu time      0.0241: real time      0.0244
    --------------------------------------------
      LOOP:  cpu time      5.8268: real time      5.8350

 eigenvalue-minimisations  :  8591
 total energy-change (2. order) :-0.2351445E-02  (-0.9546214E-05)
 number of electron     467.9999994 magnetization 
 augmentation part       14.1115095 magnetization 

 Broyden mixing:
  rms(total) = 0.20641E-02    rms(broyden)= 0.20641E-02
  rms(prec ) = 0.22897E-02
  weight for this iteration     100.00

 eigenvalues of (default mixing * dielectric matrix)
  average eigenvalue GAMMA=   1.9057
 12.5445  3.3035  2.5985  2.1551  1.5999  1.5999  0.9704  0.8427  0.8427  0.8542
  0.6698  0.6698  0.5708  0.4483  0.4125  0.4088

 Free energy of the ion-electron system (eV)
  ---------------------------------------------------
  alpha Z        PSCENC =       964.87981809
  Ewald energy   TEWEN  =     52460.47473705
  -Hartree energ DENC   =    -92571.40150318
  -exchange      EXHF   =         0.00000000
  -V(xc)+E(xc)   XCENC  =      1636.28101259
  PAW double counting   =     53026.51746645   -52647.95298571
  entropy T*S    EENTRO =        -0.00000000
  eigenvalues    EBANDS =     -6748.01564088
  atomic energy  EATOM  =     43486.60354843
  Solvation  Ediel_sol  =         0.00000000
  ---------------------------------------------------
  free energy    TOTEN  =      -392.61354718 eV

  energy without entropy =     -392.61354718  energy(sigma->0) =     -392.61354718


--------------------------------------------------------------------------------------------------------




--------------------------------------- Iteration      1(  22)  ---------------------------------------


    POTLOK:  cpu time      0.1027: real time      0.1105
    SETDIJ:  cpu time      0.0034: real time      0.0036
     EDDAV:  cpu time      5.4272: real time      5.4274
       DOS:  cpu time      0.0013: real time      0.0020
    CHARGE:  cpu time      0.3346: real time      0.3347
    MIXING:  cpu time      0.0236: real time      0.0239
    --------------------------------------------
      LOOP:  cpu time      5.8928: real time      5.9019

 eigenvalue-minimisations  :  8668
 total energy-change (2. order) :-0.2654703E-03  (-0.2092545E-05)
 number of electron     467.9999994 magnetization 
 augmentation part       14.1102444 magnetization 

 Broyden mixing:
  rms(total) = 0.22874E-02    rms(broyden)= 0.22874E-02
  rms(prec ) = 0.24017E-02
  weight for this iteration     100.00

 eigenvalues of (default mixing * dielectric matrix)
  average eigenvalue GAMMA=   1.8154
 12.4399  3.3059  2.6040  2.1623  1.5604  1.5604  1.0799  0.8840  0.8840  0.7992
  0.6718  0.6718  0.6022  0.4486  0.4134  0.4036  0.3714

 Free energy of the ion-electron system (eV)
  ---------------------------------------------------
  alpha Z        PSCENC =       964.87981809
  Ewald energy   TEWEN  =     52460.47473705
  -Hartree energ DENC   =    -92571.59641304
  -exchange      EXHF   =         0.00000000
  -V(xc)+E(xc)   XCENC  =      1636.28104386
  PAW double counting   =     53028.33689401   -52649.77018677
  entropy T*S    EENTRO =        -0.00000000
  eigenvalues    EBANDS =     -6747.82325428
  atomic energy  EATOM  =     43486.60354843
  Solvation  Ediel_sol  =         0.00000000
  ---------------------------------------------------
  free energy    TOTEN  =      -392.61381265 eV

  energy without entropy =     -392.61381265  energy(sigma->0) =     -392.61381265


--------------------------------------------------------------------------------------------------------




--------------------------------------- Iteration      1(  23)  ---------------------------------------


    POTLOK:  cpu time      0.1029: real time      0.1095
    SETDIJ:  cpu time      0.0034: real time      0.0036
     EDDAV:  cpu time      4.4101: real time      4.4104
       DOS:  cpu time      0.0011: real time      0.0019
    CHARGE:  cpu time      0.3288: real time      0.3290
    MIXING:  cpu time      0.0237: real time      0.0239
    --------------------------------------------
      LOOP:  cpu time      4.8701: real time      4.8794

 eigenvalue-minimisations  :  6765
 total energy-change (2. order) :-0.5963320E-04  (-0.2359923E-06)
 number of electron     467.9999994 magnetization 
 augmentation part       14.1101344 magnetization 

 Broyden mixing:
  rms(total) = 0.20178E-02    rms(broyden)= 0.20178E-02
  rms(prec ) = 0.21153E-02
  weight for this iteration     100.00

 eigenvalues of (default mixing * dielectric matrix)
  average eigenvalue GAMMA=   1.7825
 12.5716  3.3154  2.5607  2.2151  1.4884  1.4884  1.1936  1.0181  1.0181  0.7194
  0.7153  0.7153  0.6570  0.6570  0.4809  0.4487  0.4126  0.4098

 Free energy of the ion-electron system (eV)
  ---------------------------------------------------
  alpha Z        PSCENC =       964.87981809
  Ewald energy   TEWEN  =     52460.47473705
  -Hartree energ DENC   =    -92571.57981608
  -exchange      EXHF   =         0.00000000
  -V(xc)+E(xc)   XCENC  =      1636.28086204
  PAW double counting   =     53028.85292612   -52650.28535641
  entropy T*S    EENTRO =        -0.00000000
  eigenvalues    EBANDS =     -6747.84059151
  atomic energy  EATOM  =     43486.60354843
  Solvation  Ediel_sol  =         0.00000000
  ---------------------------------------------------
  free energy    TOTEN  =      -392.61387228 eV

  energy without entropy =     -392.61387228  energy(sigma->0) =     -392.61387228


--------------------------------------------------------------------------------------------------------




--------------------------------------- Iteration      1(  24)  ---------------------------------------


    POTLOK:  cpu time      0.1033: real time      0.1223
    SETDIJ:  cpu time      0.0034: real time      0.0036
     EDDAV:  cpu time      4.1092: real time      4.1094
       DOS:  cpu time      0.0011: real time      0.0018
    CHARGE:  cpu time      0.3348: real time      0.3352
    MIXING:  cpu time      0.0239: real time      0.0242
    --------------------------------------------
      LOOP:  cpu time      4.5757: real time      4.5954

 eigenvalue-minimisations  :  5830
 total energy-change (2. order) :-0.1090693E-03  (-0.2358278E-06)
 number of electron     467.9999994 magnetization 
 augmentation part       14.1107176 magnetization 

 Broyden mixing:
  rms(total) = 0.12944E-02    rms(broyden)= 0.12944E-02
  rms(prec ) = 0.13767E-02
  weight for this iteration     100.00

 eigenvalues of (default mixing * dielectric matrix)
  average eigenvalue GAMMA=   1.9752
 14.7530  4.2645  2.4990  2.4750  1.8644  1.8644  1.6506  1.0315  1.0315  0.8177
  0.8177  0.6698  0.6698  0.7053  0.6817  0.4484  0.4639  0.4119  0.4091

 Free energy of the ion-electron system (eV)
  ---------------------------------------------------
  alpha Z        PSCENC =       964.87981809
  Ewald energy   TEWEN  =     52460.47473705
  -Hartree energ DENC   =    -92571.55814098
  -exchange      EXHF   =         0.00000000
  -V(xc)+E(xc)   XCENC  =      1636.27946193
  PAW double counting   =     53028.23139090   -52649.66412095
  entropy T*S    EENTRO =        -0.00000000
  eigenvalues    EBANDS =     -6747.86067582
  atomic energy  EATOM  =     43486.60354843
  Solvation  Ediel_sol  =         0.00000000
  ---------------------------------------------------
  free energy    TOTEN  =      -392.61398135 eV

  energy without entropy =     -392.61398135  energy(sigma->0) =     -392.61398135


--------------------------------------------------------------------------------------------------------




--------------------------------------- Iteration      1(  25)  ---------------------------------------


    POTLOK:  cpu time      0.1059: real time      0.1138
    SETDIJ:  cpu time      0.0033: real time      0.0036
     EDDAV:  cpu time      4.2921: real time      4.2923
       DOS:  cpu time      0.0009: real time      0.0016
    CHARGE:  cpu time      0.3289: real time      0.3290
    MIXING:  cpu time      0.0237: real time      0.0240
    --------------------------------------------
      LOOP:  cpu time      4.7549: real time      4.7644

 eigenvalue-minimisations  :  6424
 total energy-change (2. order) :-0.1807989E-03  (-0.1078799E-05)
 number of electron     467.9999994 magnetization 
 augmentation part       14.1115085 magnetization 

 Broyden mixing:
  rms(total) = 0.58871E-03    rms(broyden)= 0.58871E-03
  rms(prec ) = 0.63542E-03
  weight for this iteration     100.00

 eigenvalues of (default mixing * dielectric matrix)
  average eigenvalue GAMMA=   1.9207
 14.9799  4.2311  2.6235  2.1828  2.1828  1.5344  1.5344  1.0388  1.0388  0.9062
  0.9062  0.7835  0.7835  0.6691  0.6691  0.6254  0.4486  0.4546  0.4118  0.4091

 Free energy of the ion-electron system (eV)
  ---------------------------------------------------
  alpha Z        PSCENC =       964.87981809
  Ewald energy   TEWEN  =     52460.47473705
  -Hartree energ DENC   =    -92571.59909336
  -exchange      EXHF   =         0.00000000
  -V(xc)+E(xc)   XCENC  =      1636.27712029
  PAW double counting   =     53027.04663691   -52648.47964711
  entropy T*S    EENTRO =        -0.00000000
  eigenvalues    EBANDS =     -6747.81728245
  atomic energy  EATOM  =     43486.60354843
  Solvation  Ediel_sol  =         0.00000000
  ---------------------------------------------------
  free energy    TOTEN  =      -392.61416215 eV

  energy without entropy =     -392.61416215  energy(sigma->0) =     -392.61416215


--------------------------------------------------------------------------------------------------------




--------------------------------------- Iteration      1(  26)  ---------------------------------------


    POTLOK:  cpu time      0.1031: real time      0.1097
    SETDIJ:  cpu time      0.0031: real time      0.0038
     EDDAV:  cpu time      4.1873: real time      4.1875
       DOS:  cpu time      0.0014: real time      0.0019
    CHARGE:  cpu time      0.3351: real time      0.3353
    MIXING:  cpu time      0.0238: real time      0.0241
    --------------------------------------------
      LOOP:  cpu time      4.6538: real time      4.6622

 eigenvalue-minimisations  :  6248
 total energy-change (2. order) :-0.1608503E-05  (-0.1678833E-06)
 number of electron     467.9999994 magnetization 
 augmentation part       14.1116148 magnetization 

 Broyden mixing:
  rms(total) = 0.35778E-03    rms(broyden)= 0.35778E-03
  rms(prec ) = 0.41453E-03
  weight for this iteration     100.00

 eigenvalues of (default mixing * dielectric matrix)
  average eigenvalue GAMMA=   1.8862
 15.1202  4.2261  2.4972  2.4972  2.2876  1.4901  1.4901  1.1845  1.1845  0.9683
  0.9090  0.8013  0.8013  0.6688  0.6688  0.6262  0.4119  0.4090  0.4488  0.4593
  0.4593

 Free energy of the ion-electron system (eV)
  ---------------------------------------------------
  alpha Z        PSCENC =       964.87981809
  Ewald energy   TEWEN  =     52460.47473705
  -Hartree energ DENC   =    -92571.62692226
  -exchange      EXHF   =         0.00000000
  -V(xc)+E(xc)   XCENC  =      1636.27741808
  PAW double counting   =     53026.83826182   -52648.27110207
  entropy T*S    EENTRO =        -0.00000000
  eigenvalues    EBANDS =     -6747.78992288
  atomic energy  EATOM  =     43486.60354843
  Solvation  Ediel_sol  =         0.00000000
  ---------------------------------------------------
  free energy    TOTEN  =      -392.61416376 eV

  energy without entropy =     -392.61416376  energy(sigma->0) =     -392.61416376


--------------------------------------------------------------------------------------------------------




--------------------------------------- Iteration      1(  27)  ---------------------------------------


    POTLOK:  cpu time      0.1025: real time      0.1092
    SETDIJ:  cpu time      0.0033: real time      0.0036
     EDDAV:  cpu time      3.6446: real time      3.6447
       DOS:  cpu time      0.0012: real time      0.0019
    CHARGE:  cpu time      0.3307: real time      0.3308
    MIXING:  cpu time      0.0237: real time      0.0240
    --------------------------------------------
      LOOP:  cpu time      4.1059: real time      4.1143

 eigenvalue-minimisations  :  5049
 total energy-change (2. order) :-0.3964051E-05  (-0.2162444E-07)
 number of electron     467.9999994 magnetization 
 augmentation part       14.1115636 magnetization 

 Broyden mixing:
  rms(total) = 0.23353E-03    rms(broyden)= 0.23353E-03
  rms(prec ) = 0.29481E-03
  weight for this iteration     100.00

 eigenvalues of (default mixing * dielectric matrix)
  average eigenvalue GAMMA=   1.9278
 15.0597  4.4678  2.7277  2.7277  2.2938  1.7097  1.7097  1.7185  1.3440  1.0464
  0.8313  0.8313  0.8016  0.8016  0.6710  0.6710  0.6899  0.5807  0.4119  0.4091
  0.4485  0.4595

 Free energy of the ion-electron system (eV)
  ---------------------------------------------------
  alpha Z        PSCENC =       964.87981809
  Ewald energy   TEWEN  =     52460.47473705
  -Hartree energ DENC   =    -92571.64013735
  -exchange      EXHF   =         0.00000000
  -V(xc)+E(xc)   XCENC  =      1636.27757451
  PAW double counting   =     53026.70880181   -52648.14120175
  entropy T*S    EENTRO =        -0.00000000
  eigenvalues    EBANDS =     -6747.77730851
  atomic energy  EATOM  =     43486.60354843
  Solvation  Ediel_sol  =         0.00000000
  ---------------------------------------------------
  free energy    TOTEN  =      -392.61416772 eV

  energy without entropy =     -392.61416772  energy(sigma->0) =     -392.61416772


--------------------------------------------------------------------------------------------------------




--------------------------------------- Iteration      1(  28)  ---------------------------------------


    POTLOK:  cpu time      0.1038: real time      0.1116
    SETDIJ:  cpu time      0.0034: real time      0.0036
     EDDAV:  cpu time      3.9761: real time      3.9764
       DOS:  cpu time      0.0012: real time      0.0019
    CHARGE:  cpu time      0.3395: real time      0.3397
    MIXING:  cpu time      0.0242: real time      0.0244
    --------------------------------------------
      LOOP:  cpu time      4.4482: real time      4.4577

 eigenvalue-minimisations  :  5676
 total energy-change (2. order) : 0.4010399E-05  (-0.3145893E-06)
 number of electron     467.9999994 magnetization 
 augmentation part       14.1116722 magnetization 

 Broyden mixing:
  rms(total) = 0.36632E-03    rms(broyden)= 0.36632E-03
  rms(prec ) = 0.38123E-03
  weight for this iteration     100.00

 eigenvalues of (default mixing * dielectric matrix)
  average eigenvalue GAMMA=   1.8809
 15.0534  4.5708  2.8716  2.8716  2.2976  1.8850  1.6366  1.6366  1.1907  1.1247
  0.8618  0.8618  0.7941  0.7941  0.6702  0.6702  0.6886  0.4118  0.4091  0.4485
  0.4610  0.5251  0.5251

 Free energy of the ion-electron system (eV)
  ---------------------------------------------------
  alpha Z        PSCENC =       964.87981809
  Ewald energy   TEWEN  =     52460.47473705
  -Hartree energ DENC   =    -92571.71353668
  -exchange      EXHF   =         0.00000000
  -V(xc)+E(xc)   XCENC  =      1636.27810775
  PAW double counting   =     53026.51796459   -52647.95066856
  entropy T*S    EENTRO =        -0.00000000
  eigenvalues    EBANDS =     -6747.70413437
  atomic energy  EATOM  =     43486.60354843
  Solvation  Ediel_sol  =         0.00000000
  ---------------------------------------------------
  free energy    TOTEN  =      -392.61416371 eV

  energy without entropy =     -392.61416371  energy(sigma->0) =     -392.61416371


--------------------------------------------------------------------------------------------------------




--------------------------------------- Iteration      1(  29)  ---------------------------------------


    POTLOK:  cpu time      0.1036: real time      0.1105
    SETDIJ:  cpu time      0.0034: real time      0.0037
     EDDAV:  cpu time      3.9688: real time      3.9690
       DOS:  cpu time      0.0011: real time      0.0019
    --------------------------------------------
      LOOP:  cpu time      4.0769: real time      4.0849

 eigenvalue-minimisations  :  5632
 total energy-change (2. order) : 0.4805042E-06  (-0.7680033E-07)
 number of electron     467.9999994 magnetization 
 augmentation part       14.1116722 magnetization 

 Free energy of the ion-electron system (eV)
  ---------------------------------------------------
  alpha Z        PSCENC =       964.87981809
  Ewald energy   TEWEN  =     52460.47473705
  -Hartree energ DENC   =    -92571.72329226
  -exchange      EXHF   =         0.00000000
  -V(xc)+E(xc)   XCENC  =      1636.27816598
  PAW double counting   =     53026.50957332   -52647.94258454
  entropy T*S    EENTRO =        -0.00000000
  eigenvalues    EBANDS =     -6747.69412928
  atomic energy  EATOM  =     43486.60354843
  Solvation  Ediel_sol  =         0.00000000
  ---------------------------------------------------
  free energy    TOTEN  =      -392.61416323 eV

  energy without entropy =     -392.61416323  energy(sigma->0) =     -392.61416323


--------------------------------------------------------------------------------------------------------




 average (electrostatic) potential at core
  the test charge radii are     1.0818  0.9698
  (the norm of the test charge is              1.0000)
       1 -79.7644       2 -79.7644       3 -79.7644       4 -79.7644       5 -79.7644
       6 -79.7644       7 -79.7645       8 -79.7644       9 -79.7644      10 -79.8343
      11 -79.8352      12 -79.8366      13 -79.8348      14 -79.8368      15 -79.8369
      16 -79.8366      17 -79.8368      18 -79.8365      19 -89.4247      20 -89.4247
      21 -89.4247      22 -89.4247      23 -89.4247      24 -89.4247      25 -89.4248
      26 -89.4247      27 -89.4248      28 -89.4547      29 -89.4547      30 -89.4548
      31 -89.4548      32 -89.4548      33 -89.4548      34 -89.4548      35 -89.4548
      36 -89.4548      37 -89.5280      38 -89.5280      39 -89.5276      40 -89.5277
      41 -89.5282      42 -89.5279      43 -89.5274      44 -89.5281      45 -89.5278
      46 -89.5052      47 -89.4994      48 -89.5004      49 -89.4996      50 -89.5006
      51 -89.5002      52 -89.5001      53 -89.4997      54 -89.5007
 
 
 
 E-fermi :   2.8073     XC(G=0):  -7.0498     alpha+bet : -8.1787

 val. band max:        2.4624342576   @ k =   0.0000   0.0000   0.0000
 cond. band min:       3.3898956829   @ k =   0.0000   0.0000   0.0000
 fundamental gap:      0.9274614253
 Fermi energy:         2.8073367794

 k-point     1 :       0.0000    0.0000    0.0000
  band No.  band energies     occupation 
      1     -59.0896      2.00000
      2     -59.0630      2.00000
      3     -59.0629      2.00000
      4     -59.0629      2.00000
      5     -59.0622      2.00000
      6     -59.0621      2.00000
      7     -59.0619      2.00000
      8     -59.0489      2.00000
      9     -59.0488      2.00000
     10     -59.0178      2.00000
     11     -58.9908      2.00000
     12     -58.9908      2.00000
     13     -58.9908      2.00000
     14     -58.9907      2.00000
     15     -58.9907      2.00000
     16     -58.9907      2.00000
     17     -58.9772      2.00000
     18     -58.9772      2.00000
     19     -33.3076      2.00000
     20     -33.3067      2.00000
     21     -33.3065      2.00000
     22     -33.3065      2.00000
     23     -33.3064      2.00000
     24     -33.3059      2.00000
     25     -33.3058      2.00000
     26     -33.3058      2.00000
     27     -33.2637      2.00000
     28     -33.2636      2.00000
     29     -33.2343      2.00000
     30     -33.2343      2.00000
     31     -33.2343      2.00000
     32     -33.2343      2.00000
     33     -33.2343      2.00000
     34     -33.2343      2.00000
     35     -33.2343      2.00000
     36     -33.2343      2.00000
     37     -33.2268      2.00000
     38     -33.1916      2.00000
     39     -33.1916      2.00000
     40     -33.1726      2.00000
     41     -33.1725      2.00000
     42     -33.1725      2.00000
     43     -33.1721      2.00000
     44     -33.1719      2.00000
     45     -33.1717      2.00000
     46     -33.1552      2.00000
     47     -33.1449      2.00000
     48     -33.1448      2.00000
     49     -33.1007      2.00000
     50     -33.1007      2.00000
     51     -33.1007      2.00000
     52     -33.1007      2.00000
     53     -33.1007      2.00000
     54     -33.1007      2.00000
     55     -33.0968      2.00000
     56     -33.0968      2.00000
     57     -33.0964      2.00000
     58     -33.0964      2.00000
     59     -33.0964      2.00000
     60     -33.0956      2.00000
     61     -33.0733      2.00000
     62     -33.0733      2.00000
     63     -33.0335      2.00000
     64     -33.0334      2.00000
     65     -33.0243      2.00000
     66     -33.0243      2.00000
     67     -33.0243      2.00000
     68     -33.0243      2.00000
     69     -33.0243      2.00000
     70     -33.0243      2.00000
     71     -32.9614      2.00000
     72     -32.9614      2.00000
     73     -12.3921      2.00000
     74     -12.1887      2.00000
     75     -11.0936      2.00000
     76     -11.0901      2.00000
     77     -11.0850      2.00000
     78     -11.0850      2.00000
     79     -11.0849      2.00000
     80     -11.0848      2.00000
     81     -11.0848      2.00000
     82     -10.9221      2.00000
     83     -10.9186      2.00000
     84     -10.9186      2.00000
     85     -10.9186      2.00000
     86     -10.9185      2.00000
     87     -10.9184      2.00000
     88     -10.7995      2.00000
     89     -10.5187      2.00000
     90     -10.5153      2.00000
     91     -10.5152      2.00000
     92     -10.5152      2.00000
     93     -10.5149      2.00000
     94     -10.5148      2.00000
     95     -10.3480      2.00000
     96     -10.3474      2.00000
     97     -10.3474      2.00000
     98     -10.3474      2.00000
     99     -10.3473      2.00000
    100     -10.3473      2.00000
    101     -10.2213      2.00000
    102     -10.2190      2.00000
    103     -10.1497      2.00000
    104     -10.1497      2.00000
    105     -10.1150      2.00000
    106     -10.1120      2.00000
    107     -10.0388      2.00000
    108     -10.0388      2.00000
    109      -4.1579      2.00000
    110      -3.6357      2.00000
    111      -3.6345      2.00000
    112      -3.6016      2.00000
    113      -3.5992      2.00000
    114      -3.5985      2.00000
    115      -3.5974      2.00000
    116      -3.5974      2.00000
    117      -3.5972      2.00000
    118      -3.5729      2.00000
    119      -3.5729      2.00000
    120      -3.5175      2.00000
    121      -3.3574      2.00000
    122      -3.3566      2.00000
    123      -3.3564      2.00000
    124      -3.3553      2.00000
    125      -3.3552      2.00000
    126      -3.3551      2.00000
    127      -2.8580      2.00000
    128      -2.8558      2.00000
    129      -2.7504      2.00000
    130      -2.7502      2.00000
    131      -2.5451      2.00000
    132      -2.5449      2.00000
    133      -2.5435      2.00000
    134      -2.5428      2.00000
    135      -2.5428      2.00000
    136      -2.5428      2.00000
    137      -2.3211      2.00000
    138      -2.3199      2.00000
    139      -2.3198      2.00000
    140      -2.3197      2.00000
    141      -2.3196      2.00000
    142      -2.3191      2.00000
    143      -2.3048      2.00000
    144      -2.3046      2.00000
    145      -2.2826      2.00000
    146      -2.2802      2.00000
    147      -2.1501      2.00000
    148      -2.1498      2.00000
    149      -2.1493      2.00000
    150      -2.1482      2.00000
    151      -2.1473      2.00000
    152      -2.1467      2.00000
    153      -1.9326      2.00000
    154      -1.9322      2.00000
    155      -1.9321      2.00000
    156      -1.9316      2.00000
    157      -1.9316      2.00000
    158      -1.9316      2.00000
    159      -1.8020      2.00000
    160      -1.8014      2.00000
    161      -1.7570      2.00000
    162      -1.7550      2.00000
    163      -1.1246      2.00000
    164      -1.1217      2.00000
    165      -1.1178      2.00000
    166      -1.1175      2.00000
    167      -1.1174      2.00000
    168      -1.1172      2.00000
    169      -1.0840      2.00000
    170      -1.0824      2.00000
    171      -1.0286      2.00000
    172      -1.0283      2.00000
    173      -1.0278      2.00000
    174      -1.0277      2.00000
    175      -1.0277      2.00000
    176      -1.0277      2.00000
    177      -1.0122      2.00000
    178      -1.0122      2.00000
    179      -0.8904      2.00000
    180      -0.8899      2.00000
    181      -0.8155      2.00000
    182      -0.8155      2.00000
    183      -0.4817      2.00000
    184      -0.3761      2.00000
    185      -0.3744      2.00000
    186      -0.2117      2.00000
    187      -0.2116      2.00000
    188       0.0164      2.00000
    189       0.0167      2.00000
    190       0.0168      2.00000
    191       0.0171      2.00000
    192       0.0175      2.00000
    193       0.0200      2.00000
    194       0.2157      2.00000
    195       0.2179      2.00000
    196       0.2937      2.00000
    197       0.2938      2.00000
    198       0.3240      2.00000
    199       0.3241      2.00000
    200       0.3292      2.00000
    201       0.3293      2.00000
    202       0.3293      2.00000
    203       0.3295      2.00000
    204       0.4194      2.00000
    205       0.4194      2.00000
    206       0.4196      2.00000
    207       0.4198      2.00000
    208       0.4199      2.00000
    209       0.4226      2.00000
    210       0.4352      2.00000
    211       0.4353      2.00000
    212       0.4361      2.00000
    213       0.4361      2.00000
    214       0.4361      2.00000
    215       0.4362      2.00000
    216       0.6883      2.00000
    217       0.8099      2.00000
    218       0.8112      2.00000
    219       0.8114      2.00000
    220       0.8115      2.00000
    221       0.8120      2.00000
    222       0.8150      2.00000
    223       0.9380      2.00000
    224       0.9380      2.00000
    225       0.9381      2.00000
    226       0.9381      2.00000
    227       0.9381      2.00000
    228       0.9381      2.00000
    229       1.6914      2.00000
    230       1.7461      2.00000
    231       1.7467      2.00000
    232       1.8298      2.00000
    233       1.8298      2.00000
    234       2.4624      2.00000
    235       3.3899      0.00000
    236       3.3902      0.00000
    237       3.4615      0.00000
    238       3.4615      0.00000
    239       3.9397      0.00000
    240       3.9399      0.00000
    241       3.9404      0.00000
    242       3.9407      0.00000
    243       3.9421      0.00000
    244       3.9425      0.00000
    245       4.0058      0.00000
    246       4.0059      0.00000
    247       4.0061      0.00000
    248       4.0073      0.00000
    249       4.0077      0.00000
    250       4.0083      0.00000
    251       4.0689      0.00000
    252       4.0689      0.00000
    253       4.0690      0.00000
    254       4.0691      0.00000
    255       4.0698      0.00000
    256       4.0698      0.00000
    257       4.3866      0.00000
    258       4.3866      0.00000
    259       4.3867      0.00000
    260       4.3879      0.00000
    261       4.3884      0.00000
    262       4.3893      0.00000
    263       4.4861      0.00000
    264       4.4878      0.00000
    265       4.5815      0.00000
    266       4.5821      0.00000
    267       4.7704      0.00000
    268       4.7710      0.00000
    269       4.8338      0.00000
    270       4.8345      0.00000
    271       4.8464      0.00000
    272       4.8478      0.00000
    273       4.8758      0.00000
    274       4.8761      0.00000
    275       5.1226      0.00000
    276       5.1228      0.00000
    277       5.1231      0.00000
    278       5.1242      0.00000
    279       5.1246      0.00000
    280       5.1272      0.00000
    281       5.3677      0.00000
    282       5.3687      0.00000
    283       5.4578      0.00000
    284       5.4632      0.00000
    285       5.4673      0.00000
    286       5.4676      0.00000

 k-point     2 :       0.2000    0.0000    0.0000
  band No.  band energies     occupation 
      1     -59.0880      2.00000
      2     -59.0697      2.00000
      3     -59.0653      2.00000
      4     -59.0653      2.00000
      5     -59.0590      2.00000
      6     -59.0589      2.00000
      7     -59.0569      2.00000
      8     -59.0497      2.00000
      9     -59.0496      2.00000
     10     -59.0162      2.00000
     11     -58.9979      2.00000
     12     -58.9935      2.00000
     13     -58.9935      2.00000
     14     -58.9872      2.00000
     15     -58.9872      2.00000
     16     -58.9851      2.00000
     17     -58.9780      2.00000
     18     -58.9779      2.00000
     19     -33.3611      2.00000
     20     -33.3346      2.00000
     21     -33.3340      2.00000
     22     -33.3274      2.00000
     23     -33.3266      2.00000
     24     -33.2891      2.00000
     25     -33.2735      2.00000
     26     -33.2730      2.00000
     27     -33.2622      2.00000
     28     -33.2622      2.00000
     29     -33.2549      2.00000
     30     -33.2549      2.00000
     31     -33.2355      2.00000
     32     -33.2335      2.00000
     33     -33.2332      2.00000
     34     -33.2236      2.00000
     35     -33.2011      2.00000
     36     -33.2011      2.00000
     37     -33.1867      2.00000
     38     -33.1779      2.00000
     39     -33.1778      2.00000
     40     -33.1650      2.00000
     41     -33.1650      2.00000
     42     -33.1635      2.00000
     43     -33.1612      2.00000
     44     -33.1612      2.00000
     45     -33.1609      2.00000
     46     -33.1521      2.00000
     47     -33.1464      2.00000
     48     -33.1463      2.00000
     49     -33.1151      2.00000
     50     -33.1123      2.00000
     51     -33.1119      2.00000
     52     -33.1093      2.00000
     53     -33.1064      2.00000
     54     -33.1064      2.00000
     55     -33.0959      2.00000
     56     -33.0955      2.00000
     57     -33.0935      2.00000
     58     -33.0935      2.00000
     59     -33.0894      2.00000
     60     -33.0799      2.00000
     61     -33.0749      2.00000
     62     -33.0749      2.00000
     63     -33.0495      2.00000
     64     -33.0400      2.00000
     65     -33.0400      2.00000
     66     -33.0372      2.00000
     67     -33.0371      2.00000
     68     -33.0237      2.00000
     69     -33.0237      2.00000
     70     -33.0078      2.00000
     71     -32.9774      2.00000
     72     -32.9650      2.00000
     73     -12.3268      2.00000
     74     -12.1239      2.00000
     75     -11.4755      2.00000
     76     -11.2904      2.00000
     77     -11.2456      2.00000
     78     -11.2438      2.00000
     79     -11.0698      2.00000
     80     -11.0685      2.00000
     81     -11.0639      2.00000
     82     -10.8752      2.00000
     83     -10.8734      2.00000
     84     -10.7758      2.00000
     85     -10.7431      2.00000
     86     -10.7224      2.00000
     87     -10.7212      2.00000
     88     -10.6855      2.00000
     89     -10.6033      2.00000
     90     -10.5838      2.00000
     91     -10.5825      2.00000
     92     -10.4754      2.00000
     93     -10.4230      2.00000
     94     -10.4214      2.00000
     95     -10.3968      2.00000
     96     -10.3965      2.00000
     97     -10.3696      2.00000
     98     -10.2792      2.00000
     99     -10.2785      2.00000
    100     -10.2782      2.00000
    101     -10.2766      2.00000
    102     -10.2442      2.00000
    103     -10.1952      2.00000
    104     -10.1944      2.00000
    105     -10.1381      2.00000
    106     -10.1358      2.00000
    107     -10.0620      2.00000
    108     -10.0620      2.00000
    109      -4.0844      2.00000
    110      -3.8412      2.00000
    111      -3.6893      2.00000
    112      -3.6809      2.00000
    113      -3.6800      2.00000
    114      -3.5454      2.00000
    115      -3.5445      2.00000
    116      -3.4915      2.00000
    117      -3.4912      2.00000
    118      -3.4848      2.00000
    119      -3.4829      2.00000
    120      -3.4825      2.00000
    121      -3.4825      2.00000
    122      -3.4818      2.00000
    123      -3.4449      2.00000
    124      -3.1614      2.00000
    125      -3.1604      2.00000
    126      -3.1586      2.00000
    127      -3.1582      2.00000
    128      -3.0461      2.00000
    129      -3.0284      2.00000
    130      -3.0281      2.00000
    131      -2.8610      2.00000
    132      -2.7228      2.00000
    133      -2.7222      2.00000
    134      -2.6652      2.00000
    135      -2.5426      2.00000
    136      -2.5425      2.00000
    137      -2.3534      2.00000
    138      -2.3527      2.00000
    139      -2.2707      2.00000
    140      -2.2007      2.00000
    141      -2.1941      2.00000
    142      -2.1938      2.00000
    143      -2.1800      2.00000
    144      -2.1792      2.00000
    145      -2.1671      2.00000
    146      -2.1662      2.00000
    147      -2.0785      2.00000
    148      -2.0370      2.00000
    149      -2.0363      2.00000
    150      -2.0316      2.00000
    151      -1.9826      2.00000
    152      -1.9822      2.00000
    153      -1.9638      2.00000
    154      -1.9636      2.00000
    155      -1.9245      2.00000
    156      -1.8723      2.00000
    157      -1.8722      2.00000
    158      -1.6876      2.00000
    159      -1.6868      2.00000
    160      -1.6751      2.00000
    161      -1.4838      2.00000
    162      -1.4828      2.00000
    163      -1.3254      2.00000
    164      -1.3247      2.00000
    165      -1.3184      2.00000
    166      -1.2258      2.00000
    167      -1.2222      2.00000
    168      -1.2214      2.00000
    169      -1.2163      2.00000
    170      -1.2161      2.00000
    171      -1.1590      2.00000
    172      -1.1575      2.00000
    173      -1.0642      2.00000
    174      -1.0636      2.00000
    175      -1.0431      2.00000
    176      -1.0429      2.00000
    177      -1.0382      2.00000
    178      -0.9631      2.00000
    179      -0.8395      2.00000
    180      -0.8219      2.00000
    181      -0.7496      2.00000
    182      -0.7473      2.00000
    183      -0.7004      2.00000
    184      -0.2470      2.00000
    185      -0.2456      2.00000
    186      -0.1351      2.00000
    187      -0.0962      2.00000
    188      -0.0961      2.00000
    189      -0.0799      2.00000
    190       0.0069      2.00000
    191       0.0339      2.00000
    192       0.0340      2.00000
    193       0.0414      2.00000
    194       0.0434      2.00000
    195       0.0966      2.00000
    196       0.1097      2.00000
    197       0.1333      2.00000
    198       0.1334      2.00000
    199       0.1888      2.00000
    200       0.1981      2.00000
    201       0.1999      2.00000
    202       0.2417      2.00000
    203       0.2446      2.00000
    204       0.2913      2.00000
    205       0.2914      2.00000
    206       0.2966      2.00000
    207       0.2975      2.00000
    208       0.3895      2.00000
    209       0.3898      2.00000
    210       0.4013      2.00000
    211       0.5643      2.00000
    212       0.6200      2.00000
    213       0.6210      2.00000
    214       0.6745      2.00000
    215       0.6970      2.00000
    216       0.8981      2.00000
    217       0.9058      2.00000
    218       0.9063      2.00000
    219       0.9098      2.00000
    220       0.9613      2.00000
    221       0.9635      2.00000
    222       0.9882      2.00000
    223       1.0030      2.00000
    224       1.0031      2.00000
    225       1.0523      2.00000
    226       1.0534      2.00000
    227       1.0535      2.00000
    228       1.1086      2.00000
    229       1.6094      2.00000
    230       1.6100      2.00000
    231       1.6738      2.00000
    232       1.6962      2.00000
    233       1.6962      2.00000
    234       2.3488      2.00000
    235       3.5597      0.00000
    236       3.5599      0.00000
    237       3.6377      0.00000
    238       3.6377      0.00000
    239       3.7797      0.00000
    240       3.7800      0.00000
    241       3.8649      0.00000
    242       3.8835      0.00000
    243       3.8847      0.00000
    244       3.9405      0.00000
    245       3.9830      0.00000
    246       3.9833      0.00000
    247       4.0201      0.00000
    248       4.0205      0.00000
    249       4.0358      0.00000
    250       4.0383      0.00000
    251       4.1693      0.00000
    252       4.1707      0.00000
    253       4.1906      0.00000
    254       4.2264      0.00000
    255       4.2272      0.00000
    256       4.2393      0.00000
    257       4.2814      0.00000
    258       4.3529      0.00000
    259       4.3532      0.00000
    260       4.4201      0.00000
    261       4.4425      0.00000
    262       4.4428      0.00000
    263       4.4969      0.00000
    264       4.5092      0.00000
    265       4.5815      0.00000
    266       4.6289      0.00000
    267       4.6660      0.00000
    268       4.7111      0.00000
    269       4.7404      0.00000
    270       4.7440      0.00000
    271       4.8100      0.00000
    272       4.8104      0.00000
    273       4.8140      0.00000
    274       4.8435      0.00000
    275       4.8441      0.00000
    276       4.9065      0.00000
    277       4.9074      0.00000
    278       5.1176      0.00000
    279       5.1405      0.00000
    280       5.1411      0.00000
    281       5.1753      0.00000
    282       5.1754      0.00000
    283       5.1837      0.00000
    284       5.1864      0.00000
    285       5.3385      0.00000
    286       5.4051      0.00000

 k-point     3 :       0.2000    0.2000    0.0000
  band No.  band energies     occupation 
      1     -59.0880      2.00000
      2     -59.0697      2.00000
      3     -59.0654      2.00000
      4     -59.0652      2.00000
      5     -59.0590      2.00000
      6     -59.0589      2.00000
      7     -59.0568      2.00000
      8     -59.0497      2.00000
      9     -59.0496      2.00000
     10     -59.0162      2.00000
     11     -58.9979      2.00000
     12     -58.9935      2.00000
     13     -58.9935      2.00000
     14     -58.9872      2.00000
     15     -58.9872      2.00000
     16     -58.9851      2.00000
     17     -58.9780      2.00000
     18     -58.9779      2.00000
     19     -33.3612      2.00000
     20     -33.3346      2.00000
     21     -33.3340      2.00000
     22     -33.3273      2.00000
     23     -33.3266      2.00000
     24     -33.2891      2.00000
     25     -33.2734      2.00000
     26     -33.2730      2.00000
     27     -33.2622      2.00000
     28     -33.2622      2.00000
     29     -33.2549      2.00000
     30     -33.2549      2.00000
     31     -33.2356      2.00000
     32     -33.2334      2.00000
     33     -33.2332      2.00000
     34     -33.2236      2.00000
     35     -33.2011      2.00000
     36     -33.2011      2.00000
     37     -33.1867      2.00000
     38     -33.1779      2.00000
     39     -33.1778      2.00000
     40     -33.1651      2.00000
     41     -33.1649      2.00000
     42     -33.1635      2.00000
     43     -33.1612      2.00000
     44     -33.1612      2.00000
     45     -33.1609      2.00000
     46     -33.1521      2.00000
     47     -33.1464      2.00000
     48     -33.1463      2.00000
     49     -33.1151      2.00000
     50     -33.1123      2.00000
     51     -33.1120      2.00000
     52     -33.1092      2.00000
     53     -33.1064      2.00000
     54     -33.1064      2.00000
     55     -33.0959      2.00000
     56     -33.0956      2.00000
     57     -33.0935      2.00000
     58     -33.0935      2.00000
     59     -33.0894      2.00000
     60     -33.0798      2.00000
     61     -33.0749      2.00000
     62     -33.0749      2.00000
     63     -33.0495      2.00000
     64     -33.0400      2.00000
     65     -33.0400      2.00000
     66     -33.0372      2.00000
     67     -33.0371      2.00000
     68     -33.0237      2.00000
     69     -33.0237      2.00000
     70     -33.0078      2.00000
     71     -32.9774      2.00000
     72     -32.9650      2.00000
     73     -12.3268      2.00000
     74     -12.1239      2.00000
     75     -11.4754      2.00000
     76     -11.2904      2.00000
     77     -11.2458      2.00000
     78     -11.2438      2.00000
     79     -11.0698      2.00000
     80     -11.0685      2.00000
     81     -11.0639      2.00000
     82     -10.8753      2.00000
     83     -10.8733      2.00000
     84     -10.7758      2.00000
     85     -10.7429      2.00000
     86     -10.7224      2.00000
     87     -10.7212      2.00000
     88     -10.6857      2.00000
     89     -10.6032      2.00000
     90     -10.5835      2.00000
     91     -10.5826      2.00000
     92     -10.4755      2.00000
     93     -10.4228      2.00000
     94     -10.4214      2.00000
     95     -10.3966      2.00000
     96     -10.3965      2.00000
     97     -10.3699      2.00000
     98     -10.2791      2.00000
     99     -10.2785      2.00000
    100     -10.2782      2.00000
    101     -10.2766      2.00000
    102     -10.2443      2.00000
    103     -10.1952      2.00000
    104     -10.1944      2.00000
    105     -10.1381      2.00000
    106     -10.1358      2.00000
    107     -10.0620      2.00000
    108     -10.0620      2.00000
    109      -4.0844      2.00000
    110      -3.8413      2.00000
    111      -3.6893      2.00000
    112      -3.6806      2.00000
    113      -3.6803      2.00000
    114      -3.5454      2.00000
    115      -3.5444      2.00000
    116      -3.4914      2.00000
    117      -3.4912      2.00000
    118      -3.4847      2.00000
    119      -3.4831      2.00000
    120      -3.4825      2.00000
    121      -3.4825      2.00000
    122      -3.4818      2.00000
    123      -3.4449      2.00000
    124      -3.1613      2.00000
    125      -3.1603      2.00000
    126      -3.1588      2.00000
    127      -3.1583      2.00000
    128      -3.0461      2.00000
    129      -3.0284      2.00000
    130      -3.0281      2.00000
    131      -2.8608      2.00000
    132      -2.7228      2.00000
    133      -2.7220      2.00000
    134      -2.6651      2.00000
    135      -2.5426      2.00000
    136      -2.5425      2.00000
    137      -2.3533      2.00000
    138      -2.3528      2.00000
    139      -2.2702      2.00000
    140      -2.2007      2.00000
    141      -2.1949      2.00000
    142      -2.1936      2.00000
    143      -2.1800      2.00000
    144      -2.1796      2.00000
    145      -2.1668      2.00000
    146      -2.1666      2.00000
    147      -2.0784      2.00000
    148      -2.0371      2.00000
    149      -2.0365      2.00000
    150      -2.0316      2.00000
    151      -1.9831      2.00000
    152      -1.9821      2.00000
    153      -1.9639      2.00000
    154      -1.9635      2.00000
    155      -1.9246      2.00000
    156      -1.8725      2.00000
    157      -1.8724      2.00000
    158      -1.6875      2.00000
    159      -1.6870      2.00000
    160      -1.6753      2.00000
    161      -1.4836      2.00000
    162      -1.4825      2.00000
    163      -1.3266      2.00000
    164      -1.3246      2.00000
    165      -1.3178      2.00000
    166      -1.2256      2.00000
    167      -1.2223      2.00000
    168      -1.2216      2.00000
    169      -1.2164      2.00000
    170      -1.2161      2.00000
    171      -1.1594      2.00000
    172      -1.1573      2.00000
    173      -1.0643      2.00000
    174      -1.0637      2.00000
    175      -1.0431      2.00000
    176      -1.0428      2.00000
    177      -1.0379      2.00000
    178      -0.9631      2.00000
    179      -0.8386      2.00000
    180      -0.8224      2.00000
    181      -0.7495      2.00000
    182      -0.7473      2.00000
    183      -0.7007      2.00000
    184      -0.2468      2.00000
    185      -0.2455      2.00000
    186      -0.1353      2.00000
    187      -0.0961      2.00000
    188      -0.0961      2.00000
    189      -0.0807      2.00000
    190       0.0068      2.00000
    191       0.0337      2.00000
    192       0.0346      2.00000
    193       0.0411      2.00000
    194       0.0434      2.00000
    195       0.0966      2.00000
    196       0.1113      2.00000
    197       0.1333      2.00000
    198       0.1334      2.00000
    199       0.1889      2.00000
    200       0.1985      2.00000
    201       0.2002      2.00000
    202       0.2419      2.00000
    203       0.2442      2.00000
    204       0.2914      2.00000
    205       0.2915      2.00000
    206       0.2965      2.00000
    207       0.2974      2.00000
    208       0.3897      2.00000
    209       0.3903      2.00000
    210       0.4007      2.00000
    211       0.5644      2.00000
    212       0.6200      2.00000
    213       0.6209      2.00000
    214       0.6744      2.00000
    215       0.6970      2.00000
    216       0.8980      2.00000
    217       0.9063      2.00000
    218       0.9071      2.00000
    219       0.9092      2.00000
    220       0.9616      2.00000
    221       0.9631      2.00000
    222       0.9873      2.00000
    223       1.0030      2.00000
    224       1.0031      2.00000
    225       1.0522      2.00000
    226       1.0534      2.00000
    227       1.0535      2.00000
    228       1.1086      2.00000
    229       1.6095      2.00000
    230       1.6099      2.00000
    231       1.6737      2.00000
    232       1.6962      2.00000
    233       1.6962      2.00000
    234       2.3488      2.00000
    235       3.5596      0.00000
    236       3.5601      0.00000
    237       3.6377      0.00000
    238       3.6377      0.00000
    239       3.7793      0.00000
    240       3.7797      0.00000
    241       3.8648      0.00000
    242       3.8836      0.00000
    243       3.8851      0.00000
    244       3.9404      0.00000
    245       3.9831      0.00000
    246       3.9832      0.00000
    247       4.0201      0.00000
    248       4.0204      0.00000
    249       4.0360      0.00000
    250       4.0383      0.00000
    251       4.1696      0.00000
    252       4.1710      0.00000
    253       4.1907      0.00000
    254       4.2261      0.00000
    255       4.2269      0.00000
    256       4.2394      0.00000
    257       4.2818      0.00000
    258       4.3528      0.00000
    259       4.3531      0.00000
    260       4.4219      0.00000
    261       4.4424      0.00000
    262       4.4428      0.00000
    263       4.4971      0.00000
    264       4.5094      0.00000
    265       4.5812      0.00000
    266       4.6281      0.00000
    267       4.6648      0.00000
    268       4.7111      0.00000
    269       4.7406      0.00000
    270       4.7446      0.00000
    271       4.8100      0.00000
    272       4.8105      0.00000
    273       4.8143      0.00000
    274       4.8434      0.00000
    275       4.8445      0.00000
    276       4.9060      0.00000
    277       4.9073      0.00000
    278       5.1177      0.00000
    279       5.1411      0.00000
    280       5.1413      0.00000
    281       5.1752      0.00000
    282       5.1755      0.00000
    283       5.1836      0.00000
    284       5.1849      0.00000
    285       5.3414      0.00000
    286       5.3780      0.00000

 k-point     4 :       0.0000    0.2000    0.0000
  band No.  band energies     occupation 
      1     -59.0880      2.00000
      2     -59.0697      2.00000
      3     -59.0654      2.00000
      4     -59.0653      2.00000
      5     -59.0590      2.00000
      6     -59.0589      2.00000
      7     -59.0569      2.00000
      8     -59.0497      2.00000
      9     -59.0496      2.00000
     10     -59.0162      2.00000
     11     -58.9979      2.00000
     12     -58.9935      2.00000
     13     -58.9935      2.00000
     14     -58.9872      2.00000
     15     -58.9872      2.00000
     16     -58.9851      2.00000
     17     -58.9780      2.00000
     18     -58.9779      2.00000
     19     -33.3612      2.00000
     20     -33.3346      2.00000
     21     -33.3340      2.00000
     22     -33.3274      2.00000
     23     -33.3266      2.00000
     24     -33.2891      2.00000
     25     -33.2735      2.00000
     26     -33.2730      2.00000
     27     -33.2622      2.00000
     28     -33.2622      2.00000
     29     -33.2549      2.00000
     30     -33.2549      2.00000
     31     -33.2356      2.00000
     32     -33.2334      2.00000
     33     -33.2332      2.00000
     34     -33.2236      2.00000
     35     -33.2011      2.00000
     36     -33.2011      2.00000
     37     -33.1867      2.00000
     38     -33.1779      2.00000
     39     -33.1778      2.00000
     40     -33.1651      2.00000
     41     -33.1649      2.00000
     42     -33.1635      2.00000
     43     -33.1612      2.00000
     44     -33.1612      2.00000
     45     -33.1609      2.00000
     46     -33.1521      2.00000
     47     -33.1464      2.00000
     48     -33.1463      2.00000
     49     -33.1151      2.00000
     50     -33.1123      2.00000
     51     -33.1119      2.00000
     52     -33.1092      2.00000
     53     -33.1064      2.00000
     54     -33.1064      2.00000
     55     -33.0959      2.00000
     56     -33.0955      2.00000
     57     -33.0935      2.00000
     58     -33.0935      2.00000
     59     -33.0894      2.00000
     60     -33.0799      2.00000
     61     -33.0749      2.00000
     62     -33.0749      2.00000
     63     -33.0495      2.00000
     64     -33.0400      2.00000
     65     -33.0400      2.00000
     66     -33.0372      2.00000
     67     -33.0371      2.00000
     68     -33.0237      2.00000
     69     -33.0237      2.00000
     70     -33.0078      2.00000
     71     -32.9774      2.00000
     72     -32.9650      2.00000
     73     -12.3268      2.00000
     74     -12.1239      2.00000
     75     -11.4755      2.00000
     76     -11.2904      2.00000
     77     -11.2457      2.00000
     78     -11.2438      2.00000
     79     -11.0698      2.00000
     80     -11.0685      2.00000
     81     -11.0639      2.00000
     82     -10.8753      2.00000
     83     -10.8733      2.00000
     84     -10.7758      2.00000
     85     -10.7430      2.00000
     86     -10.7224      2.00000
     87     -10.7212      2.00000
     88     -10.6856      2.00000
     89     -10.6033      2.00000
     90     -10.5837      2.00000
     91     -10.5824      2.00000
     92     -10.4754      2.00000
     93     -10.4229      2.00000
     94     -10.4214      2.00000
     95     -10.3967      2.00000
     96     -10.3964      2.00000
     97     -10.3698      2.00000
     98     -10.2792      2.00000
     99     -10.2784      2.00000
    100     -10.2782      2.00000
    101     -10.2766      2.00000
    102     -10.2442      2.00000
    103     -10.1952      2.00000
    104     -10.1944      2.00000
    105     -10.1381      2.00000
    106     -10.1358      2.00000
    107     -10.0620      2.00000
    108     -10.0620      2.00000
    109      -4.0844      2.00000
    110      -3.8412      2.00000
    111      -3.6893      2.00000
    112      -3.6808      2.00000
    113      -3.6801      2.00000
    114      -3.5454      2.00000
    115      -3.5444      2.00000
    116      -3.4915      2.00000
    117      -3.4911      2.00000
    118      -3.4848      2.00000
    119      -3.4830      2.00000
    120      -3.4825      2.00000
    121      -3.4825      2.00000
    122      -3.4818      2.00000
    123      -3.4449      2.00000
    124      -3.1619      2.00000
    125      -3.1598      2.00000
    126      -3.1588      2.00000
    127      -3.1583      2.00000
    128      -3.0461      2.00000
    129      -3.0284      2.00000
    130      -3.0281      2.00000
    131      -2.8609      2.00000
    132      -2.7228      2.00000
    133      -2.7221      2.00000
    134      -2.6651      2.00000
    135      -2.5426      2.00000
    136      -2.5425      2.00000
    137      -2.3533      2.00000
    138      -2.3527      2.00000
    139      -2.2704      2.00000
    140      -2.2007      2.00000
    141      -2.1945      2.00000
    142      -2.1937      2.00000
    143      -2.1801      2.00000
    144      -2.1793      2.00000
    145      -2.1670      2.00000
    146      -2.1664      2.00000
    147      -2.0785      2.00000
    148      -2.0371      2.00000
    149      -2.0363      2.00000
    150      -2.0316      2.00000
    151      -1.9830      2.00000
    152      -1.9820      2.00000
    153      -1.9639      2.00000
    154      -1.9635      2.00000
    155      -1.9246      2.00000
    156      -1.8724      2.00000
    157      -1.8723      2.00000
    158      -1.6877      2.00000
    159      -1.6868      2.00000
    160      -1.6752      2.00000
    161      -1.4840      2.00000
    162      -1.4824      2.00000
    163      -1.3262      2.00000
    164      -1.3245      2.00000
    165      -1.3181      2.00000
    166      -1.2257      2.00000
    167      -1.2222      2.00000
    168      -1.2215      2.00000
    169      -1.2164      2.00000
    170      -1.2161      2.00000
    171      -1.1593      2.00000
    172      -1.1573      2.00000
    173      -1.0643      2.00000
    174      -1.0637      2.00000
    175      -1.0431      2.00000
    176      -1.0428      2.00000
    177      -1.0381      2.00000
    178      -0.9631      2.00000
    179      -0.8390      2.00000
    180      -0.8221      2.00000
    181      -0.7495      2.00000
    182      -0.7473      2.00000
    183      -0.7006      2.00000
    184      -0.2469      2.00000
    185      -0.2455      2.00000
    186      -0.1352      2.00000
    187      -0.0962      2.00000
    188      -0.0961      2.00000
    189      -0.0803      2.00000
    190       0.0069      2.00000
    191       0.0338      2.00000
    192       0.0343      2.00000
    193       0.0412      2.00000
    194       0.0435      2.00000
    195       0.0966      2.00000
    196       0.1105      2.00000
    197       0.1333      2.00000
    198       0.1334      2.00000
    199       0.1888      2.00000
    200       0.1982      2.00000
    201       0.2003      2.00000
    202       0.2418      2.00000
    203       0.2444      2.00000
    204       0.2913      2.00000
    205       0.2915      2.00000
    206       0.2965      2.00000
    207       0.2975      2.00000
    208       0.3896      2.00000
    209       0.3901      2.00000
    210       0.4010      2.00000
    211       0.5644      2.00000
    212       0.6200      2.00000
    213       0.6210      2.00000
    214       0.6745      2.00000
    215       0.6970      2.00000
    216       0.8980      2.00000
    217       0.9059      2.00000
    218       0.9068      2.00000
    219       0.9095      2.00000
    220       0.9613      2.00000
    221       0.9634      2.00000
    222       0.9878      2.00000
    223       1.0030      2.00000
    224       1.0031      2.00000
    225       1.0522      2.00000
    226       1.0534      2.00000
    227       1.0535      2.00000
    228       1.1086      2.00000
    229       1.6094      2.00000
    230       1.6100      2.00000
    231       1.6737      2.00000
    232       1.6962      2.00000
    233       1.6962      2.00000
    234       2.3488      2.00000
    235       3.5596      0.00000
    236       3.5601      0.00000
    237       3.6377      0.00000
    238       3.6377      0.00000
    239       3.7793      0.00000
    240       3.7800      0.00000
    241       3.8649      0.00000
    242       3.8835      0.00000
    243       3.8849      0.00000
    244       3.9405      0.00000
    245       3.9831      0.00000
    246       3.9833      0.00000
    247       4.0201      0.00000
    248       4.0204      0.00000
    249       4.0359      0.00000
    250       4.0383      0.00000
    251       4.1694      0.00000
    252       4.1709      0.00000
    253       4.1907      0.00000
    254       4.2262      0.00000
    255       4.2271      0.00000
    256       4.2393      0.00000
    257       4.2816      0.00000
    258       4.3527      0.00000
    259       4.3533      0.00000
    260       4.4210      0.00000
    261       4.4424      0.00000
    262       4.4428      0.00000
    263       4.4970      0.00000
    264       4.5093      0.00000
    265       4.5814      0.00000
    266       4.6285      0.00000
    267       4.6654      0.00000
    268       4.7111      0.00000
    269       4.7405      0.00000
    270       4.7443      0.00000
    271       4.8099      0.00000
    272       4.8105      0.00000
    273       4.8141      0.00000
    274       4.8434      0.00000
    275       4.8443      0.00000
    276       4.9061      0.00000
    277       4.9075      0.00000
    278       5.1176      0.00000
    279       5.1409      0.00000
    280       5.1411      0.00000
    281       5.1753      0.00000
    282       5.1754      0.00000
    283       5.1836      0.00000
    284       5.1857      0.00000
    285       5.3405      0.00000
    286       5.3876      0.00000

 k-point     5 :       0.4000    0.0000    0.0000
  band No.  band energies     occupation 
      1     -59.0836      2.00000
      2     -59.0771      2.00000
      3     -59.0669      2.00000
      4     -59.0668      2.00000
      5     -59.0553      2.00000
      6     -59.0552      2.00000
      7     -59.0538      2.00000
      8     -59.0519      2.00000
      9     -59.0518      2.00000
     10     -59.0118      2.00000
     11     -59.0054      2.00000
     12     -58.9951      2.00000
     13     -58.9951      2.00000
     14     -58.9834      2.00000
     15     -58.9834      2.00000
     16     -58.9821      2.00000
     17     -58.9802      2.00000
     18     -58.9802      2.00000
     19     -33.3909      2.00000
     20     -33.3492      2.00000
     21     -33.3486      2.00000
     22     -33.3465      2.00000
     23     -33.3459      2.00000
     24     -33.3188      2.00000
     25     -33.2767      2.00000
     26     -33.2767      2.00000
     27     -33.2741      2.00000
     28     -33.2741      2.00000
     29     -33.2487      2.00000
     30     -33.2482      2.00000
     31     -33.2148      2.00000
     32     -33.2017      2.00000
     33     -33.1868      2.00000
     34     -33.1864      2.00000
     35     -33.1810      2.00000
     36     -33.1809      2.00000
     37     -33.1763      2.00000
     38     -33.1763      2.00000
     39     -33.1606      2.00000
     40     -33.1575      2.00000
     41     -33.1574      2.00000
     42     -33.1547      2.00000
     43     -33.1509      2.00000
     44     -33.1508      2.00000
     45     -33.1437      2.00000
     46     -33.1433      2.00000
     47     -33.1433      2.00000
     48     -33.1302      2.00000
     49     -33.1163      2.00000
     50     -33.1145      2.00000
     51     -33.1145      2.00000
     52     -33.1095      2.00000
     53     -33.1094      2.00000
     54     -33.1023      2.00000
     55     -33.1018      2.00000
     56     -33.0946      2.00000
     57     -33.0886      2.00000
     58     -33.0859      2.00000
     59     -33.0859      2.00000
     60     -33.0832      2.00000
     61     -33.0794      2.00000
     62     -33.0794      2.00000
     63     -33.0715      2.00000
     64     -33.0715      2.00000
     65     -33.0626      2.00000
     66     -33.0474      2.00000
     67     -33.0442      2.00000
     68     -33.0300      2.00000
     69     -33.0300      2.00000
     70     -33.0226      2.00000
     71     -32.9905      2.00000
     72     -32.9753      2.00000
     73     -12.1372      2.00000
     74     -11.9365      2.00000
     75     -11.8424      2.00000
     76     -11.6469      2.00000
     77     -11.3303      2.00000
     78     -11.3285      2.00000
     79     -11.1501      2.00000
     80     -11.1489      2.00000
     81     -10.9793      2.00000
     82     -10.8480      2.00000
     83     -10.7074      2.00000
     84     -10.6435      2.00000
     85     -10.6416      2.00000
     86     -10.6188      2.00000
     87     -10.6176      2.00000
     88     -10.6024      2.00000
     89     -10.5330      2.00000
     90     -10.5103      2.00000
     91     -10.5091      2.00000
     92     -10.4313      2.00000
     93     -10.4293      2.00000
     94     -10.4221      2.00000
     95     -10.4218      2.00000
     96     -10.4196      2.00000
     97     -10.3229      2.00000
     98     -10.3215      2.00000
     99     -10.3148      2.00000
    100     -10.3132      2.00000
    101     -10.2844      2.00000
    102     -10.2113      2.00000
    103     -10.2093      2.00000
    104     -10.1985      2.00000
    105     -10.1983      2.00000
    106     -10.1877      2.00000
    107     -10.1208      2.00000
    108     -10.1207      2.00000
    109      -4.0134      2.00000
    110      -3.8892      2.00000
    111      -3.8834      2.00000
    112      -3.6662      2.00000
    113      -3.6654      2.00000
    114      -3.6279      2.00000
    115      -3.5142      2.00000
    116      -3.5137      2.00000
    117      -3.5000      2.00000
    118      -3.4998      2.00000
    119      -3.4029      2.00000
    120      -3.4014      2.00000
    121      -3.3504      2.00000
    122      -3.3501      2.00000
    123      -3.2783      2.00000
    124      -3.2773      2.00000
    125      -3.2508      2.00000
    126      -3.2035      2.00000
    127      -3.2034      2.00000
    128      -3.0445      2.00000
    129      -3.0343      2.00000
    130      -3.0040      2.00000
    131      -3.0034      2.00000
    132      -2.9699      2.00000
    133      -2.9695      2.00000
    134      -2.8701      2.00000
    135      -2.8663      2.00000
    136      -2.8663      2.00000
    137      -2.3619      2.00000
    138      -2.1910      2.00000
    139      -2.1901      2.00000
    140      -2.1891      2.00000
    141      -2.1885      2.00000
    142      -2.1587      2.00000
    143      -2.1579      2.00000
    144      -2.1238      2.00000
    145      -2.0718      2.00000
    146      -2.0713      2.00000
    147      -1.9599      2.00000
    148      -1.9596      2.00000
    149      -1.9340      2.00000
    150      -1.9337      2.00000
    151      -1.9186      2.00000
    152      -1.9183      2.00000
    153      -1.8512      2.00000
    154      -1.7904      2.00000
    155      -1.7894      2.00000
    156      -1.7776      2.00000
    157      -1.5520      2.00000
    158      -1.4930      2.00000
    159      -1.4923      2.00000
    160      -1.4512      2.00000
    161      -1.4503      2.00000
    162      -1.4214      2.00000
    163      -1.4135      2.00000
    164      -1.4063      2.00000
    165      -1.4058      2.00000
    166      -1.3366      2.00000
    167      -1.3278      2.00000
    168      -1.2924      2.00000
    169      -1.2922      2.00000
    170      -1.2309      2.00000
    171      -1.2306      2.00000
    172      -1.1570      2.00000
    173      -1.1565      2.00000
    174      -1.1503      2.00000
    175      -1.1124      2.00000
    176      -1.0175      2.00000
    177      -1.0163      2.00000
    178      -0.8067      2.00000
    179      -0.8062      2.00000
    180      -0.6282      2.00000
    181      -0.5984      2.00000
    182      -0.5519      2.00000
    183      -0.5071      2.00000
    184      -0.4205      2.00000
    185      -0.3362      2.00000
    186      -0.3350      2.00000
    187      -0.3293      2.00000
    188      -0.2520      2.00000
    189      -0.2121      2.00000
    190      -0.2089      2.00000
    191      -0.2045      2.00000
    192      -0.1699      2.00000
    193      -0.1695      2.00000
    194      -0.1604      2.00000
    195      -0.1173      2.00000
    196      -0.1172      2.00000
    197      -0.0785      2.00000
    198      -0.0329      2.00000
    199      -0.0319      2.00000
    200       0.0873      2.00000
    201       0.0878      2.00000
    202       0.1180      2.00000
    203       0.1182      2.00000
    204       0.1573      2.00000
    205       0.2920      2.00000
    206       0.2923      2.00000
    207       0.4574      2.00000
    208       0.5280      2.00000
    209       0.6199      2.00000
    210       0.6212      2.00000
    211       0.6844      2.00000
    212       0.8348      2.00000
    213       0.8495      2.00000
    214       0.8507      2.00000
    215       0.9268      2.00000
    216       0.9779      2.00000
    217       0.9784      2.00000
    218       1.0348      2.00000
    219       1.0592      2.00000
    220       1.0593      2.00000
    221       1.0975      2.00000
    222       1.1610      2.00000
    223       1.1625      2.00000
    224       1.2163      2.00000
    225       1.2497      2.00000
    226       1.2497      2.00000
    227       1.3348      2.00000
    228       1.3655      2.00000
    229       1.3663      2.00000
    230       1.4565      2.00000
    231       1.4565      2.00000
    232       1.5216      2.00000
    233       1.5802      2.00000
    234       2.0056      2.00000
    235       3.6354      0.00000
    236       3.6357      0.00000
    237       3.8287      0.00000
    238       3.8295      0.00000
    239       3.9027      0.00000
    240       3.9041      0.00000
    241       3.9262      0.00000
    242       3.9306      0.00000
    243       3.9307      0.00000
    244       3.9671      0.00000
    245       3.9673      0.00000
    246       3.9738      0.00000
    247       4.0546      0.00000
    248       4.1385      0.00000
    249       4.1392      0.00000
    250       4.2259      0.00000
    251       4.2308      0.00000
    252       4.2320      0.00000
    253       4.2374      0.00000
    254       4.2443      0.00000
    255       4.3067      0.00000
    256       4.3169      0.00000
    257       4.3174      0.00000
    258       4.3757      0.00000
    259       4.3897      0.00000
    260       4.3901      0.00000
    261       4.3916      0.00000
    262       4.4392      0.00000
    263       4.4440      0.00000
    264       4.4583      0.00000
    265       4.4993      0.00000
    266       4.5002      0.00000
    267       4.5158      0.00000
    268       4.5160      0.00000
    269       4.5902      0.00000
    270       4.5986      0.00000
    271       4.6174      0.00000
    272       4.6552      0.00000
    273       4.6558      0.00000
    274       4.7774      0.00000
    275       4.8522      0.00000
    276       4.8527      0.00000
    277       4.8571      0.00000
    278       4.8577      0.00000
    279       4.9105      0.00000
    280       5.0263      0.00000
    281       5.0359      0.00000
    282       5.0367      0.00000
    283       5.1284      0.00000
    284       5.1304      0.00000
    285       5.2270      0.00000
    286       5.2370      0.00000

 k-point     6 :       0.4000    0.4000    0.0000
  band No.  band energies     occupation 
      1     -59.0836      2.00000
      2     -59.0771      2.00000
      3     -59.0669      2.00000
      4     -59.0668      2.00000
      5     -59.0553      2.00000
      6     -59.0552      2.00000
      7     -59.0538      2.00000
      8     -59.0519      2.00000
      9     -59.0517      2.00000
     10     -59.0118      2.00000
     11     -59.0054      2.00000
     12     -58.9951      2.00000
     13     -58.9951      2.00000
     14     -58.9834      2.00000
     15     -58.9834      2.00000
     16     -58.9821      2.00000
     17     -58.9802      2.00000
     18     -58.9802      2.00000
     19     -33.3910      2.00000
     20     -33.3492      2.00000
     21     -33.3486      2.00000
     22     -33.3465      2.00000
     23     -33.3459      2.00000
     24     -33.3188      2.00000
     25     -33.2767      2.00000
     26     -33.2767      2.00000
     27     -33.2741      2.00000
     28     -33.2741      2.00000
     29     -33.2486      2.00000
     30     -33.2482      2.00000
     31     -33.2148      2.00000
     32     -33.2017      2.00000
     33     -33.1867      2.00000
     34     -33.1864      2.00000
     35     -33.1810      2.00000
     36     -33.1809      2.00000
     37     -33.1763      2.00000
     38     -33.1763      2.00000
     39     -33.1607      2.00000
     40     -33.1575      2.00000
     41     -33.1574      2.00000
     42     -33.1547      2.00000
     43     -33.1509      2.00000
     44     -33.1508      2.00000
     45     -33.1437      2.00000
     46     -33.1434      2.00000
     47     -33.1433      2.00000
     48     -33.1302      2.00000
     49     -33.1163      2.00000
     50     -33.1145      2.00000
     51     -33.1145      2.00000
     52     -33.1095      2.00000
     53     -33.1094      2.00000
     54     -33.1023      2.00000
     55     -33.1019      2.00000
     56     -33.0947      2.00000
     57     -33.0886      2.00000
     58     -33.0859      2.00000
     59     -33.0859      2.00000
     60     -33.0832      2.00000
     61     -33.0794      2.00000
     62     -33.0794      2.00000
     63     -33.0715      2.00000
     64     -33.0715      2.00000
     65     -33.0625      2.00000
     66     -33.0474      2.00000
     67     -33.0442      2.00000
     68     -33.0300      2.00000
     69     -33.0300      2.00000
     70     -33.0226      2.00000
     71     -32.9905      2.00000
     72     -32.9753      2.00000
     73     -12.1372      2.00000
     74     -11.9364      2.00000
     75     -11.8424      2.00000
     76     -11.6468      2.00000
     77     -11.3305      2.00000
     78     -11.3285      2.00000
     79     -11.1502      2.00000
     80     -11.1489      2.00000
     81     -10.9793      2.00000
     82     -10.8481      2.00000
     83     -10.7074      2.00000
     84     -10.6436      2.00000
     85     -10.6415      2.00000
     86     -10.6185      2.00000
     87     -10.6176      2.00000
     88     -10.6025      2.00000
     89     -10.5327      2.00000
     90     -10.5104      2.00000
     91     -10.5091      2.00000
     92     -10.4313      2.00000
     93     -10.4293      2.00000
     94     -10.4219      2.00000
     95     -10.4218      2.00000
     96     -10.4196      2.00000
     97     -10.3229      2.00000
     98     -10.3215      2.00000
     99     -10.3146      2.00000
    100     -10.3132      2.00000
    101     -10.2848      2.00000
    102     -10.2112      2.00000
    103     -10.2093      2.00000
    104     -10.1985      2.00000
    105     -10.1983      2.00000
    106     -10.1877      2.00000
    107     -10.1208      2.00000
    108     -10.1207      2.00000
    109      -4.0136      2.00000
    110      -3.8893      2.00000
    111      -3.8834      2.00000
    112      -3.6660      2.00000
    113      -3.6655      2.00000
    114      -3.6278      2.00000
    115      -3.5141      2.00000
    116      -3.5136      2.00000
    117      -3.5000      2.00000
    118      -3.4998      2.00000
    119      -3.4030      2.00000
    120      -3.4015      2.00000
    121      -3.3504      2.00000
    122      -3.3500      2.00000
    123      -3.2783      2.00000
    124      -3.2773      2.00000
    125      -3.2508      2.00000
    126      -3.2035      2.00000
    127      -3.2034      2.00000
    128      -3.0441      2.00000
    129      -3.0342      2.00000
    130      -3.0041      2.00000
    131      -3.0033      2.00000
    132      -2.9700      2.00000
    133      -2.9690      2.00000
    134      -2.8700      2.00000
    135      -2.8663      2.00000
    136      -2.8663      2.00000
    137      -2.3614      2.00000
    138      -2.1913      2.00000
    139      -2.1906      2.00000
    140      -2.1889      2.00000
    141      -2.1886      2.00000
    142      -2.1588      2.00000
    143      -2.1579      2.00000
    144      -2.1237      2.00000
    145      -2.0719      2.00000
    146      -2.0716      2.00000
    147      -1.9604      2.00000
    148      -1.9594      2.00000
    149      -1.9348      2.00000
    150      -1.9334      2.00000
    151      -1.9189      2.00000
    152      -1.9183      2.00000
    153      -1.8508      2.00000
    154      -1.7910      2.00000
    155      -1.7897      2.00000
    156      -1.7777      2.00000
    157      -1.5523      2.00000
    158      -1.4938      2.00000
    159      -1.4923      2.00000
    160      -1.4515      2.00000
    161      -1.4504      2.00000
    162      -1.4208      2.00000
    163      -1.4130      2.00000
    164      -1.4065      2.00000
    165      -1.4057      2.00000
    166      -1.3366      2.00000
    167      -1.3278      2.00000
    168      -1.2928      2.00000
    169      -1.2923      2.00000
    170      -1.2310      2.00000
    171      -1.2308      2.00000
    172      -1.1568      2.00000
    173      -1.1562      2.00000
    174      -1.1506      2.00000
    175      -1.1128      2.00000
    176      -1.0174      2.00000
    177      -1.0162      2.00000
    178      -0.8065      2.00000
    179      -0.8061      2.00000
    180      -0.6286      2.00000
    181      -0.5990      2.00000
    182      -0.5519      2.00000
    183      -0.5060      2.00000
    184      -0.4203      2.00000
    185      -0.3361      2.00000
    186      -0.3351      2.00000
    187      -0.3293      2.00000
    188      -0.2520      2.00000
    189      -0.2120      2.00000
    190      -0.2088      2.00000
    191      -0.2049      2.00000
    192      -0.1696      2.00000
    193      -0.1693      2.00000
    194      -0.1590      2.00000
    195      -0.1173      2.00000
    196      -0.1172      2.00000
    197      -0.0784      2.00000
    198      -0.0326      2.00000
    199      -0.0316      2.00000
    200       0.0873      2.00000
    201       0.0882      2.00000
    202       0.1181      2.00000
    203       0.1183      2.00000
    204       0.1570      2.00000
    205       0.2921      2.00000
    206       0.2925      2.00000
    207       0.4574      2.00000
    208       0.5277      2.00000
    209       0.6200      2.00000
    210       0.6206      2.00000
    211       0.6846      2.00000
    212       0.8349      2.00000
    213       0.8497      2.00000
    214       0.8504      2.00000
    215       0.9268      2.00000
    216       0.9787      2.00000
    217       0.9793      2.00000
    218       1.0348      2.00000
    219       1.0593      2.00000
    220       1.0593      2.00000
    221       1.0967      2.00000
    222       1.1612      2.00000
    223       1.1621      2.00000
    224       1.2162      2.00000
    225       1.2497      2.00000
    226       1.2497      2.00000
    227       1.3344      2.00000
    228       1.3658      2.00000
    229       1.3661      2.00000
    230       1.4565      2.00000
    231       1.4565      2.00000
    232       1.5215      2.00000
    233       1.5800      2.00000
    234       2.0055      2.00000
    235       3.6350      0.00000
    236       3.6354      0.00000
    237       3.8286      0.00000
    238       3.8296      0.00000
    239       3.9027      0.00000
    240       3.9043      0.00000
    241       3.9259      0.00000
    242       3.9303      0.00000
    243       3.9309      0.00000
    244       3.9671      0.00000
    245       3.9673      0.00000
    246       3.9734      0.00000
    247       4.0545      0.00000
    248       4.1385      0.00000
    249       4.1392      0.00000
    250       4.2263      0.00000
    251       4.2311      0.00000
    252       4.2325      0.00000
    253       4.2370      0.00000
    254       4.2449      0.00000
    255       4.3083      0.00000
    256       4.3167      0.00000
    257       4.3171      0.00000
    258       4.3758      0.00000
    259       4.3894      0.00000
    260       4.3900      0.00000
    261       4.3916      0.00000
    262       4.4398      0.00000
    263       4.4441      0.00000
    264       4.4589      0.00000
    265       4.4996      0.00000
    266       4.4999      0.00000
    267       4.5157      0.00000
    268       4.5159      0.00000
    269       4.5902      0.00000
    270       4.5984      0.00000
    271       4.6175      0.00000
    272       4.6551      0.00000
    273       4.6558      0.00000
    274       4.7774      0.00000
    275       4.8521      0.00000
    276       4.8526      0.00000
    277       4.8576      0.00000
    278       4.8582      0.00000
    279       4.9091      0.00000
    280       5.0261      0.00000
    281       5.0351      0.00000
    282       5.0365      0.00000
    283       5.1278      0.00000
    284       5.1296      0.00000
    285       5.2272      0.00000
    286       5.2351      0.00000

 k-point     7 :       0.0000    0.4000    0.0000
  band No.  band energies     occupation 
      1     -59.0836      2.00000
      2     -59.0771      2.00000
      3     -59.0669      2.00000
      4     -59.0668      2.00000
      5     -59.0553      2.00000
      6     -59.0552      2.00000
      7     -59.0538      2.00000
      8     -59.0519      2.00000
      9     -59.0518      2.00000
     10     -59.0118      2.00000
     11     -59.0054      2.00000
     12     -58.9951      2.00000
     13     -58.9951      2.00000
     14     -58.9834      2.00000
     15     -58.9834      2.00000
     16     -58.9821      2.00000
     17     -58.9802      2.00000
     18     -58.9802      2.00000
     19     -33.3910      2.00000
     20     -33.3492      2.00000
     21     -33.3486      2.00000
     22     -33.3465      2.00000
     23     -33.3459      2.00000
     24     -33.3188      2.00000
     25     -33.2767      2.00000
     26     -33.2767      2.00000
     27     -33.2741      2.00000
     28     -33.2741      2.00000
     29     -33.2487      2.00000
     30     -33.2482      2.00000
     31     -33.2148      2.00000
     32     -33.2017      2.00000
     33     -33.1867      2.00000
     34     -33.1864      2.00000
     35     -33.1810      2.00000
     36     -33.1809      2.00000
     37     -33.1763      2.00000
     38     -33.1763      2.00000
     39     -33.1607      2.00000
     40     -33.1575      2.00000
     41     -33.1574      2.00000
     42     -33.1547      2.00000
     43     -33.1509      2.00000
     44     -33.1508      2.00000
     45     -33.1437      2.00000
     46     -33.1434      2.00000
     47     -33.1433      2.00000
     48     -33.1302      2.00000
     49     -33.1163      2.00000
     50     -33.1145      2.00000
     51     -33.1145      2.00000
     52     -33.1095      2.00000
     53     -33.1094      2.00000
     54     -33.1023      2.00000
     55     -33.1019      2.00000
     56     -33.0947      2.00000
     57     -33.0886      2.00000
     58     -33.0859      2.00000
     59     -33.0859      2.00000
     60     -33.0832      2.00000
     61     -33.0794      2.00000
     62     -33.0794      2.00000
     63     -33.0715      2.00000
     64     -33.0715      2.00000
     65     -33.0625      2.00000
     66     -33.0474      2.00000
     67     -33.0442      2.00000
     68     -33.0300      2.00000
     69     -33.0300      2.00000
     70     -33.0226      2.00000
     71     -32.9905      2.00000
     72     -32.9753      2.00000
     73     -12.1372      2.00000
     74     -11.9364      2.00000
     75     -11.8424      2.00000
     76     -11.6468      2.00000
     77     -11.3305      2.00000
     78     -11.3285      2.00000
     79     -11.1502      2.00000
     80     -11.1489      2.00000
     81     -10.9793      2.00000
     82     -10.8480      2.00000
     83     -10.7074      2.00000
     84     -10.6435      2.00000
     85     -10.6415      2.00000
     86     -10.6187      2.00000
     87     -10.6175      2.00000
     88     -10.6025      2.00000
     89     -10.5329      2.00000
     90     -10.5104      2.00000
     91     -10.5091      2.00000
     92     -10.4313      2.00000
     93     -10.4293      2.00000
     94     -10.4220      2.00000
     95     -10.4217      2.00000
     96     -10.4196      2.00000
     97     -10.3229      2.00000
     98     -10.3215      2.00000
     99     -10.3147      2.00000
    100     -10.3132      2.00000
    101     -10.2846      2.00000
    102     -10.2112      2.00000
    103     -10.2093      2.00000
    104     -10.1985      2.00000
    105     -10.1983      2.00000
    106     -10.1877      2.00000
    107     -10.1208      2.00000
    108     -10.1207      2.00000
    109      -4.0135      2.00000
    110      -3.8892      2.00000
    111      -3.8834      2.00000
    112      -3.6662      2.00000
    113      -3.6653      2.00000
    114      -3.6278      2.00000
    115      -3.5144      2.00000
    116      -3.5134      2.00000
    117      -3.5001      2.00000
    118      -3.4997      2.00000
    119      -3.4030      2.00000
    120      -3.4015      2.00000
    121      -3.3505      2.00000
    122      -3.3499      2.00000
    123      -3.2784      2.00000
    124      -3.2773      2.00000
    125      -3.2508      2.00000
    126      -3.2035      2.00000
    127      -3.2034      2.00000
    128      -3.0443      2.00000
    129      -3.0343      2.00000
    130      -3.0041      2.00000
    131      -3.0033      2.00000
    132      -2.9700      2.00000
    133      -2.9691      2.00000
    134      -2.8701      2.00000
    135      -2.8663      2.00000
    136      -2.8663      2.00000
    137      -2.3617      2.00000
    138      -2.1912      2.00000
    139      -2.1903      2.00000
    140      -2.1890      2.00000
    141      -2.1885      2.00000
    142      -2.1587      2.00000
    143      -2.1579      2.00000
    144      -2.1237      2.00000
    145      -2.0720      2.00000
    146      -2.0713      2.00000
    147      -1.9602      2.00000
    148      -1.9595      2.00000
    149      -1.9344      2.00000
    150      -1.9335      2.00000
    151      -1.9188      2.00000
    152      -1.9183      2.00000
    153      -1.8510      2.00000
    154      -1.7907      2.00000
    155      -1.7895      2.00000
    156      -1.7776      2.00000
    157      -1.5521      2.00000
    158      -1.4935      2.00000
    159      -1.4922      2.00000
    160      -1.4514      2.00000
    161      -1.4503      2.00000
    162      -1.4211      2.00000
    163      -1.4133      2.00000
    164      -1.4065      2.00000
    165      -1.4057      2.00000
    166      -1.3366      2.00000
    167      -1.3278      2.00000
    168      -1.2926      2.00000
    169      -1.2922      2.00000
    170      -1.2309      2.00000
    171      -1.2307      2.00000
    172      -1.1570      2.00000
    173      -1.1563      2.00000
    174      -1.1504      2.00000
    175      -1.1126      2.00000
    176      -1.0179      2.00000
    177      -1.0158      2.00000
    178      -0.8067      2.00000
    179      -0.8060      2.00000
    180      -0.6284      2.00000
    181      -0.5987      2.00000
    182      -0.5519      2.00000
    183      -0.5066      2.00000
    184      -0.4204      2.00000
    185      -0.3365      2.00000
    186      -0.3346      2.00000
    187      -0.3293      2.00000
    188      -0.2520      2.00000
    189      -0.2121      2.00000
    190      -0.2088      2.00000
    191      -0.2047      2.00000
    192      -0.1699      2.00000
    193      -0.1692      2.00000
    194      -0.1597      2.00000
    195      -0.1173      2.00000
    196      -0.1171      2.00000
    197      -0.0785      2.00000
    198      -0.0328      2.00000
    199      -0.0317      2.00000
    200       0.0873      2.00000
    201       0.0880      2.00000
    202       0.1180      2.00000
    203       0.1182      2.00000
    204       0.1571      2.00000
    205       0.2920      2.00000
    206       0.2924      2.00000
    207       0.4574      2.00000
    208       0.5279      2.00000
    209       0.6200      2.00000
    210       0.6209      2.00000
    211       0.6845      2.00000
    212       0.8349      2.00000
    213       0.8496      2.00000
    214       0.8505      2.00000
    215       0.9268      2.00000
    216       0.9782      2.00000
    217       0.9790      2.00000
    218       1.0348      2.00000
    219       1.0592      2.00000
    220       1.0593      2.00000
    221       1.0971      2.00000
    222       1.1611      2.00000
    223       1.1624      2.00000
    224       1.2162      2.00000
    225       1.2497      2.00000
    226       1.2497      2.00000
    227       1.3346      2.00000
    228       1.3656      2.00000
    229       1.3663      2.00000
    230       1.4565      2.00000
    231       1.4565      2.00000
    232       1.5215      2.00000
    233       1.5801      2.00000
    234       2.0055      2.00000
    235       3.6350      0.00000
    236       3.6357      0.00000
    237       3.8286      0.00000
    238       3.8296      0.00000
    239       3.9027      0.00000
    240       3.9042      0.00000
    241       3.9260      0.00000
    242       3.9305      0.00000
    243       3.9308      0.00000
    244       3.9671      0.00000
    245       3.9673      0.00000
    246       3.9736      0.00000
    247       4.0545      0.00000
    248       4.1385      0.00000
    249       4.1392      0.00000
    250       4.2261      0.00000
    251       4.2309      0.00000
    252       4.2323      0.00000
    253       4.2372      0.00000
    254       4.2446      0.00000
    255       4.3075      0.00000
    256       4.3166      0.00000
    257       4.3175      0.00000
    258       4.3757      0.00000
    259       4.3895      0.00000
    260       4.3901      0.00000
    261       4.3916      0.00000
    262       4.4395      0.00000
    263       4.4440      0.00000
    264       4.4586      0.00000
    265       4.4995      0.00000
    266       4.5000      0.00000
    267       4.5157      0.00000
    268       4.5160      0.00000
    269       4.5902      0.00000
    270       4.5985      0.00000
    271       4.6175      0.00000
    272       4.6551      0.00000
    273       4.6558      0.00000
    274       4.7774      0.00000
    275       4.8521      0.00000
    276       4.8527      0.00000
    277       4.8576      0.00000
    278       4.8577      0.00000
    279       4.9098      0.00000
    280       5.0262      0.00000
    281       5.0352      0.00000
    282       5.0369      0.00000
    283       5.1280      0.00000
    284       5.1300      0.00000
    285       5.2267      0.00000
    286       5.2363      0.00000

 k-point     8 :       0.4000    0.2000    0.0000
  band No.  band energies     occupation 
      1     -59.0850      2.00000
      2     -59.0729      2.00000
      3     -59.0724      2.00000
      4     -59.0606      2.00000
      5     -59.0601      2.00000
      6     -59.0548      2.00000
      7     -59.0544      2.00000
      8     -59.0517      2.00000
      9     -59.0506      2.00000
     10     -59.0133      2.00000
     11     -59.0009      2.00000
     12     -59.0008      2.00000
     13     -58.9885      2.00000
     14     -58.9885      2.00000
     15     -58.9828      2.00000
     16     -58.9828      2.00000
     17     -58.9800      2.00000
     18     -58.9789      2.00000
     19     -33.3757      2.00000
     20     -33.3753      2.00000
     21     -33.3534      2.00000
     22     -33.3307      2.00000
     23     -33.3054      2.00000
     24     -33.3049      2.00000
     25     -33.3033      2.00000
     26     -33.3033      2.00000
     27     -33.2813      2.00000
     28     -33.2586      2.00000
     29     -33.2330      2.00000
     30     -33.2330      2.00000
     31     -33.2177      2.00000
     32     -33.2045      2.00000
     33     -33.2025      2.00000
     34     -33.2021      2.00000
     35     -33.1948      2.00000
     36     -33.1928      2.00000
     37     -33.1924      2.00000
     38     -33.1680      2.00000
     39     -33.1676      2.00000
     40     -33.1564      2.00000
     41     -33.1561      2.00000
     42     -33.1505      2.00000
     43     -33.1483      2.00000
     44     -33.1461      2.00000
     45     -33.1323      2.00000
     46     -33.1302      2.00000
     47     -33.1302      2.00000
     48     -33.1254      2.00000
     49     -33.1252      2.00000
     50     -33.1234      2.00000
     51     -33.1229      2.00000
     52     -33.1227      2.00000
     53     -33.1211      2.00000
     54     -33.1211      2.00000
     55     -33.0963      2.00000
     56     -33.0963      2.00000
     57     -33.0847      2.00000
     58     -33.0847      2.00000
     59     -33.0796      2.00000
     60     -33.0790      2.00000
     61     -33.0770      2.00000
     62     -33.0768      2.00000
     63     -33.0767      2.00000
     64     -33.0532      2.00000
     65     -33.0532      2.00000
     66     -33.0511      2.00000
     67     -33.0511      2.00000
     68     -33.0446      2.00000
     69     -33.0075      2.00000
     70     -33.0048      2.00000
     71     -33.0048      2.00000
     72     -32.9725      2.00000
     73     -12.1993      2.00000
     74     -11.9978      2.00000
     75     -11.6261      2.00000
     76     -11.6243      2.00000
     77     -11.4357      2.00000
     78     -11.4345      2.00000
     79     -11.0070      2.00000
     80     -10.9636      2.00000
     81     -10.9618      2.00000
     82     -10.8029      2.00000
     83     -10.8017      2.00000
     84     -10.7514      2.00000
     85     -10.7508      2.00000
     86     -10.7297      2.00000
     87     -10.5924      2.00000
     88     -10.5905      2.00000
     89     -10.5259      2.00000
     90     -10.5258      2.00000
     91     -10.4689      2.00000
     92     -10.4676      2.00000
     93     -10.4553      2.00000
     94     -10.4542      2.00000
     95     -10.4253      2.00000
     96     -10.3370      2.00000
     97     -10.3158      2.00000
     98     -10.3038      2.00000
     99     -10.3022      2.00000
    100     -10.2987      2.00000
    101     -10.2986      2.00000
    102     -10.2458      2.00000
    103     -10.2019      2.00000
    104     -10.1971      2.00000
    105     -10.1970      2.00000
    106     -10.1718      2.00000
    107     -10.1120      2.00000
    108     -10.0928      2.00000
    109      -3.9465      2.00000
    110      -3.8891      2.00000
    111      -3.8878      2.00000
    112      -3.7536      2.00000
    113      -3.7533      2.00000
    114      -3.5211      2.00000
    115      -3.5011      2.00000
    116      -3.4997      2.00000
    117      -3.4959      2.00000
    118      -3.4947      2.00000
    119      -3.4013      2.00000
    120      -3.3947      2.00000
    121      -3.3716      2.00000
    122      -3.3105      2.00000
    123      -3.3074      2.00000
    124      -3.3040      2.00000
    125      -3.2563      2.00000
    126      -3.2558      2.00000
    127      -3.2555      2.00000
    128      -3.1658      2.00000
    129      -3.0058      2.00000
    130      -3.0042      2.00000
    131      -2.9687      2.00000
    132      -2.9668      2.00000
    133      -2.8491      2.00000
    134      -2.8489      2.00000
    135      -2.5624      2.00000
    136      -2.5604      2.00000
    137      -2.4539      2.00000
    138      -2.4536      2.00000
    139      -2.3070      2.00000
    140      -2.3054      2.00000
    141      -2.2571      2.00000
    142      -2.0954      2.00000
    143      -2.0948      2.00000
    144      -2.0676      2.00000
    145      -2.0671      2.00000
    146      -2.0527      2.00000
    147      -2.0519      2.00000
    148      -2.0190      2.00000
    149      -1.9756      2.00000
    150      -1.9752      2.00000
    151      -1.9426      2.00000
    152      -1.9018      2.00000
    153      -1.9015      2.00000
    154      -1.8830      2.00000
    155      -1.7500      2.00000
    156      -1.7495      2.00000
    157      -1.5062      2.00000
    158      -1.5048      2.00000
    159      -1.4493      2.00000
    160      -1.4307      2.00000
    161      -1.4299      2.00000
    162      -1.4093      2.00000
    163      -1.4074      2.00000
    164      -1.3618      2.00000
    165      -1.3572      2.00000
    166      -1.3173      2.00000
    167      -1.3172      2.00000
    168      -1.2961      2.00000
    169      -1.2744      2.00000
    170      -1.2508      2.00000
    171      -1.2500      2.00000
    172      -1.2237      2.00000
    173      -1.2210      2.00000
    174      -1.1526      2.00000
    175      -1.0449      2.00000
    176      -0.9856      2.00000
    177      -0.8824      2.00000
    178      -0.8812      2.00000
    179      -0.8143      2.00000
    180      -0.7881      2.00000
    181      -0.7878      2.00000
    182      -0.6935      2.00000
    183      -0.6186      2.00000
    184      -0.4261      2.00000
    185      -0.2912      2.00000
    186      -0.2887      2.00000
    187      -0.1864      2.00000
    188      -0.1856      2.00000
    189      -0.1765      2.00000
    190      -0.1762      2.00000
    191      -0.1444      2.00000
    192      -0.1249      2.00000
    193      -0.1244      2.00000
    194      -0.1236      2.00000
    195      -0.1014      2.00000
    196      -0.1013      2.00000
    197      -0.0460      2.00000
    198      -0.0198      2.00000
    199      -0.0052      2.00000
    200       0.1299      2.00000
    201       0.1937      2.00000
    202       0.1944      2.00000
    203       0.3130      2.00000
    204       0.3142      2.00000
    205       0.3630      2.00000
    206       0.3647      2.00000
    207       0.4634      2.00000
    208       0.4636      2.00000
    209       0.5248      2.00000
    210       0.5261      2.00000
    211       0.5546      2.00000
    212       0.5590      2.00000
    213       0.5599      2.00000
    214       0.8936      2.00000
    215       0.8953      2.00000
    216       0.9809      2.00000
    217       0.9824      2.00000
    218       1.0468      2.00000
    219       1.0705      2.00000
    220       1.0706      2.00000
    221       1.1422      2.00000
    222       1.1436      2.00000
    223       1.1517      2.00000
    224       1.1537      2.00000
    225       1.2539      2.00000
    226       1.2540      2.00000
    227       1.2541      2.00000
    228       1.2542      2.00000
    229       1.3680      2.00000
    230       1.4541      2.00000
    231       1.4946      2.00000
    232       1.5927      2.00000
    233       1.6188      2.00000
    234       2.1202      2.00000
    235       3.7207      0.00000
    236       3.7216      0.00000
    237       3.7579      0.00000
    238       3.7699      0.00000
    239       3.7900      0.00000
    240       3.7911      0.00000
    241       3.8301      0.00000
    242       3.9296      0.00000
    243       3.9805      0.00000
    244       3.9813      0.00000
    245       4.0511      0.00000
    246       4.0518      0.00000
    247       4.0542      0.00000
    248       4.0553      0.00000
    249       4.0611      0.00000
    250       4.0612      0.00000
    251       4.2255      0.00000
    252       4.2269      0.00000
    253       4.2883      0.00000
    254       4.2888      0.00000
    255       4.2951      0.00000
    256       4.2957      0.00000
    257       4.2986      0.00000
    258       4.3453      0.00000
    259       4.3817      0.00000
    260       4.3818      0.00000
    261       4.3821      0.00000
    262       4.3877      0.00000
    263       4.3889      0.00000
    264       4.4769      0.00000
    265       4.4775      0.00000
    266       4.5340      0.00000
    267       4.5616      0.00000
    268       4.5622      0.00000
    269       4.5663      0.00000
    270       4.6608      0.00000
    271       4.6770      0.00000
    272       4.8016      0.00000
    273       4.8022      0.00000
    274       4.8271      0.00000
    275       4.8276      0.00000
    276       4.8381      0.00000
    277       4.8518      0.00000
    278       4.8628      0.00000
    279       4.9293      0.00000
    280       4.9546      0.00000
    281       5.0139      0.00000
    282       5.0865      0.00000
    283       5.1016      0.00000
    284       5.1024      0.00000
    285       5.1376      0.00000
    286       5.3024      0.00000

 k-point     9 :       0.2000    0.4000    0.0000
  band No.  band energies     occupation 
      1     -59.0850      2.00000
      2     -59.0729      2.00000
      3     -59.0723      2.00000
      4     -59.0606      2.00000
      5     -59.0600      2.00000
      6     -59.0549      2.00000
      7     -59.0544      2.00000
      8     -59.0517      2.00000
      9     -59.0506      2.00000
     10     -59.0133      2.00000
     11     -59.0008      2.00000
     12     -59.0008      2.00000
     13     -58.9885      2.00000
     14     -58.9885      2.00000
     15     -58.9828      2.00000
     16     -58.9828      2.00000
     17     -58.9800      2.00000
     18     -58.9789      2.00000
     19     -33.3757      2.00000
     20     -33.3752      2.00000
     21     -33.3534      2.00000
     22     -33.3308      2.00000
     23     -33.3053      2.00000
     24     -33.3048      2.00000
     25     -33.3033      2.00000
     26     -33.3033      2.00000
     27     -33.2813      2.00000
     28     -33.2586      2.00000
     29     -33.2330      2.00000
     30     -33.2330      2.00000
     31     -33.2177      2.00000
     32     -33.2044      2.00000
     33     -33.2025      2.00000
     34     -33.2021      2.00000
     35     -33.1948      2.00000
     36     -33.1927      2.00000
     37     -33.1925      2.00000
     38     -33.1679      2.00000
     39     -33.1676      2.00000
     40     -33.1564      2.00000
     41     -33.1561      2.00000
     42     -33.1505      2.00000
     43     -33.1483      2.00000
     44     -33.1461      2.00000
     45     -33.1323      2.00000
     46     -33.1302      2.00000
     47     -33.1302      2.00000
     48     -33.1255      2.00000
     49     -33.1252      2.00000
     50     -33.1234      2.00000
     51     -33.1229      2.00000
     52     -33.1227      2.00000
     53     -33.1211      2.00000
     54     -33.1211      2.00000
     55     -33.0963      2.00000
     56     -33.0963      2.00000
     57     -33.0847      2.00000
     58     -33.0847      2.00000
     59     -33.0796      2.00000
     60     -33.0790      2.00000
     61     -33.0770      2.00000
     62     -33.0768      2.00000
     63     -33.0766      2.00000
     64     -33.0532      2.00000
     65     -33.0532      2.00000
     66     -33.0511      2.00000
     67     -33.0511      2.00000
     68     -33.0446      2.00000
     69     -33.0075      2.00000
     70     -33.0048      2.00000
     71     -33.0048      2.00000
     72     -32.9725      2.00000
     73     -12.1993      2.00000
     74     -11.9978      2.00000
     75     -11.6261      2.00000
     76     -11.6242      2.00000
     77     -11.4357      2.00000
     78     -11.4345      2.00000
     79     -11.0071      2.00000
     80     -10.9637      2.00000
     81     -10.9618      2.00000
     82     -10.8030      2.00000
     83     -10.8017      2.00000
     84     -10.7515      2.00000
     85     -10.7507      2.00000
     86     -10.7297      2.00000
     87     -10.5922      2.00000
     88     -10.5906      2.00000
     89     -10.5260      2.00000
     90     -10.5258      2.00000
     91     -10.4688      2.00000
     92     -10.4677      2.00000
     93     -10.4552      2.00000
     94     -10.4542      2.00000
     95     -10.4252      2.00000
     96     -10.3371      2.00000
     97     -10.3158      2.00000
     98     -10.3040      2.00000
     99     -10.3022      2.00000
    100     -10.2987      2.00000
    101     -10.2986      2.00000
    102     -10.2458      2.00000
    103     -10.2020      2.00000
    104     -10.1971      2.00000
    105     -10.1970      2.00000
    106     -10.1717      2.00000
    107     -10.1120      2.00000
    108     -10.0928      2.00000
    109      -3.9465      2.00000
    110      -3.8890      2.00000
    111      -3.8880      2.00000
    112      -3.7536      2.00000
    113      -3.7533      2.00000
    114      -3.5211      2.00000
    115      -3.5010      2.00000
    116      -3.4998      2.00000
    117      -3.4958      2.00000
    118      -3.4947      2.00000
    119      -3.4011      2.00000
    120      -3.3949      2.00000
    121      -3.3716      2.00000
    122      -3.3105      2.00000
    123      -3.3075      2.00000
    124      -3.3039      2.00000
    125      -3.2563      2.00000
    126      -3.2557      2.00000
    127      -3.2556      2.00000
    128      -3.1658      2.00000
    129      -3.0055      2.00000
    130      -3.0042      2.00000
    131      -2.9687      2.00000
    132      -2.9668      2.00000
    133      -2.8490      2.00000
    134      -2.8489      2.00000
    135      -2.5626      2.00000
    136      -2.5604      2.00000
    137      -2.4539      2.00000
    138      -2.4537      2.00000
    139      -2.3064      2.00000
    140      -2.3058      2.00000
    141      -2.2572      2.00000
    142      -2.0955      2.00000
    143      -2.0950      2.00000
    144      -2.0675      2.00000
    145      -2.0671      2.00000
    146      -2.0528      2.00000
    147      -2.0518      2.00000
    148      -2.0191      2.00000
    149      -1.9758      2.00000
    150      -1.9750      2.00000
    151      -1.9427      2.00000
    152      -1.9018      2.00000
    153      -1.9017      2.00000
    154      -1.8831      2.00000
    155      -1.7502      2.00000
    156      -1.7493      2.00000
    157      -1.5065      2.00000
    158      -1.5047      2.00000
    159      -1.4493      2.00000
    160      -1.4311      2.00000
    161      -1.4297      2.00000
    162      -1.4091      2.00000
    163      -1.4075      2.00000
    164      -1.3620      2.00000
    165      -1.3571      2.00000
    166      -1.3173      2.00000
    167      -1.3172      2.00000
    168      -1.2959      2.00000
    169      -1.2744      2.00000
    170      -1.2509      2.00000
    171      -1.2500      2.00000
    172      -1.2238      2.00000
    173      -1.2210      2.00000
    174      -1.1526      2.00000
    175      -1.0449      2.00000
    176      -0.9858      2.00000
    177      -0.8824      2.00000
    178      -0.8809      2.00000
    179      -0.8143      2.00000
    180      -0.7879      2.00000
    181      -0.7878      2.00000
    182      -0.6937      2.00000
    183      -0.6186      2.00000
    184      -0.4264      2.00000
    185      -0.2909      2.00000
    186      -0.2888      2.00000
    187      -0.1865      2.00000
    188      -0.1855      2.00000
    189      -0.1764      2.00000
    190      -0.1762      2.00000
    191      -0.1441      2.00000
    192      -0.1247      2.00000
    193      -0.1241      2.00000
    194      -0.1235      2.00000
    195      -0.1014      2.00000
    196      -0.1013      2.00000
    197      -0.0460      2.00000
    198      -0.0198      2.00000
    199      -0.0052      2.00000
    200       0.1299      2.00000
    201       0.1937      2.00000
    202       0.1943      2.00000
    203       0.3130      2.00000
    204       0.3143      2.00000
    205       0.3630      2.00000
    206       0.3647      2.00000
    207       0.4634      2.00000
    208       0.4638      2.00000
    209       0.5249      2.00000
    210       0.5261      2.00000
    211       0.5544      2.00000
    212       0.5591      2.00000
    213       0.5599      2.00000
    214       0.8937      2.00000
    215       0.8952      2.00000
    216       0.9813      2.00000
    217       0.9825      2.00000
    218       1.0468      2.00000
    219       1.0705      2.00000
    220       1.0706      2.00000
    221       1.1424      2.00000
    222       1.1435      2.00000
    223       1.1514      2.00000
    224       1.1534      2.00000
    225       1.2539      2.00000
    226       1.2541      2.00000
    227       1.2541      2.00000
    228       1.2541      2.00000
    229       1.3680      2.00000
    230       1.4541      2.00000
    231       1.4947      2.00000
    232       1.5927      2.00000
    233       1.6187      2.00000
    234       2.1201      2.00000
    235       3.7206      0.00000
    236       3.7217      0.00000
    237       3.7581      0.00000
    238       3.7698      0.00000
    239       3.7899      0.00000
    240       3.7910      0.00000
    241       3.8301      0.00000
    242       3.9296      0.00000
    243       3.9805      0.00000
    244       3.9813      0.00000
    245       4.0510      0.00000
    246       4.0519      0.00000
    247       4.0542      0.00000
    248       4.0553      0.00000
    249       4.0610      0.00000
    250       4.0612      0.00000
    251       4.2256      0.00000
    252       4.2272      0.00000
    253       4.2884      0.00000
    254       4.2888      0.00000
    255       4.2948      0.00000
    256       4.2959      0.00000
    257       4.2994      0.00000
    258       4.3453      0.00000
    259       4.3818      0.00000
    260       4.3819      0.00000
    261       4.3820      0.00000
    262       4.3876      0.00000
    263       4.3888      0.00000
    264       4.4768      0.00000
    265       4.4776      0.00000
    266       4.5342      0.00000
    267       4.5616      0.00000
    268       4.5622      0.00000
    269       4.5660      0.00000
    270       4.6607      0.00000
    271       4.6771      0.00000
    272       4.8015      0.00000
    273       4.8021      0.00000
    274       4.8272      0.00000
    275       4.8277      0.00000
    276       4.8382      0.00000
    277       4.8511      0.00000
    278       4.8625      0.00000
    279       4.9291      0.00000
    280       4.9545      0.00000
    281       5.0140      0.00000
    282       5.0865      0.00000
    283       5.1017      0.00000
    284       5.1025      0.00000
    285       5.1375      0.00000
    286       5.3022      0.00000

 k-point    10 :      -0.2000    0.2000    0.0000
  band No.  band energies     occupation 
      1     -59.0850      2.00000
      2     -59.0728      2.00000
      3     -59.0724      2.00000
      4     -59.0605      2.00000
      5     -59.0601      2.00000
      6     -59.0548      2.00000
      7     -59.0544      2.00000
      8     -59.0517      2.00000
      9     -59.0506      2.00000
     10     -59.0133      2.00000
     11     -59.0009      2.00000
     12     -59.0008      2.00000
     13     -58.9885      2.00000
     14     -58.9885      2.00000
     15     -58.9828      2.00000
     16     -58.9828      2.00000
     17     -58.9800      2.00000
     18     -58.9789      2.00000
     19     -33.3756      2.00000
     20     -33.3753      2.00000
     21     -33.3535      2.00000
     22     -33.3307      2.00000
     23     -33.3054      2.00000
     24     -33.3049      2.00000
     25     -33.3033      2.00000
     26     -33.3033      2.00000
     27     -33.2813      2.00000
     28     -33.2586      2.00000
     29     -33.2330      2.00000
     30     -33.2330      2.00000
     31     -33.2177      2.00000
     32     -33.2045      2.00000
     33     -33.2025      2.00000
     34     -33.2022      2.00000
     35     -33.1947      2.00000
     36     -33.1928      2.00000
     37     -33.1924      2.00000
     38     -33.1680      2.00000
     39     -33.1675      2.00000
     40     -33.1565      2.00000
     41     -33.1560      2.00000
     42     -33.1505      2.00000
     43     -33.1483      2.00000
     44     -33.1461      2.00000
     45     -33.1323      2.00000
     46     -33.1302      2.00000
     47     -33.1302      2.00000
     48     -33.1254      2.00000
     49     -33.1252      2.00000
     50     -33.1234      2.00000
     51     -33.1229      2.00000
     52     -33.1227      2.00000
     53     -33.1211      2.00000
     54     -33.1211      2.00000
     55     -33.0963      2.00000
     56     -33.0963      2.00000
     57     -33.0847      2.00000
     58     -33.0847      2.00000
     59     -33.0796      2.00000
     60     -33.0790      2.00000
     61     -33.0770      2.00000
     62     -33.0768      2.00000
     63     -33.0767      2.00000
     64     -33.0532      2.00000
     65     -33.0532      2.00000
     66     -33.0511      2.00000
     67     -33.0511      2.00000
     68     -33.0446      2.00000
     69     -33.0075      2.00000
     70     -33.0048      2.00000
     71     -33.0048      2.00000
     72     -32.9725      2.00000
     73     -12.1993      2.00000
     74     -11.9978      2.00000
     75     -11.6262      2.00000
     76     -11.6242      2.00000
     77     -11.4357      2.00000
     78     -11.4345      2.00000
     79     -11.0070      2.00000
     80     -10.9635      2.00000
     81     -10.9618      2.00000
     82     -10.8029      2.00000
     83     -10.8017      2.00000
     84     -10.7515      2.00000
     85     -10.7507      2.00000
     86     -10.7297      2.00000
     87     -10.5926      2.00000
     88     -10.5905      2.00000
     89     -10.5260      2.00000
     90     -10.5258      2.00000
     91     -10.4690      2.00000
     92     -10.4676      2.00000
     93     -10.4555      2.00000
     94     -10.4541      2.00000
     95     -10.4253      2.00000
     96     -10.3369      2.00000
     97     -10.3158      2.00000
     98     -10.3037      2.00000
     99     -10.3022      2.00000
    100     -10.2988      2.00000
    101     -10.2986      2.00000
    102     -10.2458      2.00000
    103     -10.2018      2.00000
    104     -10.1971      2.00000
    105     -10.1970      2.00000
    106     -10.1719      2.00000
    107     -10.1120      2.00000
    108     -10.0928      2.00000
    109      -3.9465      2.00000
    110      -3.8893      2.00000
    111      -3.8876      2.00000
    112      -3.7536      2.00000
    113      -3.7532      2.00000
    114      -3.5211      2.00000
    115      -3.5012      2.00000
    116      -3.4996      2.00000
    117      -3.4960      2.00000
    118      -3.4947      2.00000
    119      -3.4014      2.00000
    120      -3.3945      2.00000
    121      -3.3716      2.00000
    122      -3.3105      2.00000
    123      -3.3074      2.00000
    124      -3.3042      2.00000
    125      -3.2563      2.00000
    126      -3.2559      2.00000
    127      -3.2554      2.00000
    128      -3.1658      2.00000
    129      -3.0061      2.00000
    130      -3.0042      2.00000
    131      -2.9687      2.00000
    132      -2.9668      2.00000
    133      -2.8491      2.00000
    134      -2.8489      2.00000
    135      -2.5624      2.00000
    136      -2.5603      2.00000
    137      -2.4539      2.00000
    138      -2.4536      2.00000
    139      -2.3075      2.00000
    140      -2.3051      2.00000
    141      -2.2570      2.00000
    142      -2.0952      2.00000
    143      -2.0946      2.00000
    144      -2.0678      2.00000
    145      -2.0670      2.00000
    146      -2.0526      2.00000
    147      -2.0520      2.00000
    148      -2.0188      2.00000
    149      -1.9754      2.00000
    150      -1.9753      2.00000
    151      -1.9426      2.00000
    152      -1.9018      2.00000
    153      -1.9013      2.00000
    154      -1.8829      2.00000
    155      -1.7498      2.00000
    156      -1.7495      2.00000
    157      -1.5059      2.00000
    158      -1.5049      2.00000
    159      -1.4493      2.00000
    160      -1.4304      2.00000
    161      -1.4299      2.00000
    162      -1.4094      2.00000
    163      -1.4074      2.00000
    164      -1.3617      2.00000
    165      -1.3573      2.00000
    166      -1.3174      2.00000
    167      -1.3172      2.00000
    168      -1.2963      2.00000
    169      -1.2745      2.00000
    170      -1.2507      2.00000
    171      -1.2501      2.00000
    172      -1.2237      2.00000
    173      -1.2210      2.00000
    174      -1.1525      2.00000
    175      -1.0449      2.00000
    176      -0.9854      2.00000
    177      -0.8829      2.00000
    178      -0.8811      2.00000
    179      -0.8143      2.00000
    180      -0.7882      2.00000
    181      -0.7878      2.00000
    182      -0.6933      2.00000
    183      -0.6186      2.00000
    184      -0.4258      2.00000
    185      -0.2916      2.00000
    186      -0.2886      2.00000
    187      -0.1864      2.00000
    188      -0.1856      2.00000
    189      -0.1766      2.00000
    190      -0.1762      2.00000
    191      -0.1447      2.00000
    192      -0.1256      2.00000
    193      -0.1246      2.00000
    194      -0.1234      2.00000
    195      -0.1014      2.00000
    196      -0.1013      2.00000
    197      -0.0460      2.00000
    198      -0.0198      2.00000
    199      -0.0052      2.00000
    200       0.1298      2.00000
    201       0.1938      2.00000
    202       0.1945      2.00000
    203       0.3130      2.00000
    204       0.3141      2.00000
    205       0.3630      2.00000
    206       0.3647      2.00000
    207       0.4634      2.00000
    208       0.4635      2.00000
    209       0.5247      2.00000
    210       0.5262      2.00000
    211       0.5548      2.00000
    212       0.5590      2.00000
    213       0.5598      2.00000
    214       0.8935      2.00000
    215       0.8954      2.00000
    216       0.9807      2.00000
    217       0.9822      2.00000
    218       1.0468      2.00000
    219       1.0706      2.00000
    220       1.0706      2.00000
    221       1.1421      2.00000
    222       1.1437      2.00000
    223       1.1519      2.00000
    224       1.1540      2.00000
    225       1.2539      2.00000
    226       1.2540      2.00000
    227       1.2541      2.00000
    228       1.2542      2.00000
    229       1.3681      2.00000
    230       1.4541      2.00000
    231       1.4946      2.00000
    232       1.5927      2.00000
    233       1.6189      2.00000
    234       2.1202      2.00000
    235       3.7209      0.00000
    236       3.7215      0.00000
    237       3.7578      0.00000
    238       3.7700      0.00000
    239       3.7901      0.00000
    240       3.7913      0.00000
    241       3.8301      0.00000
    242       3.9296      0.00000
    243       3.9806      0.00000
    244       3.9812      0.00000
    245       4.0511      0.00000
    246       4.0517      0.00000
    247       4.0541      0.00000
    248       4.0554      0.00000
    249       4.0611      0.00000
    250       4.0612      0.00000
    251       4.2254      0.00000
    252       4.2266      0.00000
    253       4.2882      0.00000
    254       4.2888      0.00000
    255       4.2950      0.00000
    256       4.2959      0.00000
    257       4.2978      0.00000
    258       4.3453      0.00000
    259       4.3817      0.00000
    260       4.3818      0.00000
    261       4.3823      0.00000
    262       4.3879      0.00000
    263       4.3889      0.00000
    264       4.4770      0.00000
    265       4.4772      0.00000
    266       4.5338      0.00000
    267       4.5616      0.00000
    268       4.5621      0.00000
    269       4.5666      0.00000
    270       4.6609      0.00000
    271       4.6769      0.00000
    272       4.8016      0.00000
    273       4.8023      0.00000
    274       4.8271      0.00000
    275       4.8274      0.00000
    276       4.8380      0.00000
    277       4.8524      0.00000
    278       4.8632      0.00000
    279       4.9295      0.00000
    280       4.9547      0.00000
    281       5.0139      0.00000
    282       5.0865      0.00000
    283       5.1017      0.00000
    284       5.1021      0.00000
    285       5.1376      0.00000
    286       5.3021      0.00000

 k-point    11 :      -0.4000    0.2000    0.0000
  band No.  band energies     occupation 
      1     -59.0799      2.00000
      2     -59.0793      2.00000
      3     -59.0736      2.00000
      4     -59.0608      2.00000
      5     -59.0558      2.00000
      6     -59.0553      2.00000
      7     -59.0531      2.00000
      8     -59.0526      2.00000
      9     -59.0520      2.00000
     10     -59.0078      2.00000
     11     -59.0078      2.00000
     12     -59.0019      2.00000
     13     -58.9890      2.00000
     14     -58.9838      2.00000
     15     -58.9837      2.00000
     16     -58.9813      2.00000
     17     -58.9806      2.00000
     18     -58.9806      2.00000
     19     -33.3899      2.00000
     20     -33.3729      2.00000
     21     -33.3724      2.00000
     22     -33.3252      2.00000
     23     -33.3248      2.00000
     24     -33.3178      2.00000
     25     -33.3005      2.00000
     26     -33.3005      2.00000
     27     -33.2913      2.00000
     28     -33.2529      2.00000
     29     -33.2529      2.00000
     30     -33.2191      2.00000
     31     -33.2068      2.00000
     32     -33.2066      2.00000
     33     -33.1947      2.00000
     34     -33.1881      2.00000
     35     -33.1688      2.00000
     36     -33.1644      2.00000
     37     -33.1641      2.00000
     38     -33.1583      2.00000
     39     -33.1580      2.00000
     40     -33.1538      2.00000
     41     -33.1534      2.00000
     42     -33.1532      2.00000
     43     -33.1519      2.00000
     44     -33.1515      2.00000
     45     -33.1352      2.00000
     46     -33.1352      2.00000
     47     -33.1340      2.00000
     48     -33.1336      2.00000
     49     -33.1334      2.00000
     50     -33.1271      2.00000
     51     -33.1232      2.00000
     52     -33.1159      2.00000
     53     -33.0972      2.00000
     54     -33.0921      2.00000
     55     -33.0921      2.00000
     56     -33.0866      2.00000
     57     -33.0866      2.00000
     58     -33.0816      2.00000
     59     -33.0815      2.00000
     60     -33.0815      2.00000
     61     -33.0803      2.00000
     62     -33.0803      2.00000
     63     -33.0783      2.00000
     64     -33.0617      2.00000
     65     -33.0617      2.00000
     66     -33.0615      2.00000
     67     -33.0589      2.00000
     68     -33.0586      2.00000
     69     -33.0550      2.00000
     70     -33.0062      2.00000
     71     -32.9867      2.00000
     72     -32.9867      2.00000
     73     -11.9579      2.00000
     74     -11.9559      2.00000
     75     -11.7596      2.00000
     76     -11.7584      2.00000
     77     -11.6769      2.00000
     78     -11.4852      2.00000
     79     -10.9937      2.00000
     80     -10.8991      2.00000
     81     -10.8984      2.00000
     82     -10.8307      2.00000
     83     -10.7736      2.00000
     84     -10.6729      2.00000
     85     -10.6711      2.00000
     86     -10.6429      2.00000
     87     -10.6426      2.00000
     88     -10.5432      2.00000
     89     -10.5344      2.00000
     90     -10.5332      2.00000
     91     -10.4819      2.00000
     92     -10.4659      2.00000
     93     -10.4482      2.00000
     94     -10.4466      2.00000
     95     -10.3752      2.00000
     96     -10.3423      2.00000
     97     -10.3412      2.00000
     98     -10.3195      2.00000
     99     -10.3181      2.00000
    100     -10.3052      2.00000
    101     -10.2595      2.00000
    102     -10.2331      2.00000
    103     -10.2312      2.00000
    104     -10.1971      2.00000
    105     -10.1970      2.00000
    106     -10.1682      2.00000
    107     -10.1429      2.00000
    108     -10.1428      2.00000
    109      -3.9732      2.00000
    110      -3.8512      2.00000
    111      -3.7735      2.00000
    112      -3.7730      2.00000
    113      -3.7132      2.00000
    114      -3.7116      2.00000
    115      -3.6442      2.00000
    116      -3.6440      2.00000
    117      -3.5027      2.00000
    118      -3.4837      2.00000
    119      -3.4829      2.00000
    120      -3.4192      2.00000
    121      -3.2755      2.00000
    122      -3.2752      2.00000
    123      -3.2000      2.00000
    124      -3.1972      2.00000
    125      -3.1436      2.00000
    126      -3.1083      2.00000
    127      -3.0952      2.00000
    128      -3.0933      2.00000
    129      -3.0929      2.00000
    130      -3.0928      2.00000
    131      -2.9587      2.00000
    132      -2.9444      2.00000
    133      -2.9414      2.00000
    134      -2.9402      2.00000
    135      -2.8829      2.00000
    136      -2.8829      2.00000
    137      -2.4637      2.00000
    138      -2.4153      2.00000
    139      -2.3610      2.00000
    140      -2.3004      2.00000
    141      -2.2995      2.00000
    142      -2.1221      2.00000
    143      -2.0601      2.00000
    144      -2.0595      2.00000
    145      -2.0482      2.00000
    146      -2.0253      2.00000
    147      -2.0249      2.00000
    148      -1.9882      2.00000
    149      -1.9242      2.00000
    150      -1.8874      2.00000
    151      -1.8548      2.00000
    152      -1.8540      2.00000
    153      -1.6954      2.00000
    154      -1.6910      2.00000
    155      -1.6197      2.00000
    156      -1.6196      2.00000
    157      -1.6113      2.00000
    158      -1.5988      2.00000
    159      -1.5528      2.00000
    160      -1.5526      2.00000
    161      -1.4351      2.00000
    162      -1.4344      2.00000
    163      -1.4321      2.00000
    164      -1.3582      2.00000
    165      -1.3579      2.00000
    166      -1.3502      2.00000
    167      -1.3108      2.00000
    168      -1.3107      2.00000
    169      -1.2667      2.00000
    170      -1.2583      2.00000
    171      -1.2580      2.00000
    172      -1.2531      2.00000
    173      -1.0329      2.00000
    174      -0.9254      2.00000
    175      -0.8899      2.00000
    176      -0.8894      2.00000
    177      -0.8484      2.00000
    178      -0.8474      2.00000
    179      -0.7130      2.00000
    180      -0.7127      2.00000
    181      -0.5185      2.00000
    182      -0.5151      2.00000
    183      -0.5042      2.00000
    184      -0.4632      2.00000
    185      -0.4575      2.00000
    186      -0.4339      2.00000
    187      -0.4338      2.00000
    188      -0.4035      2.00000
    189      -0.3786      2.00000
    190      -0.3786      2.00000
    191      -0.3280      2.00000
    192      -0.3273      2.00000
    193      -0.2784      2.00000
    194      -0.1961      2.00000
    195      -0.1816      2.00000
    196      -0.1475      2.00000
    197      -0.1456      2.00000
    198      -0.0617      2.00000
    199      -0.0615      2.00000
    200       0.1283      2.00000
    201       0.1287      2.00000
    202       0.1397      2.00000
    203       0.2430      2.00000
    204       0.2444      2.00000
    205       0.3608      2.00000
    206       0.3797      2.00000
    207       0.3797      2.00000
    208       0.5159      2.00000
    209       0.5226      2.00000
    210       0.6353      2.00000
    211       0.6370      2.00000
    212       0.6526      2.00000
    213       0.7227      2.00000
    214       0.9738      2.00000
    215       1.0423      2.00000
    216       1.0699      2.00000
    217       1.0723      2.00000
    218       1.0758      2.00000
    219       1.1277      2.00000
    220       1.1291      2.00000
    221       1.2134      2.00000
    222       1.2244      2.00000
    223       1.2245      2.00000
    224       1.2562      2.00000
    225       1.3132      2.00000
    226       1.3426      2.00000
    227       1.3440      2.00000
    228       1.3607      2.00000
    229       1.4457      2.00000
    230       1.4458      2.00000
    231       1.4483      2.00000
    232       1.4500      2.00000
    233       1.7024      2.00000
    234       1.7026      2.00000
    235       3.6500      0.00000
    236       3.7495      0.00000
    237       3.8158      0.00000
    238       3.8165      0.00000
    239       3.9518      0.00000
    240       3.9524      0.00000
    241       3.9911      0.00000
    242       3.9918      0.00000
    243       4.0029      0.00000
    244       4.0170      0.00000
    245       4.0384      0.00000
    246       4.0386      0.00000
    247       4.0546      0.00000
    248       4.0664      0.00000
    249       4.1945      0.00000
    250       4.1950      0.00000
    251       4.2039      0.00000
    252       4.2051      0.00000
    253       4.2174      0.00000
    254       4.2571      0.00000
    255       4.2691      0.00000
    256       4.2698      0.00000
    257       4.3111      0.00000
    258       4.3340      0.00000
    259       4.3348      0.00000
    260       4.3478      0.00000
    261       4.3551      0.00000
    262       4.4009      0.00000
    263       4.4014      0.00000
    264       4.4373      0.00000
    265       4.4381      0.00000
    266       4.4892      0.00000
    267       4.4894      0.00000
    268       4.5079      0.00000
    269       4.5908      0.00000
    270       4.5911      0.00000
    271       4.6228      0.00000
    272       4.6310      0.00000
    273       4.6322      0.00000
    274       4.6329      0.00000
    275       4.7004      0.00000
    276       4.7322      0.00000
    277       4.7324      0.00000
    278       4.8479      0.00000
    279       4.8506      0.00000
    280       4.9439      0.00000
    281       5.0819      0.00000
    282       5.0824      0.00000
    283       5.2196      0.00000
    284       5.2227      0.00000
    285       5.3207      0.00000
    286       5.3260      0.00000

 k-point    12 :       0.4000   -0.4000    0.0000
  band No.  band energies     occupation 
      1     -59.0798      2.00000
      2     -59.0794      2.00000
      3     -59.0736      2.00000
      4     -59.0608      2.00000
      5     -59.0557      2.00000
      6     -59.0553      2.00000
      7     -59.0532      2.00000
      8     -59.0525      2.00000
      9     -59.0520      2.00000
     10     -59.0078      2.00000
     11     -59.0078      2.00000
     12     -59.0019      2.00000
     13     -58.9890      2.00000
     14     -58.9838      2.00000
     15     -58.9837      2.00000
     16     -58.9813      2.00000
     17     -58.9806      2.00000
     18     -58.9806      2.00000
     19     -33.3900      2.00000
     20     -33.3728      2.00000
     21     -33.3725      2.00000
     22     -33.3252      2.00000
     23     -33.3248      2.00000
     24     -33.3178      2.00000
     25     -33.3005      2.00000
     26     -33.3005      2.00000
     27     -33.2912      2.00000
     28     -33.2529      2.00000
     29     -33.2529      2.00000
     30     -33.2191      2.00000
     31     -33.2069      2.00000
     32     -33.2065      2.00000
     33     -33.1947      2.00000
     34     -33.1880      2.00000
     35     -33.1688      2.00000
     36     -33.1643      2.00000
     37     -33.1641      2.00000
     38     -33.1583      2.00000
     39     -33.1579      2.00000
     40     -33.1538      2.00000
     41     -33.1534      2.00000
     42     -33.1531      2.00000
     43     -33.1520      2.00000
     44     -33.1515      2.00000
     45     -33.1352      2.00000
     46     -33.1352      2.00000
     47     -33.1340      2.00000
     48     -33.1336      2.00000
     49     -33.1335      2.00000
     50     -33.1271      2.00000
     51     -33.1232      2.00000
     52     -33.1159      2.00000
     53     -33.0972      2.00000
     54     -33.0921      2.00000
     55     -33.0921      2.00000
     56     -33.0866      2.00000
     57     -33.0866      2.00000
     58     -33.0816      2.00000
     59     -33.0815      2.00000
     60     -33.0815      2.00000
     61     -33.0803      2.00000
     62     -33.0803      2.00000
     63     -33.0783      2.00000
     64     -33.0617      2.00000
     65     -33.0617      2.00000
     66     -33.0615      2.00000
     67     -33.0588      2.00000
     68     -33.0586      2.00000
     69     -33.0550      2.00000
     70     -33.0062      2.00000
     71     -32.9867      2.00000
     72     -32.9867      2.00000
     73     -11.9578      2.00000
     74     -11.9559      2.00000
     75     -11.7596      2.00000
     76     -11.7584      2.00000
     77     -11.6769      2.00000
     78     -11.4853      2.00000
     79     -10.9939      2.00000
     80     -10.8992      2.00000
     81     -10.8984      2.00000
     82     -10.8307      2.00000
     83     -10.7735      2.00000
     84     -10.6729      2.00000
     85     -10.6711      2.00000
     86     -10.6429      2.00000
     87     -10.6427      2.00000
     88     -10.5432      2.00000
     89     -10.5344      2.00000
     90     -10.5332      2.00000
     91     -10.4816      2.00000
     92     -10.4657      2.00000
     93     -10.4485      2.00000
     94     -10.4465      2.00000
     95     -10.3751      2.00000
     96     -10.3423      2.00000
     97     -10.3412      2.00000
     98     -10.3196      2.00000
     99     -10.3181      2.00000
    100     -10.3052      2.00000
    101     -10.2599      2.00000
    102     -10.2328      2.00000
    103     -10.2312      2.00000
    104     -10.1972      2.00000
    105     -10.1970      2.00000
    106     -10.1683      2.00000
    107     -10.1429      2.00000
    108     -10.1428      2.00000
    109      -3.9734      2.00000
    110      -3.8513      2.00000
    111      -3.7737      2.00000
    112      -3.7726      2.00000
    113      -3.7131      2.00000
    114      -3.7116      2.00000
    115      -3.6442      2.00000
    116      -3.6440      2.00000
    117      -3.5027      2.00000
    118      -3.4837      2.00000
    119      -3.4829      2.00000
    120      -3.4193      2.00000
    121      -3.2755      2.00000
    122      -3.2752      2.00000
    123      -3.2002      2.00000
    124      -3.1973      2.00000
    125      -3.1436      2.00000
    126      -3.1079      2.00000
    127      -3.0950      2.00000
    128      -3.0934      2.00000
    129      -3.0929      2.00000
    130      -3.0928      2.00000
    131      -2.9587      2.00000
    132      -2.9440      2.00000
    133      -2.9409      2.00000
    134      -2.9406      2.00000
    135      -2.8829      2.00000
    136      -2.8828      2.00000
    137      -2.4644      2.00000
    138      -2.4154      2.00000
    139      -2.3606      2.00000
    140      -2.3011      2.00000
    141      -2.2992      2.00000
    142      -2.1219      2.00000
    143      -2.0606      2.00000
    144      -2.0594      2.00000
    145      -2.0482      2.00000
    146      -2.0255      2.00000
    147      -2.0248      2.00000
    148      -1.9886      2.00000
    149      -1.9242      2.00000
    150      -1.8876      2.00000
    151      -1.8552      2.00000
    152      -1.8538      2.00000
    153      -1.6946      2.00000
    154      -1.6912      2.00000
    155      -1.6198      2.00000
    156      -1.6196      2.00000
    157      -1.6110      2.00000
    158      -1.5987      2.00000
    159      -1.5530      2.00000
    160      -1.5526      2.00000
    161      -1.4354      2.00000
    162      -1.4346      2.00000
    163      -1.4316      2.00000
    164      -1.3587      2.00000
    165      -1.3581      2.00000
    166      -1.3502      2.00000
    167      -1.3109      2.00000
    168      -1.3107      2.00000
    169      -1.2663      2.00000
    170      -1.2587      2.00000
    171      -1.2580      2.00000
    172      -1.2532      2.00000
    173      -1.0335      2.00000
    174      -0.9253      2.00000
    175      -0.8908      2.00000
    176      -0.8893      2.00000
    177      -0.8483      2.00000
    178      -0.8472      2.00000
    179      -0.7128      2.00000
    180      -0.7125      2.00000
    181      -0.5163      2.00000
    182      -0.5155      2.00000
    183      -0.5042      2.00000
    184      -0.4632      2.00000
    185      -0.4576      2.00000
    186      -0.4340      2.00000
    187      -0.4338      2.00000
    188      -0.4035      2.00000
    189      -0.3786      2.00000
    190      -0.3786      2.00000
    191      -0.3281      2.00000
    192      -0.3273      2.00000
    193      -0.2782      2.00000
    194      -0.1961      2.00000
    195      -0.1820      2.00000
    196      -0.1471      2.00000
    197      -0.1453      2.00000
    198      -0.0618      2.00000
    199      -0.0613      2.00000
    200       0.1283      2.00000
    201       0.1289      2.00000
    202       0.1394      2.00000
    203       0.2429      2.00000
    204       0.2449      2.00000
    205       0.3608      2.00000
    206       0.3797      2.00000
    207       0.3798      2.00000
    208       0.5156      2.00000
    209       0.5226      2.00000
    210       0.6352      2.00000
    211       0.6370      2.00000
    212       0.6526      2.00000
    213       0.7226      2.00000
    214       0.9745      2.00000
    215       1.0424      2.00000
    216       1.0697      2.00000
    217       1.0726      2.00000
    218       1.0758      2.00000
    219       1.1278      2.00000
    220       1.1288      2.00000
    221       1.2141      2.00000
    222       1.2244      2.00000
    223       1.2244      2.00000
    224       1.2557      2.00000
    225       1.3132      2.00000
    226       1.3426      2.00000
    227       1.3442      2.00000
    228       1.3607      2.00000
    229       1.4457      2.00000
    230       1.4458      2.00000
    231       1.4477      2.00000
    232       1.4501      2.00000
    233       1.7022      2.00000
    234       1.7026      2.00000
    235       3.6499      0.00000
    236       3.7491      0.00000
    237       3.8158      0.00000
    238       3.8166      0.00000
    239       3.9521      0.00000
    240       3.9524      0.00000
    241       3.9911      0.00000
    242       3.9916      0.00000
    243       4.0025      0.00000
    244       4.0169      0.00000
    245       4.0385      0.00000
    246       4.0386      0.00000
    247       4.0547      0.00000
    248       4.0664      0.00000
    249       4.1946      0.00000
    250       4.1949      0.00000
    251       4.2040      0.00000
    252       4.2061      0.00000
    253       4.2174      0.00000
    254       4.2571      0.00000
    255       4.2692      0.00000
    256       4.2708      0.00000
    257       4.3115      0.00000
    258       4.3339      0.00000
    259       4.3350      0.00000
    260       4.3476      0.00000
    261       4.3551      0.00000
    262       4.4008      0.00000
    263       4.4010      0.00000
    264       4.4372      0.00000
    265       4.4383      0.00000
    266       4.4893      0.00000
    267       4.4894      0.00000
    268       4.5078      0.00000
    269       4.5906      0.00000
    270       4.5913      0.00000
    271       4.6228      0.00000
    272       4.6312      0.00000
    273       4.6322      0.00000
    274       4.6326      0.00000
    275       4.7008      0.00000
    276       4.7322      0.00000
    277       4.7324      0.00000
    278       4.8480      0.00000
    279       4.8497      0.00000
    280       4.9444      0.00000
    281       5.0818      0.00000
    282       5.0824      0.00000
    283       5.2196      0.00000
    284       5.2209      0.00000
    285       5.3241      0.00000
    286       5.3397      0.00000

 k-point    13 :      -0.2000    0.4000    0.0000
  band No.  band energies     occupation 
      1     -59.0798      2.00000
      2     -59.0794      2.00000
      3     -59.0736      2.00000
      4     -59.0608      2.00000
      5     -59.0558      2.00000
      6     -59.0553      2.00000
      7     -59.0532      2.00000
      8     -59.0525      2.00000
      9     -59.0520      2.00000
     10     -59.0078      2.00000
     11     -59.0078      2.00000
     12     -59.0019      2.00000
     13     -58.9890      2.00000
     14     -58.9838      2.00000
     15     -58.9837      2.00000
     16     -58.9813      2.00000
     17     -58.9806      2.00000
     18     -58.9806      2.00000
     19     -33.3900      2.00000
     20     -33.3729      2.00000
     21     -33.3725      2.00000
     22     -33.3252      2.00000
     23     -33.3248      2.00000
     24     -33.3178      2.00000
     25     -33.3005      2.00000
     26     -33.3005      2.00000
     27     -33.2912      2.00000
     28     -33.2529      2.00000
     29     -33.2529      2.00000
     30     -33.2191      2.00000
     31     -33.2068      2.00000
     32     -33.2065      2.00000
     33     -33.1947      2.00000
     34     -33.1880      2.00000
     35     -33.1688      2.00000
     36     -33.1644      2.00000
     37     -33.1641      2.00000
     38     -33.1583      2.00000
     39     -33.1579      2.00000
     40     -33.1538      2.00000
     41     -33.1534      2.00000
     42     -33.1531      2.00000
     43     -33.1519      2.00000
     44     -33.1515      2.00000
     45     -33.1352      2.00000
     46     -33.1352      2.00000
     47     -33.1340      2.00000
     48     -33.1336      2.00000
     49     -33.1334      2.00000
     50     -33.1271      2.00000
     51     -33.1232      2.00000
     52     -33.1159      2.00000
     53     -33.0972      2.00000
     54     -33.0921      2.00000
     55     -33.0921      2.00000
     56     -33.0866      2.00000
     57     -33.0866      2.00000
     58     -33.0816      2.00000
     59     -33.0815      2.00000
     60     -33.0815      2.00000
     61     -33.0803      2.00000
     62     -33.0803      2.00000
     63     -33.0783      2.00000
     64     -33.0617      2.00000
     65     -33.0617      2.00000
     66     -33.0615      2.00000
     67     -33.0588      2.00000
     68     -33.0586      2.00000
     69     -33.0550      2.00000
     70     -33.0062      2.00000
     71     -32.9867      2.00000
     72     -32.9867      2.00000
     73     -11.9578      2.00000
     74     -11.9559      2.00000
     75     -11.7596      2.00000
     76     -11.7584      2.00000
     77     -11.6769      2.00000
     78     -11.4853      2.00000
     79     -10.9938      2.00000
     80     -10.8990      2.00000
     81     -10.8986      2.00000
     82     -10.8307      2.00000
     83     -10.7736      2.00000
     84     -10.6729      2.00000
     85     -10.6711      2.00000
     86     -10.6428      2.00000
     87     -10.6427      2.00000
     88     -10.5432      2.00000
     89     -10.5344      2.00000
     90     -10.5332      2.00000
     91     -10.4818      2.00000
     92     -10.4658      2.00000
     93     -10.4483      2.00000
     94     -10.4466      2.00000
     95     -10.3751      2.00000
     96     -10.3423      2.00000
     97     -10.3412      2.00000
     98     -10.3196      2.00000
     99     -10.3181      2.00000
    100     -10.3052      2.00000
    101     -10.2597      2.00000
    102     -10.2330      2.00000
    103     -10.2312      2.00000
    104     -10.1971      2.00000
    105     -10.1970      2.00000
    106     -10.1682      2.00000
    107     -10.1429      2.00000
    108     -10.1428      2.00000
    109      -3.9733      2.00000
    110      -3.8513      2.00000
    111      -3.7736      2.00000
    112      -3.7728      2.00000
    113      -3.7131      2.00000
    114      -3.7116      2.00000
    115      -3.6442      2.00000
    116      -3.6440      2.00000
    117      -3.5027      2.00000
    118      -3.4837      2.00000
    119      -3.4830      2.00000
    120      -3.4192      2.00000
    121      -3.2755      2.00000
    122      -3.2753      2.00000
    123      -3.2001      2.00000
    124      -3.1973      2.00000
    125      -3.1436      2.00000
    126      -3.1081      2.00000
    127      -3.0951      2.00000
    128      -3.0933      2.00000
    129      -3.0929      2.00000
    130      -3.0928      2.00000
    131      -2.9587      2.00000
    132      -2.9442      2.00000
    133      -2.9412      2.00000
    134      -2.9404      2.00000
    135      -2.8829      2.00000
    136      -2.8828      2.00000
    137      -2.4641      2.00000
    138      -2.4153      2.00000
    139      -2.3608      2.00000
    140      -2.3008      2.00000
    141      -2.2993      2.00000
    142      -2.1220      2.00000
    143      -2.0604      2.00000
    144      -2.0594      2.00000
    145      -2.0482      2.00000
    146      -2.0254      2.00000
    147      -2.0248      2.00000
    148      -1.9884      2.00000
    149      -1.9242      2.00000
    150      -1.8875      2.00000
    151      -1.8550      2.00000
    152      -1.8539      2.00000
    153      -1.6950      2.00000
    154      -1.6911      2.00000
    155      -1.6198      2.00000
    156      -1.6196      2.00000
    157      -1.6112      2.00000
    158      -1.5988      2.00000
    159      -1.5529      2.00000
    160      -1.5526      2.00000
    161      -1.4353      2.00000
    162      -1.4344      2.00000
    163      -1.4319      2.00000
    164      -1.3584      2.00000
    165      -1.3581      2.00000
    166      -1.3502      2.00000
    167      -1.3109      2.00000
    168      -1.3107      2.00000
    169      -1.2665      2.00000
    170      -1.2585      2.00000
    171      -1.2580      2.00000
    172      -1.2532      2.00000
    173      -1.0332      2.00000
    174      -0.9253      2.00000
    175      -0.8904      2.00000
    176      -0.8893      2.00000
    177      -0.8483      2.00000
    178      -0.8473      2.00000
    179      -0.7129      2.00000
    180      -0.7126      2.00000
    181      -0.5173      2.00000
    182      -0.5153      2.00000
    183      -0.5042      2.00000
    184      -0.4632      2.00000
    185      -0.4575      2.00000
    186      -0.4339      2.00000
    187      -0.4338      2.00000
    188      -0.4035      2.00000
    189      -0.3786      2.00000
    190      -0.3786      2.00000
    191      -0.3280      2.00000
    192      -0.3273      2.00000
    193      -0.2783      2.00000
    194      -0.1961      2.00000
    195      -0.1818      2.00000
    196      -0.1473      2.00000
    197      -0.1455      2.00000
    198      -0.0617      2.00000
    199      -0.0614      2.00000
    200       0.1283      2.00000
    201       0.1288      2.00000
    202       0.1395      2.00000
    203       0.2429      2.00000
    204       0.2446      2.00000
    205       0.3608      2.00000
    206       0.3797      2.00000
    207       0.3798      2.00000
    208       0.5157      2.00000
    209       0.5226      2.00000
    210       0.6353      2.00000
    211       0.6370      2.00000
    212       0.6526      2.00000
    213       0.7226      2.00000
    214       0.9742      2.00000
    215       1.0424      2.00000
    216       1.0698      2.00000
    217       1.0724      2.00000
    218       1.0758      2.00000
    219       1.1277      2.00000
    220       1.1290      2.00000
    221       1.2138      2.00000
    222       1.2244      2.00000
    223       1.2245      2.00000
    224       1.2560      2.00000
    225       1.3132      2.00000
    226       1.3426      2.00000
    227       1.3441      2.00000
    228       1.3607      2.00000
    229       1.4457      2.00000
    230       1.4458      2.00000
    231       1.4480      2.00000
    232       1.4500      2.00000
    233       1.7024      2.00000
    234       1.7026      2.00000
    235       3.6500      0.00000
    236       3.7493      0.00000
    237       3.8158      0.00000
    238       3.8166      0.00000
    239       3.9519      0.00000
    240       3.9524      0.00000
    241       3.9911      0.00000
    242       3.9917      0.00000
    243       4.0027      0.00000
    244       4.0170      0.00000
    245       4.0384      0.00000
    246       4.0386      0.00000
    247       4.0546      0.00000
    248       4.0664      0.00000
    249       4.1946      0.00000
    250       4.1949      0.00000
    251       4.2042      0.00000
    252       4.2054      0.00000
    253       4.2174      0.00000
    254       4.2571      0.00000
    255       4.2691      0.00000
    256       4.2704      0.00000
    257       4.3113      0.00000
    258       4.3339      0.00000
    259       4.3349      0.00000
    260       4.3477      0.00000
    261       4.3551      0.00000
    262       4.4008      0.00000
    263       4.4013      0.00000
    264       4.4373      0.00000
    265       4.4382      0.00000
    266       4.4893      0.00000
    267       4.4894      0.00000
    268       4.5079      0.00000
    269       4.5907      0.00000
    270       4.5912      0.00000
    271       4.6228      0.00000
    272       4.6311      0.00000
    273       4.6322      0.00000
    274       4.6327      0.00000
    275       4.7006      0.00000
    276       4.7322      0.00000
    277       4.7324      0.00000
    278       4.8479      0.00000
    279       4.8501      0.00000
    280       4.9442      0.00000
    281       5.0818      0.00000
    282       5.0824      0.00000
    283       5.2199      0.00000
    284       5.2228      0.00000
    285       5.3195      0.00000
    286       5.3363      0.00000


--------------------------------------------------------------------------------------------------------


 soft charge-density along one line, spin component           1
         0         1         2         3         4         5         6         7         8         9
 total charge-density along one line
 
 pseudopotential strength for first ion, spin component:           1
 -4.786  12.296  -0.000  -0.000  -0.000   0.000   0.001   0.000
 12.296   3.221   0.000   0.001   0.000  -0.000  -0.000  -0.000
 -0.000   0.000 -19.085   0.000   0.000  10.013  -0.000  -0.000
 -0.000   0.001   0.000 -19.078   0.000  -0.000  10.006  -0.000
 -0.000   0.000   0.000   0.000 -19.085  -0.000  -0.000  10.013
  0.000  -0.000  10.013  -0.000  -0.000   5.129   0.000   0.000
  0.001  -0.000  -0.000  10.006  -0.000   0.000   5.131   0.000
  0.000  -0.000  -0.000  -0.000  10.013   0.000   0.000   5.129
  0.000  -0.000  -0.000  -0.000  -0.007   0.000   0.000   0.004
  0.000  -0.000  -0.001  -0.000  -0.000   0.000   0.000   0.000
  0.006  -0.003   0.000  -0.001   0.000  -0.000   0.000  -0.000
  0.000  -0.000  -0.000  -0.000  -0.001   0.000   0.000   0.000
 -0.000   0.000  -0.007  -0.000  -0.000   0.004   0.000   0.000
  0.000  -0.000  -0.000  -0.000  -0.008   0.000   0.000   0.004
  0.000  -0.000  -0.001  -0.000  -0.000   0.000   0.000   0.000
  0.006  -0.004   0.000  -0.001   0.000  -0.000   0.000  -0.000
  0.000  -0.000  -0.000  -0.000  -0.001   0.000   0.000   0.000
 -0.000   0.000  -0.008  -0.000  -0.000   0.004   0.000   0.000
 total augmentation occupancy for first ion, spin component:           1
  1.995  -0.041  -0.000   0.000  -0.000  -0.000   0.000  -0.000  -0.000  -0.000  -0.010  -0.000  -0.000   0.000   0.000   0.008
 -0.041   1.192  -0.000   0.000  -0.000   0.000   0.000   0.000   0.000   0.000  -0.015   0.000   0.000  -0.000  -0.000   0.121
 -0.000  -0.000   1.998  -0.000  -0.000  -0.044  -0.000  -0.000   0.000   0.000  -0.000  -0.000  -0.010  -0.000   0.000   0.000
  0.000   0.000  -0.000   1.998  -0.000  -0.000  -0.050  -0.000  -0.000   0.000   0.000   0.000  -0.000   0.000  -0.000  -0.000
 -0.000  -0.000  -0.000  -0.000   1.998  -0.000  -0.000  -0.044  -0.010  -0.000  -0.000   0.000   0.000  -0.002   0.000   0.000
 -0.000   0.000  -0.044  -0.000  -0.000   0.100   0.000   0.000   0.000  -0.003   0.000   0.000  -0.194  -0.000   0.003  -0.000
  0.000   0.000  -0.000  -0.050  -0.000   0.000   0.122   0.000   0.000   0.000   0.000   0.000   0.000  -0.000  -0.000   0.000
 -0.000   0.000  -0.000  -0.000  -0.044   0.000   0.000   0.100  -0.194   0.000   0.000  -0.003   0.000   0.222  -0.000  -0.000
 -0.000   0.000   0.000  -0.000  -0.010   0.000   0.000  -0.194   2.539   0.000   0.000   0.017   0.000  -2.931   0.000  -0.000
 -0.000   0.000   0.000   0.000  -0.000  -0.003   0.000   0.000   0.000   3.947   0.000  -0.000   0.017   0.000  -4.907  -0.000
 -0.010  -0.015  -0.000   0.000  -0.000   0.000   0.000   0.000   0.000   0.000   1.761   0.000   0.000  -0.000  -0.000  -1.851
 -0.000   0.000  -0.000   0.000   0.000   0.000   0.000  -0.003   0.017  -0.000   0.000   3.947   0.000  -0.015   0.000  -0.000
 -0.000   0.000  -0.010  -0.000   0.000  -0.194   0.000   0.000   0.000   0.017   0.000   0.000   2.539  -0.000  -0.015  -0.000
  0.000  -0.000  -0.000   0.000  -0.002  -0.000  -0.000   0.222  -2.931   0.000  -0.000  -0.015  -0.000   4.094  -0.000   0.000
  0.000  -0.000   0.000  -0.000   0.000   0.003  -0.000  -0.000   0.000  -4.907  -0.000   0.000  -0.015  -0.000   6.509   0.000
  0.008   0.121   0.000  -0.000   0.000  -0.000   0.000  -0.000  -0.000  -0.000  -1.851  -0.000  -0.000   0.000   0.000   2.815
  0.000  -0.000   0.000  -0.000   0.000  -0.000  -0.000   0.003  -0.015   0.000  -0.000  -4.907   0.000   0.015  -0.000   0.000
  0.000  -0.000  -0.002   0.000  -0.000   0.222  -0.000  -0.000  -0.000  -0.015  -0.000   0.000  -2.931  -0.000   0.015  -0.000


------------------------ aborting loop because EDIFF is reached ----------------------------------------


    CHARGE:  cpu time      0.4109: real time      0.4109
    FORLOC:  cpu time      0.0701: real time      0.0701
    FORNL :  cpu time      1.7052: real time      1.7055
    STRESS:  cpu time      4.5150: real time      4.5150
    FORCOR:  cpu time      0.1010: real time      0.1013
    FORHAR:  cpu time      0.0376: real time      0.0379
    MIXING:  cpu time      0.3858: real time      0.3858
    OFIELD:  cpu time      0.0001: real time      0.0003

 ---------------------------------------------------------------------------------------------

         DFTD3 V3.0 Rev 1        
 DF pbe       
 parameters
 k1-k3        =   16.0000    1.3333   -4.0000
 Edisp (eV)  -19.99345

 E6    (eV) :   -11.6646
 E8    (eV) :    -8.3289
 % E8        : 41.66
    FORVDW:  cpu time      0.1645: real time      0.1663

  FORCE on cell =-STRESS in cart. coord.  units (eV):
  Direction    XX          YY          ZZ          XY          YZ          ZX
  --------------------------------------------------------------------------------------
  Alpha Z   964.87982   964.87982   964.87982
  Ewald   77771.89121 77771.89284************     0.62184     0.00225     0.43834
  Hartree 88158.04805 88158.04906-83744.41695     0.22483     0.00059     0.12809
  E(xc)   -1975.13322 -1975.13323 -1977.24773     0.00125     0.00000     0.00097
  Local  ************************178129.18896    -0.83351    -0.00271    -0.57314
  n-local  2141.52643  2141.52608  2235.80391     0.01925     0.00015     0.03387
  augment   -10.18165   -10.18148   -30.33711     0.00011    -0.00002    -0.00128
  Kinetic  7450.18251  7450.18250  7519.69806    -0.01959    -0.00003     0.03463
  Fock        0.00000     0.00000     0.00000     0.00000     0.00000     0.00000
  vdW       -20.67137   -20.67137   -14.67820    -0.00011    -0.00000    -0.00011
  -------------------------------------------------------------------------------------
  Total     -20.19233   -20.19276    -0.55245     0.01408     0.00023     0.06137
  in kB     -20.36589   -20.36632    -0.55720     0.01420     0.00023     0.06190
  external pressure =      -13.76 kB  Pullay stress =        0.00 kB


 VOLUME and BASIS-vectors are now :
 -----------------------------------------------------------------------------
  energy-cutoff  :      520.00
  volume of cell :     1588.52
      direct lattice vectors                 reciprocal lattice vectors
     9.576713736  0.000000000  0.000000000     0.104419953 -0.060286888  0.000000000
     4.788356868  8.293677380  0.000000000     0.000000000  0.120573776  0.000000000
     0.000000000  0.000000000 20.000000000     0.000000000  0.000000000  0.050000000

  length of vectors
     9.576713736  9.576713736 20.000000000     0.120573776  0.120573776  0.050000000


 FORCES acting on ions
    electron-ion (+dipol)            ewald-force                    non-local-force                 convergence-correction
 -----------------------------------------------------------------------------------------------
   0.579E-02 0.381E-02 0.150E+04   -.598E-02 -.379E-02 -.150E+04   -.217E-04 0.472E-05 0.431E-01   0.204E-03 -.391E-04 -.256E-02
   -.249E-02 0.748E-02 0.150E+04   0.251E-02 -.713E-02 -.150E+04   0.697E-05 -.668E-06 0.432E-01   -.200E-04 -.329E-03 -.259E-02
   -.331E-02 0.153E-02 0.150E+04   0.347E-02 -.167E-02 -.150E+04   0.131E-04 0.350E-05 0.431E-01   -.179E-03 0.137E-03 -.255E-02
   0.495E-02 -.387E-02 0.150E+04   -.469E-02 0.416E-02 -.150E+04   -.186E-04 -.150E-05 0.432E-01   -.206E-03 -.295E-03 -.257E-02
   -.800E-02 -.276E-02 0.150E+04   0.765E-02 0.297E-02 -.150E+04   0.611E-05 -.193E-04 0.432E-01   0.313E-03 -.194E-03 -.257E-02
   0.305E-02 -.135E-02 0.150E+04   -.296E-02 0.115E-02 -.150E+04   0.668E-05 0.473E-05 0.432E-01   -.989E-04 0.153E-03 -.256E-02
   -.744E-03 -.571E-02 0.150E+04   0.580E-03 0.545E-02 -.150E+04   -.641E-05 0.236E-04 0.431E-01   0.174E-03 0.230E-03 -.253E-02
   -.113E-02 0.199E-02 0.150E+04   0.707E-03 -.212E-02 -.150E+04   0.271E-04 -.735E-05 0.432E-01   0.354E-03 0.154E-03 -.256E-02
   0.187E-02 -.111E-02 0.150E+04   -.129E-02 0.967E-03 -.150E+04   -.125E-04 -.721E-05 0.432E-01   -.529E-03 0.172E-03 -.255E-02
   0.112E+01 0.851E+00 -.150E+04   -.114E+01 -.859E+00 0.150E+04   -.259E-01 -.139E-01 -.923E-01   -.934E-04 0.102E-03 -.226E-02
   -.832E+00 0.279E+00 -.150E+04   0.837E+00 -.285E+00 0.150E+04   0.177E-02 -.216E-02 -.678E-01   0.237E-03 0.145E-03 -.227E-02
   0.132E+00 0.159E-01 -.150E+04   -.132E+00 -.168E-01 0.150E+04   -.518E-03 0.659E-03 -.562E-01   -.153E-03 0.237E-03 -.227E-02
   -.349E+00 -.113E+01 -.150E+04   0.344E+00 0.114E+01 0.150E+04   -.193E-02 0.159E-01 -.800E-01   0.112E-03 0.942E-04 -.224E-02
   -.259E-01 0.686E-02 -.150E+04   0.264E-01 -.742E-02 0.150E+04   -.448E-03 -.394E-03 -.575E-01   0.140E-03 -.432E-04 -.230E-02
   0.240E+00 -.160E+00 -.150E+04   -.242E+00 0.162E+00 0.150E+04   0.164E-02 -.821E-03 -.570E-01   -.254E-03 0.661E-04 -.226E-02
   0.316E-01 0.581E-01 -.150E+04   -.324E-01 -.575E-01 0.150E+04   0.581E-03 -.625E-03 -.561E-01   -.580E-05 -.206E-03 -.229E-02
   -.378E-01 0.153E+00 -.150E+04   0.395E-01 -.155E+00 0.150E+04   0.228E-03 0.122E-02 -.573E-01   0.473E-04 -.349E-03 -.231E-02
   0.391E-02 -.738E-01 -.150E+04   -.348E-02 0.741E-01 0.150E+04   -.576E-03 -.239E-04 -.564E-01   -.424E-04 -.424E-04 -.233E-02
   0.163E-03 0.615E-03 0.131E+04   -.375E-03 -.447E-03 -.131E+04   0.257E-04 0.199E-04 0.456E+01   0.183E-03 -.189E-03 -.159E-03
   -.646E-03 0.414E-03 0.131E+04   0.857E-03 -.265E-03 -.131E+04   -.494E-04 0.400E-04 0.456E+01   -.158E-03 -.184E-03 -.162E-03
   0.502E-03 0.209E-04 0.131E+04   -.483E-03 -.123E-03 -.131E+04   0.139E-04 0.193E-04 0.456E+01   -.301E-04 0.883E-04 -.235E-03
   -.409E-03 -.474E-03 0.131E+04   0.399E-03 0.712E-03 -.131E+04   0.110E-05 -.628E-04 0.456E+01   0.140E-04 -.172E-03 -.528E-03
   -.400E-03 -.611E-04 0.131E+04   0.288E-03 0.114E-03 -.131E+04   -.363E-04 -.596E-04 0.456E+01   0.146E-03 0.654E-05 -.245E-03
   0.816E-03 -.415E-03 0.131E+04   -.686E-03 0.450E-03 -.131E+04   0.307E-04 -.121E-04 0.456E+01   -.162E-03 -.200E-04 -.261E-03
   -.811E-04 0.506E-04 0.131E+04   -.152E-03 -.191E-03 -.131E+04   -.295E-05 0.280E-04 0.456E+01   0.237E-03 0.110E-03 -.426E-03
   -.891E-04 0.297E-03 0.131E+04   0.915E-04 -.562E-03 -.131E+04   0.324E-04 0.536E-04 0.456E+01   -.351E-04 0.207E-03 -.798E-04
   0.175E-03 -.468E-03 0.131E+04   0.602E-04 0.314E-03 -.131E+04   -.357E-04 -.145E-04 0.456E+01   -.205E-03 0.161E-03 -.447E-03
   0.682E-02 0.622E-02 -.231E+02   -.719E-02 -.617E-02 0.277E+02   0.146E-03 0.112E-03 -.466E+01   0.173E-03 -.184E-03 -.172E-02
   -.107E-01 0.446E-02 -.231E+02   0.111E-01 -.437E-02 0.277E+02   -.148E-03 0.813E-04 -.466E+01   -.137E-03 -.187E-03 -.168E-02
   0.395E-02 0.140E-02 -.231E+02   -.390E-02 -.145E-02 0.277E+02   0.287E-05 -.214E-04 -.466E+01   -.422E-04 0.862E-04 -.160E-02
   -.349E-02 -.101E-01 -.231E+02   0.350E-02 0.105E-01 0.277E+02   -.264E-04 -.186E-03 -.466E+01   0.208E-04 -.151E-03 -.132E-02
   -.464E-02 -.211E-02 -.231E+02   0.466E-02 0.222E-02 0.277E+02   -.139E-03 -.120E-03 -.466E+01   0.148E-03 0.180E-04 -.158E-02
   0.817E-02 -.508E-02 -.231E+02   -.814E-02 0.517E-02 0.277E+02   0.120E-03 -.545E-04 -.466E+01   -.173E-03 -.120E-04 -.157E-02
   0.149E-02 0.116E-02 -.231E+02   -.166E-02 -.129E-02 0.277E+02   -.335E-04 0.350E-04 -.466E+01   0.227E-03 0.964E-04 -.141E-02
   -.818E-03 0.702E-02 -.231E+02   0.810E-03 -.739E-02 0.277E+02   0.549E-04 0.154E-03 -.466E+01   -.303E-04 0.183E-03 -.176E-02
   -.672E-03 -.293E-02 -.231E+02   0.851E-03 0.274E-02 0.277E+02   0.170E-04 0.149E-04 -.466E+01   -.195E-03 0.163E-03 -.140E-02
   -.638E-01 -.120E-05 0.238E+02   0.648E-01 0.581E-11 -.283E+02   0.119E-03 0.153E-04 0.458E+01   0.162E-03 -.943E-05 -.845E-03
   -.367E-01 -.934E-03 0.234E+02   0.379E-01 0.934E-11 -.280E+02   -.358E-03 0.162E-02 0.458E+01   -.174E-04 -.277E-04 -.759E-03
   0.895E-01 -.152E-02 0.235E+02   -.904E-01 0.186E-10 -.281E+02   -.122E-02 0.318E-02 0.458E+01   -.145E-03 0.131E-03 -.794E-03
   -.388E-01 -.363E-01 0.235E+02   0.374E-01 0.373E-01 -.280E+02   0.367E-02 -.479E-03 0.458E+01   0.522E-04 0.672E-04 -.827E-03
   0.119E-01 0.163E-04 0.234E+02   -.120E-01 0.205E-04 -.280E+02   -.297E-04 0.550E-04 0.458E+01   0.543E-04 -.879E-04 -.809E-03
   0.264E-01 -.718E-01 0.235E+02   -.267E-01 0.738E-01 -.281E+02   -.884E-03 -.119E-02 0.458E+01   -.109E-03 0.410E-05 -.791E-03
   0.250E-01 0.747E-01 0.235E+02   -.267E-01 -.738E-01 -.281E+02   0.259E-02 -.406E-02 0.458E+01   -.753E-04 -.137E-03 -.934E-03
   -.360E-01 0.358E-01 0.235E+02   0.374E-01 -.373E-01 -.280E+02   -.124E-02 0.855E-03 0.458E+01   0.478E-04 0.668E-04 -.868E-03
   0.119E-01 0.245E-04 0.234E+02   -.120E-01 -.205E-04 -.280E+02   -.165E-04 -.149E-05 0.458E+01   0.260E-04 -.232E-05 -.814E-03
   -.662E+00 -.151E-02 -.131E+04   0.661E+00 0.145E-02 0.131E+04   0.484E-01 0.212E-03 -.446E+01   0.148E-03 0.573E-05 -.136E-02
   0.156E+00 0.226E-03 -.131E+04   -.159E+00 0.929E-11 0.131E+04   -.807E-03 0.251E-03 -.456E+01   -.240E-04 -.444E-04 -.145E-02
   0.158E+00 0.177E-03 -.131E+04   -.158E+00 0.176E-10 0.131E+04   -.153E-02 -.175E-03 -.456E+01   -.121E-03 0.134E-03 -.139E-02
   -.253E-02 0.909E-01 -.131E+04   0.215E-02 -.934E-01 0.131E+04   -.172E-03 0.576E-04 -.456E+01   0.149E-04 0.567E-04 -.138E-02
   0.293E-01 -.921E-05 -.131E+04   -.295E-01 0.556E-04 0.131E+04   0.351E-03 0.519E-04 -.456E+01   0.789E-04 -.955E-04 -.141E-02
   -.247E-02 -.922E-01 -.131E+04   0.296E-02 0.925E-01 0.131E+04   -.567E-03 0.481E-03 -.457E+01   -.983E-04 -.449E-04 -.140E-02
   -.171E-02 0.927E-01 -.131E+04   0.296E-02 -.925E-01 0.131E+04   -.854E-03 -.826E-03 -.456E+01   -.786E-04 -.108E-03 -.129E-02
   -.255E-02 -.918E-01 -.131E+04   0.215E-02 0.934E-01 0.131E+04   -.674E-03 0.135E-03 -.456E+01   0.391E-04 0.881E-04 -.137E-02
   0.295E-01 0.318E-04 -.131E+04   -.295E-01 -.556E-04 0.131E+04   0.174E-03 0.121E-04 -.457E+01   0.405E-04 0.131E-04 -.139E-02
 -----------------------------------------------------------------------------------------------
   -.225E-01 -.162E-03 0.887E+00   0.249E-14 0.225E-12 0.887E-11   0.218E-01 0.171E-03 -.847E+00   -.231E-04 0.249E-04 -.800E-01
 
 
 POSITION                                       TOTAL-FORCE (eV/Angst)
 -----------------------------------------------------------------------------------
      0.00000      0.00000     10.25937         0.000013     -0.000010      0.000295
      3.19224      0.00000     10.25937         0.000013      0.000028      0.000401
      6.38448      0.00000     10.25937         0.000009     -0.000004      0.000310
      1.59612      2.76456     10.25937         0.000045     -0.000006      0.000399
      4.78836      2.76456     10.25937        -0.000021     -0.000008      0.000399
      7.98059      2.76456     10.25937         0.000009     -0.000035      0.000325
      3.19224      5.52912     10.25937         0.000018     -0.000008      0.000303
      6.38448      5.52912     10.25937        -0.000027      0.000017      0.000336
      9.57671      5.52912     10.25937         0.000053      0.000020      0.000305
      1.59612      0.92152     16.24138        -0.044794     -0.021759     -0.055710
      4.78836      0.92152     16.24138         0.007620     -0.008496     -0.028807
      7.98059      0.92152     16.24138        -0.000475     -0.000008     -0.002092
      3.19224      3.68608     16.24138        -0.007102      0.030145     -0.042153
      6.38448      3.68608     16.24138         0.000188     -0.000992     -0.001564
      9.57671      3.68608     16.24138        -0.000567      0.001438     -0.002972
      4.78836      6.45064     16.24138        -0.000179     -0.000174     -0.002127
      7.98059      6.45064     16.24138         0.001915     -0.000441     -0.002266
     11.17283      6.45064     16.24138        -0.000170      0.000174     -0.002066
      1.59612      0.92152      8.70526         0.000010     -0.000001      0.000216
      4.78836      0.92152      8.70526         0.000017      0.000004      0.000211
      7.98059      0.92152      8.70526         0.000017      0.000005      0.000228
      3.19224      3.68608      8.70526         0.000019      0.000003      0.000217
      6.38448      3.68608      8.70526         0.000011     -0.000001      0.000223
      9.57671      3.68608      8.70526         0.000011      0.000002      0.000223
      4.78836      6.45064      8.70526         0.000015     -0.000003      0.000233
      7.98059      6.45064      8.70526         0.000013     -0.000005      0.000226
     11.17283      6.45064      8.70526         0.000008     -0.000009      0.000234
      1.59612      0.92152     11.80949        -0.000037     -0.000028      0.000144
      4.78836      0.92152     11.80949         0.000056     -0.000018      0.000130
      7.98059      0.92152     11.80949         0.000032      0.000016      0.000148
      3.19224      3.68608     11.80949         0.000017      0.000053      0.000131
      6.38448      3.68608     11.80949         0.000041      0.000008      0.000147
      9.57671      3.68608     11.80949        -0.000004      0.000021      0.000185
      4.78836      6.45064     11.80949         0.000038     -0.000007      0.000153
      7.98059      6.45064     11.80949         0.000031     -0.000032      0.000165
     11.17283      6.45064     11.80949         0.000014     -0.000015      0.000132
      3.19224      1.84304     14.68998         0.001253      0.000004     -0.017208
      6.38448      1.84304     14.68998         0.000800      0.000654      0.000114
      9.57671      1.84304     14.68998        -0.002197      0.001785     -0.001365
      4.78836      4.60760     14.68998         0.002359      0.000550     -0.000724
      7.98059      4.60760     14.68998        -0.000082      0.000003      0.000560
     11.17283      4.60760     14.68998        -0.001246      0.000818     -0.000524
      6.38448      7.37216     14.68998         0.000849     -0.003220     -0.001466
      9.57671      7.37216     14.68998         0.000220     -0.000615      0.000213
     12.76895      7.37216     14.68998        -0.000099     -0.000000      0.000516
      3.18792      1.84304     17.78550         0.047881      0.000160      0.133398
      6.38448      1.84304     17.79452        -0.003662      0.000432      0.003861
      9.57671      1.84304     17.79452        -0.002003      0.000135      0.003077
      4.78836      4.60760     17.79452        -0.000543     -0.002449      0.003788
      7.98059      4.60760     17.79452         0.000261      0.000002     -0.000496
     11.17283      4.60760     17.79452        -0.000181      0.000696      0.003156
      6.38448      7.37216     17.79452         0.000309     -0.000694      0.003393
      9.57671      7.37216     17.79452        -0.001036      0.001864      0.003545
     12.76895      7.37216     17.79452         0.000259      0.000001     -0.000501
 -----------------------------------------------------------------------------------
    total drift:                               -0.000743      0.000034     -0.039251


--------------------------------------------------------------------------------------------------------



  FREE ENERGIE OF THE ION-ELECTRON SYSTEM (eV)
  ---------------------------------------------------
  free  energy   TOTEN  =      -412.60761731 eV

  energy  without entropy=     -412.60761731  energy(sigma->0) =     -412.60761731
 


--------------------------------------------------------------------------------------------------------


    POTLOK:  cpu time      0.5384: real time      0.5754


--------------------------------------------------------------------------------------------------------


     LOOP+:  cpu time    175.8001: real time    176.4256
    4ORBIT:  cpu time      0.0000: real time      0.0000

 total amount of memory used by VASP MPI-rank0   132777. kBytes
=======================================================================

   base                                    :      30000. kBytes
   nonlr-proj                              :      14941. kBytes
   fftplans                                :      11326. kBytes
   grid                                    :      17519. kBytes
   one-center                              :        217. kBytes
   wavefun                                 :      58774. kBytes
 
  
  
 General timing and accounting informations for this job:
 ========================================================
  
                  Total CPU time used (sec):      181.561
                            User time (sec):      176.373
                          System time (sec):        5.188
                         Elapsed time (sec):      183.971
  
                   Maximum memory used (kb):      435368.
                   Average memory used (kb):          N/A
  
                          Minor page faults:        46093
                          Major page faults:           42
                 Voluntary context switches:        14900
