    2    2  600    1
  0.8892687E+02  0.3204433E-09  0.3204433E-09  0.2000000E-08  0.5000000E-15
  1.000000000000000E-004
  CAR 
 GaN relaxation                          
      8     27     11
 
  0.1276756E-14  0.1276756E-14  0.1276756E-14  0.4444444E-02
      1        -18.570442   1.000000
      2         -6.833107   1.000000
      3         -4.612314   1.000000
      4         -4.612313   1.000000
      5         -2.033363   0.000000
      6          0.505301   0.000000
      7          0.841464   0.000000
      8          1.443751   0.000000
      9          1.851595   0.000000
     10          3.033013   0.000000
     11          3.455958   0.000000
 
  0.6666667E-01  0.8380778E-14  0.1276756E-14  0.2666667E-01
      1        -18.518219   1.000000
      2         -6.764178   1.000000
      3         -5.036059   1.000000
      4         -4.703596   1.000000
      5         -1.725077   0.000000
      6          0.567321   0.000000
      7          0.948714   0.000000
      8          1.547083   0.000000
      9          1.916632   0.000000
     10          3.132649   0.000000
     11          3.493653   0.000000
 
  0.1333333E+00  0.8379126E-14  0.1276756E-14  0.2666667E-01
      1        -18.364400   1.000000
      2         -6.561435   1.000000
      3         -5.959743   1.000000
      4         -4.950655   1.000000
      5         -1.122005   0.000000
      6          0.739822   0.000000
      7          1.252501   0.000000
      8          1.848562   0.000000
      9          2.104584   0.000000
     10          3.420438   0.000000
     11          3.602850   0.000000
 
  0.2000000E+00  0.1271408E-14  0.1276756E-14  0.2666667E-01
      1        -18.118775   1.000000
      2         -7.037721   1.000000
      3         -6.238084   1.000000
      4         -5.289228   1.000000
      5         -0.494180   0.000000
      6          0.968629   0.000000
      7          1.712982   0.000000
      8          2.307294   0.000000
      9          2.396824   0.000000
     10          3.789536   0.000000
     11          3.836430   0.000000
 
  0.2666667E+00  0.1286432E-14  0.1276756E-14  0.2666667E-01
      1        -17.801569   1.000000
      2         -8.116391   1.000000
      3         -5.820251   1.000000
      4         -5.647534   1.000000
      5          0.098832   0.000000
      6          1.125116   0.000000
      7          2.283527   0.000000
      8          2.792655   0.000000
      9          2.843966   0.000000
     10          4.108563   0.000000
     11          4.199777   0.000000
 
  0.3333333E+00  0.8383972E-14  0.1276756E-14  0.2666667E-01
      1        -17.450442   1.000000
      2         -9.089141   1.000000
      3         -5.965385   1.000000
      4         -5.355062   1.000000
      5          0.606685   0.000000
      6          1.058848   0.000000
      7          2.856980   0.000000
      8          3.350328   0.000000
      9          3.452510   0.000000
     10          4.561659   0.000000
     11          4.625185   0.000000
 
  0.4000000E+00  0.8382358E-14  0.1276756E-14  0.2666667E-01
      1        -17.129691   1.000000
      2         -9.847500   1.000000
      3         -6.199619   1.000000
      4         -4.924091   1.000000
      5          0.807385   0.000000
      6          0.940482   0.000000
      7          3.378587   0.000000
      8          4.087517   0.000000
      9          4.283207   0.000000
     10          5.120682   0.000000
     11          5.293797   0.000000
 
  0.4666667E+00  0.1263523E-14  0.1276756E-14  0.2666667E-01
      1        -16.929959   1.000000
      2        -10.272859   1.000000
      3         -6.323192   1.000000
      4         -4.650481   1.000000
      5          0.586579   0.000000
      6          1.078347   0.000000
      7          3.907487   0.000000
      8          4.828393   0.000000
      9          5.155891   0.000000
     10          5.576770   0.000000
     11          5.863418   0.000000
 
  0.1333333E+00  0.6666667E-01  0.1276756E-14  0.2666667E-01
      1        -18.415161   1.000000
      2         -6.628313   1.000000
      3         -5.674315   1.000000
      4         -4.891417   1.000000
      5         -1.286078   0.000000
      6          0.684841   0.000000
      7          1.154980   0.000000
      8          1.751048   0.000000
      9          2.043173   0.000000
     10          3.328552   0.000000
     11          3.566992   0.000000
 
  0.2000000E+00  0.6666667E-01  0.1276756E-14  0.5333333E-01
      1        -18.215157   1.000000
      2         -6.611515   1.000000
      3         -6.365005   1.000000
      4         -5.226667   1.000000
      5         -0.689787   0.000000
      6          0.887898   0.000000
      7          1.541071   0.000000
      8          2.141568   0.000000
      9          2.283089   0.000000
     10          3.699762   0.000000
     11          3.713955   0.000000
 
  0.2666667E+00  0.6666667E-01  0.1276756E-14  0.5333333E-01
      1        -17.932648   1.000000
      2         -7.640644   1.000000
      3         -5.993374   1.000000
      4         -5.619447   1.000000
      5         -0.073481   0.000000
      6          1.087201   0.000000
      7          2.069719   0.000000
      8          2.624044   0.000000
      9          2.660290   0.000000
     10          3.966537   0.000000
     11          4.132422   0.000000
 
  0.3333333E+00  0.6666667E-01  0.1276756E-14  0.5333333E-01
      1        -17.595600   1.000000
      2         -8.636059   1.000000
      3         -5.993205   1.000000
      4         -5.548837   1.000000
      5          0.512158   0.000000
      6          1.131081   0.000000
      7          2.680027   0.000000
      8          3.099409   0.000000
      9          3.220776   0.000000
     10          4.393601   0.000000
     11          4.408480   0.000000
 
  0.4000000E+00  0.6666667E-01  0.1276756E-14  0.5333333E-01
      1        -17.253706   1.000000
      2         -9.487576   1.000000
      3         -6.293593   1.000000
      4         -5.093729   1.000000
      5          0.955179   0.000000
      6          0.986968   0.000000
      7          3.218967   0.000000
      8          3.758546   0.000000
      9          3.905551   0.000000
     10          4.857378   0.000000
     11          5.004163   0.000000
 
  0.4666667E+00  0.6666667E-01  0.1276756E-14  0.5333333E-01
      1        -16.985126   1.000000
      2        -10.077268   1.000000
      3         -6.486233   1.000000
      4         -4.730114   1.000000
      5          0.701122   0.000000
      6          1.256989   0.000000
      7          3.725001   0.000000
      8          4.532815   0.000000
      9          4.818387   0.000000
     10          5.415679   0.000000
     11          5.650861   0.000000
 
 -0.4666667E+00  0.6666667E-01  0.1276756E-14  0.2666667E-01
      1        -16.880748   1.000000
      2        -10.291238   1.000000
      3         -6.552420   1.000000
      4         -4.586448   1.000000
      5          0.582289   0.000000
      6          1.333533   0.000000
      7          4.059480   0.000000
      8          4.995595   0.000000
      9          5.315901   0.000000
     10          5.991366   0.000000
     11          6.186706   0.000000
 
  0.2666667E+00  0.1333333E+00  0.1276756E-14  0.2666667E-01
      1        -17.977518   1.000000
      2         -7.422035   1.000000
      3         -6.052697   1.000000
      4         -5.683367   1.000000
      5         -0.109659   0.000000
      6          1.067286   0.000000
      7          2.003338   0.000000
      8          2.569918   0.000000
      9          2.614792   0.000000
     10          3.925488   0.000000
     11          4.151782   0.000000
 
  0.3333333E+00  0.1333333E+00  0.1276756E-14  0.5333333E-01
      1        -17.672147   1.000000
      2         -8.284235   1.000000
      3         -6.178826   1.000000
      4         -5.651317   1.000000
      5          0.528101   0.000000
      6          1.160893   0.000000
      7          2.607718   0.000000
      8          2.984634   0.000000
      9          3.199440   0.000000
     10          4.293478   0.000000
     11          4.480291   0.000000
 
  0.4000000E+00  0.1333333E+00  0.1276756E-14  0.5333333E-01
      1        -17.336613   1.000000
      2         -9.101224   1.000000
      3         -6.606370   1.000000
      4         -5.208278   1.000000
      5          1.076019   0.000000
      6          1.153360   0.000000
      7          3.262448   0.000000
      8          3.572377   0.000000
      9          3.770828   0.000000
     10          4.669396   0.000000
     11          4.842259   0.000000
 
  0.4666667E+00  0.1333333E+00  0.1276756E-14  0.5333333E-01
      1        -17.033045   1.000000
      2         -9.758663   1.000000
      3         -6.910644   1.000000
      4         -4.802844   1.000000
      5          0.864646   0.000000
      6          1.650557   0.000000
      7          3.723192   0.000000
      8          4.306082   0.000000
      9          4.523467   0.000000
     10          5.255719   0.000000
     11          5.464291   0.000000
 
 -0.4666667E+00  0.1333333E+00  0.1276756E-14  0.5333333E-01
      1        -16.845861   1.000000
      2        -10.133004   1.000000
      3         -7.067301   1.000000
      4         -4.548898   1.000000
      5          0.687225   0.000000
      6          1.898512   0.000000
      7          4.105938   0.000000
      8          4.919793   0.000000
      9          5.402612   0.000000
     10          5.848151   0.000000
     11          5.973927   0.000000
 
  0.4000000E+00  0.2000000E+00  0.1276756E-14  0.2666667E-01
      1        -17.365676   1.000000
      2         -8.910438   1.000000
      3         -6.790343   1.000000
      4         -5.248589   1.000000
      5          1.121275   0.000000
      6          1.220793   0.000000
      7          3.289209   0.000000
      8          3.514207   0.000000
      9          3.835399   0.000000
     10          4.598171   0.000000
     11          4.794531   0.000000
 
  0.4666667E+00  0.2000000E+00  0.1276756E-14  0.5333333E-01
      1        -17.060832   1.000000
      2         -9.466655   1.000000
      3         -7.299294   1.000000
      4         -4.845937   1.000000
      5          0.983118   0.000000
      6          1.904842   0.000000
      7          3.913936   0.000000
      8          4.197379   0.000000
      9          4.402818   0.000000
     10          5.081788   0.000000
     11          5.377210   0.000000
 
 -0.4666667E+00  0.2000000E+00  0.1276756E-14  0.5333333E-01
      1        -16.826714   1.000000
      2         -9.868447   1.000000
      3         -7.622206   1.000000
      4         -4.533703   1.000000
      5          0.829761   0.000000
      6          2.418623   0.000000
      7          4.224611   0.000000
      8          4.802738   0.000000
      9          5.284288   0.000000
     10          5.773372   0.000000
     11          5.849750   0.000000
 
 -0.4000000E+00  0.2000000E+00  0.1276756E-14  0.2666667E-01
      1        -16.737226   1.000000
      2        -10.017693   1.000000
      3         -7.731358   1.000000
      4         -4.413275   1.000000
      5          0.762181   0.000000
      6          2.598643   0.000000
      7          4.425775   0.000000
      8          4.923419   0.000000
      9          5.862467   0.000000
     10          6.396213   0.000000
     11          6.472002   0.000000
 
 -0.4666667E+00  0.2666667E+00  0.1276756E-14  0.2666667E-01
      1        -16.820865   1.000000
      2         -9.710897   1.000000
      3         -7.888568   1.000000
      4         -4.530355   1.000000
      5          0.897378   0.000000
      6          2.604377   0.000000
      7          4.349135   0.000000
      8          4.758384   0.000000
      9          5.222208   0.000000
     10          5.672949   0.000000
     11          5.842984   0.000000
 
 -0.4000000E+00  0.2666667E+00  0.1276756E-14  0.5333333E-01
      1        -16.678212   1.000000
      2         -9.829615   1.000000
      3         -8.228772   1.000000
      4         -4.342373   1.000000
      5          0.849518   0.000000
      6          3.021748   0.000000
      7          4.720272   0.000000
      8          4.759952   0.000000
      9          6.071858   0.000000
     10          6.346780   0.000000
     11          6.496914   0.000000
 
 -0.3333333E+00  0.3333333E+00  0.1276756E-14  0.8888889E-02
      1        -16.623921   1.000000
      2         -9.767891   1.000000
      3         -8.492222   1.000000
      4         -4.273049   1.000000
      5          0.869508   0.000000
      6          3.232425   0.000000
      7          4.631850   0.000000
      8          5.122035   0.000000
      9          5.988657   0.000000
     10          6.868332   0.000000
     11          7.250284   0.000000
