       N       E                     dE             d eps       ncg     rms          rms(c)
DAV:   1     0.564782484117E+02    0.56478E+02   -0.27425E+03   594   0.480E+02
DAV:   2    -0.632151262975E+01   -0.62800E+02   -0.55302E+02   781   0.856E+01
DAV:   3    -0.141972429293E+02   -0.78757E+01   -0.78757E+01   682   0.473E+01
DAV:   4    -0.143022322947E+02   -0.10499E+00   -0.10499E+00   715   0.673E+00
DAV:   5    -0.143033141522E+02   -0.10819E-02   -0.10819E-02   847   0.534E-01    0.104E+01
DAV:   6    -0.114687398132E+02    0.28346E+01   -0.20093E+01   858   0.187E+01    0.399E+00
DAV:   7    -0.113797787604E+02    0.88961E-01   -0.21408E-01   968   0.286E+00    0.234E+00
DAV:   8    -0.113052896530E+02    0.74489E-01   -0.73888E-02   913   0.180E+00    0.289E-01
DAV:   9    -0.113035876648E+02    0.17020E-02   -0.73362E-04   968   0.118E-01    0.214E-01
DAV:  10    -0.112965286563E+02    0.70590E-02   -0.55038E-03   880   0.313E-01    0.863E-02
DAV:  11    -0.112958474614E+02    0.68119E-03   -0.13648E-03   792   0.133E-01    0.104E-01
DAV:  12    -0.112918173863E+02    0.40301E-02   -0.18154E-03   770   0.163E-01    0.418E-02
DAV:  13    -0.112922161270E+02   -0.39874E-03   -0.89976E-04   649   0.811E-02    0.616E-02
DAV:  14    -0.112932722663E+02   -0.10561E-02   -0.53832E-04   715   0.898E-02    0.247E-02
DAV:  15    -0.112941941717E+02   -0.92191E-03   -0.85295E-04   671   0.969E-02    0.365E-02
DAV:  16    -0.112943959335E+02   -0.20176E-03   -0.17236E-04   704   0.552E-02    0.279E-02
DAV:  17    -0.112948269210E+02   -0.43099E-03   -0.61403E-05   660   0.265E-02    0.109E-02
DAV:  18    -0.112949092120E+02   -0.82291E-04   -0.24243E-06   726   0.814E-03    0.668E-03
DAV:  19    -0.112949449910E+02   -0.35779E-04   -0.84212E-06   737   0.995E-03    0.897E-04
DAV:  20    -0.112949559141E+02   -0.10923E-04   -0.40556E-07   891   0.297E-03    0.389E-04
DAV:  21    -0.112949578906E+02   -0.19765E-05   -0.98043E-08   660   0.733E-04    0.978E-05
DAV:  22    -0.112949581562E+02   -0.26555E-06   -0.48403E-09   902   0.203E-04
   1 F= -.11472405E+02 E0= -.11472405E+02  d E =-.114724E+02
