 vasp.6.5.1 10Mar25 (build Aug 29 2025 00:30:47) complex                        
  
 executed on             LinuxIFC date 2026.06.01  17:18:24
 running  264 mpi-ranks, with    1 threads/rank, on    6 nodes
 distrk:  each k-point on   44 cores,    6 groups
 distr:  one band on NCORE=   4 cores,   11 groups


--------------------------------------------------------------------------------------------------------


 INCAR:
   SYSTEM = GaN relaxation
   PREC = Accurate
   ENCUT = 520
   EDIFF = 1E-6
   ISMEAR = 0
   SIGMA = 0.05
   LREAL = Auto
   ALGO = Normal
   AMIN = 0.01
   NELM = 200
   NSW = 600
   IBRION = 1
   ISIF = 2
   EDIFFG = -1E-4
   IVDW = 12
   KPAR = 6
   NCORE = 4
   LWAVE = .FALSE.
   LCHARG = .FALSE.

 POTCAR:    PAW_PBE Ga 08Apr2002                  
 POTCAR:    PAW_PBE N 08Apr2002                   
 POTCAR:    PAW_PBE Ga 08Apr2002                  
   SHA256 =  023a37ab0b797ff5f2482c75273bbcab161c7187972ce51a2c47c8a86975dbe0 Ga/POTCAR             
   COPYR  = (c) Copyright 08Apr2002 Georg Kresse                                                    
   COPYR  = This file is part of the software VASP. Any use, copying, and all other rights are regul
   COPYR  = If you do not have a valid VASP license, you may not use, copy or distribute this file. 
   VRHFIN =Ga: s2p1                                                                                 
   LEXCH  = PE                                                                                      
   EATOM  =    58.8688 eV,    4.3267 Ry                                                             
                                                                                                    
   TITEL  = PAW_PBE Ga 08Apr2002                                                                    
   LULTRA =        F    use ultrasoft PP ?                                                          
   IUNSCR =        1    unscreen: 0-lin 1-nonlin 2-no                                               
   RPACOR =    2.170    partial core radius                                                         
   POMASS =   69.723; ZVAL   =    3.000    mass and valenz                                          
   RCORE  =    2.600    outmost cutoff radius                                                       
   RWIGS  =    2.650; RWIGS  =    1.402    wigner-seitz radius (au A)                               
   ENMAX  =  134.678; ENMIN  =  101.009 eV                                                          
   ICORE  =        3    local potential                                                             
   LCOR   =        T    correct aug charges                                                         
   LPAW   =        T    paw PP                                                                      
   EAUG   =  320.264                                                                                
   DEXC   =    0.000                                                                                
   RMAX   =    2.658    core radius for proj-oper                                                   
   RAUG   =    1.300    factor for augmentation sphere                                              
   RDEP   =    2.684    radius for radial grids                                                     
   RDEPT  =    2.308    core radius for aug-charge                                                  
                                                                                                    
   Atomic configuration                                                                             
   10 entries                                                                                       
     n  l   j            E        occ.                                                              
     1  0  0.50    -10228.7830   2.0000                                                             
     2  0  0.50     -1262.1604   2.0000                                                             
     2  1  1.50     -1098.6333   6.0000                                                             
     3  0  0.50      -148.1110   2.0000                                                             
     3  1  1.50       -98.8436   6.0000                                                             
     3  2  2.50       -19.1549  10.0000                                                             
     4  0  0.50        -8.9483   2.0000                                                             
     4  1  0.50        -2.5791   1.0000                                                             
     4  2  1.50         5.4423   0.0000                                                             
     4  3  2.50        -2.7416   0.0000                                                             
   Description                                                                                      
     l       E           TYP  RCUT    TYP  RCUT                                                     
     0     -8.9483097     23  2.600                                                                 
     0     -5.8232215     23  2.600                                                                 
     1     -2.5790793     23  2.600                                                                 
     1      5.2230115     23  2.600                                                                 
     2      1.3605826     23  2.600                                                                 
     3     -1.3605826      7  2.600                                                                 
  local pseudopotential read in
  partial core-charges read in
  partial kinetic energy density read in
  atomic valenz-charges read in
  non local Contribution for L=           0  read in
    real space projection operators read in
  non local Contribution for L=           0  read in
    real space projection operators read in
  non local Contribution for L=           1  read in
    real space projection operators read in
  non local Contribution for L=           1  read in
    real space projection operators read in
  non local Contribution for L=           2  read in
    real space projection operators read in
    PAW grid and wavefunctions read in
 
   number of l-projection  operators is LMAX  =           5
   number of lm-projection operators is LMMAX =          13
 
 POTCAR:    PAW_PBE N 08Apr2002                   
   SHA256 =  e053789ff3a61a86a1b75d8a110fcc91f86041011e7b0817c7c99e4e8a6349d7 N/POTCAR              
   COPYR  = (c) Copyright 08Apr2002 Georg Kresse                                                    
   COPYR  = This file is part of the software VASP. Any use, copying, and all other rights are regul
   COPYR  = If you do not have a valid VASP license, you may not use, copy or distribute this file. 
   VRHFIN =N: s2p3                                                                                  
   LEXCH  = PE                                                                                      
   EATOM  =   264.5486 eV,   19.4438 Ry                                                             
                                                                                                    
   TITEL  = PAW_PBE N 08Apr2002                                                                     
   LULTRA =        F    use ultrasoft PP ?                                                          
   IUNSCR =        1    unscreen: 0-lin 1-nonlin 2-no                                               
   RPACOR =    1.200    partial core radius                                                         
   POMASS =   14.001; ZVAL   =    5.000    mass and valenz                                          
   RCORE  =    1.500    outmost cutoff radius                                                       
   RWIGS  =    1.400; RWIGS  =    0.741    wigner-seitz radius (au A)                               
   ENMAX  =  400.000; ENMIN  =  300.000 eV                                                          
   ICORE  =        2    local potential                                                             
   LCOR   =        T    correct aug charges                                                         
   LPAW   =        T    paw PP                                                                      
   EAUG   =  627.112                                                                                
   DEXC   =    0.000                                                                                
   RMAX   =    1.529    core radius for proj-oper                                                   
   RAUG   =    1.300    factor for augmentation sphere                                              
   RDEP   =    1.514    radius for radial grids                                                     
   RDEPT  =    1.338    core radius for aug-charge                                                  
                                                                                                    
   Atomic configuration                                                                             
    4 entries                                                                                       
     n  l   j            E        occ.                                                              
     1  0  0.50      -384.7179   2.0000                                                             
     2  0  0.50       -18.5828   2.0000                                                             
     2  1  0.50        -7.0898   3.0000                                                             
     3  2  1.50        -6.8029   0.0000                                                             
   Description                                                                                      
     l       E           TYP  RCUT    TYP  RCUT                                                     
     0    -18.5828119     23  1.200                                                                 
     0    -13.5018863     23  1.200                                                                 
     1     -7.0897853     23  1.500                                                                 
     1      9.5240782     23  1.500                                                                 
     2     -6.8029130      7  1.500                                                                 
  local pseudopotential read in
  partial core-charges read in
  partial kinetic energy density read in
  atomic valenz-charges read in
  non local Contribution for L=           0  read in
    real space projection operators read in
  non local Contribution for L=           0  read in
    real space projection operators read in
  non local Contribution for L=           1  read in
    real space projection operators read in
  non local Contribution for L=           1  read in
    real space projection operators read in
    PAW grid and wavefunctions read in
 
   number of l-projection  operators is LMAX  =           4
   number of lm-projection operators is LMMAX =           8
 
 -----------------------------------------------------------------------------
|                                                                             |
|               ----> ADVICE to this user running VASP <----                  |
|                                                                             |
|     You have a (more or less) 'small supercell' and for smaller cells       |
|     it is recommended to use the reciprocal-space projection scheme!        |
|     The real-space optimization is not efficient for small cells and it     |
|     is also less accurate ...                                               |
|     Therefore, set LREAL=.FALSE. in the INCAR file.                         |
|                                                                             |
 -----------------------------------------------------------------------------

 Optimization of the real space projectors (new method)

 maximal supplied QI-value         = 14.36
 optimisation between [QCUT,QGAM] = [ 11.63, 23.27] = [ 37.90,151.59] Ry 
 Optimized for a Real-space Cutoff    1.45 Angstroem

   l    n(q)    QCUT    max X(q) W(low)/X(q) W(high)/X(q)  e(spline) 
   0     10    11.633    81.156    0.45E-04    0.40E-04    0.68E-07
   0     10    11.633    65.205    0.45E-04    0.41E-04    0.69E-07
   1     10    11.633    44.874    0.91E-04    0.10E-04    0.15E-06
   1     10    11.633    25.010    0.94E-04    0.11E-04    0.16E-06
   2      9    11.633     5.217    0.62E-04    0.71E-04    0.59E-07
 Optimization of the real space projectors (new method)

 maximal supplied QI-value         = 25.13
 optimisation between [QCUT,QGAM] = [ 11.56, 23.12] = [ 37.43,149.72] Ry 
 Optimized for a Real-space Cutoff    1.40 Angstroem

   l    n(q)    QCUT    max X(q) W(low)/X(q) W(high)/X(q)  e(spline) 
   0     10    11.561    79.467    0.46E-04    0.78E-04    0.61E-06
   0     10    11.561    66.151    0.45E-04    0.77E-04    0.61E-06
   1      9    11.561    18.886    0.22E-03    0.13E-03    0.12E-05
   1      9    11.561    13.488    0.23E-03    0.13E-03    0.12E-05
  PAW_PBE Ga 08Apr2002                  :
 energy of atom  1       EATOM=  -58.8688
 kinetic energy error for atom=    0.0000 (will be added to EATOM!!)
  PAW_PBE N 08Apr2002                   :
 energy of atom  2       EATOM= -264.5486
 kinetic energy error for atom=    0.0125 (will be added to EATOM!!)
 
 
 POSCAR: Ga1 N1
  positions in direct lattice
  No initial velocities read in
 IVDW         = 12
 VDW_S6       =    1.0000
 VDW_S8       =    0.7875
 VDW_A1       =    0.4289
 VDW_A2       =    4.4407
 VDW_RADIUS   =   50.2022 A
 VDW_CNRADIUS =   21.1671 A


 exchange-correlation table for PE
   RHO(1)=    0.500       N(1)  =     2000
   RHO(2)=  100.500       N(2)  =     4000
 


--------------------------------------------------------------------------------------------------------


 ion  position               nearest neighbor table
   1  0.000  0.000  0.500-   2 1.85   2 1.85   2 1.85
   2  0.333  0.333  0.500-   1 1.85   1 1.85   1 1.85
 
  LATTYP: Found a hexagonal cell.
 ALAT       =     3.2044329186
 C/A-ratio  =     6.2413539332
  
  Lattice vectors:
  
 A1 = (  -1.6022164593,  -2.7751203122,   0.0000000000)
 A2 = (   3.2044329186,   0.0000000000,   0.0000000000)
 A3 = (   0.0000000000,   0.0000000000,  20.0000000000)


Analysis of symmetry for initial positions (statically):
=====================================================================
 Subroutine PRICEL returns:
 Original cell was already a primitive cell.
 

 Routine SETGRP: Setting up the symmetry group for a 
 hexagonal supercell.


 Subroutine GETGRP returns: Found 12 space group operations
 (whereof 12 operations were pure point group operations)
 out of a pool of 24 trial point group operations.


The static configuration has the point symmetry D_3h.


Analysis of symmetry for dynamics (positions and initial velocities):
=====================================================================
 Subroutine PRICEL returns:
 Original cell was already a primitive cell.
 

 Routine SETGRP: Setting up the symmetry group for a 
 hexagonal supercell.


 Subroutine GETGRP returns: Found 12 space group operations
 (whereof 12 operations were pure point group operations)
 out of a pool of 24 trial point group operations.


The dynamic configuration has the point symmetry D_3h.


 Subroutine INISYM returns: Found 12 space group operations
 (whereof 12 operations are pure point group operations),
 and found     1 'primitive' translations


----------------------------------------------------------------------------------------

                                     Primitive cell                                     

  volume of cell :     177.8537

  direct lattice vectors                    reciprocal lattice vectors
     3.204432919  0.000000000  0.000000000     0.312067697 -0.180172369  0.000000000
     1.602216459  2.775120312  0.000000000     0.000000000  0.360344737  0.000000000
     0.000000000  0.000000000 20.000000000     0.000000000  0.000000000  0.050000000

  length of vectors
     3.204432919  3.204432919 20.000000000     0.360344737  0.360344737  0.050000000

  position of ions in fractional coordinates (direct lattice)
     0.000000000  0.000000000  0.500000000
     0.333333333  0.333333333  0.500000000

  ion indices of the primitive-cell ions
   primitive index   ion index
                 1           1
                 2           2

----------------------------------------------------------------------------------------

 
 
 KPOINTS: Automatic mesh                          

Automatic generation of k-mesh.
 Grid dimensions read from file:
 generate k-points for:   15   15    1

 Generating k-lattice:

  Cartesian coordinates                     Fractional coordinates (reciprocal lattice)
     0.020804513 -0.012011491  0.000000000     0.066666667  0.000000000  0.000000000
     0.000000000  0.024022982  0.000000000     0.000000000  0.066666667  0.000000000
     0.000000000  0.000000000  0.050000000     0.000000000  0.000000000  1.000000000

  Length of vectors
     0.024022982  0.024022982  0.050000000

  Shift w.r.t. Gamma in fractional coordinates (k-lattice)
     0.000000000  0.000000000  0.000000000

 
 Subroutine IBZKPT returns following result:
 ===========================================
 
 Found     27 irreducible k-points:
 
 Following reciprocal coordinates:
            Coordinates               Weight
  0.000000  0.000000  0.000000      1.000000
  0.066667  0.000000  0.000000      6.000000
  0.133333  0.000000  0.000000      6.000000
  0.200000  0.000000  0.000000      6.000000
  0.266667  0.000000  0.000000      6.000000
  0.333333  0.000000  0.000000      6.000000
  0.400000  0.000000  0.000000      6.000000
  0.466667  0.000000  0.000000      6.000000
  0.133333  0.066667  0.000000      6.000000
  0.200000  0.066667  0.000000     12.000000
  0.266667  0.066667  0.000000     12.000000
  0.333333  0.066667  0.000000     12.000000
  0.400000  0.066667  0.000000     12.000000
  0.466667  0.066667  0.000000     12.000000
 -0.466667  0.066667  0.000000      6.000000
  0.266667  0.133333  0.000000      6.000000
  0.333333  0.133333  0.000000     12.000000
  0.400000  0.133333  0.000000     12.000000
  0.466667  0.133333  0.000000     12.000000
 -0.466667  0.133333  0.000000     12.000000
  0.400000  0.200000  0.000000      6.000000
  0.466667  0.200000  0.000000     12.000000
 -0.466667  0.200000  0.000000     12.000000
 -0.400000  0.200000  0.000000      6.000000
 -0.466667  0.266667  0.000000      6.000000
 -0.400000  0.266667  0.000000     12.000000
 -0.333333  0.333333  0.000000      2.000000
 
 Following cartesian coordinates:
            Coordinates               Weight
  0.000000  0.000000  0.000000      1.000000
  0.020805 -0.012011  0.000000      6.000000
  0.041609 -0.024023  0.000000      6.000000
  0.062414 -0.036034  0.000000      6.000000
  0.083218 -0.048046  0.000000      6.000000
  0.104023 -0.060057  0.000000      6.000000
  0.124827 -0.072069  0.000000      6.000000
  0.145632 -0.084080  0.000000      6.000000
  0.041609  0.000000  0.000000      6.000000
  0.062414 -0.012011  0.000000     12.000000
  0.083218 -0.024023  0.000000     12.000000
  0.104023 -0.036034  0.000000     12.000000
  0.124827 -0.048046  0.000000     12.000000
  0.145632 -0.060057  0.000000     12.000000
 -0.145632  0.108103  0.000000      6.000000
  0.083218  0.000000  0.000000      6.000000
  0.104023 -0.012011  0.000000     12.000000
  0.124827 -0.024023  0.000000     12.000000
  0.145632 -0.036034  0.000000     12.000000
 -0.145632  0.132126  0.000000     12.000000
  0.124827  0.000000  0.000000      6.000000
  0.145632 -0.012011  0.000000     12.000000
 -0.145632  0.156149  0.000000     12.000000
 -0.124827  0.144138  0.000000      6.000000
 -0.145632  0.180172  0.000000      6.000000
 -0.124827  0.168161  0.000000     12.000000
 -0.104023  0.180172  0.000000      2.000000
 


--------------------------------------------------------------------------------------------------------




 Dimension of arrays:
   k-points           NKPTS =     27   k-points in BZ     NKDIM =     27   number of bands    NBANDS=     11
   number of dos      NEDOS =    301   number of ions     NIONS =      2
   non local maximal  LDIM  =      5   non local SUM 2l+1 LMDIM =     13
   total plane-waves  NPLWV =  86400
   max r-space proj   IRMAX =   6199   max aug-charges    IRDMAX=  35110
   dimension x,y,z NGX =    24 NGY =   24 NGZ =  150
   dimension x,y,z NGXF=    48 NGYF=   48 NGZF=  300
   support grid    NGXF=    48 NGYF=   48 NGZF=  300
   ions per type =               1   1
   NGX,Y,Z   is equivalent  to a cutoff of  12.45, 12.45, 12.47 a.u.
   NGXF,Y,Z  is equivalent  to a cutoff of  24.90, 24.90, 24.94 a.u.

 SYSTEM =  GaN relaxation                          
 POSCAR =  Ga1 N1                                  

 Startparameter for this run:
   NWRITE =      2    write-flag & timer
   PREC   = accura    normal or accurate (medium, high low for compatibility)
   ISTART =      0    job   : 0-new  1-cont  2-samecut
   ICHARG =      2    charge: 1-file 2-atom 10-const
   ISPIN  =      1    spin polarized calculation?
   LNONCOLLINEAR =      F non collinear calculations
   LSORBIT =      F    spin-orbit coupling
   INIWAV =      1    electr: 0-lowe 1-rand  2-diag
   LASPH  =      F    aspherical Exc in radial PAW
 Electronic Relaxation 1
   ENCUT  =  520.0 eV  38.22 Ry    6.18 a.u.   5.96  5.96 37.19*2*pi/ulx,y,z
   ENINI  =  520.0     initial cutoff
   ENAUG  =  627.1 eV  augmentation charge cutoff
   NELM   =    200;   NELMIN=  2; NELMDL= -5     # of ELM steps 
   EDIFF  = 0.1E-05   stopping-criterion for ELM
   LREAL  =      T    real-space projection
   NLSPLINE    = F    spline interpolate recip. space projectors
   LCOMPAT=      F    compatible to vasp.4.4
   GGA_COMPAT  = T    GGA compatible to vasp.4.4-vasp.4.6
   LMAXPAW     = -100 max onsite density
   LMAXMIX     =    2 max onsite mixed and CHGCAR
   VOSKOWN=      0    Vosko Wilk Nusair interpolation
   ROPT   =   -0.00025  -0.00025
 Ionic relaxation
   EDIFFG = -.1E-03   stopping-criterion for IOM
   NSW    =    600    number of steps for IOM
   NBLOCK =      1;   KBLOCK =    600    inner block; outer block 
   IBRION =      1    ionic relax: 0-MD 1-quasi-New 2-CG
   NFREE  =      0    steps in history (QN), initial steepest desc. (CG)
   ISIF   =      2    stress and relaxation
   IWAVPR =     11    prediction:  0-non 1-charg 2-wave 3-comb
   ISYM   =      2    0-nonsym 1-usesym 2-fastsym
   LCORR  =      T    Harris-Foulkes like correction to forces

   POTIM  = 0.5000    time-step for ionic-motion
   TEIN   =    0.0    initial temperature
   TEBEG  =    0.0;   TEEND  =   0.0 temperature during run
   SMASS  =  -3.00    Nose mass-parameter (am)
   estimated Nose-frequenzy (Omega)   =  0.10E-29 period in steps = 0.13E+47 mass=  -0.235E-27a.u.
   SCALEE = 1.0000    scale energy and forces
   NPACO  =    256;   APACO  = 10.0  distance and # of slots for P.C.
   PSTRESS=    0.0 pullay stress

  Mass of Ions in am
   POMASS =  69.72 14.00
  Ionic Valenz
   ZVAL   =   3.00  5.00
  Atomic Wigner-Seitz radii
   RWIGS  =  -1.00 -1.00
  virtual crystal weights 
   VCA    =   1.00  1.00
   NELECT =       8.0000    total number of electrons
   NUPDOWN=      -1.0000    fix difference up-down

 DOS related values:
   EMIN   =  10.00;   EMAX   =-10.00  energy-range for DOS
   EFERMI =   0.00;   METHOD = LEGACY      
   ISMEAR =     0;   SIGMA  =   0.05  broadening in eV -4-tet -1-fermi 0-gaus
   EFERMI_NEDOS =   21; number of points for ismear=-14 and -15

 Electronic relaxation 2 (details)
   IALGO  =     38    algorithm
   LDIAG  =      T    sub-space diagonalisation (order eigenvalues)
   LSUBROT=      F    optimize rotation matrix (better conditioning)
   LROBUST=      F    robust break criterion during scf (extrapolated energy error)
   ISEARCH=      0    line search for conjugate gradient (0, 1=use gradient)
   TURBO    =      0    0=normal 1=particle mesh
   IRESTART =      0    0=no restart 2=restart with 2 vectors
   NREBOOT  =      0    no. of reboots
   NMIN     =      0    reboot dimension
   EREF     =   0.00    reference energy to select bands
   IMIX   =      4    mixing-type and parameters
     AMIX     =   0.40;   BMIX     =  1.00
     AMIX_MAG =   1.60;   BMIX_MAG =  1.00
     AMIN     =   0.01
     WC   =   100.;   INIMIX=   1;  MIXPRE=   1;  MAXMIX= -45

 Intra band minimization:
   WEIMIN = 0.0010     energy-eigenvalue tresh-hold
   EBREAK =  0.23E-07  absolut break condition
   DEPER  =   0.30     relativ break condition  

   TIME   =   0.40     timestep for ELM

  volume/ion in A,a.u.               =      88.93       600.11
  Fermi-wavevector in a.u.,A,eV,Ry     =   0.582216  1.100228  4.612035  0.338975
  Thomas-Fermi vector in A             =   1.627031
 
 Write flags
   LWAVE        =      F    write WAVECAR
   LDOWNSAMPLE  =      F    k-point downsampling of WAVECAR
   LCHARG       =      F    write CHGCAR
   LVTOT        =      F    write LOCPOT, total local potential
   LVHAR        =      F    write LOCPOT, Hartree potential only
   WRT_POTENTIAL= false  ! write potential to hdf5 file
   LELF         =      F    write electronic localiz. function (ELF)
   LORBIT       =      0    0 simple, 1 ext, 2 COOP (PROOUT), +10 PAW based schemes


 Python interface
   PLUGINS active      =      F    recompile with -DPLUGINS to activate
 
 Dipole corrections
   LMONO      =      F    monopole corrections only (constant potential shift)
   LDIPOL     =      F    correct potential (dipole corrections)
   IDIPOL     =      0    1-x, 2-y, 3-z, 4-all directions 
   EPSILON    =  1.0000000 bulk dielectric constant
   LVACPOTAV  =      F  vacuum potentials using an averaging scheme for the charge density
   VACPOTFLAT =  0.1000000 required flatness to determine vacuum potential
 
Coulomb truncation method
  LTRUNCATE          =      F  Coulomb kernel truncation to be used

 
 Exchange correlation treatment:
   GGA     = PE    functional components
   XC_C    = 1    coefficients multiplying the functional components
   LIBXC   =     F    Libxc                    
   VOSKOWN =     0    Vosko Wilk Nusair interpolation
   LHFCALC =     F    Hartree Fock is set to
   LHFONE  =     F    Hartree Fock one center treatment
   AEXX    =    0.0000 exact exchange contribution

 Parameters of functionals:
   PE:
     No parameter
 
 Van der Waals corrections
   IVDW    =    12    specifies the selected vdW correction

 Linear response parameters
   LEPSILON=     F    determine dielectric tensor
   LRPA    =     F    only Hartree local field effects (RPA)
   LNABLA  =     F    use nabla operator in PAW spheres
   LVEL    =     F    velocity operator in full k-point grid
   CSHIFT  =0.1000    complex shift for real part using Kramers Kronig
   OMEGAMAX=  -1.0    maximum frequency
   DEG_THRESHOLD= 0.2000000E-02 threshold for treating states as degnerate
   RTIME   =   -0.100 relaxation time in fs
  (WPLASMAI=    0.000 imaginary part of plasma frequency in eV, 0.658/RTIME)
   DFIELD  = 0.0000000 0.0000000 0.0000000 field for delta impulse in time
 
  Optional k-point grid parameters
   LKPOINTS_OPT  =     F    use optional k-point grid
   KPOINTS_OPT_MODE=     1    mode for optional k-point grid
 
 Orbital magnetization related:
   ORBITALMAG=     F  switch on orbital magnetization
   LCHIMAG   =     F  perturbation theory with respect to B field
   DQ        =  0.001000  dq finite difference perturbation B field
   LLRAUG    =     F  two centre corrections for induced B field
   LBONE     =     F  B-component reconstruction in AE one-centre
   LVGVCALC  =     T  calculate vGv susceptibility
   LVGVAPPL  =     F  apply vGv susceptibility instead of pGv for G=0

 Random number generation:
   RANDOM_GENERATOR = DEFAULT
   PCG_SEED         = not used


--------------------------------------------------------------------------------------------------------


 quasi-Newton-method for relaxation of ions
 charge density and potential will be updated during run
 non-spin polarized calculation
 Variant of blocked Davidson
 Davidson routine will perform the subspace rotation
 perform sub-space diagonalisation
    after iterative eigenvector-optimisation
 modified Broyden-mixing scheme, WC =      100.0
 initial mixing is a Kerker type mixing with AMIX =  0.4000 and BMIX =      1.0000
 Hartree-type preconditioning will be used
 using additional bands            7
 real space projection scheme for non local part
 use partial core corrections
 calculate Harris-corrections to forces 
   (improved forces if not selfconsistent)
 use gradient corrections 
 use of overlap-Matrix (Vanderbilt PP)
 Gauss-broadening in eV      SIGMA  =   0.05


--------------------------------------------------------------------------------------------------------


  energy-cutoff  :      520.00
  volume of cell :      177.85
      direct lattice vectors                 reciprocal lattice vectors
     3.204432919  0.000000000  0.000000000     0.312067697 -0.180172369  0.000000000
     1.602216459  2.775120312  0.000000000     0.000000000  0.360344737  0.000000000
     0.000000000  0.000000000 20.000000000     0.000000000  0.000000000  0.050000000

  length of vectors
     3.204432919  3.204432919 20.000000000     0.360344737  0.360344737  0.050000000


 
 k-points in units of 2pi/SCALE and weight: Automatic mesh                          
   0.00000000  0.00000000  0.00000000       0.004
   0.02080451 -0.01201149  0.00000000       0.027
   0.04160903 -0.02402298  0.00000000       0.027
   0.06241354 -0.03603447  0.00000000       0.027
   0.08321805 -0.04804596  0.00000000       0.027
   0.10402257 -0.06005746  0.00000000       0.027
   0.12482708 -0.07206895  0.00000000       0.027
   0.14563159 -0.08408044  0.00000000       0.027
   0.04160903  0.00000000  0.00000000       0.027
   0.06241354 -0.01201149  0.00000000       0.053
   0.08321805 -0.02402298  0.00000000       0.053
   0.10402257 -0.03603447  0.00000000       0.053
   0.12482708 -0.04804596  0.00000000       0.053
   0.14563159 -0.06005746  0.00000000       0.053
  -0.14563159  0.10810342  0.00000000       0.027
   0.08321805  0.00000000  0.00000000       0.027
   0.10402257 -0.01201149  0.00000000       0.053
   0.12482708 -0.02402298  0.00000000       0.053
   0.14563159 -0.03603447  0.00000000       0.053
  -0.14563159  0.13212640  0.00000000       0.053
   0.12482708  0.00000000  0.00000000       0.027
   0.14563159 -0.01201149  0.00000000       0.053
  -0.14563159  0.15614939  0.00000000       0.053
  -0.12482708  0.14413789  0.00000000       0.027
  -0.14563159  0.18017237  0.00000000       0.027
  -0.12482708  0.16816088  0.00000000       0.053
  -0.10402257  0.18017237  0.00000000       0.009
 
 k-points in reciprocal lattice and weights: Automatic mesh                          
   0.00000000  0.00000000  0.00000000       0.004
   0.06666667  0.00000000  0.00000000       0.027
   0.13333333  0.00000000  0.00000000       0.027
   0.20000000  0.00000000  0.00000000       0.027
   0.26666667  0.00000000  0.00000000       0.027
   0.33333333  0.00000000  0.00000000       0.027
   0.40000000  0.00000000  0.00000000       0.027
   0.46666667  0.00000000  0.00000000       0.027
   0.13333333  0.06666667  0.00000000       0.027
   0.20000000  0.06666667  0.00000000       0.053
   0.26666667  0.06666667  0.00000000       0.053
   0.33333333  0.06666667  0.00000000       0.053
   0.40000000  0.06666667  0.00000000       0.053
   0.46666667  0.06666667  0.00000000       0.053
  -0.46666667  0.06666667  0.00000000       0.027
   0.26666667  0.13333333  0.00000000       0.027
   0.33333333  0.13333333  0.00000000       0.053
   0.40000000  0.13333333  0.00000000       0.053
   0.46666667  0.13333333  0.00000000       0.053
  -0.46666667  0.13333333  0.00000000       0.053
   0.40000000  0.20000000  0.00000000       0.027
   0.46666667  0.20000000  0.00000000       0.053
  -0.46666667  0.20000000  0.00000000       0.053
  -0.40000000  0.20000000  0.00000000       0.027
  -0.46666667  0.26666667  0.00000000       0.027
  -0.40000000  0.26666667  0.00000000       0.053
  -0.33333333  0.33333333  0.00000000       0.009
 
 position of ions in fractional coordinates (direct lattice) 
   0.00000000  0.00000000  0.50000000
   0.33333333  0.33333333  0.50000000
 
 position of ions in cartesian coordinates  (Angst):
   0.00000000  0.00000000 10.00000000
   1.60221646  0.92504010 10.00000000
 


--------------------------------------------------------------------------------------------------------


 k-point     1 :   0.0000 0.0000 0.0000  plane waves:    4725
 k-point     2 :   0.0667 0.0000 0.0000  plane waves:    4739
 k-point     3 :   0.1333 0.0000 0.0000  plane waves:    4737
 k-point     4 :   0.2000 0.0000 0.0000  plane waves:    4762
 k-point     5 :   0.2667 0.0000 0.0000  plane waves:    4774
 k-point     6 :   0.3333 0.0000 0.0000  plane waves:    4774
 k-point     7 :   0.4000 0.0000 0.0000  plane waves:    4792
 k-point     8 :   0.4667 0.0000 0.0000  plane waves:    4784
 k-point     9 :   0.1333 0.0667 0.0000  plane waves:    4742
 k-point    10 :   0.2000 0.0667 0.0000  plane waves:    4760
 k-point    11 :   0.2667 0.0667 0.0000  plane waves:    4762
 k-point    12 :   0.3333 0.0667 0.0000  plane waves:    4784
 k-point    13 :   0.4000 0.0667 0.0000  plane waves:    4790
 k-point    14 :   0.4667 0.0667 0.0000  plane waves:    4775
 k-point    15 :  -0.4667 0.0667 0.0000  plane waves:    4796
 k-point    16 :   0.2667 0.1333 0.0000  plane waves:    4778
 k-point    17 :   0.3333 0.1333 0.0000  plane waves:    4794
 k-point    18 :   0.4000 0.1333 0.0000  plane waves:    4793
 k-point    19 :   0.4667 0.1333 0.0000  plane waves:    4798
 k-point    20 :  -0.4667 0.1333 0.0000  plane waves:    4821
 k-point    21 :   0.4000 0.2000 0.0000  plane waves:    4804
 k-point    22 :   0.4667 0.2000 0.0000  plane waves:    4811
 k-point    23 :  -0.4667 0.2000 0.0000  plane waves:    4816
 k-point    24 :  -0.4000 0.2000 0.0000  plane waves:    4826
 k-point    25 :  -0.4667 0.2667 0.0000  plane waves:    4820
 k-point    26 :  -0.4000 0.2667 0.0000  plane waves:    4830
 k-point    27 :  -0.3333 0.3333 0.0000  plane waves:    4842

 maximum and minimum number of plane-waves per node :      1218     1171

 maximum number of plane-waves:      4842
 maximum index in each direction: 
   IXMAX=    6   IYMAX=    5   IZMAX=   37
   IXMIN=   -6   IYMIN=   -6   IZMIN=  -37


 real space projection operators:
  total allocation   :        943.48 KBytes
  max/ min on nodes  :        238.42        230.99


 parallel 3D FFT for wavefunctions:
    minimum data exchange during FFTs selected (reduces bandwidth)
 parallel 3D FFT for charge:
    minimum data exchange during FFTs selected (reduces bandwidth)


 total amount of memory used by VASP MPI-rank0    35018. kBytes
=======================================================================

   base                                    :      30000. kBytes
   nonlr-proj                              :        492. kBytes
   fftplans                                :       1500. kBytes
   grid                                    :       2486. kBytes
   one-center                              :          8. kBytes
   wavefun                                 :        532. kBytes
 
     INWAV:  cpu time      0.0000: real time      0.0000
 Broyden mixing: mesh for mixing (old mesh)
   NGX = 11   NGY = 11   NGZ = 75
  (NGX  = 48   NGY  = 48   NGZ  =300)
  gives a total of   9075 points

 initial charge density was supplied:
 charge density of overlapping atoms calculated
 number of electron       8.0000000 magnetization 
 keeping initial charge density in first step


--------------------------------------------------------------------------------------------------------


 Maximum index for non-local projection operator         1475
 Maximum index for augmentation-charges         2262 (set IRDMAX)


--------------------------------------------------------------------------------------------------------


 First call to EWALD:  gamma=   0.315
 Maximum number of real-space cells   5x   5x   1
 Maximum number of reciprocal cells   2x   2x   9

    FEWALD:  cpu time      0.0355: real time      0.0356


--------------------------------------- Ionic step        1  -------------------------------------------




--------------------------------------- Iteration      1(   1)  ---------------------------------------


    POTLOK:  cpu time      0.0240: real time      0.0243
    SETDIJ:  cpu time      0.0028: real time      0.0028
     EDDAV:  cpu time      0.0312: real time      0.0316
       DOS:  cpu time      0.0013: real time      0.0013
    --------------------------------------------
      LOOP:  cpu time      0.0594: real time      0.0600

 eigenvalue-minimisations  :   594
 total energy-change (2. order) : 0.5647825E+02  (-0.2742540E+03)
 number of electron       8.0000000 magnetization 
 augmentation part        8.0000000 magnetization 

 Free energy of the ion-electron system (eV)
  ---------------------------------------------------
  alpha Z        PSCENC =         3.64386468
  Ewald energy   TEWEN  =       659.42420504
  -Hartree energ DENC   =      -910.58690426
  -exchange      EXHF   =         0.00000000
  -V(xc)+E(xc)   XCENC  =        -0.35602353
  PAW double counting   =       266.99849132     -244.49430258
  entropy T*S    EENTRO =        -0.00177467
  eigenvalues    EBANDS =       -41.55413237
  atomic energy  EATOM  =       323.40482477
  Solvation  Ediel_sol  =         0.00000000
  ---------------------------------------------------
  free energy    TOTEN  =        56.47824841 eV

  energy without entropy =       56.48002308  energy(sigma->0) =       56.47913575


--------------------------------------------------------------------------------------------------------




--------------------------------------- Iteration      1(   2)  ---------------------------------------


     EDDAV:  cpu time      0.0274: real time      0.0278
       DOS:  cpu time      0.0005: real time      0.0005
    --------------------------------------------
      LOOP:  cpu time      0.0279: real time      0.0283

 eigenvalue-minimisations  :   781
 total energy-change (2. order) :-0.6279976E+02  (-0.5530239E+02)
 number of electron       8.0000000 magnetization 
 augmentation part        8.0000000 magnetization 

 Free energy of the ion-electron system (eV)
  ---------------------------------------------------
  alpha Z        PSCENC =         3.64386468
  Ewald energy   TEWEN  =       659.42420504
  -Hartree energ DENC   =      -910.58690426
  -exchange      EXHF   =         0.00000000
  -V(xc)+E(xc)   XCENC  =        -0.35602353
  PAW double counting   =       266.99849132     -244.49430258
  entropy T*S    EENTRO =        -0.00000000
  eigenvalues    EBANDS =      -104.35566808
  atomic energy  EATOM  =       323.40482477
  Solvation  Ediel_sol  =         0.00000000
  ---------------------------------------------------
  free energy    TOTEN  =        -6.32151263 eV

  energy without entropy =       -6.32151263  energy(sigma->0) =       -6.32151263


--------------------------------------------------------------------------------------------------------




--------------------------------------- Iteration      1(   3)  ---------------------------------------


     EDDAV:  cpu time      0.0224: real time      0.0228
       DOS:  cpu time      0.0005: real time      0.0005
    --------------------------------------------
      LOOP:  cpu time      0.0229: real time      0.0233

 eigenvalue-minimisations  :   682
 total energy-change (2. order) :-0.7875730E+01  (-0.7875730E+01)
 number of electron       8.0000000 magnetization 
 augmentation part        8.0000000 magnetization 

 Free energy of the ion-electron system (eV)
  ---------------------------------------------------
  alpha Z        PSCENC =         3.64386468
  Ewald energy   TEWEN  =       659.42420504
  -Hartree energ DENC   =      -910.58690426
  -exchange      EXHF   =         0.00000000
  -V(xc)+E(xc)   XCENC  =        -0.35602353
  PAW double counting   =       266.99849132     -244.49430258
  entropy T*S    EENTRO =        -0.00000000
  eigenvalues    EBANDS =      -112.23139838
  atomic energy  EATOM  =       323.40482477
  Solvation  Ediel_sol  =         0.00000000
  ---------------------------------------------------
  free energy    TOTEN  =       -14.19724293 eV

  energy without entropy =      -14.19724293  energy(sigma->0) =      -14.19724293


--------------------------------------------------------------------------------------------------------




--------------------------------------- Iteration      1(   4)  ---------------------------------------


     EDDAV:  cpu time      0.0257: real time      0.0262
       DOS:  cpu time      0.0004: real time      0.0004
    --------------------------------------------
      LOOP:  cpu time      0.0261: real time      0.0266

 eigenvalue-minimisations  :   715
 total energy-change (2. order) :-0.1049894E+00  (-0.1049894E+00)
 number of electron       8.0000000 magnetization 
 augmentation part        8.0000000 magnetization 

 Free energy of the ion-electron system (eV)
  ---------------------------------------------------
  alpha Z        PSCENC =         3.64386468
  Ewald energy   TEWEN  =       659.42420504
  -Hartree energ DENC   =      -910.58690426
  -exchange      EXHF   =         0.00000000
  -V(xc)+E(xc)   XCENC  =        -0.35602353
  PAW double counting   =       266.99849132     -244.49430258
  entropy T*S    EENTRO =        -0.00000000
  eigenvalues    EBANDS =      -112.33638774
  atomic energy  EATOM  =       323.40482477
  Solvation  Ediel_sol  =         0.00000000
  ---------------------------------------------------
  free energy    TOTEN  =       -14.30223229 eV

  energy without entropy =      -14.30223229  energy(sigma->0) =      -14.30223229


--------------------------------------------------------------------------------------------------------




--------------------------------------- Iteration      1(   5)  ---------------------------------------


     EDDAV:  cpu time      0.0294: real time      0.0297
       DOS:  cpu time      0.0004: real time      0.0004
    CHARGE:  cpu time      0.0127: real time      0.0128
    MIXING:  cpu time      0.0027: real time      0.0027
    --------------------------------------------
      LOOP:  cpu time      0.0452: real time      0.0456

 eigenvalue-minimisations  :   847
 total energy-change (2. order) :-0.1081857E-02  (-0.1081857E-02)
 number of electron       8.0000002 magnetization 
 augmentation part        0.0129909 magnetization 

 Broyden mixing:
  rms(total) = 0.10372E+01    rms(broyden)= 0.10369E+01
  rms(prec ) = 0.11370E+01
  weight for this iteration     100.00

 Free energy of the ion-electron system (eV)
  ---------------------------------------------------
  alpha Z        PSCENC =         3.64386468
  Ewald energy   TEWEN  =       659.42420504
  -Hartree energ DENC   =      -910.58690426
  -exchange      EXHF   =         0.00000000
  -V(xc)+E(xc)   XCENC  =        -0.35602353
  PAW double counting   =       266.99849132     -244.49430258
  entropy T*S    EENTRO =        -0.00000000
  eigenvalues    EBANDS =      -112.33746960
  atomic energy  EATOM  =       323.40482477
  Solvation  Ediel_sol  =         0.00000000
  ---------------------------------------------------
  free energy    TOTEN  =       -14.30331415 eV

  energy without entropy =      -14.30331415  energy(sigma->0) =      -14.30331415


--------------------------------------------------------------------------------------------------------




--------------------------------------- Iteration      1(   6)  ---------------------------------------


    POTLOK:  cpu time      0.0146: real time      0.0150
    SETDIJ:  cpu time      0.0020: real time      0.0020
     EDDAV:  cpu time      0.0271: real time      0.0273
       DOS:  cpu time      0.0005: real time      0.0005
    CHARGE:  cpu time      0.0098: real time      0.0098
    MIXING:  cpu time      0.0025: real time      0.0025
    --------------------------------------------
      LOOP:  cpu time      0.0564: real time      0.0571

 eigenvalue-minimisations  :   858
 total energy-change (2. order) : 0.2834574E+01  (-0.2009273E+01)
 number of electron       8.0000001 magnetization 
 augmentation part       -0.2559002 magnetization 

 Broyden mixing:
  rms(total) = 0.39864E+00    rms(broyden)= 0.39842E+00
  rms(prec ) = 0.40923E+00
  weight for this iteration     100.00

 eigenvalues of (default mixing * dielectric matrix)
  average eigenvalue GAMMA=   0.8995
  0.8995

 Free energy of the ion-electron system (eV)
  ---------------------------------------------------
  alpha Z        PSCENC =         3.64386468
  Ewald energy   TEWEN  =       659.42420504
  -Hartree energ DENC   =      -932.86090451
  -exchange      EXHF   =         0.00000000
  -V(xc)+E(xc)   XCENC  =         1.16555436
  PAW double counting   =       473.44164985     -451.33468778
  entropy T*S    EENTRO =        -0.00000000
  eigenvalues    EBANDS =       -88.35324622
  atomic energy  EATOM  =       323.40482477
  Solvation  Ediel_sol  =         0.00000000
  ---------------------------------------------------
  free energy    TOTEN  =       -11.46873981 eV

  energy without entropy =      -11.46873981  energy(sigma->0) =      -11.46873981


--------------------------------------------------------------------------------------------------------




--------------------------------------- Iteration      1(   7)  ---------------------------------------


    POTLOK:  cpu time      0.0147: real time      0.0150
    SETDIJ:  cpu time      0.0015: real time      0.0015
     EDDAV:  cpu time      0.0301: real time      0.0304
       DOS:  cpu time      0.0004: real time      0.0004
    CHARGE:  cpu time      0.0092: real time      0.0093
    MIXING:  cpu time      0.0024: real time      0.0025
    --------------------------------------------
      LOOP:  cpu time      0.0584: real time      0.0590

 eigenvalue-minimisations  :   968
 total energy-change (2. order) : 0.8896105E-01  (-0.2140827E-01)
 number of electron       8.0000001 magnetization 
 augmentation part       -0.2376276 magnetization 

 Broyden mixing:
  rms(total) = 0.23389E+00    rms(broyden)= 0.23389E+00
  rms(prec ) = 0.24262E+00
  weight for this iteration     100.00

 eigenvalues of (default mixing * dielectric matrix)
  average eigenvalue GAMMA=   1.6605
  0.9340  2.3871

 Free energy of the ion-electron system (eV)
  ---------------------------------------------------
  alpha Z        PSCENC =         3.64386468
  Ewald energy   TEWEN  =       659.42420504
  -Hartree energ DENC   =      -933.06621458
  -exchange      EXHF   =         0.00000000
  -V(xc)+E(xc)   XCENC  =         1.12109741
  PAW double counting   =       610.17625465     -588.17836684
  entropy T*S    EENTRO =        -0.00000000
  eigenvalues    EBANDS =       -87.90544390
  atomic energy  EATOM  =       323.40482477
  Solvation  Ediel_sol  =         0.00000000
  ---------------------------------------------------
  free energy    TOTEN  =       -11.37977876 eV

  energy without entropy =      -11.37977876  energy(sigma->0) =      -11.37977876


--------------------------------------------------------------------------------------------------------




--------------------------------------- Iteration      1(   8)  ---------------------------------------


    POTLOK:  cpu time      0.0142: real time      0.0147
    SETDIJ:  cpu time      0.0017: real time      0.0017
     EDDAV:  cpu time      0.0263: real time      0.0265
       DOS:  cpu time      0.0004: real time      0.0004
    CHARGE:  cpu time      0.0090: real time      0.0091
    MIXING:  cpu time      0.0024: real time      0.0024
    --------------------------------------------
      LOOP:  cpu time      0.0540: real time      0.0548

 eigenvalue-minimisations  :   913
 total energy-change (2. order) : 0.7448911E-01  (-0.7388776E-02)
 number of electron       8.0000001 magnetization 
 augmentation part       -0.2386236 magnetization 

 Broyden mixing:
  rms(total) = 0.28929E-01    rms(broyden)= 0.28919E-01
  rms(prec ) = 0.38508E-01
  weight for this iteration     100.00

 eigenvalues of (default mixing * dielectric matrix)
  average eigenvalue GAMMA=   1.3557
  2.3810  0.9343  0.7517

 Free energy of the ion-electron system (eV)
  ---------------------------------------------------
  alpha Z        PSCENC =         3.64386468
  Ewald energy   TEWEN  =       659.42420504
  -Hartree energ DENC   =      -937.32224557
  -exchange      EXHF   =         0.00000000
  -V(xc)+E(xc)   XCENC  =         1.30381624
  PAW double counting   =       904.39215053     -882.61789752
  entropy T*S    EENTRO =        -0.00000000
  eigenvalues    EBANDS =       -83.53400782
  atomic energy  EATOM  =       323.40482477
  Solvation  Ediel_sol  =         0.00000000
  ---------------------------------------------------
  free energy    TOTEN  =       -11.30528965 eV

  energy without entropy =      -11.30528965  energy(sigma->0) =      -11.30528965


--------------------------------------------------------------------------------------------------------




--------------------------------------- Iteration      1(   9)  ---------------------------------------


    POTLOK:  cpu time      0.0141: real time      0.0145
    SETDIJ:  cpu time      0.0016: real time      0.0016
     EDDAV:  cpu time      0.0330: real time      0.0332
       DOS:  cpu time      0.0015: real time      0.0015
    CHARGE:  cpu time      0.0111: real time      0.0111
    MIXING:  cpu time      0.0025: real time      0.0025
    --------------------------------------------
      LOOP:  cpu time      0.0637: real time      0.0644

 eigenvalue-minimisations  :   968
 total energy-change (2. order) : 0.1701988E-02  (-0.7336215E-04)
 number of electron       8.0000001 magnetization 
 augmentation part       -0.2394784 magnetization 

 Broyden mixing:
  rms(total) = 0.21383E-01    rms(broyden)= 0.21382E-01
  rms(prec ) = 0.31425E-01
  weight for this iteration     100.00

 eigenvalues of (default mixing * dielectric matrix)
  average eigenvalue GAMMA=   1.8358
  0.9595  0.9595  2.4690  2.9553

 Free energy of the ion-electron system (eV)
  ---------------------------------------------------
  alpha Z        PSCENC =         3.64386468
  Ewald energy   TEWEN  =       659.42420504
  -Hartree energ DENC   =      -937.89675814
  -exchange      EXHF   =         0.00000000
  -V(xc)+E(xc)   XCENC  =         1.31608728
  PAW double counting   =       899.57440337     -877.79693272
  entropy T*S    EENTRO =        -0.00000000
  eigenvalues    EBANDS =       -82.97328195
  atomic energy  EATOM  =       323.40482477
  Solvation  Ediel_sol  =         0.00000000
  ---------------------------------------------------
  free energy    TOTEN  =       -11.30358766 eV

  energy without entropy =      -11.30358766  energy(sigma->0) =      -11.30358766


--------------------------------------------------------------------------------------------------------




--------------------------------------- Iteration      1(  10)  ---------------------------------------


    POTLOK:  cpu time      0.0140: real time      0.0143
    SETDIJ:  cpu time      0.0016: real time      0.0016
     EDDAV:  cpu time      0.0260: real time      0.0262
       DOS:  cpu time      0.0004: real time      0.0005
    CHARGE:  cpu time      0.0091: real time      0.0092
    MIXING:  cpu time      0.0025: real time      0.0025
    --------------------------------------------
      LOOP:  cpu time      0.0535: real time      0.0542

 eigenvalue-minimisations  :   880
 total energy-change (2. order) : 0.7059009E-02  (-0.5503832E-03)
 number of electron       8.0000001 magnetization 
 augmentation part       -0.2391845 magnetization 

 Broyden mixing:
  rms(total) = 0.86258E-02    rms(broyden)= 0.86194E-02
  rms(prec ) = 0.17004E-01
  weight for this iteration     100.00

 eigenvalues of (default mixing * dielectric matrix)
  average eigenvalue GAMMA=   1.8309
  0.9537  0.9537  2.5770  2.3352  2.3352

 Free energy of the ion-electron system (eV)
  ---------------------------------------------------
  alpha Z        PSCENC =         3.64386468
  Ewald energy   TEWEN  =       659.42420504
  -Hartree energ DENC   =      -940.24698960
  -exchange      EXHF   =         0.00000000
  -V(xc)+E(xc)   XCENC  =         1.35611380
  PAW double counting   =       890.04939230     -868.26429541
  entropy T*S    EENTRO =        -0.00000000
  eigenvalues    EBANDS =       -80.66364423
  atomic energy  EATOM  =       323.40482477
  Solvation  Ediel_sol  =         0.00000000
  ---------------------------------------------------
  free energy    TOTEN  =       -11.29652866 eV

  energy without entropy =      -11.29652866  energy(sigma->0) =      -11.29652866


--------------------------------------------------------------------------------------------------------




--------------------------------------- Iteration      1(  11)  ---------------------------------------


    POTLOK:  cpu time      0.0140: real time      0.0144
    SETDIJ:  cpu time      0.0014: real time      0.0014
     EDDAV:  cpu time      0.0245: real time      0.0247
       DOS:  cpu time      0.0004: real time      0.0004
    CHARGE:  cpu time      0.0089: real time      0.0089
    MIXING:  cpu time      0.0024: real time      0.0025
    --------------------------------------------
      LOOP:  cpu time      0.0516: real time      0.0523

 eigenvalue-minimisations  :   792
 total energy-change (2. order) : 0.6811949E-03  (-0.1364793E-03)
 number of electron       8.0000001 magnetization 
 augmentation part       -0.2400096 magnetization 

 Broyden mixing:
  rms(total) = 0.10393E-01    rms(broyden)= 0.10391E-01
  rms(prec ) = 0.15336E-01
  weight for this iteration     100.00

 eigenvalues of (default mixing * dielectric matrix)
  average eigenvalue GAMMA=   2.2104
  5.1069  2.8736  2.4620  0.9718  0.9242  0.9242

 Free energy of the ion-electron system (eV)
  ---------------------------------------------------
  alpha Z        PSCENC =         3.64386468
  Ewald energy   TEWEN  =       659.42420504
  -Hartree energ DENC   =      -941.44857382
  -exchange      EXHF   =         0.00000000
  -V(xc)+E(xc)   XCENC  =         1.36759790
  PAW double counting   =       903.36547330     -881.58740359
  entropy T*S    EENTRO =        -0.00000000
  eigenvalues    EBANDS =       -79.46583574
  atomic energy  EATOM  =       323.40482477
  Solvation  Ediel_sol  =         0.00000000
  ---------------------------------------------------
  free energy    TOTEN  =       -11.29584746 eV

  energy without entropy =      -11.29584746  energy(sigma->0) =      -11.29584746


--------------------------------------------------------------------------------------------------------




--------------------------------------- Iteration      1(  12)  ---------------------------------------


    POTLOK:  cpu time      0.0141: real time      0.0145
    SETDIJ:  cpu time      0.0013: real time      0.0013
     EDDAV:  cpu time      0.0245: real time      0.0247
       DOS:  cpu time      0.0005: real time      0.0005
    CHARGE:  cpu time      0.0166: real time      0.0167
    MIXING:  cpu time      0.0025: real time      0.0026
    --------------------------------------------
      LOOP:  cpu time      0.0595: real time      0.0602

 eigenvalue-minimisations  :   770
 total energy-change (2. order) : 0.4030075E-02  (-0.1815365E-03)
 number of electron       8.0000001 magnetization 
 augmentation part       -0.2389000 magnetization 

 Broyden mixing:
  rms(total) = 0.41758E-02    rms(broyden)= 0.41743E-02
  rms(prec ) = 0.96986E-02
  weight for this iteration     100.00

 eigenvalues of (default mixing * dielectric matrix)
  average eigenvalue GAMMA=   2.2489
  5.6313  2.4147  2.4147  2.3933  1.0145  0.9367  0.9367

 Free energy of the ion-electron system (eV)
  ---------------------------------------------------
  alpha Z        PSCENC =         3.64386468
  Ewald energy   TEWEN  =       659.42420504
  -Hartree energ DENC   =      -942.73212932
  -exchange      EXHF   =         0.00000000
  -V(xc)+E(xc)   XCENC  =         1.37594673
  PAW double counting   =       895.16437819     -873.37847690
  entropy T*S    EENTRO =        -0.00000000
  eigenvalues    EBANDS =       -78.19443058
  atomic energy  EATOM  =       323.40482477
  Solvation  Ediel_sol  =         0.00000000
  ---------------------------------------------------
  free energy    TOTEN  =       -11.29181739 eV

  energy without entropy =      -11.29181739  energy(sigma->0) =      -11.29181739


--------------------------------------------------------------------------------------------------------




--------------------------------------- Iteration      1(  13)  ---------------------------------------


    POTLOK:  cpu time      0.0138: real time      0.0142
    SETDIJ:  cpu time      0.0016: real time      0.0017
     EDDAV:  cpu time      0.0197: real time      0.0199
       DOS:  cpu time      0.0004: real time      0.0004
    CHARGE:  cpu time      0.0089: real time      0.0090
    MIXING:  cpu time      0.0025: real time      0.0025
    --------------------------------------------
      LOOP:  cpu time      0.0470: real time      0.0477

 eigenvalue-minimisations  :   649
 total energy-change (2. order) :-0.3987407E-03  (-0.8997570E-04)
 number of electron       8.0000001 magnetization 
 augmentation part       -0.2395978 magnetization 

 Broyden mixing:
  rms(total) = 0.61619E-02    rms(broyden)= 0.61610E-02
  rms(prec ) = 0.89454E-02
  weight for this iteration     100.00

 eigenvalues of (default mixing * dielectric matrix)
  average eigenvalue GAMMA=   2.5390
  7.8379  3.6289  2.6697  2.4880  0.9979  0.9462  0.9462  0.7969

 Free energy of the ion-electron system (eV)
  ---------------------------------------------------
  alpha Z        PSCENC =         3.64386468
  Ewald energy   TEWEN  =       659.42420504
  -Hartree energ DENC   =      -944.09485603
  -exchange      EXHF   =         0.00000000
  -V(xc)+E(xc)   XCENC  =         1.38805520
  PAW double counting   =       890.95260333     -869.16417438
  entropy T*S    EENTRO =        -0.00000000
  eigenvalues    EBANDS =       -76.84673874
  atomic energy  EATOM  =       323.40482477
  Solvation  Ediel_sol  =         0.00000000
  ---------------------------------------------------
  free energy    TOTEN  =       -11.29221613 eV

  energy without entropy =      -11.29221613  energy(sigma->0) =      -11.29221613


--------------------------------------------------------------------------------------------------------




--------------------------------------- Iteration      1(  14)  ---------------------------------------


    POTLOK:  cpu time      0.0142: real time      0.0148
    SETDIJ:  cpu time      0.0014: real time      0.0014
     EDDAV:  cpu time      0.0243: real time      0.0245
       DOS:  cpu time      0.0005: real time      0.0005
    CHARGE:  cpu time      0.0117: real time      0.0118
    MIXING:  cpu time      0.0025: real time      0.0025
    --------------------------------------------
      LOOP:  cpu time      0.0546: real time      0.0555

 eigenvalue-minimisations  :   715
 total energy-change (2. order) :-0.1056139E-02  (-0.5383182E-04)
 number of electron       8.0000001 magnetization 
 augmentation part       -0.2391794 magnetization 

 Broyden mixing:
  rms(total) = 0.24731E-02    rms(broyden)= 0.24730E-02
  rms(prec ) = 0.55459E-02
  weight for this iteration     100.00

 eigenvalues of (default mixing * dielectric matrix)
  average eigenvalue GAMMA=   2.7620
  8.8913  4.5818  2.9975  2.3433  2.1151  0.9266  0.9266  1.0381  1.0381

 Free energy of the ion-electron system (eV)
  ---------------------------------------------------
  alpha Z        PSCENC =         3.64386468
  Ewald energy   TEWEN  =       659.42420504
  -Hartree energ DENC   =      -944.18896675
  -exchange      EXHF   =         0.00000000
  -V(xc)+E(xc)   XCENC  =         1.37862551
  PAW double counting   =       892.29330831     -870.50583032
  entropy T*S    EENTRO =        -0.00000000
  eigenvalues    EBANDS =       -76.74330351
  atomic energy  EATOM  =       323.40482477
  Solvation  Ediel_sol  =         0.00000000
  ---------------------------------------------------
  free energy    TOTEN  =       -11.29327227 eV

  energy without entropy =      -11.29327227  energy(sigma->0) =      -11.29327227


--------------------------------------------------------------------------------------------------------




--------------------------------------- Iteration      1(  15)  ---------------------------------------


    POTLOK:  cpu time      0.0141: real time      0.0144
    SETDIJ:  cpu time      0.0015: real time      0.0016
     EDDAV:  cpu time      0.0229: real time      0.0230
       DOS:  cpu time      0.0004: real time      0.0004
    CHARGE:  cpu time      0.0122: real time      0.0123
    MIXING:  cpu time      0.0026: real time      0.0026
    --------------------------------------------
      LOOP:  cpu time      0.0537: real time      0.0544

 eigenvalue-minimisations  :   671
 total energy-change (2. order) :-0.9219054E-03  (-0.8529548E-04)
 number of electron       8.0000001 magnetization 
 augmentation part       -0.2382848 magnetization 

 Broyden mixing:
  rms(total) = 0.36514E-02    rms(broyden)= 0.36509E-02
  rms(prec ) = 0.46451E-02
  weight for this iteration     100.00

 eigenvalues of (default mixing * dielectric matrix)
  average eigenvalue GAMMA=   2.9523
 10.4568  5.8944  2.8834  2.8834  2.4785  0.9345  0.9345  0.9984  1.0295  1.0295

 Free energy of the ion-electron system (eV)
  ---------------------------------------------------
  alpha Z        PSCENC =         3.64386468
  Ewald energy   TEWEN  =       659.42420504
  -Hartree energ DENC   =      -944.54256313
  -exchange      EXHF   =         0.00000000
  -V(xc)+E(xc)   XCENC  =         1.36975642
  PAW double counting   =       893.60557401     -871.81981219
  entropy T*S    EENTRO =        -0.00000000
  eigenvalues    EBANDS =       -76.38004377
  atomic energy  EATOM  =       323.40482477
  Solvation  Ediel_sol  =         0.00000000
  ---------------------------------------------------
  free energy    TOTEN  =       -11.29419417 eV

  energy without entropy =      -11.29419417  energy(sigma->0) =      -11.29419417


--------------------------------------------------------------------------------------------------------




--------------------------------------- Iteration      1(  16)  ---------------------------------------


    POTLOK:  cpu time      0.0137: real time      0.0142
    SETDIJ:  cpu time      0.0019: real time      0.0019
     EDDAV:  cpu time      0.0255: real time      0.0257
       DOS:  cpu time      0.0004: real time      0.0004
    CHARGE:  cpu time      0.0110: real time      0.0110
    MIXING:  cpu time      0.0025: real time      0.0026
    --------------------------------------------
      LOOP:  cpu time      0.0550: real time      0.0558

 eigenvalue-minimisations  :   704
 total energy-change (2. order) :-0.2017618E-03  (-0.1723630E-04)
 number of electron       8.0000001 magnetization 
 augmentation part       -0.2388688 magnetization 

 Broyden mixing:
  rms(total) = 0.27892E-02    rms(broyden)= 0.27891E-02
  rms(prec ) = 0.32230E-02
  weight for this iteration     100.00

 eigenvalues of (default mixing * dielectric matrix)
  average eigenvalue GAMMA=   3.5197
 15.0031  6.9285  4.1094  2.6145  2.6145  2.5389  0.9358  0.9358  0.9966  1.0196
  1.0196

 Free energy of the ion-electron system (eV)
  ---------------------------------------------------
  alpha Z        PSCENC =         3.64386468
  Ewald energy   TEWEN  =       659.42420504
  -Hartree energ DENC   =      -944.84305443
  -exchange      EXHF   =         0.00000000
  -V(xc)+E(xc)   XCENC  =         1.37326829
  PAW double counting   =       893.65872559     -871.87253480
  entropy T*S    EENTRO =        -0.00000000
  eigenvalues    EBANDS =       -76.08369507
  atomic energy  EATOM  =       323.40482477
  Solvation  Ediel_sol  =         0.00000000
  ---------------------------------------------------
  free energy    TOTEN  =       -11.29439593 eV

  energy without entropy =      -11.29439593  energy(sigma->0) =      -11.29439593


--------------------------------------------------------------------------------------------------------




--------------------------------------- Iteration      1(  17)  ---------------------------------------


    POTLOK:  cpu time      0.0138: real time      0.0142
    SETDIJ:  cpu time      0.0016: real time      0.0016
     EDDAV:  cpu time      0.0230: real time      0.0232
       DOS:  cpu time      0.0004: real time      0.0005
    CHARGE:  cpu time      0.0091: real time      0.0091
    MIXING:  cpu time      0.0026: real time      0.0026
    --------------------------------------------
      LOOP:  cpu time      0.0505: real time      0.0512

 eigenvalue-minimisations  :   660
 total energy-change (2. order) :-0.4309874E-03  (-0.6140254E-05)
 number of electron       8.0000001 magnetization 
 augmentation part       -0.2390796 magnetization 

 Broyden mixing:
  rms(total) = 0.10868E-02    rms(broyden)= 0.10861E-02
  rms(prec ) = 0.11926E-02
  weight for this iteration     100.00

 eigenvalues of (default mixing * dielectric matrix)
  average eigenvalue GAMMA=   3.9949
 20.8151  7.8497  4.8088  2.8916  2.5006  2.5006  1.6018  0.9336  0.9336  0.9979
  1.0528  1.0528

 Free energy of the ion-electron system (eV)
  ---------------------------------------------------
  alpha Z        PSCENC =         3.64386468
  Ewald energy   TEWEN  =       659.42420504
  -Hartree energ DENC   =      -945.23343559
  -exchange      EXHF   =         0.00000000
  -V(xc)+E(xc)   XCENC  =         1.37793299
  PAW double counting   =       892.71085415     -870.92313969
  entropy T*S    EENTRO =        -0.00000000
  eigenvalues    EBANDS =       -75.69993327
  atomic energy  EATOM  =       323.40482477
  Solvation  Ediel_sol  =         0.00000000
  ---------------------------------------------------
  free energy    TOTEN  =       -11.29482692 eV

  energy without entropy =      -11.29482692  energy(sigma->0) =      -11.29482692


--------------------------------------------------------------------------------------------------------




--------------------------------------- Iteration      1(  18)  ---------------------------------------


    POTLOK:  cpu time      0.0139: real time      0.0143
    SETDIJ:  cpu time      0.0016: real time      0.0016
     EDDAV:  cpu time      0.0259: real time      0.0261
       DOS:  cpu time      0.0005: real time      0.0005
    CHARGE:  cpu time      0.0092: real time      0.0093
    MIXING:  cpu time      0.0026: real time      0.0026
    --------------------------------------------
      LOOP:  cpu time      0.0537: real time      0.0544

 eigenvalue-minimisations  :   726
 total energy-change (2. order) :-0.8229101E-04  (-0.2424346E-06)
 number of electron       8.0000001 magnetization 
 augmentation part       -0.2390916 magnetization 

 Broyden mixing:
  rms(total) = 0.66785E-03    rms(broyden)= 0.66775E-03
  rms(prec ) = 0.74724E-03
  weight for this iteration     100.00

 eigenvalues of (default mixing * dielectric matrix)
  average eigenvalue GAMMA=   4.3008
 25.9713  8.3544  4.9789  3.2625  2.5243  2.5243  2.3418  0.9338  0.9338  0.9688
  1.0597  1.0281  1.0281

 Free energy of the ion-electron system (eV)
  ---------------------------------------------------
  alpha Z        PSCENC =         3.64386468
  Ewald energy   TEWEN  =       659.42420504
  -Hartree energ DENC   =      -945.23494882
  -exchange      EXHF   =         0.00000000
  -V(xc)+E(xc)   XCENC  =         1.37772347
  PAW double counting   =       893.08685964     -871.29962027
  entropy T*S    EENTRO =        -0.00000000
  eigenvalues    EBANDS =       -75.69781771
  atomic energy  EATOM  =       323.40482477
  Solvation  Ediel_sol  =         0.00000000
  ---------------------------------------------------
  free energy    TOTEN  =       -11.29490921 eV

  energy without entropy =      -11.29490921  energy(sigma->0) =      -11.29490921


--------------------------------------------------------------------------------------------------------




--------------------------------------- Iteration      1(  19)  ---------------------------------------


    POTLOK:  cpu time      0.0138: real time      0.0142
    SETDIJ:  cpu time      0.0016: real time      0.0016
     EDDAV:  cpu time      0.0228: real time      0.0230
       DOS:  cpu time      0.0005: real time      0.0005
    CHARGE:  cpu time      0.0092: real time      0.0092
    MIXING:  cpu time      0.0027: real time      0.0027
    --------------------------------------------
      LOOP:  cpu time      0.0506: real time      0.0512

 eigenvalue-minimisations  :   737
 total energy-change (2. order) :-0.3577901E-04  (-0.8421168E-06)
 number of electron       8.0000001 magnetization 
 augmentation part       -0.2389661 magnetization 

 Broyden mixing:
  rms(total) = 0.89707E-04    rms(broyden)= 0.89346E-04
  rms(prec ) = 0.10429E-03
  weight for this iteration     100.00

 eigenvalues of (default mixing * dielectric matrix)
  average eigenvalue GAMMA=   4.2346
 26.6685  8.4920  4.9478  3.5189  2.8251  2.4065  2.4065  2.0894  0.9325  0.9325
  1.0248  1.0248  1.0554  0.9595

 Free energy of the ion-electron system (eV)
  ---------------------------------------------------
  alpha Z        PSCENC =         3.64386468
  Ewald energy   TEWEN  =       659.42420504
  -Hartree energ DENC   =      -945.18615087
  -exchange      EXHF   =         0.00000000
  -V(xc)+E(xc)   XCENC  =         1.37631345
  PAW double counting   =       893.01497479     -871.22788643
  entropy T*S    EENTRO =        -0.00000000
  eigenvalues    EBANDS =       -75.74509042
  atomic energy  EATOM  =       323.40482477
  Solvation  Ediel_sol  =         0.00000000
  ---------------------------------------------------
  free energy    TOTEN  =       -11.29494499 eV

  energy without entropy =      -11.29494499  energy(sigma->0) =      -11.29494499


--------------------------------------------------------------------------------------------------------




--------------------------------------- Iteration      1(  20)  ---------------------------------------


    POTLOK:  cpu time      0.0138: real time      0.0141
    SETDIJ:  cpu time      0.0016: real time      0.0016
     EDDAV:  cpu time      0.0276: real time      0.0278
       DOS:  cpu time      0.0004: real time      0.0005
    CHARGE:  cpu time      0.0098: real time      0.0099
    MIXING:  cpu time      0.0027: real time      0.0027
    --------------------------------------------
      LOOP:  cpu time      0.0558: real time      0.0565

 eigenvalue-minimisations  :   891
 total energy-change (2. order) :-0.1092306E-04  (-0.4055578E-07)
 number of electron       8.0000001 magnetization 
 augmentation part       -0.2389743 magnetization 

 Broyden mixing:
  rms(total) = 0.38934E-04    rms(broyden)= 0.38867E-04
  rms(prec ) = 0.43405E-04
  weight for this iteration     100.00

 eigenvalues of (default mixing * dielectric matrix)
  average eigenvalue GAMMA=   4.1232
 26.9876  8.4891  5.2592  3.7681  3.0294  2.4987  2.4987  2.3137  1.1191  0.9335
  0.9335  1.0304  1.0304  0.9884  0.9675

 Free energy of the ion-electron system (eV)
  ---------------------------------------------------
  alpha Z        PSCENC =         3.64386468
  Ewald energy   TEWEN  =       659.42420504
  -Hartree energ DENC   =      -945.18576858
  -exchange      EXHF   =         0.00000000
  -V(xc)+E(xc)   XCENC  =         1.37635063
  PAW double counting   =       893.02990836     -871.24282903
  entropy T*S    EENTRO =        -0.00000000
  eigenvalues    EBANDS =       -75.74551178
  atomic energy  EATOM  =       323.40482477
  Solvation  Ediel_sol  =         0.00000000
  ---------------------------------------------------
  free energy    TOTEN  =       -11.29495591 eV

  energy without entropy =      -11.29495591  energy(sigma->0) =      -11.29495591


--------------------------------------------------------------------------------------------------------




--------------------------------------- Iteration      1(  21)  ---------------------------------------


    POTLOK:  cpu time      0.0141: real time      0.0145
    SETDIJ:  cpu time      0.0011: real time      0.0011
     EDDAV:  cpu time      0.0242: real time      0.0244
       DOS:  cpu time      0.0004: real time      0.0005
    CHARGE:  cpu time      0.0092: real time      0.0092
    MIXING:  cpu time      0.0027: real time      0.0027
    --------------------------------------------
      LOOP:  cpu time      0.0518: real time      0.0524

 eigenvalue-minimisations  :   660
 total energy-change (2. order) :-0.1976534E-05  (-0.9804287E-08)
 number of electron       8.0000001 magnetization 
 augmentation part       -0.2389755 magnetization 

 Broyden mixing:
  rms(total) = 0.97831E-05    rms(broyden)= 0.97814E-05
  rms(prec ) = 0.10364E-04
  weight for this iteration     100.00

 eigenvalues of (default mixing * dielectric matrix)
  average eigenvalue GAMMA=   4.0371
 26.9951  8.4951  5.2699  3.9103  3.1137  2.5986  2.5077  2.5077  2.2483  0.9334
  0.9334  1.0782  1.0255  1.0255  0.9856  0.9651

 Free energy of the ion-electron system (eV)
  ---------------------------------------------------
  alpha Z        PSCENC =         3.64386468
  Ewald energy   TEWEN  =       659.42420504
  -Hartree energ DENC   =      -945.18944998
  -exchange      EXHF   =         0.00000000
  -V(xc)+E(xc)   XCENC  =         1.37638096
  PAW double counting   =       893.01931991     -871.23221926
  entropy T*S    EENTRO =        -0.00000000
  eigenvalues    EBANDS =       -75.74188402
  atomic energy  EATOM  =       323.40482477
  Solvation  Ediel_sol  =         0.00000000
  ---------------------------------------------------
  free energy    TOTEN  =       -11.29495789 eV

  energy without entropy =      -11.29495789  energy(sigma->0) =      -11.29495789


--------------------------------------------------------------------------------------------------------




--------------------------------------- Iteration      1(  22)  ---------------------------------------


    POTLOK:  cpu time      0.0136: real time      0.0140
    SETDIJ:  cpu time      0.0017: real time      0.0017
     EDDAV:  cpu time      0.0259: real time      0.0261
       DOS:  cpu time      0.0004: real time      0.0005
    --------------------------------------------
      LOOP:  cpu time      0.0417: real time      0.0422

 eigenvalue-minimisations  :   902
 total energy-change (2. order) :-0.2655460E-06  (-0.4840331E-09)
 number of electron       8.0000001 magnetization 
 augmentation part       -0.2389755 magnetization 

 Free energy of the ion-electron system (eV)
  ---------------------------------------------------
  alpha Z        PSCENC =         3.64386468
  Ewald energy   TEWEN  =       659.42420504
  -Hartree energ DENC   =      -945.18919410
  -exchange      EXHF   =         0.00000000
  -V(xc)+E(xc)   XCENC  =         1.37637504
  PAW double counting   =       893.02171715     -871.23461693
  entropy T*S    EENTRO =        -0.00000000
  eigenvalues    EBANDS =       -75.74213381
  atomic energy  EATOM  =       323.40482477
  Solvation  Ediel_sol  =         0.00000000
  ---------------------------------------------------
  free energy    TOTEN  =       -11.29495816 eV

  energy without entropy =      -11.29495816  energy(sigma->0) =      -11.29495816


--------------------------------------------------------------------------------------------------------




 average (electrostatic) potential at core
  the test charge radii are     1.2767  0.7089
  (the norm of the test charge is              1.0000)
       1 -19.9802       2 -71.2458
 
 
 
 E-fermi :  -4.0447     XC(G=0):  -2.0920     alpha+bet : -1.4226

 val. band max:       -4.2730489943   @ k =  -0.3333   0.3333   0.0000
 cond. band min:      -2.0333630745   @ k =   0.0000   0.0000   0.0000
 fundamental gap:      2.2396859198
 Fermi energy:        -4.0446696927

 k-point     1 :       0.0000    0.0000    0.0000
  band No.  band energies     occupation 
      1     -18.5704      2.00000
      2      -6.8331      2.00000
      3      -4.6123      2.00000
      4      -4.6123      2.00000
      5      -2.0334      0.00000
      6       0.5053      0.00000
      7       0.8415      0.00000
      8       1.4438      0.00000
      9       1.8516      0.00000
     10       3.0330      0.00000
     11       3.4560      0.00000

 k-point     2 :       0.0667    0.0000    0.0000
  band No.  band energies     occupation 
      1     -18.5182      2.00000
      2      -6.7642      2.00000
      3      -5.0361      2.00000
      4      -4.7036      2.00000
      5      -1.7251      0.00000
      6       0.5673      0.00000
      7       0.9487      0.00000
      8       1.5471      0.00000
      9       1.9166      0.00000
     10       3.1326      0.00000
     11       3.4937      0.00000

 k-point     3 :       0.1333    0.0000    0.0000
  band No.  band energies     occupation 
      1     -18.3644      2.00000
      2      -6.5614      2.00000
      3      -5.9597      2.00000
      4      -4.9507      2.00000
      5      -1.1220      0.00000
      6       0.7398      0.00000
      7       1.2525      0.00000
      8       1.8486      0.00000
      9       2.1046      0.00000
     10       3.4204      0.00000
     11       3.6028      0.00000

 k-point     4 :       0.2000    0.0000    0.0000
  band No.  band energies     occupation 
      1     -18.1188      2.00000
      2      -7.0377      2.00000
      3      -6.2381      2.00000
      4      -5.2892      2.00000
      5      -0.4942      0.00000
      6       0.9686      0.00000
      7       1.7130      0.00000
      8       2.3073      0.00000
      9       2.3968      0.00000
     10       3.7895      0.00000
     11       3.8364      0.00000

 k-point     5 :       0.2667    0.0000    0.0000
  band No.  band energies     occupation 
      1     -17.8016      2.00000
      2      -8.1164      2.00000
      3      -5.8203      2.00000
      4      -5.6475      2.00000
      5       0.0988      0.00000
      6       1.1251      0.00000
      7       2.2835      0.00000
      8       2.7927      0.00000
      9       2.8440      0.00000
     10       4.1086      0.00000
     11       4.1998      0.00000

 k-point     6 :       0.3333    0.0000    0.0000
  band No.  band energies     occupation 
      1     -17.4504      2.00000
      2      -9.0891      2.00000
      3      -5.9654      2.00000
      4      -5.3551      2.00000
      5       0.6067      0.00000
      6       1.0588      0.00000
      7       2.8570      0.00000
      8       3.3503      0.00000
      9       3.4525      0.00000
     10       4.5617      0.00000
     11       4.6252      0.00000

 k-point     7 :       0.4000    0.0000    0.0000
  band No.  band energies     occupation 
      1     -17.1297      2.00000
      2      -9.8475      2.00000
      3      -6.1996      2.00000
      4      -4.9241      2.00000
      5       0.8074      0.00000
      6       0.9405      0.00000
      7       3.3786      0.00000
      8       4.0875      0.00000
      9       4.2832      0.00000
     10       5.1207      0.00000
     11       5.2938      0.00000

 k-point     8 :       0.4667    0.0000    0.0000
  band No.  band energies     occupation 
      1     -16.9300      2.00000
      2     -10.2729      2.00000
      3      -6.3232      2.00000
      4      -4.6505      2.00000
      5       0.5866      0.00000
      6       1.0783      0.00000
      7       3.9075      0.00000
      8       4.8284      0.00000
      9       5.1559      0.00000
     10       5.5768      0.00000
     11       5.8634      0.00000

 k-point     9 :       0.1333    0.0667    0.0000
  band No.  band energies     occupation 
      1     -18.4152      2.00000
      2      -6.6283      2.00000
      3      -5.6743      2.00000
      4      -4.8914      2.00000
      5      -1.2861      0.00000
      6       0.6848      0.00000
      7       1.1550      0.00000
      8       1.7510      0.00000
      9       2.0432      0.00000
     10       3.3286      0.00000
     11       3.5670      0.00000

 k-point    10 :       0.2000    0.0667    0.0000
  band No.  band energies     occupation 
      1     -18.2152      2.00000
      2      -6.6115      2.00000
      3      -6.3650      2.00000
      4      -5.2267      2.00000
      5      -0.6898      0.00000
      6       0.8879      0.00000
      7       1.5411      0.00000
      8       2.1416      0.00000
      9       2.2831      0.00000
     10       3.6998      0.00000
     11       3.7140      0.00000

 k-point    11 :       0.2667    0.0667    0.0000
  band No.  band energies     occupation 
      1     -17.9326      2.00000
      2      -7.6406      2.00000
      3      -5.9934      2.00000
      4      -5.6194      2.00000
      5      -0.0735      0.00000
      6       1.0872      0.00000
      7       2.0697      0.00000
      8       2.6240      0.00000
      9       2.6603      0.00000
     10       3.9665      0.00000
     11       4.1324      0.00000

 k-point    12 :       0.3333    0.0667    0.0000
  band No.  band energies     occupation 
      1     -17.5956      2.00000
      2      -8.6361      2.00000
      3      -5.9932      2.00000
      4      -5.5488      2.00000
      5       0.5122      0.00000
      6       1.1311      0.00000
      7       2.6800      0.00000
      8       3.0994      0.00000
      9       3.2208      0.00000
     10       4.3936      0.00000
     11       4.4085      0.00000

 k-point    13 :       0.4000    0.0667    0.0000
  band No.  band energies     occupation 
      1     -17.2537      2.00000
      2      -9.4876      2.00000
      3      -6.2936      2.00000
      4      -5.0937      2.00000
      5       0.9552      0.00000
      6       0.9870      0.00000
      7       3.2190      0.00000
      8       3.7585      0.00000
      9       3.9056      0.00000
     10       4.8574      0.00000
     11       5.0042      0.00000

 k-point    14 :       0.4667    0.0667    0.0000
  band No.  band energies     occupation 
      1     -16.9851      2.00000
      2     -10.0773      2.00000
      3      -6.4862      2.00000
      4      -4.7301      2.00000
      5       0.7011      0.00000
      6       1.2570      0.00000
      7       3.7250      0.00000
      8       4.5328      0.00000
      9       4.8184      0.00000
     10       5.4157      0.00000
     11       5.6509      0.00000

 k-point    15 :      -0.4667    0.0667    0.0000
  band No.  band energies     occupation 
      1     -16.8807      2.00000
      2     -10.2912      2.00000
      3      -6.5524      2.00000
      4      -4.5864      2.00000
      5       0.5823      0.00000
      6       1.3335      0.00000
      7       4.0595      0.00000
      8       4.9956      0.00000
      9       5.3159      0.00000
     10       5.9914      0.00000
     11       6.1867      0.00000

 k-point    16 :       0.2667    0.1333    0.0000
  band No.  band energies     occupation 
      1     -17.9775      2.00000
      2      -7.4220      2.00000
      3      -6.0527      2.00000
      4      -5.6834      2.00000
      5      -0.1097      0.00000
      6       1.0673      0.00000
      7       2.0033      0.00000
      8       2.5699      0.00000
      9       2.6148      0.00000
     10       3.9255      0.00000
     11       4.1518      0.00000

 k-point    17 :       0.3333    0.1333    0.0000
  band No.  band energies     occupation 
      1     -17.6721      2.00000
      2      -8.2842      2.00000
      3      -6.1788      2.00000
      4      -5.6513      2.00000
      5       0.5281      0.00000
      6       1.1609      0.00000
      7       2.6077      0.00000
      8       2.9846      0.00000
      9       3.1994      0.00000
     10       4.2935      0.00000
     11       4.4803      0.00000

 k-point    18 :       0.4000    0.1333    0.0000
  band No.  band energies     occupation 
      1     -17.3366      2.00000
      2      -9.1012      2.00000
      3      -6.6064      2.00000
      4      -5.2083      2.00000
      5       1.0760      0.00000
      6       1.1534      0.00000
      7       3.2624      0.00000
      8       3.5724      0.00000
      9       3.7708      0.00000
     10       4.6694      0.00000
     11       4.8423      0.00000

 k-point    19 :       0.4667    0.1333    0.0000
  band No.  band energies     occupation 
      1     -17.0330      2.00000
      2      -9.7587      2.00000
      3      -6.9106      2.00000
      4      -4.8028      2.00000
      5       0.8646      0.00000
      6       1.6506      0.00000
      7       3.7232      0.00000
      8       4.3061      0.00000
      9       4.5235      0.00000
     10       5.2557      0.00000
     11       5.4643      0.00000

 k-point    20 :      -0.4667    0.1333    0.0000
  band No.  band energies     occupation 
      1     -16.8459      2.00000
      2     -10.1330      2.00000
      3      -7.0673      2.00000
      4      -4.5489      2.00000
      5       0.6872      0.00000
      6       1.8985      0.00000
      7       4.1059      0.00000
      8       4.9198      0.00000
      9       5.4026      0.00000
     10       5.8482      0.00000
     11       5.9739      0.00000

 k-point    21 :       0.4000    0.2000    0.0000
  band No.  band energies     occupation 
      1     -17.3657      2.00000
      2      -8.9104      2.00000
      3      -6.7903      2.00000
      4      -5.2486      2.00000
      5       1.1213      0.00000
      6       1.2208      0.00000
      7       3.2892      0.00000
      8       3.5142      0.00000
      9       3.8354      0.00000
     10       4.5982      0.00000
     11       4.7945      0.00000

 k-point    22 :       0.4667    0.2000    0.0000
  band No.  band energies     occupation 
      1     -17.0608      2.00000
      2      -9.4667      2.00000
      3      -7.2993      2.00000
      4      -4.8459      2.00000
      5       0.9831      0.00000
      6       1.9048      0.00000
      7       3.9139      0.00000
      8       4.1974      0.00000
      9       4.4028      0.00000
     10       5.0818      0.00000
     11       5.3772      0.00000

 k-point    23 :      -0.4667    0.2000    0.0000
  band No.  band energies     occupation 
      1     -16.8267      2.00000
      2      -9.8684      2.00000
      3      -7.6222      2.00000
      4      -4.5337      2.00000
      5       0.8298      0.00000
      6       2.4186      0.00000
      7       4.2246      0.00000
      8       4.8027      0.00000
      9       5.2843      0.00000
     10       5.7734      0.00000
     11       5.8498      0.00000

 k-point    24 :      -0.4000    0.2000    0.0000
  band No.  band energies     occupation 
      1     -16.7372      2.00000
      2     -10.0177      2.00000
      3      -7.7314      2.00000
      4      -4.4133      2.00000
      5       0.7622      0.00000
      6       2.5986      0.00000
      7       4.4258      0.00000
      8       4.9234      0.00000
      9       5.8625      0.00000
     10       6.3962      0.00000
     11       6.4720      0.00000

 k-point    25 :      -0.4667    0.2667    0.0000
  band No.  band energies     occupation 
      1     -16.8209      2.00000
      2      -9.7109      2.00000
      3      -7.8886      2.00000
      4      -4.5304      2.00000
      5       0.8974      0.00000
      6       2.6044      0.00000
      7       4.3491      0.00000
      8       4.7584      0.00000
      9       5.2222      0.00000
     10       5.6729      0.00000
     11       5.8430      0.00000

 k-point    26 :      -0.4000    0.2667    0.0000
  band No.  band energies     occupation 
      1     -16.6782      2.00000
      2      -9.8296      2.00000
      3      -8.2288      2.00000
      4      -4.3424      2.00000
      5       0.8495      0.00000
      6       3.0217      0.00000
      7       4.7203      0.00000
      8       4.7600      0.00000
      9       6.0719      0.00000
     10       6.3468      0.00000
     11       6.4969      0.00000

 k-point    27 :      -0.3333    0.3333    0.0000
  band No.  band energies     occupation 
      1     -16.6239      2.00000
      2      -9.7679      2.00000
      3      -8.4922      2.00000
      4      -4.2730      2.00000
      5       0.8695      0.00000
      6       3.2324      0.00000
      7       4.6319      0.00000
      8       5.1220      0.00000
      9       5.9887      0.00000
     10       6.8683      0.00000
     11       7.2503      0.00000


--------------------------------------------------------------------------------------------------------


 soft charge-density along one line, spin component           1
         0         1         2         3         4         5         6         7         8         9
 total charge-density along one line
 
 pseudopotential strength for first ion, spin component:           1
  7.519   9.118   0.000   0.000   0.000   0.000   0.000   0.000
  9.118  11.058   0.000   0.000   0.000   0.000   0.000   0.000
  0.000   0.000   1.561  -0.000  -0.000   2.658  -0.000  -0.000
  0.000   0.000  -0.000   1.555   0.000  -0.000   2.647   0.000
  0.000   0.000  -0.000   0.000   1.561  -0.000   0.000   2.658
  0.000   0.000   2.658  -0.000  -0.000   4.553  -0.000  -0.000
  0.000   0.000  -0.000   2.647   0.000  -0.000   4.536   0.000
  0.000   0.000  -0.000   0.000   2.658  -0.000   0.000   4.553
 -0.000  -0.000   0.000  -0.000   0.015   0.000  -0.000   0.025
 -0.000  -0.000   0.000  -0.000  -0.000   0.000  -0.000  -0.000
 -0.008  -0.009  -0.000   0.000  -0.000  -0.000   0.000  -0.000
  0.000   0.000  -0.000  -0.000   0.000  -0.000  -0.000   0.000
 -0.000  -0.000   0.015   0.000   0.000   0.025   0.000   0.000
 total augmentation occupancy for first ion, spin component:           1
  7.707  -3.935   0.000   0.000   0.000   0.000   0.000   0.000   0.000   0.000  -0.573   0.000   0.000
 -3.935   2.187   0.000   0.000   0.000  -0.000   0.000   0.000   0.000  -0.000   0.300   0.000  -0.000
  0.000   0.000   5.073   0.000   0.000  -1.423   0.000  -0.000  -0.000   0.000  -0.000   0.000   0.696
  0.000   0.000  -0.000   1.298  -0.000   0.000  -0.265   0.000  -0.000   0.000   0.000   0.000   0.000
  0.000   0.000   0.000  -0.000   5.073   0.000   0.000  -1.423   0.696   0.000  -0.000  -0.000   0.000
  0.000  -0.000  -1.423   0.000   0.000   0.420  -0.000   0.000   0.000  -0.000   0.000  -0.000  -0.188
  0.000   0.000   0.000  -0.265   0.000  -0.000   0.054   0.000  -0.000   0.000   0.000   0.000   0.000
  0.000   0.000   0.000   0.000  -1.423  -0.000   0.000   0.420  -0.188   0.000   0.000   0.000  -0.000
  0.000   0.000  -0.000  -0.000   0.696   0.000  -0.000  -0.188   0.190   0.000  -0.000   0.000   0.000
  0.000  -0.000   0.000   0.000  -0.000   0.000   0.000   0.000   0.000   0.058   0.000   0.000  -0.000
 -0.573   0.300  -0.000   0.000  -0.000   0.000   0.000   0.000  -0.000   0.000   0.043  -0.000  -0.000
  0.000   0.000   0.000   0.000   0.000   0.000  -0.000   0.000   0.000   0.000  -0.000   0.058  -0.000
  0.000  -0.000   0.696   0.000   0.000  -0.188   0.000  -0.000   0.000   0.000  -0.000  -0.000   0.190


------------------------ aborting loop because EDIFF is reached ----------------------------------------


    CHARGE:  cpu time      0.0090: real time      0.0091
    FORLOC:  cpu time      0.0007: real time      0.0007
    FORNL :  cpu time      0.0118: real time      0.0118
    STRESS:  cpu time      0.0337: real time      0.0338
    FORCOR:  cpu time      0.0127: real time      0.0128
    FORHAR:  cpu time      0.0031: real time      0.0032
    MIXING:  cpu time      0.0027: real time      0.0027
    OFIELD:  cpu time      0.0001: real time      0.0001

 ---------------------------------------------------------------------------------------------

         DFTD3 V3.0 Rev 1        
 DF pbe       
 parameters
 k1-k3        =   16.0000    1.3333   -4.0000
 Edisp (eV)   -0.17745

 E6    (eV) :    -0.1021
 E8    (eV) :    -0.0753
 % E8        : 42.45
    FORVDW:  cpu time      0.0052: real time      0.0053

  FORCE on cell =-STRESS in cart. coord.  units (eV):
  Direction    XX          YY          ZZ          XY          YZ          ZX
  --------------------------------------------------------------------------------------
  Alpha Z     3.64386     3.64386     3.64386
  Ewald     872.33940   872.33940 -1085.25466    -0.00000     0.00000     0.00000
  Hartree   893.38316   893.38316  -841.57705     0.00000    -0.00000    -0.00000
  E(xc)     -33.37312   -33.37312   -32.09565     0.00000     0.00000     0.00000
  Local   -1849.61866 -1849.61867  1835.86222     0.00001    -0.00000    -0.00000
  n-local     2.49128     1.31190    -9.95617    -0.54732    -0.00000    -0.00000
  augment     4.13658     4.13659     3.95737    -0.00001     0.00000    -0.00000
  Kinetic   107.38348   111.62419   125.40715     3.34636     0.00000     0.00000
  Fock        0.00000     0.00000     0.00000     0.00000     0.00000     0.00000
  vdW        -0.19100    -0.19100    -0.00083     0.00000    -0.00000     0.00000
  -------------------------------------------------------------------------------------
  Total       1.72565     1.72565    -0.01376     0.00000     0.00000    -0.00000
  in kB      15.54535    15.54535    -0.12393     0.00000     0.00000    -0.00000
  external pressure =       10.32 kB  Pullay stress =        0.00 kB


 VOLUME and BASIS-vectors are now :
 -----------------------------------------------------------------------------
  energy-cutoff  :      520.00
  volume of cell :      177.85
      direct lattice vectors                 reciprocal lattice vectors
     3.204432919  0.000000000  0.000000000     0.312067697 -0.180172369  0.000000000
     1.602216459  2.775120312  0.000000000     0.000000000  0.360344737  0.000000000
     0.000000000  0.000000000 20.000000000     0.000000000  0.000000000  0.050000000

  length of vectors
     3.204432919  3.204432919 20.000000000     0.360344737  0.360344737  0.050000000


 FORCES acting on ions
    electron-ion (+dipol)            ewald-force                    non-local-force                 convergence-correction
 -----------------------------------------------------------------------------------------------
   0.191E-06 0.110E-06 0.769E-08   0.345E-11 0.199E-11 0.121E-21   0.987E-18 0.327E-18 -.808E-27   -.287E-10 -.166E-10 -.902E-13
   -.211E-06 -.122E-06 -.124E-07   -.345E-11 -.199E-11 -.111E-21   -.713E-16 0.310E-17 -.162E-26   0.154E-10 0.891E-11 -.164E-12
 -----------------------------------------------------------------------------------------------
   -.204E-07 -.118E-07 -.468E-08   0.330E-14 -.440E-15 0.106E-22   -.703E-16 0.343E-17 -.242E-26   -.133E-10 -.767E-11 -.254E-12
 
 
 POSITION                                       TOTAL-FORCE (eV/Angst)
 -----------------------------------------------------------------------------------
      0.00000      0.00000     10.00000         0.000000     -0.000000     -0.000000
      1.60222      0.92504     10.00000        -0.000000      0.000000      0.000000
 -----------------------------------------------------------------------------------
    total drift:                               -0.000000     -0.000000     -0.000000


--------------------------------------------------------------------------------------------------------



  FREE ENERGIE OF THE ION-ELECTRON SYSTEM (eV)
  ---------------------------------------------------
  free  energy   TOTEN  =       -11.47240501 eV

  energy  without entropy=      -11.47240501  energy(sigma->0) =      -11.47240501
 


--------------------------------------------------------------------------------------------------------


    POTLOK:  cpu time      0.0156: real time      0.0158


--------------------------------------------------------------------------------------------------------


 Quasi-Newton relaxation of ions (Broydens 2nd method)
  g(Force)  = 0.291E-47   g(Stress)= 0.000E+00

 Reset! Starting new Quasi-Newton update for ions 


--------------------------------------------------------------------------------------------------------


  
 reached required accuracy - stopping structural energy minimisation
     LOOP+:  cpu time      1.1935: real time      1.2112
    4ORBIT:  cpu time      0.0000: real time      0.0000

 total amount of memory used by VASP MPI-rank0    35018. kBytes
=======================================================================

   base                                    :      30000. kBytes
   nonlr-proj                              :        492. kBytes
   fftplans                                :       1500. kBytes
   grid                                    :       2486. kBytes
   one-center                              :          8. kBytes
   wavefun                                 :        532. kBytes
 
  
  
 General timing and accounting informations for this job:
 ========================================================
  
                  Total CPU time used (sec):        1.745
                            User time (sec):        1.518
                          System time (sec):        0.228
                         Elapsed time (sec):        2.637
  
                   Maximum memory used (kb):      257544.
                   Average memory used (kb):          N/A
  
                          Minor page faults:        23190
                          Major page faults:           42
                 Voluntary context switches:         1896
