<?xml version="1.0" encoding="ISO-8859-1"?>
<modeling>
 <generator>
  <i name="program" type="string">vasp </i>
  <i name="version" type="string">6.5.1  </i>
  <i name="subversion" type="string">10Mar25 (build Aug 29 2025 00:30:47) complex                          parallel </i>
  <i name="platform" type="string">LinuxIFC </i>
  <i name="date" type="string">2026 06 01 </i>
  <i name="time" type="string">17:18:24 </i>
 </generator>
 <incar>
  <i type="string" name="SYSTEM">GaN relaxation</i>
  <i type="string" name="PREC">Accurate</i>
  <i type="string" name="ALGO">Normal</i>
  <i name="AMIN">      0.01000000</i>
  <i type="int" name="NELM">   200</i>
  <i type="int" name="IBRION">     1</i>
  <i name="EDIFF">      0.00000100</i>
  <i name="EDIFFG">     -0.00010000</i>
  <i type="int" name="NSW">   600</i>
  <i type="int" name="ISIF">     2</i>
  <i name="ENCUT">    520.00000000</i>
  <i type="string" name="LREAL">Auto</i>
  <i type="int" name="ISMEAR">     0</i>
  <i name="SIGMA">      0.05000000</i>
  <i type="logical" name="LWAVE"> F  </i>
  <i type="logical" name="LCHARG"> F  </i>
  <i type="int" name="IVDW">    12</i>
 </incar>
 <primitive_cell>
  <structure name="primitive_cell" >
   <crystal>
    <varray name="basis" >
     <v>       3.20443292       0.00000000       0.00000000 </v>
     <v>       1.60221646       2.77512031       0.00000000 </v>
     <v>       0.00000000       0.00000000      20.00000000 </v>
    </varray>
    <i name="volume">    177.85373763 </i>
    <varray name="rec_basis" >
     <v>       0.31206770      -0.18017237       0.00000000 </v>
     <v>       0.00000000       0.36034474       0.00000000 </v>
     <v>       0.00000000       0.00000000       0.05000000 </v>
    </varray>
   </crystal>
   <varray name="positions" >
    <v>       0.00000000       0.00000000       0.50000000 </v>
    <v>       0.33333333       0.33333333       0.50000000 </v>
   </varray>
  </structure>
  <varray name="primitive_index" >
   <v type="int" >        1 </v>
   <v type="int" >        2 </v>
  </varray>
 </primitive_cell>
 <kpoints>
  <generation param="Gamma">
   <v type="int" name="divisions">      15       15        1 </v>
   <v name="usershift">      0.00000000       0.00000000       0.00000000 </v>
   <v name="genvec1">      0.06666667       0.00000000       0.00000000 </v>
   <v name="genvec2">      0.00000000       0.06666667       0.00000000 </v>
   <v name="genvec3">      0.00000000       0.00000000       1.00000000 </v>
   <v name="shift">      0.00000000       0.00000000       0.00000000 </v>
  </generation>
  <varray name="kpointlist" >
   <v>       0.00000000       0.00000000       0.00000000 </v>
   <v>       0.06666667       0.00000000       0.00000000 </v>
   <v>       0.13333333       0.00000000       0.00000000 </v>
   <v>       0.20000000       0.00000000       0.00000000 </v>
   <v>       0.26666667       0.00000000       0.00000000 </v>
   <v>       0.33333333       0.00000000       0.00000000 </v>
   <v>       0.40000000       0.00000000       0.00000000 </v>
   <v>       0.46666667       0.00000000       0.00000000 </v>
   <v>       0.13333333       0.06666667       0.00000000 </v>
   <v>       0.20000000       0.06666667       0.00000000 </v>
   <v>       0.26666667       0.06666667       0.00000000 </v>
   <v>       0.33333333       0.06666667       0.00000000 </v>
   <v>       0.40000000       0.06666667       0.00000000 </v>
   <v>       0.46666667       0.06666667       0.00000000 </v>
   <v>      -0.46666667       0.06666667       0.00000000 </v>
   <v>       0.26666667       0.13333333       0.00000000 </v>
   <v>       0.33333333       0.13333333       0.00000000 </v>
   <v>       0.40000000       0.13333333       0.00000000 </v>
   <v>       0.46666667       0.13333333       0.00000000 </v>
   <v>      -0.46666667       0.13333333       0.00000000 </v>
   <v>       0.40000000       0.20000000       0.00000000 </v>
   <v>       0.46666667       0.20000000       0.00000000 </v>
   <v>      -0.46666667       0.20000000       0.00000000 </v>
   <v>      -0.40000000       0.20000000       0.00000000 </v>
   <v>      -0.46666667       0.26666667       0.00000000 </v>
   <v>      -0.40000000       0.26666667       0.00000000 </v>
   <v>      -0.33333333       0.33333333       0.00000000 </v>
  </varray>
  <varray name="weights" >
   <v>       0.00444444 </v>
   <v>       0.02666667 </v>
   <v>       0.02666667 </v>
   <v>       0.02666667 </v>
   <v>       0.02666667 </v>
   <v>       0.02666667 </v>
   <v>       0.02666667 </v>
   <v>       0.02666667 </v>
   <v>       0.02666667 </v>
   <v>       0.05333333 </v>
   <v>       0.05333333 </v>
   <v>       0.05333333 </v>
   <v>       0.05333333 </v>
   <v>       0.05333333 </v>
   <v>       0.02666667 </v>
   <v>       0.02666667 </v>
   <v>       0.05333333 </v>
   <v>       0.05333333 </v>
   <v>       0.05333333 </v>
   <v>       0.05333333 </v>
   <v>       0.02666667 </v>
   <v>       0.05333333 </v>
   <v>       0.05333333 </v>
   <v>       0.02666667 </v>
   <v>       0.02666667 </v>
   <v>       0.05333333 </v>
   <v>       0.00888889 </v>
  </varray>
 </kpoints>
 <parameters>
  <separator name="general" >
   <i type="string" name="SYSTEM">GaN relaxation</i>
   <i type="logical" name="LCOMPAT"> F  </i>
  </separator>
  <separator name="electronic" >
   <i type="string" name="PREC">accura</i>
   <i name="ENMAX">    520.00000000</i>
   <i name="ENAUG">    627.11200000</i>
   <i name="EDIFF">      0.00000100</i>
   <i type="int" name="IALGO">    38</i>
   <i type="int" name="IWAVPR">    11</i>
   <i type="int" name="NBANDS">    11</i>
   <i type="int" name="NBANDSLOW">    -1</i>
   <i type="int" name="NBANDSHIGH">    -1</i>
   <i name="NELECT">      8.00000000</i>
   <i type="int" name="TURBO">     0</i>
   <i type="int" name="IRESTART">     0</i>
   <i type="int" name="NREBOOT">     0</i>
   <i type="int" name="NMIN">     0</i>
   <i name="EREF">      0.00000000</i>
   <separator name="electronic smearing" >
    <i type="int" name="ISMEAR">     0</i>
    <i name="SIGMA">      0.05000000</i>
    <i name="KSPACING">      0.50000000</i>
    <i type="logical" name="KGAMMA"> T  </i>
    <i type="logical" name="KBLOWUP"> T  </i>
   </separator>
   <separator name="electronic projectors" >
    <i type="logical" name="LREAL"> T  </i>
    <v name="ROPT">     -0.00025000     -0.00025000</v>
    <i type="int" name="LMAXPAW">  -100</i>
    <i type="int" name="LMAXMIX">     2</i>
    <i type="logical" name="NLSPLINE"> F  </i>
   </separator>
   <separator name="electronic startup" >
    <i type="int" name="ISTART">     0</i>
    <i type="int" name="ICHARG">     2</i>
    <i type="int" name="INIWAV">     1</i>
   </separator>
   <separator name="electronic spin" >
    <i type="int" name="ISPIN">     1</i>
    <i type="logical" name="LNONCOLLINEAR"> F  </i>
    <v name="MAGMOM">      1.00000000      1.00000000</v>
    <i name="NUPDOWN">     -1.00000000</i>
    <i type="logical" name="LSORBIT"> F  </i>
    <v name="SAXIS">      0.00000000      0.00000000      1.00000000</v>
    <i type="logical" name="LSPIRAL"> F  </i>
    <v name="QSPIRAL">      0.00000000      0.00000000      0.00000000</v>
    <i type="logical" name="LZEROZ"> F  </i>
   </separator>
   <separator name="electronic exchange-correlation" >
    <i type="logical" name="LASPH"> F  </i>
   </separator>
   <separator name="electronic convergence" >
    <i type="int" name="NELM">   200</i>
    <i type="int" name="NELMDL">    -5</i>
    <i type="int" name="NELMIN">     2</i>
    <i name="ENINI">    520.00000000</i>
    <separator name="electronic convergence detail" >
     <i type="logical" name="LDIAG"> T  </i>
     <i type="logical" name="LSUBROT"> F  </i>
     <i type="logical" name="LROBUST"> F  </i>
     <i type="int" name="ISEARCH">     0</i>
     <i name="WEIMIN">      0.00100000</i>
     <i name="EBREAK">      0.00000002</i>
     <i name="DEPER">      0.30000000</i>
     <i type="int" name="NRMM">     4</i>
     <i name="TIME">      0.40000000</i>
    </separator>
   </separator>
   <separator name="electronic mixer" >
    <i name="AMIX">      0.40000000</i>
    <i name="BMIX">      1.00000000</i>
    <i name="AMIN">      0.01000000</i>
    <i name="AMIX_MAG">      1.60000000</i>
    <i name="BMIX_MAG">      1.00000000</i>
    <separator name="electronic mixer details" >
     <i type="int" name="IMIX">     4</i>
     <i type="logical" name="MIXFIRST"> F  </i>
     <i type="int" name="MAXMIX">   -45</i>
     <i name="WC">    100.00000000</i>
     <i type="int" name="INIMIX">     1</i>
     <i type="int" name="MIXPRE">     1</i>
     <i type="int" name="MREMOVE">     5</i>
    </separator>
   </separator>
   <separator name="electronic dipolcorrection" >
    <i type="logical" name="LDIPOL"> F  </i>
    <i type="logical" name="LMONO"> F  </i>
    <i type="int" name="IDIPOL">     0</i>
    <i name="EPSILON">      1.00000000</i>
    <v name="DIPOL">   -100.00000000   -100.00000000   -100.00000000</v>
    <i name="EFIELD">      0.00000000</i>
    <i type="logical" name="LVACPOTAV"> F  </i>
   </separator>
  </separator>
  <separator name="grids" >
   <i type="int" name="NGX">    24</i>
   <i type="int" name="NGY">    24</i>
   <i type="int" name="NGZ">   150</i>
   <i type="int" name="NGXF">    48</i>
   <i type="int" name="NGYF">    48</i>
   <i type="int" name="NGZF">   300</i>
   <i type="logical" name="ADDGRID"> F  </i>
  </separator>
  <separator name="ionic" >
   <i type="int" name="NSW">   600</i>
   <i type="int" name="IBRION">     1</i>
   <i type="int" name="MDALGO">     0</i>
   <i type="int" name="ISIF">     2</i>
   <i name="PSTRESS">      0.00000000</i>
   <i name="EDIFFG">     -0.00010000</i>
   <i type="int" name="NFREE">     0</i>
   <i name="POTIM">      0.50000000</i>
   <i name="SMASS">     -3.00000000</i>
   <i name="SCALEE">      1.00000000</i>
  </separator>
  <separator name="ionic md" >
   <i name="TEBEG">      0.00010000</i>
   <i name="TEEND">      0.00010000</i>
   <i type="int" name="NBLOCK">     1</i>
   <i type="int" name="KBLOCK">   600</i>
   <i type="int" name="NPACO">   256</i>
   <i name="APACO">     10.00000000</i>
  </separator>
  <separator name="symmetry" >
   <i type="int" name="ISYM">     2</i>
   <i name="SYMPREC">      0.00001000</i>
  </separator>
  <separator name="dos" >
   <i type="int" name="LORBIT">     0</i>
   <v name="RWIGS">     -1.00000000     -1.00000000</v>
   <i type="int" name="NEDOS">   301</i>
   <i name="EMIN">     10.00000000</i>
   <i name="EMAX">    -10.00000000</i>
   <i name="EFERMI">      0.00000000</i>
  </separator>
  <separator name="writing" >
   <i type="int" name="NWRITE">     2</i>
   <i type="logical" name="LWAVE"> F  </i>
   <i type="logical" name="LDOWNSAMPLE"> F  </i>
   <i type="logical" name="LCHARG"> F  </i>
   <i type="logical" name="LPARD"> F  </i>
   <i type="logical" name="LVTOT"> F  </i>
   <i type="logical" name="LVHAR"> F  </i>
   <i type="logical" name="LELF"> F  </i>
   <i type="logical" name="LOPTICS"> F  </i>
   <v name="STM">      0.00000000      0.00000000      0.00000000      0.00000000      0.00000000      0.00000000      0.00000000</v>
  </separator>
  <separator name="performance" >
   <i type="int" name="NPAR">    11</i>
   <i type="int" name="NSIM">     4</i>
   <i type="int" name="NBLK">    -1</i>
   <i type="logical" name="LPLANE"> T  </i>
   <i type="logical" name="LSCALAPACK"> T  </i>
   <i type="logical" name="LSCAAWARE"> F  </i>
   <i type="logical" name="LSCALU"> F  </i>
   <i type="logical" name="LASYNC"> F  </i>
   <i type="logical" name="LORBITALREAL"> F  </i>
  </separator>
  <separator name="miscellaneous" >
   <i type="int" name="IDIOT">     3</i>
   <i type="int" name="PHON_NSTRUCT">    -1</i>
   <i type="logical" name="LMUSIC"> F  </i>
   <v name="POMASS">     69.72300000     14.00100000</v>
   <v name="DARWINR">      0.00000000      0.00000000</v>
   <v name="DARWINV">      1.00000000      1.00000000</v>
   <i type="logical" name="LCORR"> T  </i>
  </separator>
  <i type="logical" name="GGA_COMPAT"> T  </i>
  <i type="logical" name="LBERRY"> F  </i>
  <i type="int" name="ICORELEVEL">     0</i>
  <i type="logical" name="LDAU"> F  </i>
  <i type="int" name="I_CONSTRAINED_M">     0</i>
  <separator name="electronic exchange-correlation" >
   <i type="string" name="GGA    ">PE</i>
   <i type="string" name="XC_C">1</i>
   <i type="int" name="VOSKOWN">     0</i>
   <i type="logical" name="LHFCALC"> F  </i>
   <i type="string" name="PRECFOCK"></i>
   <i type="logical" name="LSYMGRAD"> F  </i>
   <i type="logical" name="LHFONE"> F  </i>
   <i type="logical" name="LRHFCALC"> F  </i>
   <i type="logical" name="LTHOMAS"> F  </i>
   <i type="logical" name="LMODELHF"> F  </i>
   <i type="logical" name="LFOCKACE"> F  </i>
   <i name="ENCUT4O">     -1.00000000</i>
   <i type="int" name="EXXOEP">     0</i>
   <i type="int" name="FOURORBIT">     0</i>
   <i name="AEXX">      0.00000000</i>
   <i name="HFALPHA">      0.00000000</i>
   <i name="MCALPHA">      0.00000000</i>
   <i name="ALDAX">      1.00000000</i>
   <i name="AGGAX">      1.00000000</i>
   <i name="AMGGAX">      1.00000000</i>
   <i name="ALDAC">      1.00000000</i>
   <i name="AGGAC">      1.00000000</i>
   <i name="AMGGAC">      1.00000000</i>
   <i type="int" name="NKREDX">     1</i>
   <i type="int" name="NKREDY">     1</i>
   <i type="int" name="NKREDZ">     1</i>
   <i type="logical" name="SHIFTRED"> F  </i>
   <i type="logical" name="ODDONLY"> F  </i>
   <i type="logical" name="EVENONLY"> F  </i>
   <i type="int" name="LMAXFOCK">     0</i>
   <i type="int" name="NMAXFOCKAE">     0</i>
   <i type="logical" name="LFOCKAEDFT"> F  </i>
   <i name="HFSCREEN">      0.00000000</i>
   <i name="HFSCREENC">      0.00000000</i>
   <i type="int" name="NBANDSGWLOW">     0</i>
  </separator>
  <separator name="vdW DFT" >
   <i type="logical" name="LUSE_VDW"> F  </i>
   <i type="int" name="IVDW_NL">    -1</i>
   <i type="logical" name="LSPIN_VDW"> F  </i>
   <i name="ZAB_VDW">     -0.84910000</i>
   <i name="GAMMA_VDW">      1.39626340</i>
   <i name="ALPHA_VDW">      0.00000000</i>
   <i name="PARAM1">      0.12340000</i>
   <i name="PARAM2">      1.00000000</i>
   <i name="BPARAM">      6.30000000</i>
   <i name="CPARAM">      0.00930000</i>
  </separator>
  <separator name="model GW" >
   <i type="int" name="MODEL_GW">     0</i>
   <i name="MODEL_EPS0">     53.35612129</i>
   <i name="MODEL_ALPHA">      1.00000000</i>
  </separator>
  <separator name="linear response parameters" >
   <i type="logical" name="LEPSILON"> F  </i>
   <i type="logical" name="LRPA"> F  </i>
   <i type="logical" name="LNABLA"> F  </i>
   <i type="logical" name="LVEL"> F  </i>
   <i name="CSHIFT">      0.10000000</i>
   <i name="OMEGAMAX">     -1.00000000</i>
   <i name="DEG_THRESHOLD">      0.00200000</i>
   <i name="RTIME">     -0.10000000</i>
   <i name="WPLASMAI">      0.00000000</i>
   <v name="DFIELD">      0.00000000      0.00000000      0.00000000</v>
   <v name="WPLASMA">      0.00000000      0.00000000      0.00000000      0.00000000      0.00000000      0.00000000      0.00000000      0.00000000      0.00000000</v>
  </separator>
  <separator name="orbital magnetization" >
   <i type="logical" name="NUCIND"> F  </i>
   <v name="MAGPOS">      0.00000000      0.00000000      0.00000000</v>
   <i type="logical" name="LNICSALL"> T  </i>
   <i type="logical" name="ORBITALMAG"> F  </i>
   <i type="logical" name="LMAGBLOCH"> F  </i>
   <i type="logical" name="LCHIMAG"> F  </i>
   <i type="logical" name="LGAUGE"> T  </i>
   <i type="int" name="MAGATOM">     0</i>
   <v name="MAGDIPOL">      0.00000000      0.00000000      0.00000000</v>
   <v name="AVECCONST">      0.00000000      0.00000000      0.00000000</v>
  </separator>
  <separator name="response functions" >
   <i type="logical" name="LALL_IN_ONE"> F  </i>
   <i type="int" name="IALL_IN_ONE">    -1</i>
   <i type="int" name="NBANDS_WAVE">    -1</i>
   <i type="logical" name="LFINITE_TEMPERATURE"> F  </i>
   <i type="logical" name="LADDER"> F  </i>
   <i type="logical" name="LRPAFORCE"> F  </i>
   <i type="logical" name="LFXC"> F  </i>
   <i type="logical" name="LHARTREE"> T  </i>
   <i type="int" name="IBSE">     2</i>
   <v type="int" name="KPOINT">    -1     0     0     0</v>
   <i type="logical" name="LTCTC"> F  </i>
   <i type="logical" name="LTCTE"> F  </i>
   <i type="logical" name="LTETE"> F  </i>
   <i type="logical" name="LTRIPLET"> F  </i>
   <i type="logical" name="LFXCEPS"> F  </i>
   <i type="logical" name="LFXHEG"> F  </i>
   <i type="int" name="NATURALO">     2</i>
   <i type="logical" name="LHOLEGF"> F  </i>
   <i type="logical" name="L2ORDER"> F  </i>
   <i type="logical" name="LDMP1"> F  </i>
   <i type="logical" name="LMP2LT"> F  </i>
   <i type="logical" name="LSMP2LT"> F  </i>
   <i type="logical" name="LGWLF"> F  </i>
   <i name="ENCUTGW">     -1.60000002</i>
   <i name="ENCUTGWSOFT">     -1.60000002</i>
   <i name="ENCUTLF">     -1.00000000</i>
   <i type="logical" name="ESF_SPLINES"> F  </i>
   <i name="ESF_CONV">      0.01000000</i>
   <i type="int" name="ESF_NINTER">    15</i>
   <i type="int" name="LMAXMP2">    -1</i>
   <i name="SCISSOR">      0.00000000</i>
   <i type="int" name="NOMEGA">     0</i>
   <i type="int" name="NOMEGAR">     0</i>
   <i type="int" name="NBANDSGW">    -1</i>
   <i type="int" name="NBANDSO">    -1</i>
   <i type="int" name="NBANDSV">    -1</i>
   <i type="int" name="NELMGW">     1</i>
   <i type="int" name="NELMHF">     1</i>
   <i type="int" name="DIM">     3</i>
   <i type="int" name="IESPILON">     4</i>
   <i type="int" name="ANTIRES">     0</i>
   <i name="OMEGAMAX">    -30.00000000</i>
   <i name="OMEGAMIN">    -30.00000000</i>
   <i name="OMEGATL">   -200.00000000</i>
   <i type="int" name="OMEGAGRID">     0</i>
   <i name="CSHIFT">     -0.10000000</i>
   <i type="logical" name="LSELFENERGY"> F  </i>
   <i type="logical" name="LSPECTRAL"> F  </i>
   <i type="logical" name="LSPECTRALGW"> F  </i>
   <i type="logical" name="LSINGLES"> F  </i>
   <i type="logical" name="LFERMIGW"> F  </i>
   <i type="logical" name="ODDONLYGW"> F  </i>
   <i type="logical" name="EVENONLYGW"> F  </i>
   <i type="int" name="NKREDLFX">     1</i>
   <i type="int" name="NKREDLFY">     1</i>
   <i type="int" name="NKREDLFZ">     1</i>
   <i type="int" name="MAXMEM">  2800</i>
   <i type="int" name="TELESCOPE">     0</i>
   <i type="int" name="NTAUPAR">    -1</i>
   <i type="int" name="NOMEGAPAR">    -1</i>
   <i name="DAMP_NEWTON">      0.80000001</i>
   <i name="LAMBDA">      1.00000000</i>
  </separator>
  <separator name="External order field" >
   <i name="OFIELD_KAPPA">      0.00000000</i>
   <v name="OFIELD_K">      0.00000000      0.00000000      0.00000000</v>
   <i name="OFIELD_Q6_NEAR">      0.00000000</i>
   <i name="OFIELD_Q6_FAR">      0.00000000</i>
   <i name="OFIELD_A">      0.00000000</i>
  </separator>
  <separator name="optional k-points parameters" >
   <i type="int" name="KPOINTS_OPT_MODE">     1</i>
   <i type="logical" name="LKPOINTS_OPT"> F  </i>
  </separator>
 </parameters>
 <atominfo>
  <atoms>       2 </atoms>
  <types>       2 </types>
  <array name="atoms" >
   <dimension dim="1">ion</dimension>
   <field type="string">element</field>
   <field type="int">atomtype</field>
   <set>
    <rc><c>Ga</c><c>   1</c></rc>
    <rc><c>N </c><c>   2</c></rc>
   </set>
  </array>
  <array name="atomtypes" >
   <dimension dim="1">type</dimension>
   <field type="int">atomspertype</field>
   <field type="string">element</field>
   <field>mass</field>
   <field>valence</field>
   <field type="string">pseudopotential</field>
   <set>
    <rc><c>   1</c><c>Ga</c><c>     69.72300000</c><c>      3.00000000</c><c>  PAW_PBE Ga 08Apr2002                  </c></rc>
    <rc><c>   1</c><c>N </c><c>     14.00100000</c><c>      5.00000000</c><c>  PAW_PBE N 08Apr2002                   </c></rc>
   </set>
  </array>
 </atominfo>
 <structure name="initialpos" >
  <crystal>
   <varray name="basis" >
    <v>       3.20443292       0.00000000       0.00000000 </v>
    <v>       1.60221646       2.77512031       0.00000000 </v>
    <v>       0.00000000       0.00000000      20.00000000 </v>
   </varray>
   <i name="volume">    177.85373763 </i>
   <varray name="rec_basis" >
    <v>       0.31206770      -0.18017237       0.00000000 </v>
    <v>       0.00000000       0.36034474       0.00000000 </v>
    <v>       0.00000000       0.00000000       0.05000000 </v>
   </varray>
  </crystal>
  <varray name="positions" >
   <v>       0.00000000       0.00000000       0.50000000 </v>
   <v>       0.33333333       0.33333333       0.50000000 </v>
  </varray>
 </structure>
 <calculation>
  <scstep>
   <time name="dav">    0.03    0.03</time>
   <time name="total">    0.06    0.06</time>
   <energy>
    <i name="alphaZ">      3.64386468 </i>
    <i name="ewald">    659.42420504 </i>
    <i name="hartreedc">   -910.58690426 </i>
    <i name="XCdc">     -0.35602353 </i>
    <i name="pawpsdc">    266.99849132 </i>
    <i name="pawaedc">   -244.49430258 </i>
    <i name="eentropy">     -0.00177467 </i>
    <i name="bandstr">    -41.55413237 </i>
    <i name="atom">    323.40482477 </i>
    <i name="e_fr_energy">     56.47824841 </i>
    <i name="e_wo_entrp">     56.48002308 </i>
    <i name="e_0_energy">     56.47913575 </i>
   </energy>
  </scstep>
  <scstep>
   <time name="dav">    0.03    0.03</time>
   <time name="total">    0.03    0.03</time>
   <energy>
    <i name="e_fr_energy">     -6.32151263 </i>
    <i name="e_wo_entrp">     -6.32151263 </i>
    <i name="e_0_energy">     -6.32151263 </i>
   </energy>
  </scstep>
  <scstep>
   <time name="dav">    0.02    0.02</time>
   <time name="total">    0.02    0.02</time>
   <energy>
    <i name="e_fr_energy">    -14.19724293 </i>
    <i name="e_wo_entrp">    -14.19724293 </i>
    <i name="e_0_energy">    -14.19724293 </i>
   </energy>
  </scstep>
  <scstep>
   <time name="dav">    0.03    0.03</time>
   <time name="total">    0.03    0.03</time>
   <energy>
    <i name="e_fr_energy">    -14.30223229 </i>
    <i name="e_wo_entrp">    -14.30223229 </i>
    <i name="e_0_energy">    -14.30223229 </i>
   </energy>
  </scstep>
  <scstep>
   <time name="dav">    0.03    0.03</time>
   <time name="total">    0.05    0.05</time>
   <energy>
    <i name="e_fr_energy">    -14.30331415 </i>
    <i name="e_wo_entrp">    -14.30331415 </i>
    <i name="e_0_energy">    -14.30331415 </i>
   </energy>
  </scstep>
  <scstep>
   <time name="dav">    0.03    0.03</time>
   <time name="total">    0.06    0.06</time>
   <energy>
    <i name="e_fr_energy">    -11.46873981 </i>
    <i name="e_wo_entrp">    -11.46873981 </i>
    <i name="e_0_energy">    -11.46873981 </i>
   </energy>
  </scstep>
  <scstep>
   <time name="dav">    0.03    0.03</time>
   <time name="total">    0.06    0.06</time>
   <energy>
    <i name="e_fr_energy">    -11.37977876 </i>
    <i name="e_wo_entrp">    -11.37977876 </i>
    <i name="e_0_energy">    -11.37977876 </i>
   </energy>
  </scstep>
  <scstep>
   <time name="dav">    0.03    0.03</time>
   <time name="total">    0.05    0.05</time>
   <energy>
    <i name="e_fr_energy">    -11.30528965 </i>
    <i name="e_wo_entrp">    -11.30528965 </i>
    <i name="e_0_energy">    -11.30528965 </i>
   </energy>
  </scstep>
  <scstep>
   <time name="dav">    0.03    0.03</time>
   <time name="total">    0.06    0.06</time>
   <energy>
    <i name="e_fr_energy">    -11.30358766 </i>
    <i name="e_wo_entrp">    -11.30358766 </i>
    <i name="e_0_energy">    -11.30358766 </i>
   </energy>
  </scstep>
  <scstep>
   <time name="dav">    0.03    0.03</time>
   <time name="total">    0.05    0.05</time>
   <energy>
    <i name="e_fr_energy">    -11.29652866 </i>
    <i name="e_wo_entrp">    -11.29652866 </i>
    <i name="e_0_energy">    -11.29652866 </i>
   </energy>
  </scstep>
  <scstep>
   <time name="dav">    0.02    0.02</time>
   <time name="total">    0.05    0.05</time>
   <energy>
    <i name="e_fr_energy">    -11.29584746 </i>
    <i name="e_wo_entrp">    -11.29584746 </i>
    <i name="e_0_energy">    -11.29584746 </i>
   </energy>
  </scstep>
  <scstep>
   <time name="dav">    0.02    0.02</time>
   <time name="total">    0.06    0.06</time>
   <energy>
    <i name="e_fr_energy">    -11.29181739 </i>
    <i name="e_wo_entrp">    -11.29181739 </i>
    <i name="e_0_energy">    -11.29181739 </i>
   </energy>
  </scstep>
  <scstep>
   <time name="dav">    0.02    0.02</time>
   <time name="total">    0.05    0.05</time>
   <energy>
    <i name="e_fr_energy">    -11.29221613 </i>
    <i name="e_wo_entrp">    -11.29221613 </i>
    <i name="e_0_energy">    -11.29221613 </i>
   </energy>
  </scstep>
  <scstep>
   <time name="dav">    0.02    0.02</time>
   <time name="total">    0.05    0.06</time>
   <energy>
    <i name="e_fr_energy">    -11.29327227 </i>
    <i name="e_wo_entrp">    -11.29327227 </i>
    <i name="e_0_energy">    -11.29327227 </i>
   </energy>
  </scstep>
  <scstep>
   <time name="dav">    0.02    0.02</time>
   <time name="total">    0.05    0.05</time>
   <energy>
    <i name="e_fr_energy">    -11.29419417 </i>
    <i name="e_wo_entrp">    -11.29419417 </i>
    <i name="e_0_energy">    -11.29419417 </i>
   </energy>
  </scstep>
  <scstep>
   <time name="dav">    0.03    0.03</time>
   <time name="total">    0.05    0.06</time>
   <energy>
    <i name="e_fr_energy">    -11.29439593 </i>
    <i name="e_wo_entrp">    -11.29439593 </i>
    <i name="e_0_energy">    -11.29439593 </i>
   </energy>
  </scstep>
  <scstep>
   <time name="dav">    0.02    0.02</time>
   <time name="total">    0.05    0.05</time>
   <energy>
    <i name="e_fr_energy">    -11.29482692 </i>
    <i name="e_wo_entrp">    -11.29482692 </i>
    <i name="e_0_energy">    -11.29482692 </i>
   </energy>
  </scstep>
  <scstep>
   <time name="dav">    0.03    0.03</time>
   <time name="total">    0.05    0.05</time>
   <energy>
    <i name="e_fr_energy">    -11.29490921 </i>
    <i name="e_wo_entrp">    -11.29490921 </i>
    <i name="e_0_energy">    -11.29490921 </i>
   </energy>
  </scstep>
  <scstep>
   <time name="dav">    0.02    0.02</time>
   <time name="total">    0.05    0.05</time>
   <energy>
    <i name="e_fr_energy">    -11.29494499 </i>
    <i name="e_wo_entrp">    -11.29494499 </i>
    <i name="e_0_energy">    -11.29494499 </i>
   </energy>
  </scstep>
  <scstep>
   <time name="dav">    0.03    0.03</time>
   <time name="total">    0.06    0.06</time>
   <energy>
    <i name="e_fr_energy">    -11.29495591 </i>
    <i name="e_wo_entrp">    -11.29495591 </i>
    <i name="e_0_energy">    -11.29495591 </i>
   </energy>
  </scstep>
  <scstep>
   <time name="dav">    0.02    0.02</time>
   <time name="total">    0.05    0.05</time>
   <energy>
    <i name="e_fr_energy">    -11.29495789 </i>
    <i name="e_wo_entrp">    -11.29495789 </i>
    <i name="e_0_energy">    -11.29495789 </i>
   </energy>
  </scstep>
  <scstep>
   <time name="dav">    0.03    0.03</time>
   <time name="total">    0.04    0.04</time>
   <energy>
    <i name="alphaZ">      3.64386468 </i>
    <i name="ewald">    659.42420504 </i>
    <i name="hartreedc">   -945.18919410 </i>
    <i name="XCdc">      1.37637504 </i>
    <i name="pawpsdc">    893.02171715 </i>
    <i name="pawaedc">   -871.23461693 </i>
    <i name="eentropy">     -0.00000000 </i>
    <i name="bandstr">    -75.74213381 </i>
    <i name="atom">    323.40482477 </i>
    <i name="e_fr_energy">    -11.29495816 </i>
    <i name="e_wo_entrp">    -11.29495816 </i>
    <i name="e_0_energy">    -11.29495816 </i>
   </energy>
  </scstep>
  <structure>
   <crystal>
    <varray name="basis" >
     <v>       3.20443292       0.00000000       0.00000000 </v>
     <v>       1.60221646       2.77512031       0.00000000 </v>
     <v>       0.00000000       0.00000000      20.00000000 </v>
    </varray>
    <i name="volume">    177.85373763 </i>
    <varray name="rec_basis" >
     <v>       0.31206770      -0.18017237       0.00000000 </v>
     <v>       0.00000000       0.36034474       0.00000000 </v>
     <v>       0.00000000       0.00000000       0.05000000 </v>
    </varray>
   </crystal>
   <varray name="positions" >
    <v>       0.00000000       0.00000000       0.50000000 </v>
    <v>       0.33333333       0.33333333       0.50000000 </v>
   </varray>
  </structure>
  <varray name="forces" >
   <v>       0.00000000      -0.00000000      -0.00000000 </v>
   <v>      -0.00000000       0.00000000       0.00000000 </v>
  </varray>
  <varray name="stress" >
   <v>      15.54535008       0.00000000      -0.00000000 </v>
   <v>       0.00000000      15.54535008      -0.00000000 </v>
   <v>       0.00000000       0.00000000      -0.12392515 </v>
  </varray>
  <energy>
   <i name="e_fr_energy">    -11.47240501 </i>
   <i name="e_wo_entrp">    -11.47240501 </i>
   <i name="e_0_energy">    -11.47240501 </i>
  </energy>
  <time name="totalsc">    1.19    1.21</time>
  <eigenvalues>
   <array>
    <dimension dim="1">band</dimension>
    <dimension dim="2">kpoint</dimension>
    <dimension dim="3">spin</dimension>
    <field>eigene</field>
    <field>occ</field>
    <set>
     <set comment="spin 1">
      <set comment="kpoint 1">
       <r>  -18.5704    1.0000 </r>
       <r>   -6.8331    1.0000 </r>
       <r>   -4.6123    1.0000 </r>
       <r>   -4.6123    1.0000 </r>
       <r>   -2.0334    0.0000 </r>
       <r>    0.5053    0.0000 </r>
       <r>    0.8415    0.0000 </r>
       <r>    1.4438    0.0000 </r>
       <r>    1.8516    0.0000 </r>
       <r>    3.0330    0.0000 </r>
       <r>    3.4560    0.0000 </r>
      </set>
      <set comment="kpoint 2">
       <r>  -18.5182    1.0000 </r>
       <r>   -6.7642    1.0000 </r>
       <r>   -5.0361    1.0000 </r>
       <r>   -4.7036    1.0000 </r>
       <r>   -1.7251    0.0000 </r>
       <r>    0.5673    0.0000 </r>
       <r>    0.9487    0.0000 </r>
       <r>    1.5471    0.0000 </r>
       <r>    1.9166    0.0000 </r>
       <r>    3.1326    0.0000 </r>
       <r>    3.4937    0.0000 </r>
      </set>
      <set comment="kpoint 3">
       <r>  -18.3644    1.0000 </r>
       <r>   -6.5614    1.0000 </r>
       <r>   -5.9597    1.0000 </r>
       <r>   -4.9507    1.0000 </r>
       <r>   -1.1220    0.0000 </r>
       <r>    0.7398    0.0000 </r>
       <r>    1.2525    0.0000 </r>
       <r>    1.8486    0.0000 </r>
       <r>    2.1046    0.0000 </r>
       <r>    3.4204    0.0000 </r>
       <r>    3.6028    0.0000 </r>
      </set>
      <set comment="kpoint 4">
       <r>  -18.1188    1.0000 </r>
       <r>   -7.0377    1.0000 </r>
       <r>   -6.2381    1.0000 </r>
       <r>   -5.2892    1.0000 </r>
       <r>   -0.4942    0.0000 </r>
       <r>    0.9686    0.0000 </r>
       <r>    1.7130    0.0000 </r>
       <r>    2.3073    0.0000 </r>
       <r>    2.3968    0.0000 </r>
       <r>    3.7895    0.0000 </r>
       <r>    3.8364    0.0000 </r>
      </set>
      <set comment="kpoint 5">
       <r>  -17.8016    1.0000 </r>
       <r>   -8.1164    1.0000 </r>
       <r>   -5.8203    1.0000 </r>
       <r>   -5.6475    1.0000 </r>
       <r>    0.0988    0.0000 </r>
       <r>    1.1251    0.0000 </r>
       <r>    2.2835    0.0000 </r>
       <r>    2.7927    0.0000 </r>
       <r>    2.8440    0.0000 </r>
       <r>    4.1086    0.0000 </r>
       <r>    4.1998    0.0000 </r>
      </set>
      <set comment="kpoint 6">
       <r>  -17.4504    1.0000 </r>
       <r>   -9.0891    1.0000 </r>
       <r>   -5.9654    1.0000 </r>
       <r>   -5.3551    1.0000 </r>
       <r>    0.6067    0.0000 </r>
       <r>    1.0588    0.0000 </r>
       <r>    2.8570    0.0000 </r>
       <r>    3.3503    0.0000 </r>
       <r>    3.4525    0.0000 </r>
       <r>    4.5617    0.0000 </r>
       <r>    4.6252    0.0000 </r>
      </set>
      <set comment="kpoint 7">
       <r>  -17.1297    1.0000 </r>
       <r>   -9.8475    1.0000 </r>
       <r>   -6.1996    1.0000 </r>
       <r>   -4.9241    1.0000 </r>
       <r>    0.8074    0.0000 </r>
       <r>    0.9405    0.0000 </r>
       <r>    3.3786    0.0000 </r>
       <r>    4.0875    0.0000 </r>
       <r>    4.2832    0.0000 </r>
       <r>    5.1207    0.0000 </r>
       <r>    5.2938    0.0000 </r>
      </set>
      <set comment="kpoint 8">
       <r>  -16.9300    1.0000 </r>
       <r>  -10.2729    1.0000 </r>
       <r>   -6.3232    1.0000 </r>
       <r>   -4.6505    1.0000 </r>
       <r>    0.5866    0.0000 </r>
       <r>    1.0783    0.0000 </r>
       <r>    3.9075    0.0000 </r>
       <r>    4.8284    0.0000 </r>
       <r>    5.1559    0.0000 </r>
       <r>    5.5768    0.0000 </r>
       <r>    5.8634    0.0000 </r>
      </set>
      <set comment="kpoint 9">
       <r>  -18.4152    1.0000 </r>
       <r>   -6.6283    1.0000 </r>
       <r>   -5.6743    1.0000 </r>
       <r>   -4.8914    1.0000 </r>
       <r>   -1.2861    0.0000 </r>
       <r>    0.6848    0.0000 </r>
       <r>    1.1550    0.0000 </r>
       <r>    1.7510    0.0000 </r>
       <r>    2.0432    0.0000 </r>
       <r>    3.3286    0.0000 </r>
       <r>    3.5670    0.0000 </r>
      </set>
      <set comment="kpoint 10">
       <r>  -18.2152    1.0000 </r>
       <r>   -6.6115    1.0000 </r>
       <r>   -6.3650    1.0000 </r>
       <r>   -5.2267    1.0000 </r>
       <r>   -0.6898    0.0000 </r>
       <r>    0.8879    0.0000 </r>
       <r>    1.5411    0.0000 </r>
       <r>    2.1416    0.0000 </r>
       <r>    2.2831    0.0000 </r>
       <r>    3.6998    0.0000 </r>
       <r>    3.7140    0.0000 </r>
      </set>
      <set comment="kpoint 11">
       <r>  -17.9326    1.0000 </r>
       <r>   -7.6406    1.0000 </r>
       <r>   -5.9934    1.0000 </r>
       <r>   -5.6194    1.0000 </r>
       <r>   -0.0735    0.0000 </r>
       <r>    1.0872    0.0000 </r>
       <r>    2.0697    0.0000 </r>
       <r>    2.6240    0.0000 </r>
       <r>    2.6603    0.0000 </r>
       <r>    3.9665    0.0000 </r>
       <r>    4.1324    0.0000 </r>
      </set>
      <set comment="kpoint 12">
       <r>  -17.5956    1.0000 </r>
       <r>   -8.6361    1.0000 </r>
       <r>   -5.9932    1.0000 </r>
       <r>   -5.5488    1.0000 </r>
       <r>    0.5122    0.0000 </r>
       <r>    1.1311    0.0000 </r>
       <r>    2.6800    0.0000 </r>
       <r>    3.0994    0.0000 </r>
       <r>    3.2208    0.0000 </r>
       <r>    4.3936    0.0000 </r>
       <r>    4.4085    0.0000 </r>
      </set>
      <set comment="kpoint 13">
       <r>  -17.2537    1.0000 </r>
       <r>   -9.4876    1.0000 </r>
       <r>   -6.2936    1.0000 </r>
       <r>   -5.0937    1.0000 </r>
       <r>    0.9552    0.0000 </r>
       <r>    0.9870    0.0000 </r>
       <r>    3.2190    0.0000 </r>
       <r>    3.7585    0.0000 </r>
       <r>    3.9056    0.0000 </r>
       <r>    4.8574    0.0000 </r>
       <r>    5.0042    0.0000 </r>
      </set>
      <set comment="kpoint 14">
       <r>  -16.9851    1.0000 </r>
       <r>  -10.0773    1.0000 </r>
       <r>   -6.4862    1.0000 </r>
       <r>   -4.7301    1.0000 </r>
       <r>    0.7011    0.0000 </r>
       <r>    1.2570    0.0000 </r>
       <r>    3.7250    0.0000 </r>
       <r>    4.5328    0.0000 </r>
       <r>    4.8184    0.0000 </r>
       <r>    5.4157    0.0000 </r>
       <r>    5.6509    0.0000 </r>
      </set>
      <set comment="kpoint 15">
       <r>  -16.8807    1.0000 </r>
       <r>  -10.2912    1.0000 </r>
       <r>   -6.5524    1.0000 </r>
       <r>   -4.5864    1.0000 </r>
       <r>    0.5823    0.0000 </r>
       <r>    1.3335    0.0000 </r>
       <r>    4.0595    0.0000 </r>
       <r>    4.9956    0.0000 </r>
       <r>    5.3159    0.0000 </r>
       <r>    5.9914    0.0000 </r>
       <r>    6.1867    0.0000 </r>
      </set>
      <set comment="kpoint 16">
       <r>  -17.9775    1.0000 </r>
       <r>   -7.4220    1.0000 </r>
       <r>   -6.0527    1.0000 </r>
       <r>   -5.6834    1.0000 </r>
       <r>   -0.1097    0.0000 </r>
       <r>    1.0673    0.0000 </r>
       <r>    2.0033    0.0000 </r>
       <r>    2.5699    0.0000 </r>
       <r>    2.6148    0.0000 </r>
       <r>    3.9255    0.0000 </r>
       <r>    4.1518    0.0000 </r>
      </set>
      <set comment="kpoint 17">
       <r>  -17.6721    1.0000 </r>
       <r>   -8.2842    1.0000 </r>
       <r>   -6.1788    1.0000 </r>
       <r>   -5.6513    1.0000 </r>
       <r>    0.5281    0.0000 </r>
       <r>    1.1609    0.0000 </r>
       <r>    2.6077    0.0000 </r>
       <r>    2.9846    0.0000 </r>
       <r>    3.1994    0.0000 </r>
       <r>    4.2935    0.0000 </r>
       <r>    4.4803    0.0000 </r>
      </set>
      <set comment="kpoint 18">
       <r>  -17.3366    1.0000 </r>
       <r>   -9.1012    1.0000 </r>
       <r>   -6.6064    1.0000 </r>
       <r>   -5.2083    1.0000 </r>
       <r>    1.0760    0.0000 </r>
       <r>    1.1534    0.0000 </r>
       <r>    3.2624    0.0000 </r>
       <r>    3.5724    0.0000 </r>
       <r>    3.7708    0.0000 </r>
       <r>    4.6694    0.0000 </r>
       <r>    4.8423    0.0000 </r>
      </set>
      <set comment="kpoint 19">
       <r>  -17.0330    1.0000 </r>
       <r>   -9.7587    1.0000 </r>
       <r>   -6.9106    1.0000 </r>
       <r>   -4.8028    1.0000 </r>
       <r>    0.8646    0.0000 </r>
       <r>    1.6506    0.0000 </r>
       <r>    3.7232    0.0000 </r>
       <r>    4.3061    0.0000 </r>
       <r>    4.5235    0.0000 </r>
       <r>    5.2557    0.0000 </r>
       <r>    5.4643    0.0000 </r>
      </set>
      <set comment="kpoint 20">
       <r>  -16.8459    1.0000 </r>
       <r>  -10.1330    1.0000 </r>
       <r>   -7.0673    1.0000 </r>
       <r>   -4.5489    1.0000 </r>
       <r>    0.6872    0.0000 </r>
       <r>    1.8985    0.0000 </r>
       <r>    4.1059    0.0000 </r>
       <r>    4.9198    0.0000 </r>
       <r>    5.4026    0.0000 </r>
       <r>    5.8482    0.0000 </r>
       <r>    5.9739    0.0000 </r>
      </set>
      <set comment="kpoint 21">
       <r>  -17.3657    1.0000 </r>
       <r>   -8.9104    1.0000 </r>
       <r>   -6.7903    1.0000 </r>
       <r>   -5.2486    1.0000 </r>
       <r>    1.1213    0.0000 </r>
       <r>    1.2208    0.0000 </r>
       <r>    3.2892    0.0000 </r>
       <r>    3.5142    0.0000 </r>
       <r>    3.8354    0.0000 </r>
       <r>    4.5982    0.0000 </r>
       <r>    4.7945    0.0000 </r>
      </set>
      <set comment="kpoint 22">
       <r>  -17.0608    1.0000 </r>
       <r>   -9.4667    1.0000 </r>
       <r>   -7.2993    1.0000 </r>
       <r>   -4.8459    1.0000 </r>
       <r>    0.9831    0.0000 </r>
       <r>    1.9048    0.0000 </r>
       <r>    3.9139    0.0000 </r>
       <r>    4.1974    0.0000 </r>
       <r>    4.4028    0.0000 </r>
       <r>    5.0818    0.0000 </r>
       <r>    5.3772    0.0000 </r>
      </set>
      <set comment="kpoint 23">
       <r>  -16.8267    1.0000 </r>
       <r>   -9.8684    1.0000 </r>
       <r>   -7.6222    1.0000 </r>
       <r>   -4.5337    1.0000 </r>
       <r>    0.8298    0.0000 </r>
       <r>    2.4186    0.0000 </r>
       <r>    4.2246    0.0000 </r>
       <r>    4.8027    0.0000 </r>
       <r>    5.2843    0.0000 </r>
       <r>    5.7734    0.0000 </r>
       <r>    5.8498    0.0000 </r>
      </set>
      <set comment="kpoint 24">
       <r>  -16.7372    1.0000 </r>
       <r>  -10.0177    1.0000 </r>
       <r>   -7.7314    1.0000 </r>
       <r>   -4.4133    1.0000 </r>
       <r>    0.7622    0.0000 </r>
       <r>    2.5986    0.0000 </r>
       <r>    4.4258    0.0000 </r>
       <r>    4.9234    0.0000 </r>
       <r>    5.8625    0.0000 </r>
       <r>    6.3962    0.0000 </r>
       <r>    6.4720    0.0000 </r>
      </set>
      <set comment="kpoint 25">
       <r>  -16.8209    1.0000 </r>
       <r>   -9.7109    1.0000 </r>
       <r>   -7.8886    1.0000 </r>
       <r>   -4.5304    1.0000 </r>
       <r>    0.8974    0.0000 </r>
       <r>    2.6044    0.0000 </r>
       <r>    4.3491    0.0000 </r>
       <r>    4.7584    0.0000 </r>
       <r>    5.2222    0.0000 </r>
       <r>    5.6729    0.0000 </r>
       <r>    5.8430    0.0000 </r>
      </set>
      <set comment="kpoint 26">
       <r>  -16.6782    1.0000 </r>
       <r>   -9.8296    1.0000 </r>
       <r>   -8.2288    1.0000 </r>
       <r>   -4.3424    1.0000 </r>
       <r>    0.8495    0.0000 </r>
       <r>    3.0217    0.0000 </r>
       <r>    4.7203    0.0000 </r>
       <r>    4.7600    0.0000 </r>
       <r>    6.0719    0.0000 </r>
       <r>    6.3468    0.0000 </r>
       <r>    6.4969    0.0000 </r>
      </set>
      <set comment="kpoint 27">
       <r>  -16.6239    1.0000 </r>
       <r>   -9.7679    1.0000 </r>
       <r>   -8.4922    1.0000 </r>
       <r>   -4.2730    1.0000 </r>
       <r>    0.8695    0.0000 </r>
       <r>    3.2324    0.0000 </r>
       <r>    4.6319    0.0000 </r>
       <r>    5.1220    0.0000 </r>
       <r>    5.9887    0.0000 </r>
       <r>    6.8683    0.0000 </r>
       <r>    7.2503    0.0000 </r>
      </set>
     </set>
    </set>
   </array>
  </eigenvalues>
  <separator name="orbital magnetization" >
   <v name="MAGDIPOLOUT">      0.00000000      0.00000000      0.00000000</v>
  </separator>
 </calculation>
 <structure name="finalpos" >
  <crystal>
   <varray name="basis" >
    <v>       3.20443292       0.00000000       0.00000000 </v>
    <v>       1.60221646       2.77512031       0.00000000 </v>
    <v>       0.00000000       0.00000000      20.00000000 </v>
   </varray>
   <i name="volume">    177.85373763 </i>
   <varray name="rec_basis" >
    <v>       0.31206770      -0.18017237       0.00000000 </v>
    <v>       0.00000000       0.36034474       0.00000000 </v>
    <v>       0.00000000       0.00000000       0.05000000 </v>
   </varray>
  </crystal>
  <varray name="positions" >
   <v>       0.00000000       0.00000000       0.50000000 </v>
   <v>       0.33333333       0.33333333       0.50000000 </v>
  </varray>
 </structure>
</modeling>
