  45  45   0   0
  0.3686441E+02  0.9786549E-09  0.9786549E-09  0.2000000E-08  0.5000000E-15
  1.000000000000000E-004
  CAR 
 WSe2_GaN_TM_TX phonon                   
      7.86013307    -78.28731735  301     -0.10850609      1.00000000
    -78.287  0.0000E+00  0.0000E+00
    -78.000  0.0000E+00  0.0000E+00
    -77.713  0.0000E+00  0.0000E+00
    -77.426  0.0000E+00  0.0000E+00
    -77.139  0.0000E+00  0.0000E+00
    -76.852  0.0000E+00  0.0000E+00
    -76.564  0.0000E+00  0.0000E+00
    -76.277  0.0000E+00  0.0000E+00
    -75.990  0.0000E+00  0.0000E+00
    -75.703  0.0000E+00  0.0000E+00
    -75.416  0.0000E+00  0.0000E+00
    -75.129  0.0000E+00  0.0000E+00
    -74.841  0.0000E+00  0.0000E+00
    -74.554  0.2273E-05  0.6528E-06
    -74.267  0.6246E+02  0.1794E+02
    -73.980  0.2228E+00  0.1800E+02
    -73.693  0.0000E+00  0.1800E+02
    -73.406  0.0000E+00  0.1800E+02
    -73.118  0.0000E+00  0.1800E+02
    -72.831  0.0000E+00  0.1800E+02
    -72.544  0.0000E+00  0.1800E+02
    -72.257  0.0000E+00  0.1800E+02
    -71.970  0.0000E+00  0.1800E+02
    -71.683  0.0000E+00  0.1800E+02
    -71.396  0.0000E+00  0.1800E+02
    -71.108  0.0000E+00  0.1800E+02
    -70.821  0.0000E+00  0.1800E+02
    -70.534  0.0000E+00  0.1800E+02
    -70.247  0.0000E+00  0.1800E+02
    -69.960  0.0000E+00  0.1800E+02
    -69.673  0.0000E+00  0.1800E+02
    -69.385  0.0000E+00  0.1800E+02
    -69.098  0.0000E+00  0.1800E+02
    -68.811  0.0000E+00  0.1800E+02
    -68.524  0.0000E+00  0.1800E+02
    -68.237  0.0000E+00  0.1800E+02
    -67.950  0.0000E+00  0.1800E+02
    -67.662  0.0000E+00  0.1800E+02
    -67.375  0.0000E+00  0.1800E+02
    -67.088  0.0000E+00  0.1800E+02
    -66.801  0.0000E+00  0.1800E+02
    -66.514  0.0000E+00  0.1800E+02
    -66.227  0.0000E+00  0.1800E+02
    -65.940  0.0000E+00  0.1800E+02
    -65.652  0.0000E+00  0.1800E+02
    -65.365  0.0000E+00  0.1800E+02
    -65.078  0.0000E+00  0.1800E+02
    -64.791  0.0000E+00  0.1800E+02
    -64.504  0.0000E+00  0.1800E+02
    -64.217  0.0000E+00  0.1800E+02
    -63.929  0.0000E+00  0.1800E+02
    -63.642  0.0000E+00  0.1800E+02
    -63.355  0.0000E+00  0.1800E+02
    -63.068  0.0000E+00  0.1800E+02
    -62.781  0.0000E+00  0.1800E+02
    -62.494  0.0000E+00  0.1800E+02
    -62.206  0.0000E+00  0.1800E+02
    -61.919  0.0000E+00  0.1800E+02
    -61.632  0.0000E+00  0.1800E+02
    -61.345  0.0000E+00  0.1800E+02
    -61.058  0.0000E+00  0.1800E+02
    -60.771  0.0000E+00  0.1800E+02
    -60.484  0.0000E+00  0.1800E+02
    -60.196  0.0000E+00  0.1800E+02
    -59.909  0.0000E+00  0.1800E+02
    -59.622  0.0000E+00  0.1800E+02
    -59.335  0.0000E+00  0.1800E+02
    -59.048  0.0000E+00  0.1800E+02
    -58.761  0.0000E+00  0.1800E+02
    -58.473  0.0000E+00  0.1800E+02
    -58.186  0.0000E+00  0.1800E+02
    -57.899  0.0000E+00  0.1800E+02
    -57.612  0.0000E+00  0.1800E+02
    -57.325  0.0000E+00  0.1800E+02
    -57.038  0.0000E+00  0.1800E+02
    -56.750  0.0000E+00  0.1800E+02
    -56.463  0.0000E+00  0.1800E+02
    -56.176  0.0000E+00  0.1800E+02
    -55.889  0.0000E+00  0.1800E+02
    -55.602  0.0000E+00  0.1800E+02
    -55.315  0.0000E+00  0.1800E+02
    -55.028  0.0000E+00  0.1800E+02
    -54.740  0.0000E+00  0.1800E+02
    -54.453  0.0000E+00  0.1800E+02
    -54.166  0.0000E+00  0.1800E+02
    -53.879  0.0000E+00  0.1800E+02
    -53.592  0.0000E+00  0.1800E+02
    -53.305  0.0000E+00  0.1800E+02
    -53.017  0.0000E+00  0.1800E+02
    -52.730  0.0000E+00  0.1800E+02
    -52.443  0.0000E+00  0.1800E+02
    -52.156  0.0000E+00  0.1800E+02
    -51.869  0.0000E+00  0.1800E+02
    -51.582  0.0000E+00  0.1800E+02
    -51.294  0.0000E+00  0.1800E+02
    -51.007  0.0000E+00  0.1800E+02
    -50.720  0.0000E+00  0.1800E+02
    -50.433  0.0000E+00  0.1800E+02
    -50.146  0.0000E+00  0.1800E+02
    -49.859  0.0000E+00  0.1800E+02
    -49.572  0.0000E+00  0.1800E+02
    -49.284  0.0000E+00  0.1800E+02
    -48.997  0.0000E+00  0.1800E+02
    -48.710  0.0000E+00  0.1800E+02
    -48.423  0.0000E+00  0.1800E+02
    -48.136  0.0000E+00  0.1800E+02
    -47.849  0.0000E+00  0.1800E+02
    -47.561  0.0000E+00  0.1800E+02
    -47.274  0.0000E+00  0.1800E+02
    -46.987  0.0000E+00  0.1800E+02
    -46.700  0.0000E+00  0.1800E+02
    -46.413  0.0000E+00  0.1800E+02
    -46.126  0.0000E+00  0.1800E+02
    -45.838  0.0000E+00  0.1800E+02
    -45.551  0.0000E+00  0.1800E+02
    -45.264  0.0000E+00  0.1800E+02
    -44.977  0.0000E+00  0.1800E+02
    -44.690  0.0000E+00  0.1800E+02
    -44.403  0.0000E+00  0.1800E+02
    -44.115  0.0000E+00  0.1800E+02
    -43.828  0.0000E+00  0.1800E+02
    -43.541  0.0000E+00  0.1800E+02
    -43.254  0.0000E+00  0.1800E+02
    -42.967  0.0000E+00  0.1800E+02
    -42.680  0.0000E+00  0.1800E+02
    -42.393  0.0000E+00  0.1800E+02
    -42.105  0.0000E+00  0.1800E+02
    -41.818  0.0000E+00  0.1800E+02
    -41.531  0.0000E+00  0.1800E+02
    -41.244  0.0000E+00  0.1800E+02
    -40.957  0.0000E+00  0.1800E+02
    -40.670  0.0000E+00  0.1800E+02
    -40.382  0.0000E+00  0.1800E+02
    -40.095  0.0000E+00  0.1800E+02
    -39.808  0.0000E+00  0.1800E+02
    -39.521  0.0000E+00  0.1800E+02
    -39.234  0.0000E+00  0.1800E+02
    -38.947  0.2660E-09  0.1800E+02
    -38.659  0.3470E+02  0.2796E+02
    -38.372  0.1533E+03  0.7200E+02
    -38.085  0.9595E-02  0.7200E+02
    -37.798  0.0000E+00  0.7200E+02
    -37.511  0.0000E+00  0.7200E+02
    -37.224  0.0000E+00  0.7200E+02
    -36.937  0.0000E+00  0.7200E+02
    -36.649  0.0000E+00  0.7200E+02
    -36.362  0.0000E+00  0.7200E+02
    -36.075  0.0000E+00  0.7200E+02
    -35.788  0.0000E+00  0.7200E+02
    -35.501  0.0000E+00  0.7200E+02
    -35.214  0.0000E+00  0.7200E+02
    -34.926  0.0000E+00  0.7200E+02
    -34.639  0.0000E+00  0.7200E+02
    -34.352  0.0000E+00  0.7200E+02
    -34.065  0.0000E+00  0.7200E+02
    -33.778  0.0000E+00  0.7200E+02
    -33.491  0.0000E+00  0.7200E+02
    -33.203  0.0000E+00  0.7200E+02
    -32.916  0.0000E+00  0.7200E+02
    -32.629  0.0000E+00  0.7200E+02
    -32.342  0.0000E+00  0.7200E+02
    -32.055  0.0000E+00  0.7200E+02
    -31.768  0.0000E+00  0.7200E+02
    -31.481  0.0000E+00  0.7200E+02
    -31.193  0.0000E+00  0.7200E+02
    -30.906  0.0000E+00  0.7200E+02
    -30.619  0.0000E+00  0.7200E+02
    -30.332  0.0000E+00  0.7200E+02
    -30.045  0.0000E+00  0.7200E+02
    -29.758  0.0000E+00  0.7200E+02
    -29.470  0.0000E+00  0.7200E+02
    -29.183  0.0000E+00  0.7200E+02
    -28.896  0.0000E+00  0.7200E+02
    -28.609  0.0000E+00  0.7200E+02
    -28.322  0.0000E+00  0.7200E+02
    -28.035  0.0000E+00  0.7200E+02
    -27.747  0.0000E+00  0.7200E+02
    -27.460  0.0000E+00  0.7200E+02
    -27.173  0.0000E+00  0.7200E+02
    -26.886  0.0000E+00  0.7200E+02
    -26.599  0.0000E+00  0.7200E+02
    -26.312  0.0000E+00  0.7200E+02
    -26.025  0.0000E+00  0.7200E+02
    -25.737  0.0000E+00  0.7200E+02
    -25.450  0.0000E+00  0.7200E+02
    -25.163  0.0000E+00  0.7200E+02
    -24.876  0.0000E+00  0.7200E+02
    -24.589  0.0000E+00  0.7200E+02
    -24.302  0.0000E+00  0.7200E+02
    -24.014  0.0000E+00  0.7200E+02
    -23.727  0.0000E+00  0.7200E+02
    -23.440  0.0000E+00  0.7200E+02
    -23.153  0.0000E+00  0.7200E+02
    -22.866  0.0000E+00  0.7200E+02
    -22.579  0.0000E+00  0.7200E+02
    -22.291  0.0000E+00  0.7200E+02
    -22.004  0.0000E+00  0.7200E+02
    -21.717  0.0000E+00  0.7200E+02
    -21.430  0.0000E+00  0.7200E+02
    -21.143  0.0000E+00  0.7200E+02
    -20.856  0.0000E+00  0.7200E+02
    -20.569  0.0000E+00  0.7200E+02
    -20.281  0.0000E+00  0.7200E+02
    -19.994  0.0000E+00  0.7200E+02
    -19.707  0.0000E+00  0.7200E+02
    -19.420  0.0000E+00  0.7200E+02
    -19.133  0.0000E+00  0.7200E+02
    -18.846  0.0000E+00  0.7200E+02
    -18.558  0.0000E+00  0.7200E+02
    -18.271  0.0000E+00  0.7200E+02
    -17.984  0.0000E+00  0.7200E+02
    -17.697  0.0000E+00  0.7200E+02
    -17.410  0.0000E+00  0.7200E+02
    -17.123  0.0000E+00  0.7200E+02
    -16.835  0.0000E+00  0.7200E+02
    -16.548  0.0000E+00  0.7200E+02
    -16.261  0.0000E+00  0.7200E+02
    -15.974  0.0000E+00  0.7200E+02
    -15.687  0.0000E+00  0.7200E+02
    -15.400  0.3135E-06  0.7200E+02
    -15.113  0.1839E+01  0.7253E+02
    -14.825  0.5239E+01  0.7403E+02
    -14.538  0.1120E+02  0.7725E+02
    -14.251  0.1295E+02  0.8097E+02
    -13.964  0.1494E+02  0.8525E+02
    -13.677  0.2331E+02  0.9195E+02
    -13.390  0.3175E+02  0.1011E+03
    -13.102  0.4364E+02  0.1136E+03
    -12.815  0.3926E+02  0.1249E+03
    -12.528  0.3927E+01  0.1260E+03
    -12.241  0.0000E+00  0.1260E+03
    -11.954  0.0000E+00  0.1260E+03
    -11.667  0.0000E+00  0.1260E+03
    -11.379  0.0000E+00  0.1260E+03
    -11.092  0.0000E+00  0.1260E+03
    -10.805  0.0000E+00  0.1260E+03
    -10.518  0.0000E+00  0.1260E+03
    -10.231  0.0000E+00  0.1260E+03
     -9.944  0.0000E+00  0.1260E+03
     -9.657  0.0000E+00  0.1260E+03
     -9.369  0.0000E+00  0.1260E+03
     -9.082  0.0000E+00  0.1260E+03
     -8.795  0.0000E+00  0.1260E+03
     -8.508  0.0000E+00  0.1260E+03
     -8.221  0.0000E+00  0.1260E+03
     -7.934  0.0000E+00  0.1260E+03
     -7.646  0.0000E+00  0.1260E+03
     -7.359  0.0000E+00  0.1260E+03
     -7.072  0.8042E-15  0.1260E+03
     -6.785  0.1672E+01  0.1265E+03
     -6.498  0.1651E+02  0.1312E+03
     -6.211  0.2512E+02  0.1384E+03
     -5.923  0.2398E+02  0.1453E+03
     -5.636  0.2551E+02  0.1526E+03
     -5.349  0.2993E+02  0.1612E+03
     -5.062  0.1310E+02  0.1650E+03
     -4.775  0.2037E+02  0.1709E+03
     -4.488  0.3803E+02  0.1818E+03
     -4.201  0.2170E+02  0.1880E+03
     -3.913  0.1738E+02  0.1930E+03
     -3.626  0.3340E+02  0.2026E+03
     -3.339  0.3534E+02  0.2127E+03
     -3.052  0.2678E+02  0.2204E+03
     -2.765  0.1966E+02  0.2261E+03
     -2.478  0.6030E+02  0.2434E+03
     -2.190  0.3979E+02  0.2548E+03
     -1.903  0.2903E+02  0.2632E+03
     -1.616  0.2699E+02  0.2709E+03
     -1.329  0.3328E+02  0.2805E+03
     -1.042  0.4168E+02  0.2924E+03
     -0.755  0.3779E+02  0.3033E+03
     -0.467  0.8436E+01  0.3057E+03
     -0.180  0.1038E+01  0.3060E+03
      0.107  0.0000E+00  0.3060E+03
      0.394  0.0000E+00  0.3060E+03
      0.681  0.0000E+00  0.3060E+03
      0.968  0.0000E+00  0.3060E+03
      1.255  0.1189E+01  0.3063E+03
      1.543  0.1911E+02  0.3118E+03
      1.830  0.2577E+02  0.3192E+03
      2.117  0.2683E+02  0.3269E+03
      2.404  0.4432E+02  0.3397E+03
      2.691  0.4352E+02  0.3522E+03
      2.978  0.2256E+02  0.3586E+03
      3.266  0.2005E+02  0.3644E+03
      3.553  0.1323E+02  0.3682E+03
      3.840  0.1716E+02  0.3731E+03
      4.127  0.3048E+01  0.3740E+03
      4.414  0.0000E+00  0.3740E+03
      4.701  0.0000E+00  0.3740E+03
      4.989  0.0000E+00  0.3740E+03
      5.276  0.0000E+00  0.3740E+03
      5.563  0.0000E+00  0.3740E+03
      5.850  0.0000E+00  0.3740E+03
      6.137  0.0000E+00  0.3740E+03
      6.424  0.0000E+00  0.3740E+03
      6.712  0.0000E+00  0.3740E+03
      6.999  0.0000E+00  0.3740E+03
      7.286  0.0000E+00  0.3740E+03
      7.573  0.0000E+00  0.3740E+03
      7.860  0.0000E+00  0.3740E+03
