  54  54   0   0
  0.3055217E+02  0.9759725E-09  0.9759725E-09  0.2000000E-08  0.5000000E-15
  1.000000000000000E-004
  CAR 
 MoSe2_WS2_2H phonon                     
      9.44284581    -76.35520810  301      2.65049988      1.00000000
    -76.355  0.0000E+00  0.0000E+00
    -76.069  0.0000E+00  0.0000E+00
    -75.783  0.0000E+00  0.0000E+00
    -75.497  0.0000E+00  0.0000E+00
    -75.211  0.0000E+00  0.0000E+00
    -74.925  0.0000E+00  0.0000E+00
    -74.639  0.0000E+00  0.0000E+00
    -74.353  0.0000E+00  0.0000E+00
    -74.067  0.0000E+00  0.0000E+00
    -73.781  0.0000E+00  0.0000E+00
    -73.495  0.0000E+00  0.0000E+00
    -73.209  0.0000E+00  0.0000E+00
    -72.923  0.0000E+00  0.0000E+00
    -72.637  0.2475E-05  0.7078E-06
    -72.351  0.6270E+02  0.1793E+02
    -72.065  0.2368E+00  0.1800E+02
    -71.779  0.0000E+00  0.1800E+02
    -71.493  0.0000E+00  0.1800E+02
    -71.207  0.0000E+00  0.1800E+02
    -70.921  0.0000E+00  0.1800E+02
    -70.635  0.0000E+00  0.1800E+02
    -70.349  0.0000E+00  0.1800E+02
    -70.063  0.0000E+00  0.1800E+02
    -69.777  0.0000E+00  0.1800E+02
    -69.491  0.0000E+00  0.1800E+02
    -69.205  0.0000E+00  0.1800E+02
    -68.919  0.0000E+00  0.1800E+02
    -68.633  0.0000E+00  0.1800E+02
    -68.347  0.0000E+00  0.1800E+02
    -68.061  0.0000E+00  0.1800E+02
    -67.775  0.0000E+00  0.1800E+02
    -67.489  0.0000E+00  0.1800E+02
    -67.203  0.0000E+00  0.1800E+02
    -66.917  0.0000E+00  0.1800E+02
    -66.631  0.0000E+00  0.1800E+02
    -66.345  0.0000E+00  0.1800E+02
    -66.059  0.0000E+00  0.1800E+02
    -65.773  0.0000E+00  0.1800E+02
    -65.487  0.0000E+00  0.1800E+02
    -65.201  0.0000E+00  0.1800E+02
    -64.915  0.0000E+00  0.1800E+02
    -64.629  0.0000E+00  0.1800E+02
    -64.343  0.0000E+00  0.1800E+02
    -64.057  0.0000E+00  0.1800E+02
    -63.771  0.0000E+00  0.1800E+02
    -63.486  0.0000E+00  0.1800E+02
    -63.200  0.0000E+00  0.1800E+02
    -62.914  0.0000E+00  0.1800E+02
    -62.628  0.0000E+00  0.1800E+02
    -62.342  0.0000E+00  0.1800E+02
    -62.056  0.0000E+00  0.1800E+02
    -61.770  0.0000E+00  0.1800E+02
    -61.484  0.0000E+00  0.1800E+02
    -61.198  0.0000E+00  0.1800E+02
    -60.912  0.0000E+00  0.1800E+02
    -60.626  0.0000E+00  0.1800E+02
    -60.340  0.0000E+00  0.1800E+02
    -60.054  0.0000E+00  0.1800E+02
    -59.768  0.0000E+00  0.1800E+02
    -59.482  0.0000E+00  0.1800E+02
    -59.196  0.0000E+00  0.1800E+02
    -58.910  0.5105E-12  0.1800E+02
    -58.624  0.3535E+02  0.2811E+02
    -58.338  0.2759E+02  0.3600E+02
    -58.052  0.0000E+00  0.3600E+02
    -57.766  0.0000E+00  0.3600E+02
    -57.480  0.0000E+00  0.3600E+02
    -57.194  0.0000E+00  0.3600E+02
    -56.908  0.0000E+00  0.3600E+02
    -56.622  0.0000E+00  0.3600E+02
    -56.336  0.0000E+00  0.3600E+02
    -56.050  0.0000E+00  0.3600E+02
    -55.764  0.0000E+00  0.3600E+02
    -55.478  0.0000E+00  0.3600E+02
    -55.192  0.0000E+00  0.3600E+02
    -54.906  0.0000E+00  0.3600E+02
    -54.620  0.0000E+00  0.3600E+02
    -54.334  0.0000E+00  0.3600E+02
    -54.048  0.0000E+00  0.3600E+02
    -53.762  0.0000E+00  0.3600E+02
    -53.476  0.0000E+00  0.3600E+02
    -53.190  0.0000E+00  0.3600E+02
    -52.904  0.0000E+00  0.3600E+02
    -52.618  0.0000E+00  0.3600E+02
    -52.332  0.0000E+00  0.3600E+02
    -52.046  0.0000E+00  0.3600E+02
    -51.760  0.0000E+00  0.3600E+02
    -51.474  0.0000E+00  0.3600E+02
    -51.188  0.0000E+00  0.3600E+02
    -50.902  0.0000E+00  0.3600E+02
    -50.616  0.0000E+00  0.3600E+02
    -50.330  0.0000E+00  0.3600E+02
    -50.044  0.0000E+00  0.3600E+02
    -49.758  0.0000E+00  0.3600E+02
    -49.472  0.0000E+00  0.3600E+02
    -49.186  0.0000E+00  0.3600E+02
    -48.900  0.0000E+00  0.3600E+02
    -48.614  0.0000E+00  0.3600E+02
    -48.328  0.0000E+00  0.3600E+02
    -48.042  0.0000E+00  0.3600E+02
    -47.756  0.0000E+00  0.3600E+02
    -47.470  0.0000E+00  0.3600E+02
    -47.184  0.0000E+00  0.3600E+02
    -46.898  0.0000E+00  0.3600E+02
    -46.612  0.0000E+00  0.3600E+02
    -46.326  0.0000E+00  0.3600E+02
    -46.040  0.0000E+00  0.3600E+02
    -45.754  0.0000E+00  0.3600E+02
    -45.468  0.0000E+00  0.3600E+02
    -45.182  0.0000E+00  0.3600E+02
    -44.896  0.0000E+00  0.3600E+02
    -44.610  0.0000E+00  0.3600E+02
    -44.324  0.0000E+00  0.3600E+02
    -44.038  0.0000E+00  0.3600E+02
    -43.752  0.0000E+00  0.3600E+02
    -43.466  0.0000E+00  0.3600E+02
    -43.180  0.0000E+00  0.3600E+02
    -42.894  0.0000E+00  0.3600E+02
    -42.608  0.0000E+00  0.3600E+02
    -42.322  0.0000E+00  0.3600E+02
    -42.036  0.0000E+00  0.3600E+02
    -41.750  0.0000E+00  0.3600E+02
    -41.464  0.0000E+00  0.3600E+02
    -41.178  0.0000E+00  0.3600E+02
    -40.892  0.0000E+00  0.3600E+02
    -40.606  0.0000E+00  0.3600E+02
    -40.320  0.0000E+00  0.3600E+02
    -40.034  0.0000E+00  0.3600E+02
    -39.748  0.0000E+00  0.3600E+02
    -39.462  0.0000E+00  0.3600E+02
    -39.176  0.0000E+00  0.3600E+02
    -38.890  0.0000E+00  0.3600E+02
    -38.604  0.0000E+00  0.3600E+02
    -38.318  0.0000E+00  0.3600E+02
    -38.032  0.0000E+00  0.3600E+02
    -37.746  0.0000E+00  0.3600E+02
    -37.460  0.0000E+00  0.3600E+02
    -37.174  0.0000E+00  0.3600E+02
    -36.888  0.2635E+00  0.3608E+02
    -36.602  0.1347E+03  0.7461E+02
    -36.316  0.5380E+02  0.9000E+02
    -36.030  0.0000E+00  0.9000E+02
    -35.744  0.0000E+00  0.9000E+02
    -35.458  0.0000E+00  0.9000E+02
    -35.172  0.0000E+00  0.9000E+02
    -34.886  0.0000E+00  0.9000E+02
    -34.600  0.0000E+00  0.9000E+02
    -34.314  0.0000E+00  0.9000E+02
    -34.028  0.0000E+00  0.9000E+02
    -33.742  0.0000E+00  0.9000E+02
    -33.456  0.0000E+00  0.9000E+02
    -33.170  0.3394E-13  0.9000E+02
    -32.884  0.1193E+02  0.9341E+02
    -32.598  0.1724E+03  0.1427E+03
    -32.312  0.4478E+01  0.1440E+03
    -32.026  0.0000E+00  0.1440E+03
    -31.740  0.0000E+00  0.1440E+03
    -31.454  0.0000E+00  0.1440E+03
    -31.168  0.0000E+00  0.1440E+03
    -30.882  0.0000E+00  0.1440E+03
    -30.596  0.0000E+00  0.1440E+03
    -30.310  0.0000E+00  0.1440E+03
    -30.024  0.0000E+00  0.1440E+03
    -29.738  0.0000E+00  0.1440E+03
    -29.452  0.0000E+00  0.1440E+03
    -29.166  0.0000E+00  0.1440E+03
    -28.880  0.0000E+00  0.1440E+03
    -28.594  0.0000E+00  0.1440E+03
    -28.308  0.0000E+00  0.1440E+03
    -28.022  0.0000E+00  0.1440E+03
    -27.736  0.0000E+00  0.1440E+03
    -27.450  0.0000E+00  0.1440E+03
    -27.164  0.0000E+00  0.1440E+03
    -26.878  0.0000E+00  0.1440E+03
    -26.592  0.0000E+00  0.1440E+03
    -26.306  0.0000E+00  0.1440E+03
    -26.020  0.0000E+00  0.1440E+03
    -25.734  0.0000E+00  0.1440E+03
    -25.448  0.0000E+00  0.1440E+03
    -25.162  0.0000E+00  0.1440E+03
    -24.876  0.0000E+00  0.1440E+03
    -24.590  0.0000E+00  0.1440E+03
    -24.304  0.0000E+00  0.1440E+03
    -24.018  0.0000E+00  0.1440E+03
    -23.732  0.0000E+00  0.1440E+03
    -23.446  0.0000E+00  0.1440E+03
    -23.160  0.0000E+00  0.1440E+03
    -22.874  0.0000E+00  0.1440E+03
    -22.588  0.0000E+00  0.1440E+03
    -22.302  0.0000E+00  0.1440E+03
    -22.016  0.0000E+00  0.1440E+03
    -21.730  0.0000E+00  0.1440E+03
    -21.444  0.0000E+00  0.1440E+03
    -21.158  0.0000E+00  0.1440E+03
    -20.872  0.0000E+00  0.1440E+03
    -20.586  0.0000E+00  0.1440E+03
    -20.300  0.0000E+00  0.1440E+03
    -20.014  0.0000E+00  0.1440E+03
    -19.728  0.0000E+00  0.1440E+03
    -19.442  0.0000E+00  0.1440E+03
    -19.157  0.0000E+00  0.1440E+03
    -18.871  0.0000E+00  0.1440E+03
    -18.585  0.0000E+00  0.1440E+03
    -18.299  0.0000E+00  0.1440E+03
    -18.013  0.0000E+00  0.1440E+03
    -17.727  0.0000E+00  0.1440E+03
    -17.441  0.0000E+00  0.1440E+03
    -17.155  0.0000E+00  0.1440E+03
    -16.869  0.0000E+00  0.1440E+03
    -16.583  0.0000E+00  0.1440E+03
    -16.297  0.0000E+00  0.1440E+03
    -16.011  0.0000E+00  0.1440E+03
    -15.725  0.0000E+00  0.1440E+03
    -15.439  0.0000E+00  0.1440E+03
    -15.153  0.0000E+00  0.1440E+03
    -14.867  0.0000E+00  0.1440E+03
    -14.581  0.0000E+00  0.1440E+03
    -14.295  0.0000E+00  0.1440E+03
    -14.009  0.0000E+00  0.1440E+03
    -13.723  0.0000E+00  0.1440E+03
    -13.437  0.0000E+00  0.1440E+03
    -13.151  0.7362E-09  0.1440E+03
    -12.865  0.1344E+01  0.1444E+03
    -12.579  0.4001E+01  0.1455E+03
    -12.293  0.5041E+01  0.1470E+03
    -12.007  0.9965E+01  0.1498E+03
    -11.721  0.1232E+02  0.1533E+03
    -11.435  0.1313E+02  0.1571E+03
    -11.149  0.2470E+02  0.1642E+03
    -10.863  0.4824E+02  0.1780E+03
    -10.577  0.5707E+02  0.1943E+03
    -10.291  0.3537E+02  0.2044E+03
    -10.005  0.3947E+02  0.2157E+03
     -9.719  0.1096E+01  0.2160E+03
     -9.433  0.0000E+00  0.2160E+03
     -9.147  0.0000E+00  0.2160E+03
     -8.861  0.0000E+00  0.2160E+03
     -8.575  0.0000E+00  0.2160E+03
     -8.289  0.0000E+00  0.2160E+03
     -8.003  0.0000E+00  0.2160E+03
     -7.717  0.0000E+00  0.2160E+03
     -7.431  0.0000E+00  0.2160E+03
     -7.145  0.0000E+00  0.2160E+03
     -6.859  0.0000E+00  0.2160E+03
     -6.573  0.0000E+00  0.2160E+03
     -6.287  0.0000E+00  0.2160E+03
     -6.001  0.0000E+00  0.2160E+03
     -5.715  0.0000E+00  0.2160E+03
     -5.429  0.0000E+00  0.2160E+03
     -5.143  0.0000E+00  0.2160E+03
     -4.857  0.4046E-09  0.2160E+03
     -4.571  0.3316E+01  0.2169E+03
     -4.285  0.1305E+02  0.2207E+03
     -3.999  0.1836E+02  0.2259E+03
     -3.713  0.2917E+02  0.2343E+03
     -3.427  0.2116E+02  0.2403E+03
     -3.141  0.2772E+02  0.2483E+03
     -2.855  0.5460E+02  0.2639E+03
     -2.569  0.5234E+02  0.2788E+03
     -2.283  0.3675E+02  0.2893E+03
     -1.997  0.1690E+02  0.2942E+03
     -1.711  0.5748E+02  0.3106E+03
     -1.425  0.5957E+02  0.3277E+03
     -1.139  0.2987E+02  0.3362E+03
     -0.853  0.5360E+02  0.3515E+03
     -0.567  0.4129E+02  0.3633E+03
     -0.281  0.4504E+02  0.3762E+03
      0.005  0.4154E+02  0.3881E+03
      0.291  0.5218E+02  0.4030E+03
      0.577  0.4328E+02  0.4154E+03
      0.863  0.4784E+02  0.4291E+03
      1.149  0.4168E+02  0.4410E+03
      1.435  0.3781E+02  0.4518E+03
      1.721  0.3477E+02  0.4618E+03
      2.007  0.1601E+02  0.4663E+03
      2.293  0.5590E+01  0.4679E+03
      2.579  0.1869E+00  0.4680E+03
      2.865  0.0000E+00  0.4680E+03
      3.151  0.2001E+00  0.4681E+03
      3.437  0.2756E+01  0.4688E+03
      3.723  0.1473E+02  0.4731E+03
      4.009  0.3973E+02  0.4844E+03
      4.295  0.8237E+02  0.5080E+03
      4.581  0.8494E+02  0.5323E+03
      4.867  0.6153E+02  0.5499E+03
      5.153  0.3652E+02  0.5603E+03
      5.439  0.3731E+02  0.5710E+03
      5.725  0.3552E+01  0.5720E+03
      6.011  0.0000E+00  0.5720E+03
      6.297  0.0000E+00  0.5720E+03
      6.583  0.0000E+00  0.5720E+03
      6.869  0.0000E+00  0.5720E+03
      7.155  0.0000E+00  0.5720E+03
      7.441  0.0000E+00  0.5720E+03
      7.727  0.0000E+00  0.5720E+03
      8.013  0.0000E+00  0.5720E+03
      8.299  0.0000E+00  0.5720E+03
      8.585  0.0000E+00  0.5720E+03
      8.871  0.0000E+00  0.5720E+03
      9.157  0.0000E+00  0.5720E+03
      9.443  0.0000E+00  0.5720E+03
