       N       E                     dE             d eps       ncg     rms          rms(c)
DAV:   1     0.457399133440E+04    0.45740E+04   -0.24738E+05  8855   0.147E+03
DAV:   2    -0.364755626216E+02   -0.46105E+04   -0.44813E+04  8822   0.375E+02
DAV:   3    -0.397110520875E+03   -0.36063E+03   -0.35388E+03  8833   0.986E+01
DAV:   4    -0.413364802224E+03   -0.16254E+02   -0.16129E+02  9900   0.192E+01
DAV:   5    -0.413845467933E+03   -0.48067E+00   -0.47881E+00 10153   0.338E+00    0.920E+01
DAV:   6    -0.396427652979E+03    0.17418E+02   -0.11773E+02  8811   0.211E+01    0.374E+01
DAV:   7    -0.394984792865E+03    0.14429E+01   -0.50384E+01  8756   0.126E+01    0.206E+01
DAV:   8    -0.391816883668E+03    0.31679E+01   -0.12146E+01  8514   0.664E+00    0.536E+00
DAV:   9    -0.391724088246E+03    0.92795E-01   -0.12691E+00  9273   0.196E+00    0.226E+00
DAV:  10    -0.391698854664E+03    0.25234E-01   -0.12124E-01  9438   0.719E-01    0.113E+00
DAV:  11    -0.391683515703E+03    0.15339E-01   -0.47827E-02  9548   0.561E-01    0.576E-01
DAV:  12    -0.391673072537E+03    0.10443E-01   -0.22278E-02  9328   0.373E-01    0.278E-01
DAV:  13    -0.391662172512E+03    0.10900E-01   -0.57645E-03  9372   0.213E-01    0.166E-01
DAV:  14    -0.391656451540E+03    0.57210E-02   -0.63235E-03  9240   0.217E-01    0.192E-01
DAV:  15    -0.391650705068E+03    0.57465E-02   -0.51906E-03  9581   0.204E-01    0.109E-01
DAV:  16    -0.391649310348E+03    0.13947E-02   -0.40405E-03  9020   0.156E-01    0.967E-02
DAV:  17    -0.391651497968E+03   -0.21876E-02   -0.30959E-03  9163   0.111E-01    0.949E-02
DAV:  18    -0.391653408484E+03   -0.19105E-02   -0.62034E-04  9075   0.593E-02    0.751E-02
DAV:  19    -0.391654860219E+03   -0.14517E-02   -0.17289E-04  8921   0.377E-02    0.439E-02
DAV:  20    -0.391657644192E+03   -0.27840E-02   -0.47520E-04  8591   0.463E-02    0.396E-02
DAV:  21    -0.391658369807E+03   -0.72561E-03   -0.86462E-05  9152   0.303E-02    0.280E-02
DAV:  22    -0.391658775828E+03   -0.40602E-03   -0.26276E-05  8437   0.183E-02    0.168E-02
DAV:  23    -0.391659356427E+03   -0.58060E-03   -0.56942E-05  8789   0.247E-02    0.192E-02
DAV:  24    -0.391659426077E+03   -0.69650E-04   -0.50365E-05  8030   0.135E-02    0.196E-02
DAV:  25    -0.391659395529E+03    0.30548E-04   -0.12138E-05  7909   0.617E-03    0.117E-02
DAV:  26    -0.391659384114E+03    0.11415E-04   -0.22659E-06  6963   0.587E-03    0.430E-03
DAV:  27    -0.391659379046E+03    0.50683E-05   -0.33647E-06  7260   0.489E-03    0.525E-03
DAV:  28    -0.391659379390E+03   -0.34462E-06   -0.95403E-07  5841   0.277E-03
   1 F= -.41239911E+03 E0= -.41239911E+03  d E =-.240535E-23
