    6    6  600    1
  0.3055217E+02  0.3253242E-09  0.3253242E-09  0.2000000E-08  0.5000000E-15
  1.000000000000000E-004
  CAR 
 MoSe2_WS2_2H relaxation                 
     52     27     33
 
  0.1276756E-14  0.1276756E-14  0.1276756E-14  0.4444444E-02
      1        -72.454671   1.000000
      2        -58.650697   1.000000
      3        -36.639795   1.000000
      4        -36.562791   1.000000
      5        -36.562791   1.000000
      6        -32.837686   1.000000
      7        -32.608648   1.000000
      8        -32.608648   1.000000
      9        -12.943590   1.000000
     10        -12.248388   1.000000
     11        -11.383528   1.000000
     12        -11.137873   1.000000
     13         -4.591607   1.000000
     14         -3.377490   1.000000
     15         -1.348486   1.000000
     16         -1.348486   1.000000
     17         -0.640612   1.000000
     18         -0.147282   1.000000
     19         -0.147282   1.000000
     20          0.093889   1.000000
     21          0.093889   1.000000
     22          0.566096   1.000000
     23          1.103408   1.000000
     24          1.103408   1.000000
     25          1.597863   1.000000
     26          2.305940   1.000000
     27          4.364539   0.000000
     28          4.364539   0.000000
     29          4.588594   0.000000
     30          4.588594   0.000000
     31          5.132818   0.000000
     32          5.132818   0.000000
     33          5.347547   0.000000
 
  0.6666667E-01  0.8384846E-14  0.1276756E-14  0.2666667E-01
      1        -72.454147   1.000000
      2        -58.649483   1.000000
      3        -36.637736   1.000000
      4        -36.574413   1.000000
      5        -36.565510   1.000000
      6        -32.834987   1.000000
      7        -32.621667   1.000000
      8        -32.611621   1.000000
      9        -12.876315   1.000000
     10        -12.183914   1.000000
     11        -11.351607   1.000000
     12        -11.109598   1.000000
     13         -4.512250   1.000000
     14         -3.299701   1.000000
     15         -1.529760   1.000000
     16         -1.282708   1.000000
     17         -0.845450   1.000000
     18         -0.254471   1.000000
     19         -0.173200   1.000000
     20         -0.073538   1.000000
     21          0.159044   1.000000
     22          0.489171   1.000000
     23          0.995358   1.000000
     24          1.190920   1.000000
     25          1.590089   1.000000
     26          2.202183   1.000000
     27          4.311885   0.000000
     28          4.482488   0.000000
     29          4.489981   0.000000
     30          4.531307   0.000000
     31          4.934919   0.000000
     32          5.055294   0.000000
     33          5.227343   0.000000
 
  0.1333333E+00  0.8405019E-14  0.1276756E-14  0.2666667E-01
      1        -72.452683   1.000000
      2        -58.646062   1.000000
      3        -36.631910   1.000000
      4        -36.607138   1.000000
      5        -36.573191   1.000000
      6        -32.827350   1.000000
      7        -32.658321   1.000000
      8        -32.620019   1.000000
      9        -12.681188   1.000000
     10        -11.995988   1.000000
     11        -11.260935   1.000000
     12        -11.025194   1.000000
     13         -4.288118   1.000000
     14         -3.083768   1.000000
     15         -1.987376   1.000000
     16         -1.251062   1.000000
     17         -1.094956   1.000000
     18         -0.527230   1.000000
     19         -0.522646   1.000000
     20         -0.441388   1.000000
     21          0.346054   1.000000
     22          0.419786   1.000000
     23          0.719382   1.000000
     24          1.210572   1.000000
     25          1.524043   1.000000
     26          1.882071   1.000000
     27          4.220285   0.000000
     28          4.278362   0.000000
     29          4.360120   0.000000
     30          4.529251   0.000000
     31          4.712689   0.000000
     32          4.829151   0.000000
     33          5.008109   0.000000
 
  0.2000000E+00  0.1291632E-14  0.1276756E-14  0.2666667E-01
      1        -72.450516   1.000000
      2        -58.641009   1.000000
      3        -36.655000   1.000000
      4        -36.623314   1.000000
      5        -36.584484   1.000000
      6        -32.816080   1.000000
      7        -32.711916   1.000000
      8        -32.632364   1.000000
      9        -12.378523   1.000000
     10        -11.701800   1.000000
     11        -11.126748   1.000000
     12        -10.886642   1.000000
     13         -3.976309   1.000000
     14         -2.807578   1.000000
     15         -2.533085   1.000000
     16         -1.715180   1.000000
     17         -1.103570   1.000000
     18         -0.900516   1.000000
     19         -0.873535   1.000000
     20         -0.811334   1.000000
     21          0.276619   1.000000
     22          0.369520   1.000000
     23          0.628221   1.000000
     24          1.001993   1.000000
     25          1.258226   1.000000
     26          1.480704   1.000000
     27          3.921202   0.000000
     28          4.178967   0.000000
     29          4.232452   0.000000
     30          4.430934   0.000000
     31          4.682587   0.000000
     32          4.816327   0.000000
     33          5.266639   0.000000
 
  0.2666667E+00  0.1278407E-14  0.1276756E-14  0.2666667E-01
      1        -72.448027   1.000000
      2        -58.635200   1.000000
      3        -36.709454   1.000000
      4        -36.613428   1.000000
      5        -36.597417   1.000000
      6        -32.803114   1.000000
      7        -32.772876   1.000000
      8        -32.646501   1.000000
      9        -12.003345   1.000000
     10        -11.333499   1.000000
     11        -10.970712   1.000000
     12        -10.702621   1.000000
     13         -3.780398   1.000000
     14         -2.982182   1.000000
     15         -2.606278   1.000000
     16         -2.195042   1.000000
     17         -1.603307   1.000000
     18         -1.445961   1.000000
     19         -1.207465   1.000000
     20         -0.490577   1.000000
     21          0.025504   1.000000
     22          0.056795   1.000000
     23          0.654671   1.000000
     24          0.843768   1.000000
     25          0.956272   1.000000
     26          1.194463   1.000000
     27          3.831694   0.000000
     28          4.053978   0.000000
     29          4.254235   0.000000
     30          4.416222   0.000000
     31          4.698507   0.000000
     32          5.154900   0.000000
     33          5.644198   0.000000
 
  0.3333333E+00  0.8414917E-14  0.1276756E-14  0.2666667E-01
      1        -72.445638   1.000000
      2        -58.629631   1.000000
      3        -36.761029   1.000000
      4        -36.609749   1.000000
      5        -36.603955   1.000000
      6        -32.830600   1.000000
      7        -32.790687   1.000000
      8        -32.659981   1.000000
      9        -11.608030   1.000000
     10        -10.954558   1.000000
     11        -10.802623   1.000000
     12        -10.498159   1.000000
     13         -4.037159   1.000000
     14         -3.031186   1.000000
     15         -2.802763   1.000000
     16         -2.675199   1.000000
     17         -2.015156   1.000000
     18         -1.700427   1.000000
     19         -1.488917   1.000000
     20         -0.276712   1.000000
     21         -0.175520   1.000000
     22         -0.140209   1.000000
     23          0.343614   1.000000
     24          0.607402   1.000000
     25          1.075798   1.000000
     26          1.263560   1.000000
     27          3.986425   0.000000
     28          4.032134   0.000000
     29          4.249783   0.000000
     30          4.376162   0.000000
     31          5.036674   0.000000
     32          5.540894   0.000000
     33          5.906855   0.000000
 
  0.4000000E+00  0.8376527E-14  0.1276756E-14  0.2666667E-01
      1        -72.443780   1.000000
      2        -58.625282   1.000000
      3        -36.801002   1.000000
      4        -36.619363   1.000000
      5        -36.596542   1.000000
      6        -32.875327   1.000000
      7        -32.780960   1.000000
      8        -32.670487   1.000000
      9        -11.265083   1.000000
     10        -10.740422   1.000000
     11        -10.543916   1.000000
     12        -10.316413   1.000000
     13         -4.408635   1.000000
     14         -3.369915   1.000000
     15         -3.099083   1.000000
     16         -2.814090   1.000000
     17         -2.432261   1.000000
     18         -1.694791   1.000000
     19         -1.688398   1.000000
     20         -0.475358   1.000000
     21         -0.257662   1.000000
     22          0.040676   1.000000
     23          0.168333   1.000000
     24          0.620264   1.000000
     25          1.186071   1.000000
     26          1.485422   1.000000
     27          4.101901   0.000000
     28          4.197956   0.000000
     29          4.259666   0.000000
     30          4.534622   0.000000
     31          5.303555   0.000000
     32          5.836819   0.000000
     33          6.042307   0.000000
 
  0.4666667E+00  0.1279608E-14  0.1276756E-14  0.2666667E-01
      1        -72.442758   1.000000
      2        -58.622897   1.000000
      3        -36.822759   1.000000
      4        -36.624615   1.000000
      5        -36.592480   1.000000
      6        -32.899668   1.000000
      7        -32.775629   1.000000
      8        -32.676226   1.000000
      9        -11.060478   1.000000
     10        -10.664160   1.000000
     11        -10.338371   1.000000
     12        -10.207177   1.000000
     13         -4.636101   1.000000
     14         -3.667858   1.000000
     15         -3.284185   1.000000
     16         -2.925437   1.000000
     17         -2.587772   1.000000
     18         -1.791320   1.000000
     19         -1.716790   1.000000
     20         -0.581792   1.000000
     21         -0.302445   1.000000
     22          0.087374   1.000000
     23          0.154982   1.000000
     24          0.761334   1.000000
     25          1.344640   1.000000
     26          1.593905   1.000000
     27          4.178942   0.000000
     28          4.211288   0.000000
     29          4.500871   0.000000
     30          4.672913   0.000000
     31          5.430732   0.000000
     32          5.959296   0.000000
     33          6.094158   0.000000
 
  0.1333333E+00  0.6666667E-01  0.1276756E-14  0.2666667E-01
      1        -72.453156   1.000000
      2        -58.647167   1.000000
      3        -36.633793   1.000000
      4        -36.596208   1.000000
      5        -36.571089   1.000000
      6        -32.829818   1.000000
      7        -32.646077   1.000000
      8        -32.617734   1.000000
      9        -12.745082   1.000000
     10        -12.057685   1.000000
     11        -11.290279   1.000000
     12        -11.053227   1.000000
     13         -4.359824   1.000000
     14         -3.152062   1.000000
     15         -1.845173   1.000000
     16         -1.160142   1.000000
     17         -1.118744   1.000000
     18         -0.497029   1.000000
     19         -0.380168   1.000000
     20         -0.313136   1.000000
     21          0.280414   1.000000
     22          0.468984   1.000000
     23          0.740518   1.000000
     24          1.279023   1.000000
     25          1.555417   1.000000
     26          1.991438   1.000000
     27          4.234703   0.000000
     28          4.296840   0.000000
     29          4.421028   0.000000
     30          4.640100   0.000000
     31          4.747216   0.000000
     32          4.760367   0.000000
     33          5.057150   0.000000
 
  0.2000000E+00  0.6666667E-01  0.1276756E-14  0.5333333E-01
      1        -72.451338   1.000000
      2        -58.642929   1.000000
      3        -36.635490   1.000000
      4        -36.626582   1.000000
      5        -36.581583   1.000000
      6        -32.820365   1.000000
      7        -32.690061   1.000000
      8        -32.629241   1.000000
      9        -12.495918   1.000000
     10        -11.816362   1.000000
     11        -11.177718   1.000000
     12        -10.941390   1.000000
     13         -4.084740   1.000000
     14         -2.894879   1.000000
     15         -2.340931   1.000000
     16         -1.498735   1.000000
     17         -0.946336   1.000000
     18         -0.894675   1.000000
     19         -0.874963   1.000000
     20         -0.641720   1.000000
     21          0.286418   1.000000
     22          0.455844   1.000000
     23          0.497576   1.000000
     24          1.245571   1.000000
     25          1.406423   1.000000
     26          1.626312   1.000000
     27          3.974133   0.000000
     28          4.193678   0.000000
     29          4.253977   0.000000
     30          4.354173   0.000000
     31          4.665014   0.000000
     32          4.760054   0.000000
     33          5.188827   0.000000
 
  0.2666667E+00  0.6666667E-01  0.1276756E-14  0.5333333E-01
      1        -72.449011   1.000000
      2        -58.637498   1.000000
      3        -36.685297   1.000000
      4        -36.617340   1.000000
      5        -36.595038   1.000000
      6        -32.808246   1.000000
      7        -32.745816   1.000000
      8        -32.643995   1.000000
      9        -12.156053   1.000000
     10        -11.483983   1.000000
     11        -11.032654   1.000000
     12        -10.778586   1.000000
     13         -3.790912   1.000000
     14         -2.855513   1.000000
     15         -2.617322   1.000000
     16         -1.949839   1.000000
     17         -1.420568   1.000000
     18         -1.293915   1.000000
     19         -1.081141   1.000000
     20         -0.680220   1.000000
     21         -0.140479   1.000000
     22          0.314746   1.000000
     23          0.716253   1.000000
     24          0.981492   1.000000
     25          1.059977   1.000000
     26          1.349757   1.000000
     27          3.739718   0.000000
     28          4.045245   0.000000
     29          4.253280   0.000000
     30          4.445479   0.000000
     31          4.504297   0.000000
     32          4.880281   0.000000
     33          5.604864   0.000000
 
  0.3333333E+00  0.6666667E-01  0.1276756E-14  0.5333333E-01
      1        -72.446572   1.000000
      2        -58.631808   1.000000
      3        -36.736890   1.000000
      4        -36.609080   1.000000
      5        -36.607659   1.000000
      6        -32.803556   1.000000
      7        -32.795548   1.000000
      8        -32.659390   1.000000
      9        -11.768479   1.000000
     10        -11.104534   1.000000
     11        -10.873563   1.000000
     12        -10.581090   1.000000
     13         -3.827363   1.000000
     14         -3.014899   1.000000
     15         -2.652903   1.000000
     16         -2.450883   1.000000
     17         -1.755794   1.000000
     18         -1.711079   1.000000
     19         -1.434254   1.000000
     20         -0.493112   1.000000
     21         -0.403952   1.000000
     22          0.094324   1.000000
     23          0.617830   1.000000
     24          0.737789   1.000000
     25          0.815553   1.000000
     26          1.336375   1.000000
     27          3.730121   0.000000
     28          4.030574   0.000000
     29          4.271315   0.000000
     30          4.418067   0.000000
     31          4.765843   0.000000
     32          5.222337   0.000000
     33          5.886919   0.000000
 
  0.4000000E+00  0.6666667E-01  0.1276756E-14  0.5333333E-01
      1        -72.444449   1.000000
      2        -58.626850   1.000000
      3        -36.781425   1.000000
      4        -36.621276   1.000000
      5        -36.599215   1.000000
      6        -32.853387   1.000000
      7        -32.784470   1.000000
      8        -32.672762   1.000000
      9        -11.394972   1.000000
     10        -10.799542   1.000000
     11        -10.662308   1.000000
     12        -10.383537   1.000000
     13         -4.188073   1.000000
     14         -3.137257   1.000000
     15         -2.958330   1.000000
     16         -2.775341   1.000000
     17         -2.255907   1.000000
     18         -1.761764   1.000000
     19         -1.569190   1.000000
     20         -0.610096   1.000000
     21         -0.314138   1.000000
     22         -0.113478   1.000000
     23          0.364170   1.000000
     24          0.669738   1.000000
     25          0.824120   1.000000
     26          1.513993   1.000000
     27          3.898988   0.000000
     28          4.124495   0.000000
     29          4.339866   0.000000
     30          4.470520   0.000000
     31          5.112283   0.000000
     32          5.587962   0.000000
     33          5.974494   0.000000
 
  0.4666667E+00  0.6666667E-01  0.1276756E-14  0.5333333E-01
      1        -72.443010   1.000000
      2        -58.623483   1.000000
      3        -36.811450   1.000000
      4        -36.629537   1.000000
      5        -36.593477   1.000000
      6        -32.886975   1.000000
      7        -32.776939   1.000000
      8        -32.681818   1.000000
      9        -11.115603   1.000000
     10        -10.679847   1.000000
     11        -10.396106   1.000000
     12        -10.233688   1.000000
     13         -4.488784   1.000000
     14         -3.496675   1.000000
     15         -3.253254   1.000000
     16         -2.862680   1.000000
     17         -2.537331   1.000000
     18         -1.818543   1.000000
     19         -1.627579   1.000000
     20         -0.677074   1.000000
     21         -0.254666   1.000000
     22         -0.208635   1.000000
     23          0.180133   1.000000
     24          0.808096   1.000000
     25          0.928151   1.000000
     26          1.683369   1.000000
     27          4.114306   0.000000
     28          4.191146   0.000000
     29          4.470435   0.000000
     30          4.616765   0.000000
     31          5.401270   0.000000
     32          5.847805   0.000000
     33          5.958146   0.000000
 
 -0.4666667E+00  0.6666667E-01  0.1276756E-14  0.2666667E-01
      1        -72.442502   1.000000
      2        -58.622292   1.000000
      3        -36.822032   1.000000
      4        -36.632456   1.000000
      5        -36.591445   1.000000
      6        -32.898812   1.000000
      7        -32.774274   1.000000
      8        -32.685018   1.000000
      9        -11.010429   1.000000
     10        -10.642732   1.000000
     11        -10.288166   1.000000
     12        -10.176813   1.000000
     13         -4.601722   1.000000
     14         -3.648392   1.000000
     15         -3.356159   1.000000
     16         -2.948590   1.000000
     17         -2.596452   1.000000
     18         -1.842850   1.000000
     19         -1.653890   1.000000
     20         -0.692871   1.000000
     21         -0.301535   1.000000
     22         -0.163320   1.000000
     23          0.113136   1.000000
     24          0.919352   1.000000
     25          0.966525   1.000000
     26          1.759813   1.000000
     27          4.178289   0.000000
     28          4.210936   0.000000
     29          4.566669   0.000000
     30          4.728821   0.000000
     31          5.543423   0.000000
     32          5.808285   0.000000
     33          6.081056   0.000000
 
  0.2666667E+00  0.1333333E+00  0.1276756E-14  0.2666667E-01
      1        -72.449359   1.000000
      2        -58.638311   1.000000
      3        -36.674932   1.000000
      4        -36.618724   1.000000
      5        -36.596017   1.000000
      6        -32.810061   1.000000
      7        -32.734194   1.000000
      8        -32.645160   1.000000
      9        -12.208867   1.000000
     10        -11.536093   1.000000
     11        -11.054186   1.000000
     12        -10.804229   1.000000
     13         -3.802185   1.000000
     14         -2.776477   1.000000
     15         -2.638990   1.000000
     16         -1.784564   1.000000
     17         -1.418598   1.000000
     18         -1.310384   1.000000
     19         -0.914519   1.000000
     20         -0.774836   1.000000
     21         -0.324298   1.000000
     22          0.456446   1.000000
     23          0.604210   1.000000
     24          1.089215   1.000000
     25          1.259286   1.000000
     26          1.415222   1.000000
     27          3.676692   0.000000
     28          4.010514   0.000000
     29          4.259703   0.000000
     30          4.293949   0.000000
     31          4.495952   0.000000
     32          4.744391   0.000000
     33          5.631770   0.000000
 
  0.3333333E+00  0.1333333E+00  0.1276756E-14  0.5333333E-01
      1        -72.447084   1.000000
      2        -58.633000   1.000000
      3        -36.718893   1.000000
      4        -36.613547   1.000000
      5        -36.609687   1.000000
      6        -32.798210   1.000000
      7        -32.783365   1.000000
      8        -32.664516   1.000000
      9        -11.854092   1.000000
     10        -11.188467   1.000000
     11        -10.907261   1.000000
     12        -10.624093   1.000000
     13         -3.662969   1.000000
     14         -3.022038   1.000000
     15         -2.533002   1.000000
     16         -2.255647   1.000000
     17         -1.783909   1.000000
     18         -1.574983   1.000000
     19         -1.348993   1.000000
     20         -0.776589   1.000000
     21         -0.676548   1.000000
     22          0.312726   1.000000
     23          0.491158   1.000000
     24          0.820813   1.000000
     25          1.039955   1.000000
     26          1.404115   1.000000
     27          3.537808   0.000000
     28          3.930038   0.000000
     29          4.297491   0.000000
     30          4.446066   0.000000
     31          4.483304   0.000000
     32          4.922812   0.000000
     33          5.940083   0.000000
 
  0.4000000E+00  0.1333333E+00  0.1276756E-14  0.5333333E-01
      1        -72.444905   1.000000
      2        -58.627914   1.000000
      3        -36.760202   1.000000
      4        -36.630668   1.000000
      5        -36.601032   1.000000
      6        -32.829559   1.000000
      7        -32.786856   1.000000
      8        -32.683429   1.000000
      9        -11.482460   1.000000
     10        -10.853224   1.000000
     11        -10.726727   1.000000
     12        -10.426615   1.000000
     13         -3.919351   1.000000
     14         -2.977124   1.000000
     15         -2.820006   1.000000
     16         -2.666238   1.000000
     17         -2.051021   1.000000
     18         -1.850573   1.000000
     19         -1.503261   1.000000
     20         -0.908852   1.000000
     21         -0.750374   1.000000
     22          0.066195   1.000000
     23          0.298813   1.000000
     24          0.649350   1.000000
     25          0.818997   1.000000
     26          1.522933   1.000000
     27          3.649473   0.000000
     28          4.059929   0.000000
     29          4.383260   0.000000
     30          4.498250   0.000000
     31          4.755286   0.000000
     32          5.207741   0.000000
     33          6.035944   0.000000
 
  0.4666667E+00  0.1333333E+00  0.1276756E-14  0.5333333E-01
      1        -72.443208   1.000000
      2        -58.623942   1.000000
      3        -36.792124   1.000000
      4        -36.644156   1.000000
      5        -36.594260   1.000000
      6        -32.865250   1.000000
      7        -32.777972   1.000000
      8        -32.698329   1.000000
      9        -11.162904   1.000000
     10        -10.689638   1.000000
     11        -10.446374   1.000000
     12        -10.252620   1.000000
     13         -4.215914   1.000000
     14         -3.272161   1.000000
     15         -3.183195   1.000000
     16         -2.753660   1.000000
     17         -2.448691   1.000000
     18         -1.867866   1.000000
     19         -1.510226   1.000000
     20         -0.950267   1.000000
     21         -0.782168   1.000000
     22         -0.154028   1.000000
     23          0.222761   1.000000
     24          0.362051   1.000000
     25          0.913351   1.000000
     26          1.684927   1.000000
     27          3.921215   0.000000
     28          4.208319   0.000000
     29          4.493346   0.000000
     30          4.576467   0.000000
     31          5.055185   0.000000
     32          5.512921   0.000000
     33          5.996209   0.000000
 
 -0.4666667E+00  0.1333333E+00  0.1276756E-14  0.5333333E-01
      1        -72.442276   1.000000
      2        -58.621764   1.000000
      3        -36.809483   1.000000
      4        -36.651559   1.000000
      5        -36.590550   1.000000
      6        -32.884655   1.000000
      7        -32.773105   1.000000
      8        -32.706507   1.000000
      9        -10.974028   1.000000
     10        -10.619280   1.000000
     11        -10.254075   1.000000
     12        -10.148282   1.000000
     13         -4.390670   1.000000
     14         -3.489536   1.000000
     15         -3.420333   1.000000
     16         -2.912857   1.000000
     17         -2.572395   1.000000
     18         -1.856712   1.000000
     19         -1.547689   1.000000
     20         -0.929087   1.000000
     21         -0.762636   1.000000
     22         -0.296119   1.000000
     23          0.166377   1.000000
     24          0.236561   1.000000
     25          1.069732   1.000000
     26          1.836426   1.000000
     27          4.032084   0.000000
     28          4.173827   0.000000
     29          4.655714   0.000000
     30          4.814649   0.000000
     31          5.260852   0.000000
     32          5.683237   0.000000
     33          5.958128   0.000000
 
  0.4000000E+00  0.2000000E+00  0.1276756E-14  0.2666667E-01
      1        -72.445067   1.000000
      2        -58.628292   1.000000
      3        -36.750116   1.000000
      4        -36.636601   1.000000
      5        -36.601675   1.000000
      6        -32.818228   1.000000
      7        -32.787702   1.000000
      8        -32.690143   1.000000
      9        -11.513221   1.000000
     10        -10.876205   1.000000
     11        -10.745042   1.000000
     12        -10.441379   1.000000
     13         -3.783041   1.000000
     14         -2.942268   1.000000
     15         -2.779571   1.000000
     16         -2.560960   1.000000
     17         -1.972388   1.000000
     18         -1.859103   1.000000
     19         -1.482283   1.000000
     20         -1.063916   1.000000
     21         -0.936155   1.000000
     22         -0.009467   1.000000
     23          0.233929   1.000000
     24          0.747600   1.000000
     25          0.891132   1.000000
     26          1.516539   1.000000
     27          3.551515   0.000000
     28          4.016596   0.000000
     29          4.392388   0.000000
     30          4.513572   0.000000
     31          4.583104   0.000000
     32          5.042288   0.000000
     33          6.088007   0.000000
 
  0.4666667E+00  0.2000000E+00  0.1276756E-14  0.5333333E-01
      1        -72.443317   1.000000
      2        -58.624194   1.000000
      3        -36.774765   1.000000
      4        -36.659044   1.000000
      5        -36.594691   1.000000
      6        -32.845729   1.000000
      7        -32.778541   1.000000
      8        -32.715120   1.000000
      9        -11.190146   1.000000
     10        -10.694518   1.000000
     11        -10.475130   1.000000
     12        -10.262307   1.000000
     13         -3.966885   1.000000
     14         -3.263782   1.000000
     15         -2.970675   1.000000
     16         -2.602315   1.000000
     17         -2.363997   1.000000
     18         -1.925023   1.000000
     19         -1.429321   1.000000
     20         -1.312121   1.000000
     21         -1.032402   1.000000
     22         -0.389827   1.000000
     23         -0.018916   1.000000
     24          0.512543   1.000000
     25          0.934560   1.000000
     26          1.649678   1.000000
     27          3.782981   0.000000
     28          4.205839   0.000000
     29          4.454833   0.000000
     30          4.599749   0.000000
     31          4.742165   0.000000
     32          5.247146   0.000000
     33          6.152831   0.000000
 
 -0.4666667E+00  0.2000000E+00  0.1276756E-14  0.5333333E-01
      1        -72.442126   1.000000
      2        -58.621408   1.000000
      3        -36.790264   1.000000
      4        -36.675416   1.000000
      5        -36.589946   1.000000
      6        -32.863013   1.000000
      7        -32.772318   1.000000
      8        -32.733351   1.000000
      9        -10.953448   1.000000
     10        -10.600630   1.000000
     11        -10.236361   1.000000
     12        -10.127804   1.000000
     13         -4.086655   1.000000
     14         -3.585077   1.000000
     15         -3.127525   1.000000
     16         -2.826084   1.000000
     17         -2.514022   1.000000
     18         -1.846530   1.000000
     19         -1.525016   1.000000
     20         -1.442286   1.000000
     21         -0.989570   1.000000
     22         -0.543468   1.000000
     23         -0.253978   1.000000
     24          0.226169   1.000000
     25          1.142566   1.000000
     26          1.841766   1.000000
     27          3.845027   0.000000
     28          4.079976   0.000000
     29          4.665911   0.000000
     30          4.841010   0.000000
     31          4.951377   0.000000
     32          5.423907   0.000000
     33          6.200161   0.000000
 
 -0.4000000E+00  0.2000000E+00  0.1276756E-14  0.2666667E-01
      1        -72.441699   1.000000
      2        -58.620418   1.000000
      3        -36.795510   1.000000
      4        -36.681424   1.000000
      5        -36.588267   1.000000
      6        -32.868862   1.000000
      7        -32.770116   1.000000
      8        -32.740044   1.000000
      9        -10.865732   1.000000
     10        -10.567751   1.000000
     11        -10.146294   1.000000
     12        -10.076444   1.000000
     13         -4.125393   1.000000
     14         -3.698665   1.000000
     15         -3.192598   1.000000
     16         -2.949825   1.000000
     17         -2.562239   1.000000
     18         -1.815662   1.000000
     19         -1.572368   1.000000
     20         -1.465058   1.000000
     21         -0.959695   1.000000
     22         -0.566538   1.000000
     23         -0.347395   1.000000
     24          0.096607   1.000000
     25          1.270679   1.000000
     26          1.951657   1.000000
     27          3.710399   0.000000
     28          4.047314   0.000000
     29          4.776924   0.000000
     30          4.957401   0.000000
     31          5.121511   0.000000
     32          5.476885   0.000000
     33          6.227580   0.000000
 
 -0.4666667E+00  0.2666667E+00  0.1276756E-14  0.2666667E-01
      1        -72.442076   1.000000
      2        -58.621286   1.000000
      3        -36.778973   1.000000
      4        -36.688384   1.000000
      5        -36.589734   1.000000
      6        -32.850315   1.000000
      7        -32.772041   1.000000
      8        -32.747932   1.000000
      9        -10.946999   1.000000
     10        -10.593486   1.000000
     11        -10.231172   1.000000
     12        -10.120330   1.000000
     13         -3.918412   1.000000
     14         -3.627629   1.000000
     15         -2.967228   1.000000
     16         -2.773633   1.000000
     17         -2.431189   1.000000
     18         -1.932956   1.000000
     19         -1.768370   1.000000
     20         -1.358850   1.000000
     21         -1.049690   1.000000
     22         -0.944621   1.000000
     23         -0.252075   1.000000
     24          0.254333   1.000000
     25          1.165957   1.000000
     26          1.836090   1.000000
     27          3.762609   0.000000
     28          4.034118   0.000000
     29          4.556945   0.000000
     30          4.826710   0.000000
     31          4.960800   0.000000
     32          5.319030   0.000000
     33          6.332355   0.000000
 
 -0.4000000E+00  0.2666667E+00  0.1276756E-14  0.5333333E-01
      1        -72.441397   1.000000
      2        -58.619693   1.000000
      3        -36.776184   1.000000
      4        -36.709534   1.000000
      5        -36.587019   1.000000
      6        -32.847133   1.000000
      7        -32.771582   1.000000
      8        -32.768483   1.000000
      9        -10.807804   1.000000
     10        -10.537561   1.000000
     11        -10.089457   1.000000
     12        -10.034822   1.000000
     13         -3.845437   1.000000
     14         -3.801849   1.000000
     15         -2.994854   1.000000
     16         -2.872781   1.000000
     17         -2.516786   1.000000
     18         -2.127573   1.000000
     19         -1.745503   1.000000
     20         -1.542070   1.000000
     21         -1.112026   1.000000
     22         -0.998399   1.000000
     23         -0.401304   1.000000
     24          0.024897   1.000000
     25          1.427792   1.000000
     26          2.034652   1.000000
     27          3.417900   0.000000
     28          3.909439   0.000000
     29          4.534017   0.000000
     30          5.098467   0.000000
     31          5.286844   0.000000
     32          5.367416   0.000000
     33          6.491682   0.000000
 
 -0.3333333E+00  0.3333333E+00  0.1276756E-14  0.8888889E-02
      1        -72.441137   1.000000
      2        -58.619085   1.000000
      3        -36.760587   1.000000
      4        -36.732235   1.000000
      5        -36.585984   1.000000
      6        -32.829826   1.000000
      7        -32.796814   1.000000
      8        -32.767126   1.000000
      9        -10.755714   1.000000
     10        -10.514402   1.000000
     11        -10.038560   1.000000
     12         -9.998536   1.000000
     13         -3.927714   1.000000
     14         -3.595629   1.000000
     15         -3.055220   1.000000
     16         -2.714675   1.000000
     17         -2.645078   1.000000
     18         -2.205659   1.000000
     19         -1.950279   1.000000
     20         -1.639825   1.000000
     21         -1.152364   1.000000
     22         -1.040737   1.000000
     23         -0.431086   1.000000
     24         -0.091730   1.000000
     25          1.600962   1.000000
     26          2.140877   1.000000
     27          3.164535   0.000000
     28          3.798104   0.000000
     29          4.450470   0.000000
     30          5.252607   0.000000
     31          5.278379   0.000000
     32          5.522016   0.000000
     33          6.636522   0.000000
