Bilayer MoSe2/WS2 2H (relaxed monolayers)
 1.0000000000000000
  3.2532415414838618   0.0000000000000000   0.0000000000000000
  1.6266207707419309   2.8173898195718707   0.0000000000000000
  0.0000000000000000   0.0000000000000000  20.0000000000000000
   Mo   Se   W   S
     1     2     1     2
Cartesian
  0.0000000000000000   0.0000000000000000  10.0000000000000000
  1.6266207707419424   0.9391299398572969   8.3367549201071824
  1.6266207707419424   0.9391299398572969  11.6632450798928176
  1.6266207707419309   0.9391299398572902  16.5000000000000000
  4.8798623122257805   2.8173898195718641  14.9325592704073848
  4.8798623122257805   2.8173898195718641  18.0674407295926152
