MoSe2_WS2_2H relaxation                 
           1
     3.253242    0.000000    0.000000
     1.626621    2.817390    0.000000
     0.000000    0.000000   20.000000
   Mo   Se   W    S 
     1     2     1     2
Direct configuration=     1
   0.00000000  0.00000000  0.50000000
   0.33333333  0.33333333  0.41683775
   0.33333333  0.33333333  0.58316225
   0.33333333  0.33333333  0.82500000
   0.00000000  0.00000000  0.74662796
   0.00000000  0.00000000  0.90337204
Direct configuration=     2
  -0.00000000  0.00000000  0.50007568
   0.33333333  0.33333333  0.41584857
   0.33333333  0.33333333  0.58431004
   0.33333333  0.33333333  0.82492370
   0.00000000  0.00000000  0.74756843
   0.00000000  0.00000000  0.90227359
Direct configuration=     3
  -0.00000000 -0.00000000  0.50016928
   0.33333333  0.33333333  0.41572298
   0.33333333  0.33333333  0.58460484
   0.33333333  0.33333333  0.82483214
   0.00000000 -0.00000000  0.74759581
  -0.00000000  0.00000000  0.90207495
Direct configuration=     4
  -0.00000000 -0.00000000  0.50021912
   0.33333333  0.33333333  0.41578212
   0.33333333  0.33333333  0.58468401
   0.33333333  0.33333333  0.82477159
   0.00000000  0.00000000  0.74752673
  -0.00000000  0.00000000  0.90201644
Direct configuration=     5
  -0.00000000  0.00000000  0.50034156
   0.33333333  0.33333333  0.41585963
   0.33333333  0.33333333  0.58476490
   0.33333333  0.33333333  0.82467348
  -0.00000000 -0.00000000  0.74744078
   0.00000000  0.00000000  0.90191964
Direct configuration=     6
  -0.00000000  0.00000000  0.50128681
   0.33333333  0.33333333  0.41678948
   0.33333333  0.33333333  0.58564839
   0.33333333  0.33333333  0.82375397
  -0.00000000 -0.00000000  0.74656454
   0.00000000 -0.00000000  0.90095681
Direct configuration=     7
  -0.00000000 -0.00000000  0.50018119
   0.33333333  0.33333333  0.41574351
   0.33333333  0.33333333  0.58466348
   0.33333333  0.33333333  0.82480768
   0.00000000  0.00000000  0.74755516
  -0.00000000  0.00000000  0.90204898
Direct configuration=     8
  -0.00000000  0.00000000  0.50075928
   0.33333333  0.33333333  0.41634087
   0.33333333  0.33333333  0.58522093
   0.33333333  0.33333333  0.82422166
  -0.00000000  0.00000000  0.74699573
   0.00000000 -0.00000000  0.90146153
Direct configuration=     9
  -0.00000000  0.00000000  0.50218500
   0.33333333  0.33333333  0.41768461
   0.33333333  0.33333333  0.58658539
   0.33333333  0.33333333  0.82282117
  -0.00000000  0.00000000  0.74564715
   0.00000000 -0.00000000  0.90007668
Direct configuration=    10
  -0.00000000  0.00000000  0.50165888
   0.33333333  0.33333333  0.41722006
   0.33333333  0.33333333  0.58611696
   0.33333333  0.33333333  0.82333493
  -0.00000000  0.00000000  0.74611352
   0.00000000 -0.00000000  0.90055565
Direct configuration=    11
  -0.00000000  0.00000000  0.50205224
   0.33333333  0.33333333  0.41763354
   0.33333333  0.33333333  0.58651213
   0.33333333  0.33333333  0.82293418
  -0.00000000  0.00000000  0.74571684
   0.00000000 -0.00000000  0.90015108
Direct configuration=    12
  -0.00000000  0.00000000  0.50285256
   0.33333333  0.33333333  0.41836359
   0.33333333  0.33333333  0.58731633
   0.33333333  0.33333333  0.82214322
  -0.00000000  0.00000000  0.74496633
   0.00000000 -0.00000000  0.89935797
Direct configuration=    13
  -0.00000000  0.00000000  0.50250476
   0.33333333  0.33333333  0.41804533
   0.33333333  0.33333333  0.58694481
   0.33333333  0.33333333  0.82248145
  -0.00000000  0.00000000  0.74529715
   0.00000000 -0.00000000  0.89972650
Direct configuration=    14
  -0.00000000  0.00000000  0.50248972
   0.33333333  0.33333333  0.41803019
   0.33333333  0.33333333  0.58693003
   0.33333333  0.33333333  0.82249826
  -0.00000000  0.00000000  0.74531148
   0.00000000 -0.00000000  0.89974031
Direct configuration=    15
  -0.00000000  0.00000000  0.50257617
   0.33333333  0.33333333  0.41810129
   0.33333333  0.33333333  0.58699979
   0.33333333  0.33333333  0.82242791
  -0.00000000  0.00000000  0.74522839
   0.00000000 -0.00000000  0.89966643
Direct configuration=    16
  -0.00000000  0.00000000  0.50305693
   0.33333333  0.33333333  0.41846243
   0.33333333  0.33333333  0.58729355
   0.33333333  0.33333333  0.82207598
  -0.00000000  0.00000000  0.74470773
   0.00000000  0.00000000  0.89940336
Direct configuration=    17
  -0.00000000  0.00000000  0.50381420
   0.33333333  0.33333333  0.41924744
   0.33333333  0.33333333  0.58810077
   0.33333333  0.33333333  0.82131140
  -0.00000000  0.00000000  0.74393563
   0.00000000  0.00000000  0.89859056
Direct configuration=    18
  -0.00000000  0.00000000  0.50489675
   0.33333333  0.33333333  0.42050894
   0.33333333  0.33333333  0.58937397
   0.33333333  0.33333333  0.81997018
  -0.00000000  0.00000000  0.74294732
   0.00000000  0.00000000  0.89730284
Direct configuration=    19
  -0.00000000  0.00000000  0.50520205
   0.33333333  0.33333333  0.42077123
   0.33333333  0.33333333  0.58957188
   0.33333333  0.33333333  0.81980807
  -0.00000000  0.00000000  0.74264736
   0.00000000  0.00000000  0.89699940
Direct configuration=    20
  -0.00000000  0.00000000  0.50537081
   0.33333333  0.33333333  0.42098183
   0.33333333  0.33333333  0.58972102
   0.33333333  0.33333333  0.81962353
  -0.00000000  0.00000000  0.74247363
   0.00000000  0.00000000  0.89682918
Direct configuration=    21
  -0.00000000  0.00000000  0.50560008
   0.33333333  0.33333333  0.42128236
   0.33333333  0.33333333  0.58993059
   0.33333333  0.33333333  0.81938926
  -0.00000000  0.00000000  0.74222957
   0.00000000  0.00000000  0.89656813
Direct configuration=    22
  -0.00000000  0.00000000  0.50553636
   0.33333333  0.33333333  0.42116484
   0.33333333  0.33333333  0.58985252
   0.33333333  0.33333333  0.81946531
  -0.00000000  0.00000000  0.74232081
   0.00000000  0.00000000  0.89666016
Direct configuration=    23
  -0.00000000  0.00000000  0.50556636
   0.33333333  0.33333333  0.42119406
   0.33333333  0.33333333  0.58989979
   0.33333333  0.33333333  0.81942940
  -0.00000000  0.00000000  0.74228521
   0.00000000  0.00000000  0.89662518
Direct configuration=    24
  -0.00000000  0.00000000  0.50561525
   0.33333333  0.33333333  0.42123969
   0.33333333  0.33333333  0.58993439
   0.33333333  0.33333333  0.81939253
  -0.00000000  0.00000000  0.74223924
   0.00000000  0.00000000  0.89657889
Direct configuration=    25
  -0.00000000  0.00000000  0.50563937
   0.33333333  0.33333333  0.42126873
   0.33333333  0.33333333  0.58995692
   0.33333333  0.33333333  0.81936521
  -0.00000000  0.00000000  0.74221770
   0.00000000  0.00000000  0.89655206
Direct configuration=    26
  -0.00000000  0.00000000  0.50574691
   0.33333333  0.33333333  0.42137429
   0.33333333  0.33333333  0.59004856
   0.33333333  0.33333333  0.81926372
  -0.00000000  0.00000000  0.74212063
   0.00000000  0.00000000  0.89644589
Direct configuration=    27
  -0.00000000  0.00000000  0.50572074
   0.33333333  0.33333333  0.42134699
   0.33333333  0.33333333  0.59001562
   0.33333333  0.33333333  0.81929186
  -0.00000000  0.00000000  0.74214931
   0.00000000  0.00000000  0.89647548
Direct configuration=    28
  -0.00000000  0.00000000  0.50559539
   0.33333333  0.33333333  0.42122622
   0.33333333  0.33333333  0.58986412
   0.33333333  0.33333333  0.81941205
  -0.00000000  0.00000000  0.74230525
   0.00000000  0.00000000  0.89659697
Direct configuration=    29
  -0.00000000  0.00000000  0.50542429
   0.33333333  0.33333333  0.42106342
   0.33333333  0.33333333  0.58965716
   0.33333333  0.33333333  0.81959754
  -0.00000000  0.00000000  0.74248691
   0.00000000  0.00000000  0.89677068
Direct configuration=    30
  -0.00000000  0.00000000  0.50587584
   0.33333333  0.33333333  0.42150554
   0.33333333  0.33333333  0.59021275
   0.33333333  0.33333333  0.81912340
  -0.00000000  0.00000000  0.74198911
   0.00000000  0.00000000  0.89629336
Direct configuration=    31
  -0.00000000  0.00000000  0.50592991
   0.33333333  0.33333333  0.42155108
   0.33333333  0.33333333  0.59025172
   0.33333333  0.33333333  0.81907803
  -0.00000000  0.00000000  0.74193349
   0.00000000  0.00000000  0.89625576
Direct configuration=    32
  -0.00000000  0.00000000  0.50607154
   0.33333333  0.33333333  0.42168244
   0.33333333  0.33333333  0.59041097
   0.33333333  0.33333333  0.81893022
  -0.00000000  0.00000000  0.74179467
   0.00000000  0.00000000  0.89611015
Direct configuration=    33
  -0.00000000  0.00000000  0.50608109
   0.33333333  0.33333333  0.42170416
   0.33333333  0.33333333  0.59041835
   0.33333333  0.33333333  0.81892385
  -0.00000000  0.00000000  0.74177827
   0.00000000  0.00000000  0.89609427
Direct configuration=    34
  -0.00000000  0.00000000  0.50612706
   0.33333333  0.33333333  0.42174426
   0.33333333  0.33333333  0.59045640
   0.33333333  0.33333333  0.81887834
  -0.00000000  0.00000000  0.74174100
   0.00000000  0.00000000  0.89605294
Direct configuration=    35
  -0.00000000  0.00000000  0.50604563
   0.33333333  0.33333333  0.42163273
   0.33333333  0.33333333  0.59037870
   0.33333333  0.33333333  0.81897330
  -0.00000000  0.00000000  0.74182365
   0.00000000  0.00000000  0.89614599
Direct configuration=    36
  -0.00000000  0.00000000  0.50604268
   0.33333333  0.33333333  0.42164121
   0.33333333  0.33333333  0.59038024
   0.33333333  0.33333333  0.81895529
  -0.00000000  0.00000000  0.74182998
   0.00000000  0.00000000  0.89615060
Direct configuration=    37
  -0.00000000  0.00000000  0.50604166
   0.33333333  0.33333333  0.42167675
   0.33333333  0.33333333  0.59039328
   0.33333333  0.33333333  0.81895365
  -0.00000000  0.00000000  0.74180675
   0.00000000  0.00000000  0.89612791
Direct configuration=    38
  -0.00000000  0.00000000  0.50606191
   0.33333333  0.33333333  0.42168107
   0.33333333  0.33333333  0.59039618
   0.33333333  0.33333333  0.81894127
  -0.00000000  0.00000000  0.74180036
   0.00000000  0.00000000  0.89611922
Direct configuration=    39
  -0.00000000  0.00000000  0.50608799
   0.33333333  0.33333333  0.42170880
   0.33333333  0.33333333  0.59042127
   0.33333333  0.33333333  0.81891547
  -0.00000000  0.00000000  0.74177562
   0.00000000  0.00000000  0.89609084
Direct configuration=    40
  -0.00000000  0.00000000  0.50622513
   0.33333333  0.33333333  0.42183001
   0.33333333  0.33333333  0.59053679
   0.33333333  0.33333333  0.81878581
  -0.00000000  0.00000000  0.74166558
   0.00000000  0.00000000  0.89595669
Direct configuration=    41
  -0.00000000  0.00000000  0.50609588
   0.33333333  0.33333333  0.42170848
   0.33333333  0.33333333  0.59042245
   0.33333333  0.33333333  0.81891042
  -0.00000000  0.00000000  0.74177477
   0.00000000  0.00000000  0.89608800
Direct configuration=    42
  -0.00000000  0.00000000  0.50606028
   0.33333333  0.33333333  0.42166451
   0.33333333  0.33333333  0.59038499
   0.33333333  0.33333333  0.81894988
  -0.00000000  0.00000000  0.74181132
   0.00000000  0.00000000  0.89612902
Direct configuration=    43
  -0.00000000  0.00000000  0.50617220
   0.33333333  0.33333333  0.42178053
   0.33333333  0.33333333  0.59049019
   0.33333333  0.33333333  0.81883793
  -0.00000000  0.00000000  0.74170744
   0.00000000  0.00000000  0.89601171
Direct configuration=    44
  -0.00000000  0.00000000  0.50589026
   0.33333333  0.33333333  0.42146789
   0.33333333  0.33333333  0.59021495
   0.33333333  0.33333333  0.81913157
  -0.00000000  0.00000000  0.74197778
   0.00000000  0.00000000  0.89631756
Direct configuration=    45
  -0.00000000  0.00000000  0.50593319
   0.33333333  0.33333333  0.42158698
   0.33333333  0.33333333  0.59028626
   0.33333333  0.33333333  0.81905475
  -0.00000000  0.00000000  0.74190944
   0.00000000  0.00000000  0.89622938
Direct configuration=    46
  -0.00000000  0.00000000  0.50593668
   0.33333333  0.33333333  0.42156132
   0.33333333  0.33333333  0.59027151
   0.33333333  0.33333333  0.81906328
  -0.00000000  0.00000000  0.74192207
   0.00000000  0.00000000  0.89624514
Direct configuration=    47
  -0.00000000  0.00000000  0.50595417
   0.33333333  0.33333333  0.42157548
   0.33333333  0.33333333  0.59029592
   0.33333333  0.33333333  0.81904980
  -0.00000000  0.00000000  0.74190148
   0.00000000  0.00000000  0.89622315
Direct configuration=    48
  -0.00000000  0.00000000  0.50594478
   0.33333333  0.33333333  0.42156356
   0.33333333  0.33333333  0.59028274
   0.33333333  0.33333333  0.81906432
  -0.00000000  0.00000000  0.74191131
   0.00000000  0.00000000  0.89623329
Direct configuration=    49
  -0.00000000  0.00000000  0.50593644
   0.33333333  0.33333333  0.42155037
   0.33333333  0.33333333  0.59027870
   0.33333333  0.33333333  0.81907250
  -0.00000000  0.00000000  0.74192001
   0.00000000  0.00000000  0.89624198
Direct configuration=    50
  -0.00000000  0.00000000  0.50582341
   0.33333333  0.33333333  0.42139199
   0.33333333  0.33333333  0.59013940
   0.33333333  0.33333333  0.81921304
  -0.00000000  0.00000000  0.74205437
   0.00000000  0.00000000  0.89637779
Direct configuration=    51
  -0.00000000  0.00000000  0.50575476
   0.33333333  0.33333333  0.42132113
   0.33333333  0.33333333  0.59006705
   0.33333333  0.33333333  0.81928581
  -0.00000000  0.00000000  0.74212272
   0.00000000  0.00000000  0.89644852
Direct configuration=    52
  -0.00000000  0.00000000  0.50604955
   0.33333333  0.33333333  0.42166444
   0.33333333  0.33333333  0.59037020
   0.33333333  0.33333333  0.81896136
  -0.00000000  0.00000000  0.74181564
   0.00000000  0.00000000  0.89613883
Direct configuration=    53
  -0.00000000  0.00000000  0.50622320
   0.33333333  0.33333333  0.42185137
   0.33333333  0.33333333  0.59054789
   0.33333333  0.33333333  0.81879053
  -0.00000000  0.00000000  0.74163727
   0.00000000  0.00000000  0.89594974
Direct configuration=    54
  -0.00000000  0.00000000  0.50632783
   0.33333333  0.33333333  0.42196094
   0.33333333  0.33333333  0.59064586
   0.33333333  0.33333333  0.81868441
  -0.00000000  0.00000000  0.74153829
   0.00000000  0.00000000  0.89584267
Direct configuration=    55
  -0.00000000  0.00000000  0.50652651
   0.33333333  0.33333333  0.42215562
   0.33333333  0.33333333  0.59083052
   0.33333333  0.33333333  0.81847291
  -0.00000000  0.00000000  0.74135825
   0.00000000  0.00000000  0.89565619
Direct configuration=    56
  -0.00000000  0.00000000  0.50641899
   0.33333333  0.33333333  0.42206817
   0.33333333  0.33333333  0.59074723
   0.33333333  0.33333333  0.81857884
  -0.00000000  0.00000000  0.74144398
   0.00000000  0.00000000  0.89574280
Direct configuration=    57
  -0.00000000  0.00000000  0.50646644
   0.33333333  0.33333333  0.42210126
   0.33333333  0.33333333  0.59078487
   0.33333333  0.33333333  0.81854001
  -0.00000000  0.00000000  0.74140714
   0.00000000  0.00000000  0.89570028
Direct configuration=    58
  -0.00000000  0.00000000  0.50649072
   0.33333333  0.33333333  0.42212521
   0.33333333  0.33333333  0.59081409
   0.33333333  0.33333333  0.81851007
  -0.00000000  0.00000000  0.74138383
   0.00000000  0.00000000  0.89567608
Direct configuration=    59
  -0.00000000  0.00000000  0.50650466
   0.33333333  0.33333333  0.42213755
   0.33333333  0.33333333  0.59082472
   0.33333333  0.33333333  0.81849810
  -0.00000000  0.00000000  0.74137002
   0.00000000  0.00000000  0.89566495
Direct configuration=    60
  -0.00000000  0.00000000  0.50650564
   0.33333333  0.33333333  0.42213407
   0.33333333  0.33333333  0.59082667
   0.33333333  0.33333333  0.81849818
  -0.00000000  0.00000000  0.74136959
   0.00000000  0.00000000  0.89566585
Direct configuration=    61
  -0.00000000  0.00000000  0.50651361
   0.33333333  0.33333333  0.42215035
   0.33333333  0.33333333  0.59082348
   0.33333333  0.33333333  0.81849504
  -0.00000000  0.00000000  0.74135986
   0.00000000  0.00000000  0.89565766
Direct configuration=    62
  -0.00000000  0.00000000  0.50651552
   0.33333333  0.33333333  0.42215567
   0.33333333  0.33333333  0.59082778
   0.33333333  0.33333333  0.81848887
  -0.00000000  0.00000000  0.74135734
   0.00000000  0.00000000  0.89565480
Direct configuration=    63
  -0.00000000  0.00000000  0.50650863
   0.33333333  0.33333333  0.42214673
   0.33333333  0.33333333  0.59082032
   0.33333333  0.33333333  0.81849469
  -0.00000000  0.00000000  0.74136767
   0.00000000  0.00000000  0.89566196
Direct configuration=    64
  -0.00000000  0.00000000  0.50652363
   0.33333333  0.33333333  0.42216693
   0.33333333  0.33333333  0.59083735
   0.33333333  0.33333333  0.81848017
  -0.00000000  0.00000000  0.74134543
   0.00000000  0.00000000  0.89564650
Direct configuration=    65
  -0.00000000  0.00000000  0.50652648
   0.33333333  0.33333333  0.42216755
   0.33333333  0.33333333  0.59083815
   0.33333333  0.33333333  0.81848156
  -0.00000000  0.00000000  0.74134169
   0.00000000  0.00000000  0.89564457
Direct configuration=    66
  -0.00000000  0.00000000  0.50652494
   0.33333333  0.33333333  0.42216936
   0.33333333  0.33333333  0.59083976
   0.33333333  0.33333333  0.81847852
  -0.00000000  0.00000000  0.74134241
   0.00000000  0.00000000  0.89564501
Direct configuration=    67
  -0.00000000  0.00000000  0.50653305
   0.33333333  0.33333333  0.42217504
   0.33333333  0.33333333  0.59084513
   0.33333333  0.33333333  0.81847136
  -0.00000000  0.00000000  0.74133458
   0.00000000  0.00000000  0.89564084
Direct configuration=    68
  -0.00000000  0.00000000  0.50654235
   0.33333333  0.33333333  0.42218582
   0.33333333  0.33333333  0.59085545
   0.33333333  0.33333333  0.81846226
  -0.00000000  0.00000000  0.74132411
   0.00000000  0.00000000  0.89563002
Direct configuration=    69
  -0.00000000  0.00000000  0.50658430
   0.33333333  0.33333333  0.42222228
   0.33333333  0.33333333  0.59089010
   0.33333333  0.33333333  0.81842136
  -0.00000000  0.00000000  0.74128851
   0.00000000  0.00000000  0.89559346
Direct configuration=    70
  -0.00000000  0.00000000  0.50660429
   0.33333333  0.33333333  0.42224589
   0.33333333  0.33333333  0.59090672
   0.33333333  0.33333333  0.81840149
  -0.00000000  0.00000000  0.74126863
   0.00000000  0.00000000  0.89557298
Direct configuration=    71
  -0.00000000  0.00000000  0.50665834
   0.33333333  0.33333333  0.42230455
   0.33333333  0.33333333  0.59095028
   0.33333333  0.33333333  0.81835004
  -0.00000000  0.00000000  0.74121760
   0.00000000  0.00000000  0.89551919
Direct configuration=    72
  -0.00000000  0.00000000  0.50669442
   0.33333333  0.33333333  0.42234781
   0.33333333  0.33333333  0.59098131
   0.33333333  0.33333333  0.81831182
  -0.00000000  0.00000000  0.74118103
   0.00000000  0.00000000  0.89548360
Direct configuration=    73
  -0.00000000  0.00000000  0.50664638
   0.33333333  0.33333333  0.42229943
   0.33333333  0.33333333  0.59094120
   0.33333333  0.33333333  0.81836558
  -0.00000000  0.00000000  0.74121937
   0.00000000  0.00000000  0.89552803
Direct configuration=    74
  -0.00000000  0.00000000  0.50669943
   0.33333333  0.33333333  0.42235724
   0.33333333  0.33333333  0.59098379
   0.33333333  0.33333333  0.81831098
  -0.00000000  0.00000000  0.74116745
   0.00000000  0.00000000  0.89548111
Direct configuration=    75
  -0.00000000  0.00000000  0.50671418
   0.33333333  0.33333333  0.42237182
   0.33333333  0.33333333  0.59099735
   0.33333333  0.33333333  0.81829747
  -0.00000000  0.00000000  0.74115253
   0.00000000  0.00000000  0.89546665
Direct configuration=    76
  -0.00000000  0.00000000  0.50673211
   0.33333333  0.33333333  0.42238844
   0.33333333  0.33333333  0.59101289
   0.33333333  0.33333333  0.81827930
  -0.00000000  0.00000000  0.74113650
   0.00000000  0.00000000  0.89545077
Direct configuration=    77
  -0.00000000  0.00000000  0.50672944
   0.33333333  0.33333333  0.42238580
   0.33333333  0.33333333  0.59101040
   0.33333333  0.33333333  0.81828187
  -0.00000000  0.00000000  0.74113869
   0.00000000  0.00000000  0.89545380
Direct configuration=    78
  -0.00000000  0.00000000  0.50673651
   0.33333333  0.33333333  0.42239318
   0.33333333  0.33333333  0.59101757
   0.33333333  0.33333333  0.81827153
  -0.00000000  0.00000000  0.74113765
   0.00000000  0.00000000  0.89544357
Direct configuration=    79
  -0.00000000  0.00000000  0.50675205
   0.33333333  0.33333333  0.42240681
   0.33333333  0.33333333  0.59103060
   0.33333333  0.33333333  0.81825794
  -0.00000000  0.00000000  0.74112438
   0.00000000  0.00000000  0.89542823
Direct configuration=    80
  -0.00000000  0.00000000  0.50676301
   0.33333333  0.33333333  0.42242117
   0.33333333  0.33333333  0.59104414
   0.33333333  0.33333333  0.81824823
  -0.00000000  0.00000000  0.74110839
   0.00000000  0.00000000  0.89541506
Direct configuration=    81
  -0.00000000  0.00000000  0.50677024
   0.33333333  0.33333333  0.42242554
   0.33333333  0.33333333  0.59104819
   0.33333333  0.33333333  0.81824175
  -0.00000000  0.00000000  0.74110415
   0.00000000  0.00000000  0.89541014
Direct configuration=    82
  -0.00000000  0.00000000  0.50676952
   0.33333333  0.33333333  0.42242499
   0.33333333  0.33333333  0.59104702
   0.33333333  0.33333333  0.81824262
  -0.00000000  0.00000000  0.74110489
   0.00000000  0.00000000  0.89541096
Direct configuration=    83
  -0.00000000  0.00000000  0.50676457
   0.33333333  0.33333333  0.42241956
   0.33333333  0.33333333  0.59104409
   0.33333333  0.33333333  0.81824718
  -0.00000000  0.00000000  0.74110930
   0.00000000  0.00000000  0.89541530
Direct configuration=    84
  -0.00000000  0.00000000  0.50676823
   0.33333333  0.33333333  0.42242242
   0.33333333  0.33333333  0.59104874
   0.33333333  0.33333333  0.81824409
  -0.00000000  0.00000000  0.74110561
   0.00000000  0.00000000  0.89541090
Direct configuration=    85
  -0.00000000  0.00000000  0.50676627
   0.33333333  0.33333333  0.42242175
   0.33333333  0.33333333  0.59104501
   0.33333333  0.33333333  0.81824692
  -0.00000000  0.00000000  0.74110760
   0.00000000  0.00000000  0.89541243
Direct configuration=    86
  -0.00000000  0.00000000  0.50676734
   0.33333333  0.33333333  0.42242305
   0.33333333  0.33333333  0.59104504
   0.33333333  0.33333333  0.81824413
  -0.00000000  0.00000000  0.74110776
   0.00000000  0.00000000  0.89541267
Direct configuration=    87
  -0.00000000  0.00000000  0.50676748
   0.33333333  0.33333333  0.42242362
   0.33333333  0.33333333  0.59104464
   0.33333333  0.33333333  0.81824528
  -0.00000000  0.00000000  0.74110707
   0.00000000  0.00000000  0.89541192
Direct configuration=    88
  -0.00000000  0.00000000  0.50676736
   0.33333333  0.33333333  0.42242374
   0.33333333  0.33333333  0.59104643
   0.33333333  0.33333333  0.81824421
  -0.00000000  0.00000000  0.74110671
   0.00000000  0.00000000  0.89541155
Direct configuration=    89
  -0.00000000  0.00000000  0.50676835
   0.33333333  0.33333333  0.42242391
   0.33333333  0.33333333  0.59104636
   0.33333333  0.33333333  0.81824400
  -0.00000000  0.00000000  0.74110628
   0.00000000  0.00000000  0.89541109
Direct configuration=    90
  -0.00000000  0.00000000  0.50676812
   0.33333333  0.33333333  0.42242443
   0.33333333  0.33333333  0.59104694
   0.33333333  0.33333333  0.81824389
  -0.00000000  0.00000000  0.74110592
   0.00000000  0.00000000  0.89541070
Direct configuration=    91
  -0.00000000  0.00000000  0.50676805
   0.33333333  0.33333333  0.42242446
   0.33333333  0.33333333  0.59104606
   0.33333333  0.33333333  0.81824396
  -0.00000000  0.00000000  0.74110634
   0.00000000  0.00000000  0.89541113
Direct configuration=    92
  -0.00000000  0.00000000  0.50676950
   0.33333333  0.33333333  0.42242513
   0.33333333  0.33333333  0.59104608
   0.33333333  0.33333333  0.81824385
  -0.00000000  0.00000000  0.74110536
   0.00000000  0.00000000  0.89541008
Direct configuration=    93
  -0.00000000  0.00000000  0.50676907
   0.33333333  0.33333333  0.42242566
   0.33333333  0.33333333  0.59104594
   0.33333333  0.33333333  0.81824317
  -0.00000000  0.00000000  0.74110571
   0.00000000  0.00000000  0.89541045
Direct configuration=    94
  -0.00000000  0.00000000  0.50676908
   0.33333333  0.33333333  0.42242539
   0.33333333  0.33333333  0.59104803
   0.33333333  0.33333333  0.81824282
  -0.00000000  0.00000000  0.74110496
   0.00000000  0.00000000  0.89540971
Direct configuration=    95
  -0.00000000  0.00000000  0.50676940
   0.33333333  0.33333333  0.42242581
   0.33333333  0.33333333  0.59104565
   0.33333333  0.33333333  0.81824350
  -0.00000000  0.00000000  0.74110544
   0.00000000  0.00000000  0.89541020
Direct configuration=    96
  -0.00000000  0.00000000  0.50676943
   0.33333333  0.33333333  0.42242669
   0.33333333  0.33333333  0.59104509
   0.33333333  0.33333333  0.81824246
  -0.00000000  0.00000000  0.74110578
   0.00000000  0.00000000  0.89541055
Direct configuration=    97
  -0.00000000  0.00000000  0.50676955
   0.33333333  0.33333333  0.42242667
   0.33333333  0.33333333  0.59104480
   0.33333333  0.33333333  0.81824333
  -0.00000000  0.00000000  0.74110544
   0.00000000  0.00000000  0.89541021
Direct configuration=    98
  -0.00000000  0.00000000  0.50676909
   0.33333333  0.33333333  0.42242582
   0.33333333  0.33333333  0.59104840
   0.33333333  0.33333333  0.81824237
  -0.00000000  0.00000000  0.74110479
   0.00000000  0.00000000  0.89540954
Direct configuration=    99
  -0.00000000  0.00000000  0.50676943
   0.33333333  0.33333333  0.42242681
   0.33333333  0.33333333  0.59104368
   0.33333333  0.33333333  0.81824338
  -0.00000000  0.00000000  0.74110596
   0.00000000  0.00000000  0.89541074
Direct configuration=   100
  -0.00000000  0.00000000  0.50676926
   0.33333333  0.33333333  0.42242765
   0.33333333  0.33333333  0.59104081
   0.33333333  0.33333333  0.81824402
  -0.00000000  0.00000000  0.74110669
   0.00000000  0.00000000  0.89541158
Direct configuration=   101
  -0.00000000  0.00000000  0.50676940
   0.33333333  0.33333333  0.42242760
   0.33333333  0.33333333  0.59104127
   0.33333333  0.33333333  0.81824383
  -0.00000000  0.00000000  0.74110651
   0.00000000  0.00000000  0.89541139
Direct configuration=   102
  -0.00000000  0.00000000  0.50676941
   0.33333333  0.33333333  0.42242784
   0.33333333  0.33333333  0.59103963
   0.33333333  0.33333333  0.81824411
  -0.00000000  0.00000000  0.74110705
   0.00000000  0.00000000  0.89541195
Direct configuration=   103
  -0.00000000  0.00000000  0.50676946
   0.33333333  0.33333333  0.42242624
   0.33333333  0.33333333  0.59104796
   0.33333333  0.33333333  0.81824213
  -0.00000000  0.00000000  0.74110470
   0.00000000  0.00000000  0.89540952
Direct configuration=   104
  -0.00000000  0.00000000  0.50676515
   0.33333333  0.33333333  0.42242801
   0.33333333  0.33333333  0.59103385
   0.33333333  0.33333333  0.81824992
  -0.00000000  0.00000000  0.74110908
   0.00000000  0.00000000  0.89541399
Direct configuration=   105
  -0.00000000  0.00000000  0.50676379
   0.33333333  0.33333333  0.42242709
   0.33333333  0.33333333  0.59102935
   0.33333333  0.33333333  0.81825135
  -0.00000000  0.00000000  0.74111170
   0.00000000  0.00000000  0.89541671
Direct configuration=   106
  -0.00000000  0.00000000  0.50677419
   0.33333333  0.33333333  0.42243016
   0.33333333  0.33333333  0.59105150
   0.33333333  0.33333333  0.81823860
  -0.00000000  0.00000000  0.74110064
   0.00000000  0.00000000  0.89540491
Direct configuration=   107
  -0.00000000  0.00000000  0.50677487
   0.33333333  0.33333333  0.42242808
   0.33333333  0.33333333  0.59105700
   0.33333333  0.33333333  0.81823444
  -0.00000000  0.00000000  0.74110206
   0.00000000  0.00000000  0.89540355
Direct configuration=   108
  -0.00000000  0.00000000  0.50677284
   0.33333333  0.33333333  0.42242668
   0.33333333  0.33333333  0.59105116
   0.33333333  0.33333333  0.81824114
  -0.00000000  0.00000000  0.74110232
   0.00000000  0.00000000  0.89540585
Direct configuration=   109
  -0.00000000  0.00000000  0.50677333
   0.33333333  0.33333333  0.42242849
   0.33333333  0.33333333  0.59106736
   0.33333333  0.33333333  0.81823739
  -0.00000000  0.00000000  0.74109778
   0.00000000  0.00000000  0.89539565
Direct configuration=   110
  -0.00000000  0.00000000  0.50678054
   0.33333333  0.33333333  0.42242970
   0.33333333  0.33333333  0.59106891
   0.33333333  0.33333333  0.81823116
  -0.00000000  0.00000000  0.74109584
   0.00000000  0.00000000  0.89539385
Direct configuration=   111
  -0.00000000  0.00000000  0.50678419
   0.33333333  0.33333333  0.42243456
   0.33333333  0.33333333  0.59107410
   0.33333333  0.33333333  0.81822626
  -0.00000000  0.00000000  0.74109182
   0.00000000  0.00000000  0.89538906
Direct configuration=   112
  -0.00000000  0.00000000  0.50681078
   0.33333333  0.33333333  0.42246130
   0.33333333  0.33333333  0.59109981
   0.33333333  0.33333333  0.81819939
  -0.00000000  0.00000000  0.74106653
   0.00000000  0.00000000  0.89536218
Direct configuration=   113
  -0.00000000  0.00000000  0.50681324
   0.33333333  0.33333333  0.42246005
   0.33333333  0.33333333  0.59109802
   0.33333333  0.33333333  0.81819996
  -0.00000000  0.00000000  0.74106634
   0.00000000  0.00000000  0.89536239
Direct configuration=   114
  -0.00000000  0.00000000  0.50681291
   0.33333333  0.33333333  0.42246187
   0.33333333  0.33333333  0.59109974
   0.33333333  0.33333333  0.81819920
  -0.00000000  0.00000000  0.74106523
   0.00000000  0.00000000  0.89536105
Direct configuration=   115
  -0.00000000  0.00000000  0.50681407
   0.33333333  0.33333333  0.42246291
   0.33333333  0.33333333  0.59110060
   0.33333333  0.33333333  0.81819807
  -0.00000000  0.00000000  0.74106428
   0.00000000  0.00000000  0.89536006
Direct configuration=   116
  -0.00000000  0.00000000  0.50681448
   0.33333333  0.33333333  0.42246366
   0.33333333  0.33333333  0.59110130
   0.33333333  0.33333333  0.81819755
  -0.00000000  0.00000000  0.74106365
   0.00000000  0.00000000  0.89535936
Direct configuration=   117
  -0.00000000  0.00000000  0.50681608
   0.33333333  0.33333333  0.42246580
   0.33333333  0.33333333  0.59110332
   0.33333333  0.33333333  0.81819480
  -0.00000000  0.00000000  0.74106218
   0.00000000  0.00000000  0.89535782
Direct configuration=   118
  -0.00000000  0.00000000  0.50681836
   0.33333333  0.33333333  0.42246789
   0.33333333  0.33333333  0.59110527
   0.33333333  0.33333333  0.81819295
  -0.00000000  0.00000000  0.74106001
   0.00000000  0.00000000  0.89535552
Direct configuration=   119
  -0.00000000  0.00000000  0.50682187
   0.33333333  0.33333333  0.42247053
   0.33333333  0.33333333  0.59110777
   0.33333333  0.33333333  0.81819000
  -0.00000000  0.00000000  0.74105721
   0.00000000  0.00000000  0.89535262
Direct configuration=   120
  -0.00000000  0.00000000  0.50682245
   0.33333333  0.33333333  0.42247147
   0.33333333  0.33333333  0.59110866
   0.33333333  0.33333333  0.81818922
  -0.00000000  0.00000000  0.74105641
   0.00000000  0.00000000  0.89535178
Direct configuration=   121
  -0.00000000  0.00000000  0.50682434
   0.33333333  0.33333333  0.42247320
   0.33333333  0.33333333  0.59111028
   0.33333333  0.33333333  0.81818773
  -0.00000000  0.00000000  0.74105459
   0.00000000  0.00000000  0.89534986
Direct configuration=   122
  -0.00000000  0.00000000  0.50682763
   0.33333333  0.33333333  0.42247623
   0.33333333  0.33333333  0.59111312
   0.33333333  0.33333333  0.81818474
  -0.00000000  0.00000000  0.74105160
   0.00000000  0.00000000  0.89534669
Direct configuration=   123
  -0.00000000  0.00000000  0.50682685
   0.33333333  0.33333333  0.42247566
   0.33333333  0.33333333  0.59111260
   0.33333333  0.33333333  0.81818520
  -0.00000000  0.00000000  0.74105226
   0.00000000  0.00000000  0.89534743
Direct configuration=   124
  -0.00000000  0.00000000  0.50682758
   0.33333333  0.33333333  0.42247642
   0.33333333  0.33333333  0.59111331
   0.33333333  0.33333333  0.81818415
  -0.00000000  0.00000000  0.74105171
   0.00000000  0.00000000  0.89534683
Direct configuration=   125
  -0.00000000  0.00000000  0.50682750
   0.33333333  0.33333333  0.42247633
   0.33333333  0.33333333  0.59111321
   0.33333333  0.33333333  0.81818460
  -0.00000000  0.00000000  0.74105162
   0.00000000  0.00000000  0.89534674
Direct configuration=   126
  -0.00000000  0.00000000  0.50682782
   0.33333333  0.33333333  0.42247633
   0.33333333  0.33333333  0.59111320
   0.33333333  0.33333333  0.81818433
  -0.00000000  0.00000000  0.74105161
   0.00000000  0.00000000  0.89534671
Direct configuration=   127
  -0.00000000  0.00000000  0.50682771
   0.33333333  0.33333333  0.42247646
   0.33333333  0.33333333  0.59111333
   0.33333333  0.33333333  0.81818430
  -0.00000000  0.00000000  0.74105155
   0.00000000  0.00000000  0.89534665
Direct configuration=   128
  -0.00000000  0.00000000  0.50682776
   0.33333333  0.33333333  0.42247664
   0.33333333  0.33333333  0.59111351
   0.33333333  0.33333333  0.81818427
  -0.00000000  0.00000000  0.74105137
   0.00000000  0.00000000  0.89534645
Direct configuration=   129
  -0.00000000  0.00000000  0.50682783
   0.33333333  0.33333333  0.42247676
   0.33333333  0.33333333  0.59111362
   0.33333333  0.33333333  0.81818414
  -0.00000000  0.00000000  0.74105127
   0.00000000  0.00000000  0.89534637
Direct configuration=   130
  -0.00000000  0.00000000  0.50682795
   0.33333333  0.33333333  0.42247692
   0.33333333  0.33333333  0.59111377
   0.33333333  0.33333333  0.81818408
  -0.00000000  0.00000000  0.74105112
   0.00000000  0.00000000  0.89534616
Direct configuration=   131
  -0.00000000  0.00000000  0.50682872
   0.33333333  0.33333333  0.42247735
   0.33333333  0.33333333  0.59111418
   0.33333333  0.33333333  0.81818362
  -0.00000000  0.00000000  0.74105051
   0.00000000  0.00000000  0.89534561
Direct configuration=   132
  -0.00000000  0.00000000  0.50682824
   0.33333333  0.33333333  0.42247691
   0.33333333  0.33333333  0.59111375
   0.33333333  0.33333333  0.81818396
  -0.00000000  0.00000000  0.74105108
   0.00000000  0.00000000  0.89534607
Direct configuration=   133
  -0.00000000  0.00000000  0.50682853
   0.33333333  0.33333333  0.42247730
   0.33333333  0.33333333  0.59111413
   0.33333333  0.33333333  0.81818342
  -0.00000000  0.00000000  0.74105078
   0.00000000  0.00000000  0.89534583
Direct configuration=   134
  -0.00000000  0.00000000  0.50682851
   0.33333333  0.33333333  0.42247727
   0.33333333  0.33333333  0.59111409
   0.33333333  0.33333333  0.81818366
  -0.00000000  0.00000000  0.74105072
   0.00000000  0.00000000  0.89534574
Direct configuration=   135
  -0.00000000  0.00000000  0.50682872
   0.33333333  0.33333333  0.42247727
   0.33333333  0.33333333  0.59111408
   0.33333333  0.33333333  0.81818352
  -0.00000000  0.00000000  0.74105072
   0.00000000  0.00000000  0.89534568
Direct configuration=   136
  -0.00000000  0.00000000  0.50682864
   0.33333333  0.33333333  0.42247736
   0.33333333  0.33333333  0.59111418
   0.33333333  0.33333333  0.81818348
  -0.00000000  0.00000000  0.74105066
   0.00000000  0.00000000  0.89534567
Direct configuration=   137
  -0.00000000  0.00000000  0.50682872
   0.33333333  0.33333333  0.42247751
   0.33333333  0.33333333  0.59111433
   0.33333333  0.33333333  0.81818341
  -0.00000000  0.00000000  0.74105046
   0.00000000  0.00000000  0.89534557
Direct configuration=   138
  -0.00000000  0.00000000  0.50682880
   0.33333333  0.33333333  0.42247760
   0.33333333  0.33333333  0.59111441
   0.33333333  0.33333333  0.81818334
  -0.00000000  0.00000000  0.74105046
   0.00000000  0.00000000  0.89534539
Direct configuration=   139
  -0.00000000  0.00000000  0.50682881
   0.33333333  0.33333333  0.42247763
   0.33333333  0.33333333  0.59111443
   0.33333333  0.33333333  0.81818325
  -0.00000000  0.00000000  0.74105041
   0.00000000  0.00000000  0.89534547
Direct configuration=   140
  -0.00000000  0.00000000  0.50682912
   0.33333333  0.33333333  0.42247749
   0.33333333  0.33333333  0.59111430
   0.33333333  0.33333333  0.81818315
  -0.00000000  0.00000000  0.74105040
   0.00000000  0.00000000  0.89534554
Direct configuration=   141
  -0.00000000  0.00000000  0.50682885
   0.33333333  0.33333333  0.42247758
   0.33333333  0.33333333  0.59111439
   0.33333333  0.33333333  0.81818323
  -0.00000000  0.00000000  0.74105044
   0.00000000  0.00000000  0.89534552
Direct configuration=   142
  -0.00000000  0.00000000  0.50682920
   0.33333333  0.33333333  0.42247788
   0.33333333  0.33333333  0.59111466
   0.33333333  0.33333333  0.81818325
  -0.00000000  0.00000000  0.74105003
   0.00000000  0.00000000  0.89534497
Direct configuration=   143
  -0.00000000  0.00000000  0.50682908
   0.33333333  0.33333333  0.42247786
   0.33333333  0.33333333  0.59111465
   0.33333333  0.33333333  0.81818293
  -0.00000000  0.00000000  0.74105022
   0.00000000  0.00000000  0.89534526
Direct configuration=   144
  -0.00000000  0.00000000  0.50682936
   0.33333333  0.33333333  0.42247788
   0.33333333  0.33333333  0.59111467
   0.33333333  0.33333333  0.81818289
  -0.00000000  0.00000000  0.74105006
   0.00000000  0.00000000  0.89534513
Direct configuration=   145
  -0.00000000  0.00000000  0.50682925
   0.33333333  0.33333333  0.42247797
   0.33333333  0.33333333  0.59111476
   0.33333333  0.33333333  0.81818291
  -0.00000000  0.00000000  0.74105005
   0.00000000  0.00000000  0.89534508
Direct configuration=   146
  -0.00000000  0.00000000  0.50682935
   0.33333333  0.33333333  0.42247810
   0.33333333  0.33333333  0.59111488
   0.33333333  0.33333333  0.81818273
  -0.00000000  0.00000000  0.74104998
   0.00000000  0.00000000  0.89534496
Direct configuration=   147
  -0.00000000  0.00000000  0.50682938
   0.33333333  0.33333333  0.42247811
   0.33333333  0.33333333  0.59111488
   0.33333333  0.33333333  0.81818290
  -0.00000000  0.00000000  0.74104987
   0.00000000  0.00000000  0.89534487
Direct configuration=   148
  -0.00000000  0.00000000  0.50682948
   0.33333333  0.33333333  0.42247823
   0.33333333  0.33333333  0.59111500
   0.33333333  0.33333333  0.81818268
  -0.00000000  0.00000000  0.74104978
   0.00000000  0.00000000  0.89534483
Direct configuration=   149
  -0.00000000  0.00000000  0.50682981
   0.33333333  0.33333333  0.42247819
   0.33333333  0.33333333  0.59111495
   0.33333333  0.33333333  0.81818269
  -0.00000000  0.00000000  0.74104973
   0.00000000  0.00000000  0.89534464
Direct configuration=   150
  -0.00000000  0.00000000  0.50682959
   0.33333333  0.33333333  0.42247830
   0.33333333  0.33333333  0.59111507
   0.33333333  0.33333333  0.81818267
  -0.00000000  0.00000000  0.74104971
   0.00000000  0.00000000  0.89534467
Direct configuration=   151
  -0.00000000  0.00000000  0.50682958
   0.33333333  0.33333333  0.42247831
   0.33333333  0.33333333  0.59111507
   0.33333333  0.33333333  0.81818270
  -0.00000000  0.00000000  0.74104970
   0.00000000  0.00000000  0.89534465
Direct configuration=   152
  -0.00000000  0.00000000  0.50682999
   0.33333333  0.33333333  0.42247848
   0.33333333  0.33333333  0.59111524
   0.33333333  0.33333333  0.81818206
  -0.00000000  0.00000000  0.74104961
   0.00000000  0.00000000  0.89534462
Direct configuration=   153
  -0.00000000  0.00000000  0.50682974
   0.33333333  0.33333333  0.42247855
   0.33333333  0.33333333  0.59111530
   0.33333333  0.33333333  0.81818247
  -0.00000000  0.00000000  0.74104948
   0.00000000  0.00000000  0.89534446
Direct configuration=   154
  -0.00000000  0.00000000  0.50683025
   0.33333333  0.33333333  0.42247848
   0.33333333  0.33333333  0.59111523
   0.33333333  0.33333333  0.81818241
  -0.00000000  0.00000000  0.74104935
   0.00000000  0.00000000  0.89534427
Direct configuration=   155
  -0.00000000  0.00000000  0.50683001
   0.33333333  0.33333333  0.42247861
   0.33333333  0.33333333  0.59111536
   0.33333333  0.33333333  0.81818227
  -0.00000000  0.00000000  0.74104940
   0.00000000  0.00000000  0.89534435
Direct configuration=   156
  -0.00000000  0.00000000  0.50683019
   0.33333333  0.33333333  0.42247878
   0.33333333  0.33333333  0.59111551
   0.33333333  0.33333333  0.81818213
  -0.00000000  0.00000000  0.74104921
   0.00000000  0.00000000  0.89534418
