Bilayer TiS2/TiS2 3R (relaxed monolayers
   1.00000000000000     
     3.3035310000000000    0.0000000000000000    0.0000000000000000
     1.6517655000000000    2.8609417681894103    0.0000000000000000
     0.0000000000000000    0.0000000000000000   20.0000000000000000
   Ti   S 
     2     4
Direct
    -0.0000000000000000    0.0000000000000000    0.5036355995316932
     0.3333333333333357    0.3333333333333357    0.7983022530194235
     0.3333333333333357    0.3333333333333357    0.4279011507455805
     0.3333333333333357    0.3333333333333357    0.5788526220969663
     0.6666666666666714    0.6666666666666714    0.7229835834008816
     0.6666666666666714    0.6666666666666714    0.8738802820943912
 
  0.00000000E+00  0.00000000E+00  0.00000000E+00
  0.00000000E+00  0.00000000E+00  0.00000000E+00
  0.00000000E+00  0.00000000E+00  0.00000000E+00
  0.00000000E+00  0.00000000E+00  0.00000000E+00
  0.00000000E+00  0.00000000E+00  0.00000000E+00
  0.00000000E+00  0.00000000E+00  0.00000000E+00
