Bilayer WS2/WSe2 2H (relaxed monolayers)
   1.00000000000000     
     3.2191250000000000    0.0000000000000000    0.0000000000000000
     1.6095625000000000    2.7878440279575809    0.0000000000000000
     0.0000000000000000    0.0000000000000000   20.0000000000000000
   W    S    Se
     2     2     2
Direct
     0.0000000000000000   -0.0000000000000000    0.5000423389276756
     0.3333333333333357    0.3333333333333357    0.8127111097305292
     0.3333333333333357    0.3333333333333357    0.4223038892590159
     0.3333333333333357    0.3333333333333357    0.5777218990779918
    -0.0000000000000000   -0.0000000000000000    0.7271623853473080
    -0.0000000000000000    0.0000000000000000    0.8982882018336112
 
  0.00000000E+00  0.00000000E+00  0.00000000E+00
  0.00000000E+00  0.00000000E+00  0.00000000E+00
  0.00000000E+00  0.00000000E+00  0.00000000E+00
  0.00000000E+00  0.00000000E+00  0.00000000E+00
  0.00000000E+00  0.00000000E+00  0.00000000E+00
  0.00000000E+00  0.00000000E+00  0.00000000E+00
