Bilayer TiS2/TiS2 2H (relaxed monolayers
    1.000000000000000     
     3.3481522704323052    0.0000000000000000    0.0000000000000000
     1.6740761352161526    2.8995849219329219    0.0000000000000000
     0.0000000000000000    0.0000000000000000   20.0000000000000000
  Ti              S             
     2     4
Direct
     0.0000000000000000    0.0000000000000000    0.5032717561045346
     0.3333333333333357    0.3333333333333357    0.7985800741917941
     0.3333333333333357    0.3333333333333357    0.4282264483722599
     0.3333333333333357    0.3333333333333357    0.5779911924450172
     0.0000000000000000   -0.0000000000000000    0.7238606378513186
     0.0000000000000000   -0.0000000000000000    0.8736253819240630
 
  0.00000000E+00  0.00000000E+00  0.00000000E+00
  0.00000000E+00  0.00000000E+00  0.00000000E+00
  0.00000000E+00  0.00000000E+00  0.00000000E+00
  0.00000000E+00  0.00000000E+00  0.00000000E+00
  0.00000000E+00  0.00000000E+00  0.00000000E+00
  0.00000000E+00  0.00000000E+00  0.00000000E+00
