Bilayer MoTe2/MoTe2 3R (relaxed monolaye
   1.00000000000000     
     3.5029591714873640    0.0000000000000000    0.0000000000000000
     1.7514795857436820    3.0336516309277468    0.0000000000000000
     0.0000000000000000    0.0000000000000000   20.0000000000000000
   Mo   Te
     2     4
Direct
    -0.0000000000000000   -0.0000000000000000    0.4907460072945937
     0.3333333333333357    0.3333333333333357    0.8343638995261453
     0.3333333333333357    0.3333333333333357    0.3998099307599359
     0.3333333333333357    0.3333333333333357    0.5814759451943396
     0.6666666666666714    0.6666666666666714    0.7434437061186824
     0.6666666666666714    0.6666666666666714    0.9251605111062875
 
  0.00000000E+00  0.00000000E+00  0.00000000E+00
  0.00000000E+00  0.00000000E+00  0.00000000E+00
  0.00000000E+00  0.00000000E+00  0.00000000E+00
  0.00000000E+00  0.00000000E+00  0.00000000E+00
  0.00000000E+00  0.00000000E+00  0.00000000E+00
  0.00000000E+00  0.00000000E+00  0.00000000E+00
