Bilayer WSe2/WSe2 3R (relaxed monolayers
   1.00000000000000     
     3.3199329218010143    0.0000000000000000    0.0000000000000000
     1.6599664609005071    2.8751462491399744    0.0000000000000000
     0.0000000000000000    0.0000000000000000   20.0000000000000000
   W    Se
     2     4
Direct
     0.0000000000000000    0.0000000000000000    0.5034416206807382
     0.3333333333333357    0.3333333333333357    0.8216027600307231
     0.3333333333333357    0.3333333333333357    0.4197180391080783
     0.3333333333333357    0.3333333333333357    0.5869874489703143
     0.6666666666666714    0.6666666666666714    0.7379552859037876
     0.6666666666666714    0.6666666666666714    0.9052948453065728
 
  0.00000000E+00  0.00000000E+00  0.00000000E+00
  0.00000000E+00  0.00000000E+00  0.00000000E+00
  0.00000000E+00  0.00000000E+00  0.00000000E+00
  0.00000000E+00  0.00000000E+00  0.00000000E+00
  0.00000000E+00  0.00000000E+00  0.00000000E+00
  0.00000000E+00  0.00000000E+00  0.00000000E+00
