Bilayer structure
 1.0000000000000000
  3.3155139999999999   0.0000000000000000   0.0000000000000000
  1.6577569999999999   2.8713193506029588   0.0000000000000000
  0.0000000000000000   0.0000000000000000  20.0000000000000000
   W   S   Te
     2     2     2
Direct
  0.0000000000000000   0.0000000000000000   0.5000000000000000
  0.3333333333333333   0.3333333333333333   0.8245391499999999
  0.3333333333333333   0.3333333333333333   0.4149554250000000
  0.3333333333333333   0.3333333333333333   0.5850445750000000
  0.0000000000000000   0.0000000000000000   0.7394945749999999
  0.0000000000000000   0.0000000000000000   0.9095837249999998
