Bilayer structure
 1.0000000000000000
  3.3228219999999999   0.0000000000000000   0.0000000000000000
  1.6614110000000000   2.8776482642538159   0.0000000000000000
  0.0000000000000000   0.0000000000000000  20.0000000000000000
   Mo   S   W   Te
     1     2     1     2
Direct
  0.0000000000000000   0.0000000000000000   0.5000000000000000
  0.3333333333333333   0.3333333333333333   0.4152005750000000
  0.3333333333333333   0.3333333333333333   0.5847994250000000
  0.3333333333333333   0.3333333333333333   0.8236988500000000
  0.0000000000000000   0.0000000000000000   0.7388994250000001
  0.0000000000000000   0.0000000000000000   0.9084982750000001
