Bilayer MoSe2/MoTe2 2H (relaxed monolaye
   1.00000000000000     
     3.3885969999999999    0.0000000000000000    0.0000000000000000
     1.6942984999999999    2.9346110851877372    0.0000000000000000
     0.0000000000000000    0.0000000000000000   20.0000000000000000
   Mo   Se   Te
     2     2     2
Direct
     0.0000000000000000    0.0000000000000000    0.4970723884547400
     0.3333333333333357    0.3333333333333357    0.8279101410557629
     0.3333333333333357    0.3333333333333357    0.4151001779660929
     0.3333333333333357    0.3333333333333357    0.5791440533391161
     0.0000000000000000   -0.0000000000000000    0.7347444844647315
     0.0000000000000000    0.0000000000000000    0.9210287547195712
 
  0.00000000E+00  0.00000000E+00  0.00000000E+00
  0.00000000E+00  0.00000000E+00  0.00000000E+00
  0.00000000E+00  0.00000000E+00  0.00000000E+00
  0.00000000E+00  0.00000000E+00  0.00000000E+00
  0.00000000E+00  0.00000000E+00  0.00000000E+00
  0.00000000E+00  0.00000000E+00  0.00000000E+00
