In2 Se2                                 
   1.00000000000000     
     4.0417341674623426    0.0000000000000000    0.0000000000000000
     2.0208670837311713    3.5002444643659372    0.0000000000000000
     0.0000000000000000    0.0000000000000000   20.0000000000000000
   In   Se
     2     2
Direct
    -0.0000000000000000   -0.0000000000000000    0.4302916434981004
    -0.0000000000000000   -0.0000000000000000    0.5697083565019005
     0.3333333333333357    0.3333333333333357    0.3651158697341381
     0.3333333333333357    0.3333333333333357    0.6348841302658613
 
  0.00000000E+00  0.00000000E+00  0.00000000E+00
  0.00000000E+00  0.00000000E+00  0.00000000E+00
  0.00000000E+00  0.00000000E+00  0.00000000E+00
  0.00000000E+00  0.00000000E+00  0.00000000E+00
