Bilayer structure
 1.0000000000000000
  3.2182580000000001   0.0000000000000000   0.0000000000000000
  1.6091290000000000   2.7870931839324999   0.0000000000000000
  0.0000000000000000   0.0000000000000000  20.0000000000000000
   Mo   S   W   Se
     1     2     1     2
Direct
  0.0000000000000000   0.0000000000000000   0.5000000000000000
  0.3333333333333333   0.3333333333333333   0.4193413215754508
  0.3333333333333333   0.3333333333333333   0.5806586784245492
  0.3333333333333333   0.3333333333333333   0.8105673568490983
  0.0000000000000000   0.0000000000000000   0.7299086784245492
  0.0000000000000000   0.0000000000000000   0.8912260352736476
