cpu-bind=MASK - c019, task  0  0 [547696]: mask 0xfffffffffff0 set
 running  264 mpi-ranks, with    1 threads/rank, on    6 nodes
 distrk:  each k-point on   44 cores,    6 groups
 distr:  one band on    4 cores,   11 groups
 vasp.6.5.1 10Mar25 (build Aug 29 2025 00:30:47) complex                        
  
 POSCAR found type information on POSCAR MoS 
 POSCAR found :  2 types and       3 ions
 scaLAPACK will be used
 -----------------------------------------------------------------------------
|                                                                             |
|               ----> ADVICE to this user running VASP <----                  |
|                                                                             |
|     You have a (more or less) 'small supercell' and for smaller cells       |
|     it is recommended to use the reciprocal-space projection scheme!        |
|     The real-space optimization is not efficient for small cells and it     |
|     is also less accurate ...                                               |
|     Therefore, set LREAL=.FALSE. in the INCAR file.                         |
|                                                                             |
 -----------------------------------------------------------------------------

 LDA part: xc-table for (Slater+PW92), standard interpolation
 POSCAR, INCAR and KPOINTS ok, starting setup
 FFT: planning ... GRIDC
 FFT: planning ... GRID_SOFT
 FFT: planning ... GRID
 WAVECAR not read
 entering main loop
       N       E                     dE             d eps       ncg     rms          rms(c)
DAV:   1     0.140588320955E+03    0.14059E+03   -0.13670E+04  1518   0.939E+02
DAV:   2    -0.148273808161E+02   -0.15542E+03   -0.14973E+03  1551   0.213E+02
DAV:   3    -0.232615311884E+02   -0.84342E+01   -0.83602E+01  1606   0.470E+01
DAV:   4    -0.233906614012E+02   -0.12913E+00   -0.12906E+00  1518   0.626E+00
DAV:   5    -0.233940111405E+02   -0.33497E-02   -0.33496E-02  1661   0.948E-01    0.232E+01
DAV:   6    -0.222787730419E+02    0.11152E+01   -0.79229E+00  1232   0.183E+01    0.878E+00
DAV:   7    -0.220611056940E+02    0.21767E+00   -0.31680E+00  1529   0.119E+01    0.578E+00
DAV:   8    -0.218555338507E+02    0.20557E+00   -0.68470E-01  1540   0.560E+00    0.151E+00
DAV:   9    -0.218500369915E+02    0.54969E-02   -0.34307E-02  1771   0.106E+00    0.597E-01
DAV:  10    -0.218483339281E+02    0.17031E-02   -0.44869E-03  1727   0.438E-01    0.110E-01
DAV:  11    -0.218475319439E+02    0.80198E-03   -0.46065E-04  1705   0.114E-01    0.497E-02
DAV:  12    -0.218467491587E+02    0.78279E-03   -0.24169E-04  1606   0.615E-02    0.379E-02
DAV:  13    -0.218460441962E+02    0.70496E-03   -0.42827E-04  1562   0.875E-02    0.577E-02
DAV:  14    -0.218455693168E+02    0.47488E-03   -0.34255E-04  1364   0.790E-02    0.604E-02
DAV:  15    -0.218450707249E+02    0.49859E-03   -0.17167E-04  1397   0.564E-02    0.336E-02
DAV:  16    -0.218455355150E+02   -0.46479E-03   -0.97289E-05  1419   0.395E-02    0.263E-02
DAV:  17    -0.218459489041E+02   -0.41339E-03   -0.48645E-05  1518   0.285E-02    0.275E-02
DAV:  18    -0.218465040172E+02   -0.55511E-03   -0.11218E-04  1507   0.301E-02    0.265E-02
DAV:  19    -0.218466001136E+02   -0.96096E-04   -0.63731E-06  1518   0.156E-02    0.995E-03
DAV:  20    -0.218466886600E+02   -0.88546E-04   -0.93837E-06  1474   0.833E-03    0.442E-03
DAV:  21    -0.218467035504E+02   -0.14890E-04   -0.54636E-07  1408   0.308E-03    0.272E-03
DAV:  22    -0.218467066537E+02   -0.31033E-05   -0.12636E-07  1221   0.180E-03    0.109E-03
DAV:  23    -0.218467076422E+02   -0.98856E-06   -0.27653E-08  1111   0.788E-04
   1 F= -.22782123E+02 E0= -.22782123E+02  d E =-.227821E+02
 BRION: g(F)=  0.332E-02 g(S)=  0.000E+00
 bond charge predicted
       N       E                     dE             d eps       ncg     rms          rms(c)
DAV:   1    -0.218462370739E+02    0.46958E-03   -0.16061E-01  1210   0.163E+00    0.409E-01
DAV:   2    -0.218467792153E+02   -0.54214E-03   -0.68784E-03  1573   0.418E-01    0.193E-01
DAV:   3    -0.218467685945E+02    0.10621E-04   -0.13610E-04  1562   0.785E-02    0.103E-01
DAV:   4    -0.218467767592E+02   -0.81647E-05   -0.96554E-05  1595   0.581E-02    0.342E-02
DAV:   5    -0.218467649152E+02    0.11844E-04   -0.36839E-05  1606   0.392E-02    0.817E-03
DAV:   6    -0.218467643107E+02    0.60452E-06   -0.18597E-06  1529   0.802E-03
   2 F= -.22783994E+02 E0= -.22783994E+02  d E =-.187100E-02
 BRION: g(F)=  0.331E-04 g(S)=  0.000E+00 retain N=  1 mean eig= 1.11
 eig:   1.111
 bond charge predicted
       N       E                     dE             d eps       ncg     rms          rms(c)
DAV:   1    -0.218465789337E+02    0.18598E-03   -0.20002E-03  1199   0.182E-01    0.477E-02
DAV:   2    -0.218465864204E+02   -0.74867E-05   -0.90150E-05  1694   0.473E-02    0.216E-02
DAV:   3    -0.218465863596E+02    0.60831E-07   -0.16317E-06  1397   0.854E-03
   3 F= -.22784017E+02 E0= -.22784017E+02  d E =-.232389E-04
 BRION: g(F)=  0.618E-06 g(S)=  0.000E+00 retain N=  1 mean eig= 1.29
 eig:   1.287
 bond charge predicted
       N       E                     dE             d eps       ncg     rms          rms(c)
DAV:   1    -0.218465550418E+02    0.31379E-04   -0.44872E-05  1331   0.279E-02    0.862E-03
DAV:   2    -0.218465552114E+02   -0.16956E-06   -0.22218E-06  1826   0.815E-03
   4 F= -.22784018E+02 E0= -.22784018E+02  d E =-.685557E-06
 BRION: g(F)=  0.973E-08 g(S)=  0.000E+00 retain N=  1 mean eig= 1.14
 eig:   1.143
 bond charge predicted
       N       E                     dE             d eps       ncg     rms          rms(c)
DAV:   1    -0.218465589976E+02   -0.39558E-05   -0.14176E-06  1430   0.633E-03    0.296E-03
DAV:   2    -0.218465589936E+02    0.39754E-08   -0.51479E-07  1397   0.468E-03
   5 F= -.22784018E+02 E0= -.22784018E+02  d E =-.233679E-06
 BRION: g(F)=  0.271E-08 g(S)=  0.000E+00 retain N=  1 mean eig= 0.75
 eig:   0.748
 bond charge predicted
       N       E                     dE             d eps       ncg     rms          rms(c)
DAV:   1    -0.218465578343E+02    0.11633E-05   -0.13536E-07  1199   0.244E-03    0.744E-04
DAV:   2    -0.218465579113E+02   -0.77013E-07   -0.18349E-08  1232   0.775E-04
   6 F= -.22784018E+02 E0= -.22784018E+02  d E =-.143327E-06
 BRION: g(F)=  0.146E-07 g(S)=  0.000E+00 retain N=  1 mean eig= 0.23
 eig:   0.225
 bond charge predicted
       N       E                     dE             d eps       ncg     rms          rms(c)
DAV:   1    -0.218465588600E+02   -0.10257E-05   -0.32446E-08  1199   0.864E-04    0.283E-04
DAV:   2    -0.218465589244E+02   -0.64354E-07   -0.56783E-09  1265   0.442E-04
   7 F= -.22784019E+02 E0= -.22784019E+02  d E =-.156648E-06
 BRION: g(F)=  0.182E-08 g(S)=  0.000E+00 retain N=  1 mean eig= 0.35
 eig:   0.349
 bond charge predicted
       N       E                     dE             d eps       ncg     rms          rms(c)
DAV:   1    -0.218465594682E+02   -0.60819E-06   -0.14800E-08  1177   0.535E-04    0.112E-04
DAV:   2    -0.218465595160E+02   -0.47796E-07   -0.28173E-09  1243   0.292E-04
   8 F= -.22784019E+02 E0= -.22784019E+02  d E =-.122948E-06
 BRION: g(F)=  0.128E-08 g(S)=  0.000E+00 retain N=  1 mean eig= 2.15
 eig:   2.145
 bond charge predicted
       N       E                     dE             d eps       ncg     rms          rms(c)
DAV:   1    -0.218465619810E+02   -0.25128E-05   -0.29467E-07  1485   0.218E-03    0.522E-04
DAV:   2    -0.218465620197E+02   -0.38705E-07   -0.11480E-08  1254   0.574E-04
   9 F= -.22784019E+02 E0= -.22784019E+02  d E =-.899639E-07
 BRION: g(F)=  0.119E-08 g(S)=  0.000E+00 retain N=  1 mean eig= 1.09
 eig:   1.093
 bond charge predicted
       N       E                     dE             d eps       ncg     rms          rms(c)
DAV:   1    -0.218465608676E+02    0.11135E-05   -0.64083E-08  1210   0.111E-03    0.132E-04
DAV:   2    -0.218465609066E+02   -0.38980E-07   -0.64858E-09  1199   0.399E-04
  10 F= -.22784019E+02 E0= -.22784019E+02  d E =-.711010E-07
 BRION: g(F)=  0.177E-08 g(S)=  0.000E+00 retain N=  1 mean eig= 0.49
 eig:   0.492
 bond charge predicted
       N       E                     dE             d eps       ncg     rms          rms(c)
DAV:   1    -0.218465616109E+02   -0.74329E-06   -0.16429E-08  1199   0.570E-04    0.103E-04
DAV:   2    -0.218465616328E+02   -0.21971E-07   -0.16483E-09  1287   0.215E-04
  11 F= -.22784019E+02 E0= -.22784019E+02  d E =-.750400E-07
 BRION: g(F)=  0.267E-09 g(S)=  0.000E+00 retain N=  1 mean eig= 0.35
 eig:   0.354
 bond charge predicted
       N       E                     dE             d eps       ncg     rms          rms(c)
DAV:   1    -0.218465614765E+02    0.13433E-06   -0.15790E-09  1188   0.185E-04    0.605E-05
DAV:   2    -0.218465614859E+02   -0.93651E-08   -0.29029E-10  1254   0.735E-05
  12 F= -.22784019E+02 E0= -.22784019E+02  d E =-.353015E-07
 BRION: g(F)=  0.419E-10 g(S)=  0.000E+00 retain N=  1 mean eig= 0.25
 eig:   0.254
 bond charge predicted
       N       E                     dE             d eps       ncg     rms          rms(c)
DAV:   1    -0.218465615657E+02   -0.89122E-07   -0.57634E-10  1166   0.862E-05    0.542E-05
DAV:   2    -0.218465615724E+02   -0.67180E-08   -0.15369E-10  1276   0.675E-05
  13 F= -.22784019E+02 E0= -.22784019E+02  d E =-.348041E-07
 BRION: g(F)=  0.935E-14 g(S)=  0.000E+00 retain N=  1 mean eig= 0.26
 eig:   0.258
 reached required accuracy - stopping structural energy minimisation
