<?xml version="1.0" encoding="ISO-8859-1"?>
<modeling>
 <generator>
  <i name="program" type="string">vasp </i>
  <i name="version" type="string">6.5.1  </i>
  <i name="subversion" type="string">10Mar25 (build Aug 29 2025 00:30:47) complex                          parallel </i>
  <i name="platform" type="string">LinuxIFC </i>
  <i name="date" type="string">2026 06 01 </i>
  <i name="time" type="string">17:18:04 </i>
 </generator>
 <incar>
  <i type="string" name="SYSTEM">MoS2 relaxation</i>
  <i type="string" name="PREC">Accurate</i>
  <i type="string" name="ALGO">Normal</i>
  <i name="AMIN">      0.01000000</i>
  <i type="int" name="NELM">   200</i>
  <i type="int" name="IBRION">     1</i>
  <i name="EDIFF">      0.00000100</i>
  <i name="EDIFFG">     -0.00010000</i>
  <i type="int" name="NSW">   600</i>
  <i type="int" name="ISIF">     2</i>
  <i name="ENCUT">    520.00000000</i>
  <i type="string" name="LREAL">Auto</i>
  <i type="int" name="ISMEAR">     0</i>
  <i name="SIGMA">      0.05000000</i>
  <i type="logical" name="LWAVE"> F  </i>
  <i type="logical" name="LCHARG"> F  </i>
  <i type="int" name="IVDW">    12</i>
 </incar>
 <primitive_cell>
  <structure name="primitive_cell" >
   <crystal>
    <varray name="basis" >
     <v>       3.19223791       0.00000000       0.00000000 </v>
     <v>       1.59611896       2.76455913       0.00000000 </v>
     <v>       0.00000000       0.00000000      20.00000000 </v>
    </varray>
    <i name="volume">    176.50260910 </i>
    <varray name="rec_basis" >
     <v>       0.31325986      -0.18086066       0.00000000 </v>
     <v>       0.00000000       0.36172133       0.00000000 </v>
     <v>       0.00000000       0.00000000       0.05000000 </v>
    </varray>
   </crystal>
   <varray name="positions" >
    <v>       0.00000000       0.00000000       0.50000000 </v>
    <v>       0.33333333       0.33333333       0.42179317 </v>
    <v>       0.33333333       0.33333333       0.57820683 </v>
   </varray>
  </structure>
  <varray name="primitive_index" >
   <v type="int" >        1 </v>
   <v type="int" >        2 </v>
   <v type="int" >        3 </v>
  </varray>
 </primitive_cell>
 <kpoints>
  <generation param="Gamma">
   <v type="int" name="divisions">      15       15        1 </v>
   <v name="usershift">      0.00000000       0.00000000       0.00000000 </v>
   <v name="genvec1">      0.06666667       0.00000000       0.00000000 </v>
   <v name="genvec2">      0.00000000       0.06666667       0.00000000 </v>
   <v name="genvec3">      0.00000000       0.00000000       1.00000000 </v>
   <v name="shift">      0.00000000       0.00000000       0.00000000 </v>
  </generation>
  <varray name="kpointlist" >
   <v>       0.00000000       0.00000000       0.00000000 </v>
   <v>       0.06666667       0.00000000       0.00000000 </v>
   <v>       0.13333333       0.00000000       0.00000000 </v>
   <v>       0.20000000       0.00000000       0.00000000 </v>
   <v>       0.26666667       0.00000000       0.00000000 </v>
   <v>       0.33333333       0.00000000       0.00000000 </v>
   <v>       0.40000000       0.00000000       0.00000000 </v>
   <v>       0.46666667       0.00000000       0.00000000 </v>
   <v>       0.13333333       0.06666667       0.00000000 </v>
   <v>       0.20000000       0.06666667       0.00000000 </v>
   <v>       0.26666667       0.06666667       0.00000000 </v>
   <v>       0.33333333       0.06666667       0.00000000 </v>
   <v>       0.40000000       0.06666667       0.00000000 </v>
   <v>       0.46666667       0.06666667       0.00000000 </v>
   <v>      -0.46666667       0.06666667       0.00000000 </v>
   <v>       0.26666667       0.13333333       0.00000000 </v>
   <v>       0.33333333       0.13333333       0.00000000 </v>
   <v>       0.40000000       0.13333333       0.00000000 </v>
   <v>       0.46666667       0.13333333       0.00000000 </v>
   <v>      -0.46666667       0.13333333       0.00000000 </v>
   <v>       0.40000000       0.20000000       0.00000000 </v>
   <v>       0.46666667       0.20000000       0.00000000 </v>
   <v>      -0.46666667       0.20000000       0.00000000 </v>
   <v>      -0.40000000       0.20000000       0.00000000 </v>
   <v>      -0.46666667       0.26666667       0.00000000 </v>
   <v>      -0.40000000       0.26666667       0.00000000 </v>
   <v>      -0.33333333       0.33333333       0.00000000 </v>
  </varray>
  <varray name="weights" >
   <v>       0.00444444 </v>
   <v>       0.02666667 </v>
   <v>       0.02666667 </v>
   <v>       0.02666667 </v>
   <v>       0.02666667 </v>
   <v>       0.02666667 </v>
   <v>       0.02666667 </v>
   <v>       0.02666667 </v>
   <v>       0.02666667 </v>
   <v>       0.05333333 </v>
   <v>       0.05333333 </v>
   <v>       0.05333333 </v>
   <v>       0.05333333 </v>
   <v>       0.05333333 </v>
   <v>       0.02666667 </v>
   <v>       0.02666667 </v>
   <v>       0.05333333 </v>
   <v>       0.05333333 </v>
   <v>       0.05333333 </v>
   <v>       0.05333333 </v>
   <v>       0.02666667 </v>
   <v>       0.05333333 </v>
   <v>       0.05333333 </v>
   <v>       0.02666667 </v>
   <v>       0.02666667 </v>
   <v>       0.05333333 </v>
   <v>       0.00888889 </v>
  </varray>
 </kpoints>
 <parameters>
  <separator name="general" >
   <i type="string" name="SYSTEM">MoS2 relaxation</i>
   <i type="logical" name="LCOMPAT"> F  </i>
  </separator>
  <separator name="electronic" >
   <i type="string" name="PREC">accura</i>
   <i name="ENMAX">    520.00000000</i>
   <i name="ENAUG">    446.01400000</i>
   <i name="EDIFF">      0.00000100</i>
   <i type="int" name="IALGO">    38</i>
   <i type="int" name="IWAVPR">    11</i>
   <i type="int" name="NBANDS">    22</i>
   <i type="int" name="NBANDSLOW">    -1</i>
   <i type="int" name="NBANDSHIGH">    -1</i>
   <i name="NELECT">     26.00000000</i>
   <i type="int" name="TURBO">     0</i>
   <i type="int" name="IRESTART">     0</i>
   <i type="int" name="NREBOOT">     0</i>
   <i type="int" name="NMIN">     0</i>
   <i name="EREF">      0.00000000</i>
   <separator name="electronic smearing" >
    <i type="int" name="ISMEAR">     0</i>
    <i name="SIGMA">      0.05000000</i>
    <i name="KSPACING">      0.50000000</i>
    <i type="logical" name="KGAMMA"> T  </i>
    <i type="logical" name="KBLOWUP"> T  </i>
   </separator>
   <separator name="electronic projectors" >
    <i type="logical" name="LREAL"> T  </i>
    <v name="ROPT">     -0.00025000     -0.00025000</v>
    <i type="int" name="LMAXPAW">  -100</i>
    <i type="int" name="LMAXMIX">     2</i>
    <i type="logical" name="NLSPLINE"> F  </i>
   </separator>
   <separator name="electronic startup" >
    <i type="int" name="ISTART">     0</i>
    <i type="int" name="ICHARG">     2</i>
    <i type="int" name="INIWAV">     1</i>
   </separator>
   <separator name="electronic spin" >
    <i type="int" name="ISPIN">     1</i>
    <i type="logical" name="LNONCOLLINEAR"> F  </i>
    <v name="MAGMOM">      1.00000000      1.00000000      1.00000000</v>
    <i name="NUPDOWN">     -1.00000000</i>
    <i type="logical" name="LSORBIT"> F  </i>
    <v name="SAXIS">      0.00000000      0.00000000      1.00000000</v>
    <i type="logical" name="LSPIRAL"> F  </i>
    <v name="QSPIRAL">      0.00000000      0.00000000      0.00000000</v>
    <i type="logical" name="LZEROZ"> F  </i>
   </separator>
   <separator name="electronic exchange-correlation" >
    <i type="logical" name="LASPH"> F  </i>
   </separator>
   <separator name="electronic convergence" >
    <i type="int" name="NELM">   200</i>
    <i type="int" name="NELMDL">    -5</i>
    <i type="int" name="NELMIN">     2</i>
    <i name="ENINI">    520.00000000</i>
    <separator name="electronic convergence detail" >
     <i type="logical" name="LDIAG"> T  </i>
     <i type="logical" name="LSUBROT"> F  </i>
     <i type="logical" name="LROBUST"> F  </i>
     <i type="int" name="ISEARCH">     0</i>
     <i name="WEIMIN">      0.00100000</i>
     <i name="EBREAK">      0.00000001</i>
     <i name="DEPER">      0.30000000</i>
     <i type="int" name="NRMM">     4</i>
     <i name="TIME">      0.40000000</i>
    </separator>
   </separator>
   <separator name="electronic mixer" >
    <i name="AMIX">      0.40000000</i>
    <i name="BMIX">      1.00000000</i>
    <i name="AMIN">      0.01000000</i>
    <i name="AMIX_MAG">      1.60000000</i>
    <i name="BMIX_MAG">      1.00000000</i>
    <separator name="electronic mixer details" >
     <i type="int" name="IMIX">     4</i>
     <i type="logical" name="MIXFIRST"> F  </i>
     <i type="int" name="MAXMIX">   -45</i>
     <i name="WC">    100.00000000</i>
     <i type="int" name="INIMIX">     1</i>
     <i type="int" name="MIXPRE">     1</i>
     <i type="int" name="MREMOVE">     5</i>
    </separator>
   </separator>
   <separator name="electronic dipolcorrection" >
    <i type="logical" name="LDIPOL"> F  </i>
    <i type="logical" name="LMONO"> F  </i>
    <i type="int" name="IDIPOL">     0</i>
    <i name="EPSILON">      1.00000000</i>
    <v name="DIPOL">   -100.00000000   -100.00000000   -100.00000000</v>
    <i name="EFIELD">      0.00000000</i>
    <i type="logical" name="LVACPOTAV"> F  </i>
   </separator>
  </separator>
  <separator name="grids" >
   <i type="int" name="NGX">    24</i>
   <i type="int" name="NGY">    24</i>
   <i type="int" name="NGZ">   150</i>
   <i type="int" name="NGXF">    48</i>
   <i type="int" name="NGYF">    48</i>
   <i type="int" name="NGZF">   300</i>
   <i type="logical" name="ADDGRID"> F  </i>
  </separator>
  <separator name="ionic" >
   <i type="int" name="NSW">   600</i>
   <i type="int" name="IBRION">     1</i>
   <i type="int" name="MDALGO">     0</i>
   <i type="int" name="ISIF">     2</i>
   <i name="PSTRESS">      0.00000000</i>
   <i name="EDIFFG">     -0.00010000</i>
   <i type="int" name="NFREE">     0</i>
   <i name="POTIM">      0.50000000</i>
   <i name="SMASS">     -3.00000000</i>
   <i name="SCALEE">      1.00000000</i>
  </separator>
  <separator name="ionic md" >
   <i name="TEBEG">      0.00010000</i>
   <i name="TEEND">      0.00010000</i>
   <i type="int" name="NBLOCK">     1</i>
   <i type="int" name="KBLOCK">   600</i>
   <i type="int" name="NPACO">   256</i>
   <i name="APACO">     10.00000000</i>
  </separator>
  <separator name="symmetry" >
   <i type="int" name="ISYM">     2</i>
   <i name="SYMPREC">      0.00001000</i>
  </separator>
  <separator name="dos" >
   <i type="int" name="LORBIT">     0</i>
   <v name="RWIGS">     -1.00000000     -1.00000000</v>
   <i type="int" name="NEDOS">   301</i>
   <i name="EMIN">     10.00000000</i>
   <i name="EMAX">    -10.00000000</i>
   <i name="EFERMI">      0.00000000</i>
  </separator>
  <separator name="writing" >
   <i type="int" name="NWRITE">     2</i>
   <i type="logical" name="LWAVE"> F  </i>
   <i type="logical" name="LDOWNSAMPLE"> F  </i>
   <i type="logical" name="LCHARG"> F  </i>
   <i type="logical" name="LPARD"> F  </i>
   <i type="logical" name="LVTOT"> F  </i>
   <i type="logical" name="LVHAR"> F  </i>
   <i type="logical" name="LELF"> F  </i>
   <i type="logical" name="LOPTICS"> F  </i>
   <v name="STM">      0.00000000      0.00000000      0.00000000      0.00000000      0.00000000      0.00000000      0.00000000</v>
  </separator>
  <separator name="performance" >
   <i type="int" name="NPAR">    11</i>
   <i type="int" name="NSIM">     4</i>
   <i type="int" name="NBLK">    -1</i>
   <i type="logical" name="LPLANE"> T  </i>
   <i type="logical" name="LSCALAPACK"> T  </i>
   <i type="logical" name="LSCAAWARE"> F  </i>
   <i type="logical" name="LSCALU"> F  </i>
   <i type="logical" name="LASYNC"> F  </i>
   <i type="logical" name="LORBITALREAL"> F  </i>
  </separator>
  <separator name="miscellaneous" >
   <i type="int" name="IDIOT">     3</i>
   <i type="int" name="PHON_NSTRUCT">    -1</i>
   <i type="logical" name="LMUSIC"> F  </i>
   <v name="POMASS">     95.94000000     32.06600000</v>
   <v name="DARWINR">      0.00000000      0.00000000</v>
   <v name="DARWINV">      1.00000000      1.00000000</v>
   <i type="logical" name="LCORR"> T  </i>
  </separator>
  <i type="logical" name="GGA_COMPAT"> T  </i>
  <i type="logical" name="LBERRY"> F  </i>
  <i type="int" name="ICORELEVEL">     0</i>
  <i type="logical" name="LDAU"> F  </i>
  <i type="int" name="I_CONSTRAINED_M">     0</i>
  <separator name="electronic exchange-correlation" >
   <i type="string" name="GGA    ">PE</i>
   <i type="string" name="XC_C">1</i>
   <i type="int" name="VOSKOWN">     0</i>
   <i type="logical" name="LHFCALC"> F  </i>
   <i type="string" name="PRECFOCK"></i>
   <i type="logical" name="LSYMGRAD"> F  </i>
   <i type="logical" name="LHFONE"> F  </i>
   <i type="logical" name="LRHFCALC"> F  </i>
   <i type="logical" name="LTHOMAS"> F  </i>
   <i type="logical" name="LMODELHF"> F  </i>
   <i type="logical" name="LFOCKACE"> F  </i>
   <i name="ENCUT4O">     -1.00000000</i>
   <i type="int" name="EXXOEP">     0</i>
   <i type="int" name="FOURORBIT">     0</i>
   <i name="AEXX">      0.00000000</i>
   <i name="HFALPHA">      0.00000000</i>
   <i name="MCALPHA">      0.00000000</i>
   <i name="ALDAX">      1.00000000</i>
   <i name="AGGAX">      1.00000000</i>
   <i name="AMGGAX">      1.00000000</i>
   <i name="ALDAC">      1.00000000</i>
   <i name="AGGAC">      1.00000000</i>
   <i name="AMGGAC">      1.00000000</i>
   <i type="int" name="NKREDX">     1</i>
   <i type="int" name="NKREDY">     1</i>
   <i type="int" name="NKREDZ">     1</i>
   <i type="logical" name="SHIFTRED"> F  </i>
   <i type="logical" name="ODDONLY"> F  </i>
   <i type="logical" name="EVENONLY"> F  </i>
   <i type="int" name="LMAXFOCK">     0</i>
   <i type="int" name="NMAXFOCKAE">     0</i>
   <i type="logical" name="LFOCKAEDFT"> F  </i>
   <i name="HFSCREEN">      0.00000000</i>
   <i name="HFSCREENC">      0.00000000</i>
   <i type="int" name="NBANDSGWLOW">     0</i>
  </separator>
  <separator name="vdW DFT" >
   <i type="logical" name="LUSE_VDW"> F  </i>
   <i type="int" name="IVDW_NL">    -1</i>
   <i type="logical" name="LSPIN_VDW"> F  </i>
   <i name="ZAB_VDW">     -0.84910000</i>
   <i name="GAMMA_VDW">      1.39626340</i>
   <i name="ALPHA_VDW">      0.00000000</i>
   <i name="PARAM1">      0.12340000</i>
   <i name="PARAM2">      1.00000000</i>
   <i name="BPARAM">      6.30000000</i>
   <i name="CPARAM">      0.00930000</i>
  </separator>
  <separator name="model GW" >
   <i type="int" name="MODEL_GW">     0</i>
   <i name="MODEL_EPS0">     35.30052182</i>
   <i name="MODEL_ALPHA">      1.00000000</i>
  </separator>
  <separator name="linear response parameters" >
   <i type="logical" name="LEPSILON"> F  </i>
   <i type="logical" name="LRPA"> F  </i>
   <i type="logical" name="LNABLA"> F  </i>
   <i type="logical" name="LVEL"> F  </i>
   <i name="CSHIFT">      0.10000000</i>
   <i name="OMEGAMAX">     -1.00000000</i>
   <i name="DEG_THRESHOLD">      0.00200000</i>
   <i name="RTIME">     -0.10000000</i>
   <i name="WPLASMAI">      0.00000000</i>
   <v name="DFIELD">      0.00000000      0.00000000      0.00000000</v>
   <v name="WPLASMA">      0.00000000      0.00000000      0.00000000      0.00000000      0.00000000      0.00000000      0.00000000      0.00000000      0.00000000</v>
  </separator>
  <separator name="orbital magnetization" >
   <i type="logical" name="NUCIND"> F  </i>
   <v name="MAGPOS">      0.00000000      0.00000000      0.00000000</v>
   <i type="logical" name="LNICSALL"> T  </i>
   <i type="logical" name="ORBITALMAG"> F  </i>
   <i type="logical" name="LMAGBLOCH"> F  </i>
   <i type="logical" name="LCHIMAG"> F  </i>
   <i type="logical" name="LGAUGE"> T  </i>
   <i type="int" name="MAGATOM">     0</i>
   <v name="MAGDIPOL">      0.00000000      0.00000000      0.00000000</v>
   <v name="AVECCONST">      0.00000000      0.00000000      0.00000000</v>
  </separator>
  <separator name="response functions" >
   <i type="logical" name="LALL_IN_ONE"> F  </i>
   <i type="int" name="IALL_IN_ONE">    -1</i>
   <i type="int" name="NBANDS_WAVE">    -1</i>
   <i type="logical" name="LFINITE_TEMPERATURE"> F  </i>
   <i type="logical" name="LADDER"> F  </i>
   <i type="logical" name="LRPAFORCE"> F  </i>
   <i type="logical" name="LFXC"> F  </i>
   <i type="logical" name="LHARTREE"> T  </i>
   <i type="int" name="IBSE">     2</i>
   <v type="int" name="KPOINT">    -1     0     0     0</v>
   <i type="logical" name="LTCTC"> F  </i>
   <i type="logical" name="LTCTE"> F  </i>
   <i type="logical" name="LTETE"> F  </i>
   <i type="logical" name="LTRIPLET"> F  </i>
   <i type="logical" name="LFXCEPS"> F  </i>
   <i type="logical" name="LFXHEG"> F  </i>
   <i type="int" name="NATURALO">     2</i>
   <i type="logical" name="LHOLEGF"> F  </i>
   <i type="logical" name="L2ORDER"> F  </i>
   <i type="logical" name="LDMP1"> F  </i>
   <i type="logical" name="LMP2LT"> F  </i>
   <i type="logical" name="LSMP2LT"> F  </i>
   <i type="logical" name="LGWLF"> F  </i>
   <i name="ENCUTGW">     -1.60000002</i>
   <i name="ENCUTGWSOFT">     -1.60000002</i>
   <i name="ENCUTLF">     -1.00000000</i>
   <i type="logical" name="ESF_SPLINES"> F  </i>
   <i name="ESF_CONV">      0.01000000</i>
   <i type="int" name="ESF_NINTER">    15</i>
   <i type="int" name="LMAXMP2">    -1</i>
   <i name="SCISSOR">      0.00000000</i>
   <i type="int" name="NOMEGA">     0</i>
   <i type="int" name="NOMEGAR">     0</i>
   <i type="int" name="NBANDSGW">    -1</i>
   <i type="int" name="NBANDSO">    -1</i>
   <i type="int" name="NBANDSV">    -1</i>
   <i type="int" name="NELMGW">     1</i>
   <i type="int" name="NELMHF">     1</i>
   <i type="int" name="DIM">     3</i>
   <i type="int" name="IESPILON">     4</i>
   <i type="int" name="ANTIRES">     0</i>
   <i name="OMEGAMAX">    -30.00000000</i>
   <i name="OMEGAMIN">    -30.00000000</i>
   <i name="OMEGATL">   -200.00000000</i>
   <i type="int" name="OMEGAGRID">     0</i>
   <i name="CSHIFT">     -0.10000000</i>
   <i type="logical" name="LSELFENERGY"> F  </i>
   <i type="logical" name="LSPECTRAL"> F  </i>
   <i type="logical" name="LSPECTRALGW"> F  </i>
   <i type="logical" name="LSINGLES"> F  </i>
   <i type="logical" name="LFERMIGW"> F  </i>
   <i type="logical" name="ODDONLYGW"> F  </i>
   <i type="logical" name="EVENONLYGW"> F  </i>
   <i type="int" name="NKREDLFX">     1</i>
   <i type="int" name="NKREDLFY">     1</i>
   <i type="int" name="NKREDLFZ">     1</i>
   <i type="int" name="MAXMEM">  2800</i>
   <i type="int" name="TELESCOPE">     0</i>
   <i type="int" name="NTAUPAR">    -1</i>
   <i type="int" name="NOMEGAPAR">    -1</i>
   <i name="DAMP_NEWTON">      0.80000001</i>
   <i name="LAMBDA">      1.00000000</i>
  </separator>
  <separator name="External order field" >
   <i name="OFIELD_KAPPA">      0.00000000</i>
   <v name="OFIELD_K">      0.00000000      0.00000000      0.00000000</v>
   <i name="OFIELD_Q6_NEAR">      0.00000000</i>
   <i name="OFIELD_Q6_FAR">      0.00000000</i>
   <i name="OFIELD_A">      0.00000000</i>
  </separator>
  <separator name="optional k-points parameters" >
   <i type="int" name="KPOINTS_OPT_MODE">     1</i>
   <i type="logical" name="LKPOINTS_OPT"> F  </i>
  </separator>
 </parameters>
 <atominfo>
  <atoms>       3 </atoms>
  <types>       2 </types>
  <array name="atoms" >
   <dimension dim="1">ion</dimension>
   <field type="string">element</field>
   <field type="int">atomtype</field>
   <set>
    <rc><c>Mo</c><c>   1</c></rc>
    <rc><c>S </c><c>   2</c></rc>
    <rc><c>S </c><c>   2</c></rc>
   </set>
  </array>
  <array name="atomtypes" >
   <dimension dim="1">type</dimension>
   <field type="int">atomspertype</field>
   <field type="string">element</field>
   <field>mass</field>
   <field>valence</field>
   <field type="string">pseudopotential</field>
   <set>
    <rc><c>   1</c><c>Mo</c><c>     95.94000000</c><c>     14.00000000</c><c>  PAW_PBE Mo_sv 02Feb2006               </c></rc>
    <rc><c>   2</c><c>S </c><c>     32.06600000</c><c>      6.00000000</c><c>  PAW_PBE S 06Sep2000                   </c></rc>
   </set>
  </array>
 </atominfo>
 <structure name="initialpos" >
  <crystal>
   <varray name="basis" >
    <v>       3.19223791       0.00000000       0.00000000 </v>
    <v>       1.59611896       2.76455913       0.00000000 </v>
    <v>       0.00000000       0.00000000      20.00000000 </v>
   </varray>
   <i name="volume">    176.50260910 </i>
   <varray name="rec_basis" >
    <v>       0.31325986      -0.18086066       0.00000000 </v>
    <v>       0.00000000       0.36172133       0.00000000 </v>
    <v>       0.00000000       0.00000000       0.05000000 </v>
   </varray>
  </crystal>
  <varray name="positions" >
   <v>       0.00000000       0.00000000       0.50000000 </v>
   <v>       0.33333333       0.33333333       0.42179317 </v>
   <v>       0.33333333       0.33333333       0.57820683 </v>
  </varray>
 </structure>
 <calculation>
  <scstep>
   <time name="dav">    0.08    0.09</time>
   <time name="total">    0.11    0.13</time>
   <energy>
    <i name="alphaZ">     26.80221717 </i>
    <i name="ewald">   5486.95818488 </i>
    <i name="hartreedc">  -7592.13307974 </i>
    <i name="XCdc">     91.30120236 </i>
    <i name="pawpsdc">   1932.78902129 </i>
    <i name="pawaedc">  -1907.92410740 </i>
    <i name="eentropy">     -0.00274240 </i>
    <i name="bandstr">   -313.12479456 </i>
    <i name="atom">   2415.92241936 </i>
    <i name="e_fr_energy">    140.58832096 </i>
    <i name="e_wo_entrp">    140.59106335 </i>
    <i name="e_0_energy">    140.58969215 </i>
   </energy>
  </scstep>
  <scstep>
   <time name="dav">    0.06    0.07</time>
   <time name="total">    0.06    0.07</time>
   <energy>
    <i name="e_fr_energy">    -14.82738082 </i>
    <i name="e_wo_entrp">    -14.82738082 </i>
    <i name="e_0_energy">    -14.82738082 </i>
   </energy>
  </scstep>
  <scstep>
   <time name="dav">    0.07    0.07</time>
   <time name="total">    0.07    0.07</time>
   <energy>
    <i name="e_fr_energy">    -23.26153119 </i>
    <i name="e_wo_entrp">    -23.26153119 </i>
    <i name="e_0_energy">    -23.26153119 </i>
   </energy>
  </scstep>
  <scstep>
   <time name="dav">    0.06    0.06</time>
   <time name="total">    0.06    0.06</time>
   <energy>
    <i name="e_fr_energy">    -23.39066140 </i>
    <i name="e_wo_entrp">    -23.39066140 </i>
    <i name="e_0_energy">    -23.39066140 </i>
   </energy>
  </scstep>
  <scstep>
   <time name="dav">    0.07    0.07</time>
   <time name="total">    0.08    0.09</time>
   <energy>
    <i name="e_fr_energy">    -23.39401114 </i>
    <i name="e_wo_entrp">    -23.39401114 </i>
    <i name="e_0_energy">    -23.39401114 </i>
   </energy>
  </scstep>
  <scstep>
   <time name="dav">    0.05    0.05</time>
   <time name="total">    0.08    0.08</time>
   <energy>
    <i name="e_fr_energy">    -22.27877304 </i>
    <i name="e_wo_entrp">    -22.27877304 </i>
    <i name="e_0_energy">    -22.27877304 </i>
   </energy>
  </scstep>
  <scstep>
   <time name="dav">    0.06    0.06</time>
   <time name="total">    0.08    0.08</time>
   <energy>
    <i name="e_fr_energy">    -22.06110569 </i>
    <i name="e_wo_entrp">    -22.06110569 </i>
    <i name="e_0_energy">    -22.06110569 </i>
   </energy>
  </scstep>
  <scstep>
   <time name="dav">    0.06    0.07</time>
   <time name="total">    0.09    0.09</time>
   <energy>
    <i name="e_fr_energy">    -21.85553385 </i>
    <i name="e_wo_entrp">    -21.85553385 </i>
    <i name="e_0_energy">    -21.85553385 </i>
   </energy>
  </scstep>
  <scstep>
   <time name="dav">    0.06    0.07</time>
   <time name="total">    0.10    0.10</time>
   <energy>
    <i name="e_fr_energy">    -21.85003699 </i>
    <i name="e_wo_entrp">    -21.85003699 </i>
    <i name="e_0_energy">    -21.85003699 </i>
   </energy>
  </scstep>
  <scstep>
   <time name="dav">    0.06    0.06</time>
   <time name="total">    0.09    0.09</time>
   <energy>
    <i name="e_fr_energy">    -21.84833393 </i>
    <i name="e_wo_entrp">    -21.84833393 </i>
    <i name="e_0_energy">    -21.84833393 </i>
   </energy>
  </scstep>
  <scstep>
   <time name="dav">    0.06    0.06</time>
   <time name="total">    0.09    0.09</time>
   <energy>
    <i name="e_fr_energy">    -21.84753194 </i>
    <i name="e_wo_entrp">    -21.84753194 </i>
    <i name="e_0_energy">    -21.84753194 </i>
   </energy>
  </scstep>
  <scstep>
   <time name="dav">    0.06    0.06</time>
   <time name="total">    0.09    0.10</time>
   <energy>
    <i name="e_fr_energy">    -21.84674916 </i>
    <i name="e_wo_entrp">    -21.84674916 </i>
    <i name="e_0_energy">    -21.84674916 </i>
   </energy>
  </scstep>
  <scstep>
   <time name="dav">    0.06    0.06</time>
   <time name="total">    0.10    0.10</time>
   <energy>
    <i name="e_fr_energy">    -21.84604420 </i>
    <i name="e_wo_entrp">    -21.84604420 </i>
    <i name="e_0_energy">    -21.84604420 </i>
   </energy>
  </scstep>
  <scstep>
   <time name="dav">    0.05    0.05</time>
   <time name="total">    0.08    0.08</time>
   <energy>
    <i name="e_fr_energy">    -21.84556932 </i>
    <i name="e_wo_entrp">    -21.84556932 </i>
    <i name="e_0_energy">    -21.84556932 </i>
   </energy>
  </scstep>
  <scstep>
   <time name="dav">    0.06    0.06</time>
   <time name="total">    0.09    0.09</time>
   <energy>
    <i name="e_fr_energy">    -21.84507072 </i>
    <i name="e_wo_entrp">    -21.84507072 </i>
    <i name="e_0_energy">    -21.84507072 </i>
   </energy>
  </scstep>
  <scstep>
   <time name="dav">    0.05    0.05</time>
   <time name="total">    0.08    0.08</time>
   <energy>
    <i name="e_fr_energy">    -21.84553552 </i>
    <i name="e_wo_entrp">    -21.84553552 </i>
    <i name="e_0_energy">    -21.84553552 </i>
   </energy>
  </scstep>
  <scstep>
   <time name="dav">    0.06    0.06</time>
   <time name="total">    0.09    0.09</time>
   <energy>
    <i name="e_fr_energy">    -21.84594890 </i>
    <i name="e_wo_entrp">    -21.84594890 </i>
    <i name="e_0_energy">    -21.84594890 </i>
   </energy>
  </scstep>
  <scstep>
   <time name="dav">    0.06    0.06</time>
   <time name="total">    0.09    0.09</time>
   <energy>
    <i name="e_fr_energy">    -21.84650402 </i>
    <i name="e_wo_entrp">    -21.84650402 </i>
    <i name="e_0_energy">    -21.84650402 </i>
   </energy>
  </scstep>
  <scstep>
   <time name="dav">    0.06    0.06</time>
   <time name="total">    0.09    0.09</time>
   <energy>
    <i name="e_fr_energy">    -21.84660011 </i>
    <i name="e_wo_entrp">    -21.84660011 </i>
    <i name="e_0_energy">    -21.84660011 </i>
   </energy>
  </scstep>
  <scstep>
   <time name="dav">    0.06    0.06</time>
   <time name="total">    0.09    0.09</time>
   <energy>
    <i name="e_fr_energy">    -21.84668869 </i>
    <i name="e_wo_entrp">    -21.84668869 </i>
    <i name="e_0_energy">    -21.84668869 </i>
   </energy>
  </scstep>
  <scstep>
   <time name="dav">    0.05    0.05</time>
   <time name="total">    0.08    0.08</time>
   <energy>
    <i name="e_fr_energy">    -21.84670381 </i>
    <i name="e_wo_entrp">    -21.84670381 </i>
    <i name="e_0_energy">    -21.84670381 </i>
   </energy>
  </scstep>
  <scstep>
   <time name="dav">    0.05    0.05</time>
   <time name="total">    0.08    0.08</time>
   <energy>
    <i name="e_fr_energy">    -21.84670673 </i>
    <i name="e_wo_entrp">    -21.84670673 </i>
    <i name="e_0_energy">    -21.84670673 </i>
   </energy>
  </scstep>
  <scstep>
   <time name="dav">    0.05    0.05</time>
   <time name="total">    0.06    0.07</time>
   <energy>
    <i name="alphaZ">     26.80221717 </i>
    <i name="ewald">   5486.95818488 </i>
    <i name="hartreedc">  -7588.49938495 </i>
    <i name="XCdc">     90.72746263 </i>
    <i name="pawpsdc">   2904.08685472 </i>
    <i name="pawaedc">  -2883.04250363 </i>
    <i name="eentropy">     -0.00000000 </i>
    <i name="bandstr">   -474.80195788 </i>
    <i name="atom">   2415.92241936 </i>
    <i name="e_fr_energy">    -21.84670771 </i>
    <i name="e_wo_entrp">    -21.84670771 </i>
    <i name="e_0_energy">    -21.84670771 </i>
   </energy>
  </scstep>
  <structure>
   <crystal>
    <varray name="basis" >
     <v>       3.19223791       0.00000000       0.00000000 </v>
     <v>       1.59611896       2.76455913       0.00000000 </v>
     <v>       0.00000000       0.00000000      20.00000000 </v>
    </varray>
    <i name="volume">    176.50260910 </i>
    <varray name="rec_basis" >
     <v>       0.31325986      -0.18086066       0.00000000 </v>
     <v>       0.00000000       0.36172133       0.00000000 </v>
     <v>       0.00000000       0.00000000       0.05000000 </v>
    </varray>
   </crystal>
   <varray name="positions" >
    <v>       0.00000000       0.00000000       0.50000000 </v>
    <v>       0.33333333       0.33333333       0.42179317 </v>
    <v>       0.33333333       0.33333333       0.57820683 </v>
   </varray>
  </structure>
  <varray name="forces" >
   <v>       0.00000000      -0.00000000       0.00000000 </v>
   <v>      -0.00000000      -0.00000000       0.18561344 </v>
   <v>      -0.00000000       0.00000000      -0.18561344 </v>
  </varray>
  <varray name="stress" >
   <v>     -11.84494474      -0.00000000      -0.00000000 </v>
   <v>      -0.00000000     -11.84494474       0.00000000 </v>
   <v>      -0.00000000       0.00000000      -5.57410142 </v>
  </varray>
  <energy>
   <i name="e_fr_energy">    -22.78212311 </i>
   <i name="e_wo_entrp">    -22.78212311 </i>
   <i name="e_0_energy">    -22.78212311 </i>
  </energy>
  <time name="totalsc">    2.11    2.21</time>
 </calculation>
 <calculation>
  <scstep>
   <time name="dav">    0.05    0.05</time>
   <time name="total">    0.07    0.07</time>
   <energy>
    <i name="alphaZ">     26.80221717 </i>
    <i name="ewald">   5503.37622876 </i>
    <i name="hartreedc">  -7604.43835644 </i>
    <i name="XCdc">     90.78568783 </i>
    <i name="pawpsdc">   2904.10960197 </i>
    <i name="pawaedc">  -2883.06524660 </i>
    <i name="eentropy">     -0.00000000 </i>
    <i name="bandstr">   -475.33878920 </i>
    <i name="atom">   2415.92241936 </i>
    <i name="e_fr_energy">    -21.84623715 </i>
    <i name="e_wo_entrp">    -21.84623715 </i>
    <i name="e_0_energy">    -21.84623715 </i>
   </energy>
  </scstep>
  <scstep>
   <time name="dav">    0.05    0.06</time>
   <time name="total">    0.08    0.09</time>
   <energy>
    <i name="e_fr_energy">    -21.84677911 </i>
    <i name="e_wo_entrp">    -21.84677911 </i>
    <i name="e_0_energy">    -21.84677911 </i>
   </energy>
  </scstep>
  <scstep>
   <time name="dav">    0.06    0.06</time>
   <time name="total">    0.09    0.09</time>
   <energy>
    <i name="e_fr_energy">    -21.84676850 </i>
    <i name="e_wo_entrp">    -21.84676850 </i>
    <i name="e_0_energy">    -21.84676850 </i>
   </energy>
  </scstep>
  <scstep>
   <time name="dav">    0.06    0.06</time>
   <time name="total">    0.09    0.09</time>
   <energy>
    <i name="e_fr_energy">    -21.84677667 </i>
    <i name="e_wo_entrp">    -21.84677667 </i>
    <i name="e_0_energy">    -21.84677667 </i>
   </energy>
  </scstep>
  <scstep>
   <time name="dav">    0.06    0.06</time>
   <time name="total">    0.09    0.09</time>
   <energy>
    <i name="e_fr_energy">    -21.84676482 </i>
    <i name="e_wo_entrp">    -21.84676482 </i>
    <i name="e_0_energy">    -21.84676482 </i>
   </energy>
  </scstep>
  <scstep>
   <time name="dav">    0.05    0.05</time>
   <time name="total">    0.07    0.07</time>
   <energy>
    <i name="alphaZ">     26.80221717 </i>
    <i name="ewald">   5503.37622876 </i>
    <i name="hartreedc">  -7604.59334142 </i>
    <i name="XCdc">     90.78848195 </i>
    <i name="pawpsdc">   2924.14383234 </i>
    <i name="pawaedc">  -2903.11859532 </i>
    <i name="eentropy">     -0.00000000 </i>
    <i name="bandstr">   -475.16800705 </i>
    <i name="atom">   2415.92241936 </i>
    <i name="e_fr_energy">    -21.84676421 </i>
    <i name="e_wo_entrp">    -21.84676421 </i>
    <i name="e_0_energy">    -21.84676421 </i>
   </energy>
  </scstep>
  <structure>
   <crystal>
    <varray name="basis" >
     <v>       3.19223791       0.00000000       0.00000000 </v>
     <v>       1.59611896       2.76455913       0.00000000 </v>
     <v>       0.00000000       0.00000000      20.00000000 </v>
    </varray>
    <i name="volume">    176.50260910 </i>
    <varray name="rec_basis" >
     <v>       0.31325986      -0.18086066       0.00000000 </v>
     <v>       0.00000000       0.36172133       0.00000000 </v>
     <v>       0.00000000       0.00000000       0.05000000 </v>
    </varray>
   </crystal>
   <varray name="positions" >
    <v>       0.00000000      -0.00000000       0.50000000 </v>
    <v>       0.33333333       0.33333333       0.42224089 </v>
    <v>       0.33333333       0.33333333       0.57775911 </v>
   </varray>
  </structure>
  <varray name="forces" >
   <v>      -0.00000000      -0.00000000       0.00000000 </v>
   <v>       0.00000000       0.00000000       0.01844936 </v>
   <v>       0.00000000       0.00000000      -0.01844936 </v>
  </varray>
  <varray name="stress" >
   <v>     -10.25846961      -0.00000000      -0.00000000 </v>
   <v>      -0.00000000     -10.25846961      -0.00000000 </v>
   <v>       0.00000000      -0.00000000      -0.87182061 </v>
  </varray>
  <energy>
   <i name="e_fr_energy">    -22.78399407 </i>
   <i name="e_wo_entrp">    -22.78399407 </i>
   <i name="e_0_energy">    -22.78399407 </i>
  </energy>
  <time name="totalsc">    0.64    0.65</time>
 </calculation>
 <calculation>
  <scstep>
   <time name="dav">    0.05    0.05</time>
   <time name="total">    0.07    0.07</time>
   <energy>
    <i name="alphaZ">     26.80221717 </i>
    <i name="ewald">   5505.18853735 </i>
    <i name="hartreedc">  -7606.34551757 </i>
    <i name="XCdc">     90.79489668 </i>
    <i name="pawpsdc">   2924.34528030 </i>
    <i name="pawaedc">  -2903.31980867 </i>
    <i name="eentropy">     -0.00000000 </i>
    <i name="bandstr">   -475.23460438 </i>
    <i name="atom">   2415.92241936 </i>
    <i name="e_fr_energy">    -21.84657977 </i>
    <i name="e_wo_entrp">    -21.84657977 </i>
    <i name="e_0_energy">    -21.84657977 </i>
   </energy>
  </scstep>
  <scstep>
   <time name="dav">    0.06    0.07</time>
   <time name="total">    0.09    0.09</time>
   <energy>
    <i name="e_fr_energy">    -21.84658724 </i>
    <i name="e_wo_entrp">    -21.84658724 </i>
    <i name="e_0_energy">    -21.84658724 </i>
   </energy>
  </scstep>
  <scstep>
   <time name="dav">    0.05    0.05</time>
   <time name="total">    0.07    0.07</time>
   <energy>
    <i name="alphaZ">     26.80221717 </i>
    <i name="ewald">   5505.18853735 </i>
    <i name="hartreedc">  -7606.35041890 </i>
    <i name="XCdc">     90.79518250 </i>
    <i name="pawpsdc">   2926.12729788 </i>
    <i name="pawaedc">  -2905.10310803 </i>
    <i name="eentropy">     -0.00000000 </i>
    <i name="bandstr">   -475.22871450 </i>
    <i name="atom">   2415.92241936 </i>
    <i name="e_fr_energy">    -21.84658718 </i>
    <i name="e_wo_entrp">    -21.84658718 </i>
    <i name="e_0_energy">    -21.84658718 </i>
   </energy>
  </scstep>
  <structure>
   <crystal>
    <varray name="basis" >
     <v>       3.19223791       0.00000000       0.00000000 </v>
     <v>       1.59611896       2.76455913       0.00000000 </v>
     <v>       0.00000000       0.00000000      20.00000000 </v>
    </varray>
    <i name="volume">    176.50260910 </i>
    <varray name="rec_basis" >
     <v>       0.31325986      -0.18086066       0.00000000 </v>
     <v>       0.00000000       0.36172133       0.00000000 </v>
     <v>       0.00000000       0.00000000       0.05000000 </v>
    </varray>
   </crystal>
   <varray name="positions" >
    <v>      -0.00000000      -0.00000000       0.50000000 </v>
    <v>       0.33333333       0.33333333       0.42229031 </v>
    <v>       0.33333333       0.33333333       0.57770969 </v>
   </varray>
  </structure>
  <varray name="forces" >
   <v>       0.00000000       0.00000000      -0.00000000 </v>
   <v>      -0.00000000      -0.00000000       0.00257471 </v>
   <v>       0.00000000      -0.00000000      -0.00257471 </v>
  </varray>
  <varray name="stress" >
   <v>     -10.08436167      -0.00000000       0.00000000 </v>
   <v>      -0.00000000     -10.08436167      -0.00000000 </v>
   <v>      -0.00000000      -0.00000000      -0.31880613 </v>
  </varray>
  <energy>
   <i name="e_fr_energy">    -22.78401726 </i>
   <i name="e_wo_entrp">    -22.78401726 </i>
   <i name="e_0_energy">    -22.78401726 </i>
  </energy>
  <time name="totalsc">    0.38    0.39</time>
 </calculation>
 <calculation>
  <scstep>
   <time name="dav">    0.05    0.05</time>
   <time name="total">    0.08    0.08</time>
   <energy>
    <i name="alphaZ">     26.80221717 </i>
    <i name="ewald">   5505.48248194 </i>
    <i name="hartreedc">  -7606.63901007 </i>
    <i name="XCdc">     90.79623221 </i>
    <i name="pawpsdc">   2926.74524916 </i>
    <i name="pawaedc">  -2905.72131612 </i>
    <i name="eentropy">     -0.00000000 </i>
    <i name="bandstr">   -475.23482887 </i>
    <i name="atom">   2415.92241936 </i>
    <i name="e_fr_energy">    -21.84655524 </i>
    <i name="e_wo_entrp">    -21.84655524 </i>
    <i name="e_0_energy">    -21.84655524 </i>
   </energy>
  </scstep>
  <scstep>
   <time name="dav">    0.06    0.06</time>
   <time name="total">    0.08    0.08</time>
   <energy>
    <i name="alphaZ">     26.80221717 </i>
    <i name="ewald">   5505.48248194 </i>
    <i name="hartreedc">  -7606.62757368 </i>
    <i name="XCdc">     90.79610521 </i>
    <i name="pawpsdc">   2926.94502061 </i>
    <i name="pawaedc">  -2905.92187646 </i>
    <i name="eentropy">     -0.00000000 </i>
    <i name="bandstr">   -475.24534956 </i>
    <i name="atom">   2415.92241936 </i>
    <i name="e_fr_energy">    -21.84655542 </i>
    <i name="e_wo_entrp">    -21.84655542 </i>
    <i name="e_0_energy">    -21.84655542 </i>
   </energy>
  </scstep>
  <structure>
   <crystal>
    <varray name="basis" >
     <v>       3.19223791       0.00000000       0.00000000 </v>
     <v>       1.59611896       2.76455913       0.00000000 </v>
     <v>       0.00000000       0.00000000      20.00000000 </v>
    </varray>
    <i name="volume">    176.50260910 </i>
    <varray name="rec_basis" >
     <v>       0.31325986      -0.18086066       0.00000000 </v>
     <v>       0.00000000       0.36172133       0.00000000 </v>
     <v>       0.00000000       0.00000000       0.05000000 </v>
    </varray>
   </crystal>
   <varray name="positions" >
    <v>      -0.00000000      -0.00000000       0.50000000 </v>
    <v>       0.33333333       0.33333333       0.42229832 </v>
    <v>       0.33333333       0.33333333       0.57770168 </v>
   </varray>
  </structure>
  <varray name="forces" >
   <v>      -0.00000000       0.00000000      -0.00000000 </v>
   <v>       0.00000000       0.00000000      -0.00037781 </v>
   <v>       0.00000000      -0.00000000       0.00037781 </v>
  </varray>
  <varray name="stress" >
   <v>     -10.05980217       0.00000000       0.00000000 </v>
   <v>      -0.00000000     -10.05980217       0.00000000 </v>
   <v>       0.00000000       0.00000000      -0.21107360 </v>
  </varray>
  <energy>
   <i name="e_fr_energy">    -22.78401798 </i>
   <i name="e_wo_entrp">    -22.78401798 </i>
   <i name="e_0_energy">    -22.78401798 </i>
  </energy>
  <time name="totalsc">    0.31    0.32</time>
 </calculation>
 <calculation>
  <scstep>
   <time name="dav">    0.05    0.05</time>
   <time name="total">    0.08    0.08</time>
   <energy>
    <i name="alphaZ">     26.80221717 </i>
    <i name="ewald">   5505.44486843 </i>
    <i name="hartreedc">  -7606.59597493 </i>
    <i name="XCdc">     90.79607217 </i>
    <i name="pawpsdc">   2927.10452257 </i>
    <i name="pawaedc">  -2906.08098426 </i>
    <i name="eentropy">     -0.00000000 </i>
    <i name="bandstr">   -475.23970032 </i>
    <i name="atom">   2415.92241936 </i>
    <i name="e_fr_energy">    -21.84655981 </i>
    <i name="e_wo_entrp">    -21.84655981 </i>
    <i name="e_0_energy">    -21.84655981 </i>
   </energy>
  </scstep>
  <scstep>
   <time name="dav">    0.05    0.05</time>
   <time name="total">    0.06    0.06</time>
   <energy>
    <i name="alphaZ">     26.80221717 </i>
    <i name="ewald">   5505.44486843 </i>
    <i name="hartreedc">  -7606.58494798 </i>
    <i name="XCdc">     90.79589427 </i>
    <i name="pawpsdc">   2927.13382439 </i>
    <i name="pawaedc">  -2906.11091770 </i>
    <i name="eentropy">     -0.00000000 </i>
    <i name="bandstr">   -475.24991774 </i>
    <i name="atom">   2415.92241936 </i>
    <i name="e_fr_energy">    -21.84655981 </i>
    <i name="e_wo_entrp">    -21.84655981 </i>
    <i name="e_0_energy">    -21.84655981 </i>
   </energy>
  </scstep>
  <structure>
   <crystal>
    <varray name="basis" >
     <v>       3.19223791       0.00000000       0.00000000 </v>
     <v>       1.59611896       2.76455913       0.00000000 </v>
     <v>       0.00000000       0.00000000      20.00000000 </v>
    </varray>
    <i name="volume">    176.50260910 </i>
    <varray name="rec_basis" >
     <v>       0.31325986      -0.18086066       0.00000000 </v>
     <v>       0.00000000       0.36172133       0.00000000 </v>
     <v>       0.00000000       0.00000000       0.05000000 </v>
    </varray>
   </crystal>
   <varray name="positions" >
    <v>      -0.00000000      -0.00000000       0.50000000 </v>
    <v>       0.33333333       0.33333333       0.42229730 </v>
    <v>       0.33333333       0.33333333       0.57770270 </v>
   </varray>
  </structure>
  <varray name="forces" >
   <v>       0.00000000       0.00000000       0.00000000 </v>
   <v>      -0.00000000      -0.00000000       0.00044918 </v>
   <v>      -0.00000000      -0.00000000      -0.00044918 </v>
  </varray>
  <varray name="stress" >
   <v>     -10.07279193       0.00000000      -0.00000000 </v>
   <v>       0.00000000     -10.07279193       0.00000000 </v>
   <v>      -0.00000000      -0.00000000      -0.22885083 </v>
  </varray>
  <energy>
   <i name="e_fr_energy">    -22.78401821 </i>
   <i name="e_wo_entrp">    -22.78401821 </i>
   <i name="e_0_energy">    -22.78401821 </i>
  </energy>
  <time name="totalsc">    0.29    0.30</time>
 </calculation>
 <calculation>
  <scstep>
   <time name="dav">    0.05    0.05</time>
   <time name="total">    0.08    0.08</time>
   <energy>
    <i name="alphaZ">     26.80221717 </i>
    <i name="ewald">   5505.46529829 </i>
    <i name="hartreedc">  -7606.60701041 </i>
    <i name="XCdc">     90.79602258 </i>
    <i name="pawpsdc">   2927.15997291 </i>
    <i name="pawaedc">  -2906.13680823 </i>
    <i name="eentropy">     -0.00000000 </i>
    <i name="bandstr">   -475.24866929 </i>
    <i name="atom">   2415.92241936 </i>
    <i name="e_fr_energy">    -21.84655762 </i>
    <i name="e_wo_entrp">    -21.84655762 </i>
    <i name="e_0_energy">    -21.84655762 </i>
   </energy>
  </scstep>
  <scstep>
   <time name="dav">    0.05    0.05</time>
   <time name="total">    0.07    0.07</time>
   <energy>
    <i name="alphaZ">     26.80221717 </i>
    <i name="ewald">   5505.46529829 </i>
    <i name="hartreedc">  -7606.60380457 </i>
    <i name="XCdc">     90.79600119 </i>
    <i name="pawpsdc">   2927.18280935 </i>
    <i name="pawaedc">  -2906.15971524 </i>
    <i name="eentropy">     -0.00000000 </i>
    <i name="bandstr">   -475.25178324 </i>
    <i name="atom">   2415.92241936 </i>
    <i name="e_fr_energy">    -21.84655770 </i>
    <i name="e_wo_entrp">    -21.84655770 </i>
    <i name="e_0_energy">    -21.84655770 </i>
   </energy>
  </scstep>
  <structure>
   <crystal>
    <varray name="basis" >
     <v>       3.19223791       0.00000000       0.00000000 </v>
     <v>       1.59611896       2.76455913       0.00000000 </v>
     <v>       0.00000000       0.00000000      20.00000000 </v>
    </varray>
    <i name="volume">    176.50260910 </i>
    <varray name="rec_basis" >
     <v>       0.31325986      -0.18086066       0.00000000 </v>
     <v>       0.00000000       0.36172133       0.00000000 </v>
     <v>       0.00000000       0.00000000       0.05000000 </v>
    </varray>
   </crystal>
   <varray name="positions" >
    <v>      -0.00000000      -0.00000000       0.50000000 </v>
    <v>       0.33333333       0.33333333       0.42229785 </v>
    <v>       0.33333333       0.33333333       0.57770215 </v>
   </varray>
  </structure>
  <varray name="forces" >
   <v>       0.00000000       0.00000000       0.00000000 </v>
   <v>      -0.00000000      -0.00000000      -0.00043758 </v>
   <v>      -0.00000000      -0.00000000       0.00043758 </v>
  </varray>
  <varray name="stress" >
   <v>     -10.08383729      -0.00000000       0.00000000 </v>
   <v>      -0.00000000     -10.08383729       0.00000000 </v>
   <v>      -0.00000000       0.00000000      -0.25832691 </v>
  </varray>
  <energy>
   <i name="e_fr_energy">    -22.78401836 </i>
   <i name="e_wo_entrp">    -22.78401836 </i>
   <i name="e_0_energy">    -22.78401836 </i>
  </energy>
  <time name="totalsc">    0.29    0.30</time>
 </calculation>
 <calculation>
  <scstep>
   <time name="dav">    0.05    0.05</time>
   <time name="total">    0.08    0.08</time>
   <energy>
    <i name="alphaZ">     26.80221717 </i>
    <i name="ewald">   5505.45521703 </i>
    <i name="hartreedc">  -7606.59226941 </i>
    <i name="XCdc">     90.79596390 </i>
    <i name="pawpsdc">   2927.20499650 </i>
    <i name="pawaedc">  -2906.18187767 </i>
    <i name="eentropy">     -0.00000000 </i>
    <i name="bandstr">   -475.25322578 </i>
    <i name="atom">   2415.92241936 </i>
    <i name="e_fr_energy">    -21.84655891 </i>
    <i name="e_wo_entrp">    -21.84655891 </i>
    <i name="e_0_energy">    -21.84655891 </i>
   </energy>
  </scstep>
  <scstep>
   <time name="dav">    0.05    0.05</time>
   <time name="total">    0.07    0.07</time>
   <energy>
    <i name="alphaZ">     26.80221717 </i>
    <i name="ewald">   5505.45521703 </i>
    <i name="hartreedc">  -7606.58990833 </i>
    <i name="XCdc">     90.79594003 </i>
    <i name="pawpsdc">   2927.21137596 </i>
    <i name="pawaedc">  -2906.18830751 </i>
    <i name="eentropy">     -0.00000000 </i>
    <i name="bandstr">   -475.25551268 </i>
    <i name="atom">   2415.92241936 </i>
    <i name="e_fr_energy">    -21.84655897 </i>
    <i name="e_wo_entrp">    -21.84655897 </i>
    <i name="e_0_energy">    -21.84655897 </i>
   </energy>
  </scstep>
  <structure>
   <crystal>
    <varray name="basis" >
     <v>       3.19223791       0.00000000       0.00000000 </v>
     <v>       1.59611896       2.76455913       0.00000000 </v>
     <v>       0.00000000       0.00000000      20.00000000 </v>
    </varray>
    <i name="volume">    176.50260910 </i>
    <varray name="rec_basis" >
     <v>       0.31325986      -0.18086066       0.00000000 </v>
     <v>       0.00000000       0.36172133       0.00000000 </v>
     <v>       0.00000000       0.00000000       0.05000000 </v>
    </varray>
   </crystal>
   <varray name="positions" >
    <v>      -0.00000000       0.00000000       0.50000000 </v>
    <v>       0.33333333       0.33333333       0.42229758 </v>
    <v>       0.33333333       0.33333333       0.57770242 </v>
   </varray>
  </structure>
  <varray name="forces" >
   <v>      -0.00000000      -0.00000000      -0.00000000 </v>
   <v>       0.00000000       0.00000000      -0.00011643 </v>
   <v>       0.00000000      -0.00000000       0.00011643 </v>
  </varray>
  <varray name="stress" >
   <v>     -10.08669729      -0.00000000      -0.00000000 </v>
   <v>      -0.00000000     -10.08669729       0.00000000 </v>
   <v>      -0.00000000       0.00000000      -0.25894231 </v>
  </varray>
  <energy>
   <i name="e_fr_energy">    -22.78401852 </i>
   <i name="e_wo_entrp">    -22.78401852 </i>
   <i name="e_0_energy">    -22.78401852 </i>
  </energy>
  <time name="totalsc">    0.30    0.30</time>
 </calculation>
 <calculation>
  <scstep>
   <time name="dav">    0.05    0.05</time>
   <time name="total">    0.08    0.08</time>
   <energy>
    <i name="alphaZ">     26.80221717 </i>
    <i name="ewald">   5505.45156203 </i>
    <i name="hartreedc">  -7606.58504999 </i>
    <i name="XCdc">     90.79592485 </i>
    <i name="pawpsdc">   2927.21565416 </i>
    <i name="pawaedc">  -2906.19256056 </i>
    <i name="eentropy">     -0.00000000 </i>
    <i name="bandstr">   -475.25672646 </i>
    <i name="atom">   2415.92241936 </i>
    <i name="e_fr_energy">    -21.84655945 </i>
    <i name="e_wo_entrp">    -21.84655945 </i>
    <i name="e_0_energy">    -21.84655945 </i>
   </energy>
  </scstep>
  <scstep>
   <time name="dav">    0.05    0.05</time>
   <time name="total">    0.07    0.07</time>
   <energy>
    <i name="alphaZ">     26.80221717 </i>
    <i name="ewald">   5505.45156203 </i>
    <i name="hartreedc">  -7606.58325327 </i>
    <i name="XCdc">     90.79591292 </i>
    <i name="pawpsdc">   2927.21572634 </i>
    <i name="pawaedc">  -2906.19264861 </i>
    <i name="eentropy">     -0.00000000 </i>
    <i name="bandstr">   -475.25849543 </i>
    <i name="atom">   2415.92241936 </i>
    <i name="e_fr_energy">    -21.84655949 </i>
    <i name="e_wo_entrp">    -21.84655949 </i>
    <i name="e_0_energy">    -21.84655949 </i>
   </energy>
  </scstep>
  <structure>
   <crystal>
    <varray name="basis" >
     <v>       3.19223791       0.00000000       0.00000000 </v>
     <v>       1.59611896       2.76455913       0.00000000 </v>
     <v>       0.00000000       0.00000000      20.00000000 </v>
    </varray>
    <i name="volume">    176.50260910 </i>
    <varray name="rec_basis" >
     <v>       0.31325986      -0.18086066       0.00000000 </v>
     <v>       0.00000000       0.36172133       0.00000000 </v>
     <v>       0.00000000       0.00000000       0.05000000 </v>
    </varray>
   </crystal>
   <varray name="positions" >
    <v>      -0.00000000      -0.00000000       0.50000000 </v>
    <v>       0.33333333       0.33333333       0.42229748 </v>
    <v>       0.33333333       0.33333333       0.57770252 </v>
   </varray>
  </structure>
  <varray name="forces" >
   <v>      -0.00000000      -0.00000000       0.00000000 </v>
   <v>       0.00000000       0.00000000      -0.00011775 </v>
   <v>       0.00000000       0.00000000       0.00011775 </v>
  </varray>
  <varray name="stress" >
   <v>     -10.08740318      -0.00000000       0.00000000 </v>
   <v>      -0.00000000     -10.08740318       0.00000000 </v>
   <v>      -0.00000000       0.00000000      -0.25946432 </v>
  </varray>
  <energy>
   <i name="e_fr_energy">    -22.78401864 </i>
   <i name="e_wo_entrp">    -22.78401864 </i>
   <i name="e_0_energy">    -22.78401864 </i>
  </energy>
  <time name="totalsc">    0.30    0.30</time>
 </calculation>
 <calculation>
  <scstep>
   <time name="dav">    0.05    0.05</time>
   <time name="total">    0.08    0.08</time>
   <energy>
    <i name="alphaZ">     26.80221717 </i>
    <i name="ewald">   5505.77783172 </i>
    <i name="hartreedc">  -7606.89848269 </i>
    <i name="XCdc">     90.79707234 </i>
    <i name="pawpsdc">   2927.21668165 </i>
    <i name="pawaedc">  -2906.19358754 </i>
    <i name="eentropy">     -0.00000000 </i>
    <i name="bandstr">   -475.27067481 </i>
    <i name="atom">   2415.92241936 </i>
    <i name="e_fr_energy">    -21.84652280 </i>
    <i name="e_wo_entrp">    -21.84652280 </i>
    <i name="e_0_energy">    -21.84652280 </i>
   </energy>
  </scstep>
  <scstep>
   <time name="dav">    0.06    0.06</time>
   <time name="total">    0.07    0.08</time>
   <energy>
    <i name="alphaZ">     26.80221717 </i>
    <i name="ewald">   5505.77783172 </i>
    <i name="hartreedc">  -7606.90152227 </i>
    <i name="XCdc">     90.79718035 </i>
    <i name="pawpsdc">   2927.43477111 </i>
    <i name="pawaedc">  -2906.41165128 </i>
    <i name="eentropy">     -0.00000000 </i>
    <i name="bandstr">   -475.26776931 </i>
    <i name="atom">   2415.92241936 </i>
    <i name="e_fr_energy">    -21.84652315 </i>
    <i name="e_wo_entrp">    -21.84652315 </i>
    <i name="e_0_energy">    -21.84652315 </i>
   </energy>
  </scstep>
  <structure>
   <crystal>
    <varray name="basis" >
     <v>       3.19223791       0.00000000       0.00000000 </v>
     <v>       1.59611896       2.76455913       0.00000000 </v>
     <v>       0.00000000       0.00000000      20.00000000 </v>
    </varray>
    <i name="volume">    176.50260910 </i>
    <varray name="rec_basis" >
     <v>       0.31325986      -0.18086066       0.00000000 </v>
     <v>       0.00000000       0.36172133       0.00000000 </v>
     <v>       0.00000000       0.00000000       0.05000000 </v>
    </varray>
   </crystal>
   <varray name="positions" >
    <v>       0.00000000       0.00000000       0.50000000 </v>
    <v>       0.33333333       0.33333333       0.42230637 </v>
    <v>       0.33333333       0.33333333       0.57769363 </v>
   </varray>
  </structure>
  <varray name="forces" >
   <v>      -0.00000000      -0.00000000       0.00000000 </v>
   <v>       0.00000000       0.00000000      -0.00274957 </v>
   <v>       0.00000000       0.00000000       0.00274957 </v>
  </varray>
  <varray name="stress" >
   <v>     -10.05257713       0.00000000      -0.00000000 </v>
   <v>       0.00000000     -10.05257713      -0.00000000 </v>
   <v>      -0.00000000       0.00000000      -0.15992347 </v>
  </varray>
  <energy>
   <i name="e_fr_energy">    -22.78401834 </i>
   <i name="e_wo_entrp">    -22.78401834 </i>
   <i name="e_0_energy">    -22.78401834 </i>
  </energy>
  <time name="totalsc">    0.30    0.31</time>
 </calculation>
 <calculation>
  <scstep>
   <time name="dav">    0.05    0.05</time>
   <time name="total">    0.07    0.07</time>
   <energy>
    <i name="alphaZ">     26.80221717 </i>
    <i name="ewald">   5505.43696430 </i>
    <i name="hartreedc">  -7606.56784339 </i>
    <i name="XCdc">     90.79591537 </i>
    <i name="pawpsdc">   2927.50425898 </i>
    <i name="pawaedc">  -2906.48139403 </i>
    <i name="eentropy">     -0.00000000 </i>
    <i name="bandstr">   -475.25909887 </i>
    <i name="atom">   2415.92241936 </i>
    <i name="e_fr_energy">    -21.84656112 </i>
    <i name="e_wo_entrp">    -21.84656112 </i>
    <i name="e_0_energy">    -21.84656112 </i>
   </energy>
  </scstep>
  <scstep>
   <time name="dav">    0.06    0.06</time>
   <time name="total">    0.07    0.07</time>
   <energy>
    <i name="alphaZ">     26.80221717 </i>
    <i name="ewald">   5505.43696430 </i>
    <i name="hartreedc">  -7606.56321896 </i>
    <i name="XCdc">     90.79580254 </i>
    <i name="pawpsdc">   2927.32145963 </i>
    <i name="pawaedc">  -2906.29862915 </i>
    <i name="eentropy">     -0.00000000 </i>
    <i name="bandstr">   -475.26357619 </i>
    <i name="atom">   2415.92241936 </i>
    <i name="e_fr_energy">    -21.84656131 </i>
    <i name="e_wo_entrp">    -21.84656131 </i>
    <i name="e_0_energy">    -21.84656131 </i>
   </energy>
  </scstep>
  <structure>
   <crystal>
    <varray name="basis" >
     <v>       3.19223791       0.00000000       0.00000000 </v>
     <v>       1.59611896       2.76455913       0.00000000 </v>
     <v>       0.00000000       0.00000000      20.00000000 </v>
    </varray>
    <i name="volume">    176.50260910 </i>
    <varray name="rec_basis" >
     <v>       0.31325986      -0.18086066       0.00000000 </v>
     <v>       0.00000000       0.36172133       0.00000000 </v>
     <v>       0.00000000       0.00000000       0.05000000 </v>
    </varray>
   </crystal>
   <varray name="positions" >
    <v>      -0.00000000      -0.00000000       0.50000000 </v>
    <v>       0.33333333       0.33333333       0.42229708 </v>
    <v>       0.33333333       0.33333333       0.57770292 </v>
   </varray>
  </structure>
  <varray name="forces" >
   <v>       0.00000000      -0.00000000       0.00000000 </v>
   <v>      -0.00000000       0.00000000       0.00030978 </v>
   <v>      -0.00000000       0.00000000      -0.00030978 </v>
  </varray>
  <varray name="stress" >
   <v>     -10.08818615      -0.00000000       0.00000000 </v>
   <v>      -0.00000000     -10.08818615       0.00000000 </v>
   <v>       0.00000000      -0.00000000      -0.25210555 </v>
  </varray>
  <energy>
   <i name="e_fr_energy">    -22.78401884 </i>
   <i name="e_wo_entrp">    -22.78401884 </i>
   <i name="e_0_energy">    -22.78401884 </i>
  </energy>
  <time name="totalsc">    0.30    0.31</time>
 </calculation>
 <calculation>
  <scstep>
   <time name="dav">    0.05    0.05</time>
   <time name="total">    0.08    0.08</time>
   <energy>
    <i name="alphaZ">     26.80221717 </i>
    <i name="ewald">   5505.47147965 </i>
    <i name="hartreedc">  -7606.59645364 </i>
    <i name="XCdc">     90.79594911 </i>
    <i name="pawpsdc">   2927.28096112 </i>
    <i name="pawaedc">  -2906.25796781 </i>
    <i name="eentropy">     -0.00000000 </i>
    <i name="bandstr">   -475.26516245 </i>
    <i name="atom">   2415.92241936 </i>
    <i name="e_fr_energy">    -21.84655749 </i>
    <i name="e_wo_entrp">    -21.84655749 </i>
    <i name="e_0_energy">    -21.84655749 </i>
   </energy>
  </scstep>
  <scstep>
   <time name="dav">    0.05    0.05</time>
   <time name="total">    0.06    0.06</time>
   <energy>
    <i name="alphaZ">     26.80221717 </i>
    <i name="ewald">   5505.47147965 </i>
    <i name="hartreedc">  -7606.59517635 </i>
    <i name="XCdc">     90.79595742 </i>
    <i name="pawpsdc">   2927.26851516 </i>
    <i name="pawaedc">  -2906.24548012 </i>
    <i name="eentropy">     -0.00000000 </i>
    <i name="bandstr">   -475.26648980 </i>
    <i name="atom">   2415.92241936 </i>
    <i name="e_fr_energy">    -21.84655751 </i>
    <i name="e_wo_entrp">    -21.84655751 </i>
    <i name="e_0_energy">    -21.84655751 </i>
   </energy>
  </scstep>
  <structure>
   <crystal>
    <varray name="basis" >
     <v>       3.19223791       0.00000000       0.00000000 </v>
     <v>       1.59611896       2.76455913       0.00000000 </v>
     <v>       0.00000000       0.00000000      20.00000000 </v>
    </varray>
    <i name="volume">    176.50260910 </i>
    <varray name="rec_basis" >
     <v>       0.31325986      -0.18086066       0.00000000 </v>
     <v>       0.00000000       0.36172133       0.00000000 </v>
     <v>       0.00000000       0.00000000       0.05000000 </v>
    </varray>
   </crystal>
   <varray name="positions" >
    <v>       0.00000000       0.00000000       0.50000000 </v>
    <v>       0.33333333       0.33333333       0.42229802 </v>
    <v>       0.33333333       0.33333333       0.57770198 </v>
   </varray>
  </structure>
  <varray name="forces" >
   <v>      -0.00000000       0.00000000      -0.00000000 </v>
   <v>      -0.00000000      -0.00000000      -0.00061944 </v>
   <v>       0.00000000       0.00000000       0.00061944 </v>
  </varray>
  <varray name="stress" >
   <v>     -10.08555810       0.00000000      -0.00000000 </v>
   <v>      -0.00000000     -10.08555810      -0.00000000 </v>
   <v>       0.00000000       0.00000000      -0.24858677 </v>
  </varray>
  <energy>
   <i name="e_fr_energy">    -22.78401885 </i>
   <i name="e_wo_entrp">    -22.78401885 </i>
   <i name="e_0_energy">    -22.78401885 </i>
  </energy>
  <time name="totalsc">    0.29    0.30</time>
 </calculation>
 <calculation>
  <scstep>
   <time name="dav">    0.05    0.05</time>
   <time name="total">    0.08    0.08</time>
   <energy>
    <i name="alphaZ">     26.80221717 </i>
    <i name="ewald">   5505.44847095 </i>
    <i name="hartreedc">  -7606.57129453 </i>
    <i name="XCdc">     90.79587512 </i>
    <i name="pawpsdc">   2927.25119709 </i>
    <i name="pawaedc">  -2906.22811966 </i>
    <i name="eentropy">     -0.00000000 </i>
    <i name="bandstr">   -475.26732559 </i>
    <i name="atom">   2415.92241936 </i>
    <i name="e_fr_energy">    -21.84656009 </i>
    <i name="e_wo_entrp">    -21.84656009 </i>
    <i name="e_0_energy">    -21.84656009 </i>
   </energy>
  </scstep>
  <scstep>
   <time name="dav">    0.05    0.05</time>
   <time name="total">    0.07    0.07</time>
   <energy>
    <i name="alphaZ">     26.80221717 </i>
    <i name="ewald">   5505.44847095 </i>
    <i name="hartreedc">  -7606.57000596 </i>
    <i name="XCdc">     90.79585759 </i>
    <i name="pawpsdc">   2927.23962609 </i>
    <i name="pawaedc">  -2906.21657065 </i>
    <i name="eentropy">     -0.00000000 </i>
    <i name="bandstr">   -475.26857465 </i>
    <i name="atom">   2415.92241936 </i>
    <i name="e_fr_energy">    -21.84656010 </i>
    <i name="e_wo_entrp">    -21.84656010 </i>
    <i name="e_0_energy">    -21.84656010 </i>
   </energy>
  </scstep>
  <structure>
   <crystal>
    <varray name="basis" >
     <v>       3.19223791       0.00000000       0.00000000 </v>
     <v>       1.59611896       2.76455913       0.00000000 </v>
     <v>       0.00000000       0.00000000      20.00000000 </v>
    </varray>
    <i name="volume">    176.50260910 </i>
    <varray name="rec_basis" >
     <v>       0.31325986      -0.18086066       0.00000000 </v>
     <v>       0.00000000       0.36172133       0.00000000 </v>
     <v>       0.00000000       0.00000000       0.05000000 </v>
    </varray>
   </crystal>
   <varray name="positions" >
    <v>      -0.00000000      -0.00000000       0.50000000 </v>
    <v>       0.33333333       0.33333333       0.42229739 </v>
    <v>       0.33333333       0.33333333       0.57770261 </v>
   </varray>
  </structure>
  <varray name="forces" >
   <v>       0.00000000      -0.00000000      -0.00000000 </v>
   <v>      -0.00000000       0.00000000       0.00004067 </v>
   <v>      -0.00000000      -0.00000000      -0.00004067 </v>
  </varray>
  <varray name="stress" >
   <v>     -10.08761878      -0.00000000      -0.00000000 </v>
   <v>      -0.00000000     -10.08761878      -0.00000000 </v>
   <v>       0.00000000       0.00000000      -0.25267958 </v>
  </varray>
  <energy>
   <i name="e_fr_energy">    -22.78401890 </i>
   <i name="e_wo_entrp">    -22.78401890 </i>
   <i name="e_0_energy">    -22.78401890 </i>
  </energy>
  <time name="totalsc">    0.28    0.29</time>
  <eigenvalues>
   <array>
    <dimension dim="1">band</dimension>
    <dimension dim="2">kpoint</dimension>
    <dimension dim="3">spin</dimension>
    <field>eigene</field>
    <field>occ</field>
    <set>
     <set comment="spin 1">
      <set comment="kpoint 1">
       <r>  -62.9351    1.0000 </r>
       <r>  -37.0704    1.0000 </r>
       <r>  -36.8773    1.0000 </r>
       <r>  -36.8773    1.0000 </r>
       <r>  -16.1273    1.0000 </r>
       <r>  -14.8032    1.0000 </r>
       <r>   -7.6573    1.0000 </r>
       <r>   -4.7114    1.0000 </r>
       <r>   -4.7114    1.0000 </r>
       <r>   -3.7836    1.0000 </r>
       <r>   -3.6043    1.0000 </r>
       <r>   -3.6043    1.0000 </r>
       <r>   -2.0132    1.0000 </r>
       <r>    0.6807    0.0000 </r>
       <r>    0.6807    0.0000 </r>
       <r>    0.9485    0.0000 </r>
       <r>    0.9485    0.0000 </r>
       <r>    3.3445    0.0000 </r>
       <r>    3.5800    0.0000 </r>
       <r>    4.0975    0.0000 </r>
       <r>    4.5009    0.0000 </r>
       <r>    5.4530    0.0000 </r>
      </set>
      <set comment="kpoint 2">
       <r>  -62.9335    1.0000 </r>
       <r>  -37.0672    1.0000 </r>
       <r>  -36.8934    1.0000 </r>
       <r>  -36.8810    1.0000 </r>
       <r>  -16.0623    1.0000 </r>
       <r>  -14.7771    1.0000 </r>
       <r>   -7.5826    1.0000 </r>
       <r>   -4.8587    1.0000 </r>
       <r>   -4.6432    1.0000 </r>
       <r>   -4.1865    1.0000 </r>
       <r>   -3.7098    1.0000 </r>
       <r>   -3.2971    1.0000 </r>
       <r>   -2.0477    1.0000 </r>
       <r>    0.5887    0.0000 </r>
       <r>    0.7655    0.0000 </r>
       <r>    0.7988    0.0000 </r>
       <r>    0.8731    0.0000 </r>
       <r>    3.4704    0.0000 </r>
       <r>    3.6664    0.0000 </r>
       <r>    4.3155    0.0000 </r>
       <r>    4.6617    0.0000 </r>
       <r>    5.5361    0.0000 </r>
      </set>
      <set comment="kpoint 3">
       <r>  -62.9291    1.0000 </r>
       <r>  -37.0584    1.0000 </r>
       <r>  -36.9384    1.0000 </r>
       <r>  -36.8913    1.0000 </r>
       <r>  -15.8736    1.0000 </r>
       <r>  -14.7013    1.0000 </r>
       <r>   -7.3797    1.0000 </r>
       <r>   -5.2301    1.0000 </r>
       <r>   -4.6991    1.0000 </r>
       <r>   -4.4474    1.0000 </r>
       <r>   -3.9786    1.0000 </r>
       <r>   -3.1159    1.0000 </r>
       <r>   -2.1874    1.0000 </r>
       <r>    0.4095    0.0000 </r>
       <r>    0.4816    0.0000 </r>
       <r>    0.6806    0.0000 </r>
       <r>    1.0957    0.0000 </r>
       <r>    3.7618    0.0000 </r>
       <r>    3.9199    0.0000 </r>
       <r>    4.6903    0.0000 </r>
       <r>    5.3076    0.0000 </r>
       <r>    5.7800    0.0000 </r>
      </set>
      <set comment="kpoint 4">
       <r>  -62.9227    1.0000 </r>
       <r>  -37.0454    1.0000 </r>
       <r>  -37.0042    1.0000 </r>
       <r>  -36.9064    1.0000 </r>
       <r>  -15.5812    1.0000 </r>
       <r>  -14.5843    1.0000 </r>
       <r>   -7.1343    1.0000 </r>
       <r>   -5.6590    1.0000 </r>
       <r>   -5.2231    1.0000 </r>
       <r>   -4.3177    1.0000 </r>
       <r>   -4.1520    1.0000 </r>
       <r>   -3.1912    1.0000 </r>
       <r>   -2.4828    1.0000 </r>
       <r>    0.1717    0.0000 </r>
       <r>    0.4473    0.0000 </r>
       <r>    0.5980    0.0000 </r>
       <r>    1.4557    0.0000 </r>
       <r>    4.1654    0.0000 </r>
       <r>    4.3264    0.0000 </r>
       <r>    5.1170    0.0000 </r>
       <r>    6.1427    0.0000 </r>
       <r>    6.1632    0.0000 </r>
      </set>
      <set comment="kpoint 5">
       <r>  -62.9152    1.0000 </r>
       <r>  -37.0790    1.0000 </r>
       <r>  -37.0304    1.0000 </r>
       <r>  -36.9237    1.0000 </r>
       <r>  -15.2194    1.0000 </r>
       <r>  -14.4409    1.0000 </r>
       <r>   -7.0600    1.0000 </r>
       <r>   -5.9199    1.0000 </r>
       <r>   -5.7385    1.0000 </r>
       <r>   -4.6508    1.0000 </r>
       <r>   -3.8053    1.0000 </r>
       <r>   -3.4185    1.0000 </r>
       <r>   -2.8377    1.0000 </r>
       <r>    0.1558    0.0000 </r>
       <r>    0.2496    0.0000 </r>
       <r>    0.9347    0.0000 </r>
       <r>    1.7823    0.0000 </r>
       <r>    4.6585    0.0000 </r>
       <r>    4.8555    0.0000 </r>
       <r>    5.6543    0.0000 </r>
       <r>    6.4339    0.0000 </r>
       <r>    6.5522    0.0000 </r>
      </set>
      <set comment="kpoint 6">
       <r>  -62.9081    1.0000 </r>
       <r>  -37.1496    1.0000 </r>
       <r>  -37.0160    1.0000 </r>
       <r>  -36.9402    1.0000 </r>
       <r>  -14.8392    1.0000 </r>
       <r>  -14.2929    1.0000 </r>
       <r>   -7.2878    1.0000 </r>
       <r>   -6.2084    1.0000 </r>
       <r>   -5.9596    1.0000 </r>
       <r>   -4.9301    1.0000 </r>
       <r>   -3.6479    1.0000 </r>
       <r>   -3.4734    1.0000 </r>
       <r>   -3.0101    1.0000 </r>
       <r>    0.1384    0.0000 </r>
       <r>    0.2935    0.0000 </r>
       <r>    1.3340    0.0000 </r>
       <r>    2.0256    0.0000 </r>
       <r>    5.1439    0.0000 </r>
       <r>    5.4133    0.0000 </r>
       <r>    5.8328    0.0000 </r>
       <r>    6.3354    0.0000 </r>
       <r>    6.4480    0.0000 </r>
      </set>
      <set comment="kpoint 7">
       <r>  -62.9025    1.0000 </r>
       <r>  -37.2043    1.0000 </r>
       <r>  -37.0047    1.0000 </r>
       <r>  -36.9530    1.0000 </r>
       <r>  -14.5107    1.0000 </r>
       <r>  -14.1684    1.0000 </r>
       <r>   -7.5868    1.0000 </r>
       <r>   -6.5741    1.0000 </r>
       <r>   -6.0227    1.0000 </r>
       <r>   -5.1283    1.0000 </r>
       <r>   -3.8073    1.0000 </r>
       <r>   -3.2225    1.0000 </r>
       <r>   -2.8973    1.0000 </r>
       <r>    0.1194    0.0000 </r>
       <r>    0.4884    0.0000 </r>
       <r>    1.6470    0.0000 </r>
       <r>    2.1769    0.0000 </r>
       <r>    4.7860    0.0000 </r>
       <r>    5.7372    0.0000 </r>
       <r>    5.8019    0.0000 </r>
       <r>    6.5858    0.0000 </r>
       <r>    7.0795    0.0000 </r>
      </set>
      <set comment="kpoint 8">
       <r>  -62.8994    1.0000 </r>
       <r>  -37.2340    1.0000 </r>
       <r>  -36.9986    1.0000 </r>
       <r>  -36.9600    1.0000 </r>
       <r>  -14.3156    1.0000 </r>
       <r>  -14.0965    1.0000 </r>
       <r>   -7.7760    1.0000 </r>
       <r>   -6.7757    1.0000 </r>
       <r>   -6.1053    1.0000 </r>
       <r>   -5.2306    1.0000 </r>
       <r>   -3.8847    1.0000 </r>
       <r>   -3.0924    1.0000 </r>
       <r>   -2.7108    1.0000 </r>
       <r>    0.1419    0.0000 </r>
       <r>    0.6435    0.0000 </r>
       <r>    1.8019    0.0000 </r>
       <r>    2.2471    0.0000 </r>
       <r>    4.1912    0.0000 </r>
       <r>    5.8546    0.0000 </r>
       <r>    6.1403    0.0000 </r>
       <r>    6.8827    0.0000 </r>
       <r>    7.6374    0.0000 </r>
      </set>
      <set comment="kpoint 9">
       <r>  -62.9306    1.0000 </r>
       <r>  -37.0613    1.0000 </r>
       <r>  -36.9234    1.0000 </r>
       <r>  -36.8885    1.0000 </r>
       <r>  -15.9353    1.0000 </r>
       <r>  -14.7261    1.0000 </r>
       <r>   -7.4429    1.0000 </r>
       <r>   -5.1154    1.0000 </r>
       <r>   -4.5410    1.0000 </r>
       <r>   -4.5139    1.0000 </r>
       <r>   -3.9448    1.0000 </r>
       <r>   -3.1029    1.0000 </r>
       <r>   -2.1349    1.0000 </r>
       <r>    0.4665    0.0000 </r>
       <r>    0.5070    0.0000 </r>
       <r>    0.7312    0.0000 </r>
       <r>    1.0265    0.0000 </r>
       <r>    3.6741    0.0000 </r>
       <r>    3.8365    0.0000 </r>
       <r>    4.5931    0.0000 </r>
       <r>    5.0920    0.0000 </r>
       <r>    5.6999    0.0000 </r>
      </set>
      <set comment="kpoint 10">
       <r>  -62.9251    1.0000 </r>
       <r>  -37.0503    1.0000 </r>
       <r>  -36.9774    1.0000 </r>
       <r>  -36.9026    1.0000 </r>
       <r>  -15.6946    1.0000 </r>
       <r>  -14.6295    1.0000 </r>
       <r>   -7.2104    1.0000 </r>
       <r>   -5.5082    1.0000 </r>
       <r>   -4.9822    1.0000 </r>
       <r>   -4.3332    1.0000 </r>
       <r>   -4.2811    1.0000 </r>
       <r>   -3.0277    1.0000 </r>
       <r>   -2.3566    1.0000 </r>
       <r>    0.2170    0.0000 </r>
       <r>    0.4313    0.0000 </r>
       <r>    0.5224    0.0000 </r>
       <r>    1.3880    0.0000 </r>
       <r>    4.0189    0.0000 </r>
       <r>    4.1678    0.0000 </r>
       <r>    4.9630    0.0000 </r>
       <r>    5.9215    0.0000 </r>
       <r>    6.0170    0.0000 </r>
      </set>
      <set comment="kpoint 11">
       <r>  -62.9182    1.0000 </r>
       <r>  -37.0458    1.0000 </r>
       <r>  -37.0363    1.0000 </r>
       <r>  -36.9206    1.0000 </r>
       <r>  -15.3666    1.0000 </r>
       <r>  -14.4984    1.0000 </r>
       <r>   -7.0285    1.0000 </r>
       <r>   -5.8425    1.0000 </r>
       <r>   -5.4753    1.0000 </r>
       <r>   -4.7019    1.0000 </r>
       <r>   -4.0000    1.0000 </r>
       <r>   -3.1668    1.0000 </r>
       <r>   -2.6899    1.0000 </r>
       <r>    0.0593    0.0000 </r>
       <r>    0.3648    0.0000 </r>
       <r>    0.6358    0.0000 </r>
       <r>    1.7502    0.0000 </r>
       <r>    4.4762    0.0000 </r>
       <r>    4.6408    0.0000 </r>
       <r>    5.4488    0.0000 </r>
       <r>    6.4465    0.0000 </r>
       <r>    6.5791    0.0000 </r>
      </set>
      <set comment="kpoint 12">
       <r>  -62.9109    1.0000 </r>
       <r>  -37.1165    1.0000 </r>
       <r>  -37.0216    1.0000 </r>
       <r>  -36.9395    1.0000 </r>
       <r>  -14.9935    1.0000 </r>
       <r>  -14.3509    1.0000 </r>
       <r>   -7.1234    1.0000 </r>
       <r>   -5.9891    1.0000 </r>
       <r>   -5.9316    1.0000 </r>
       <r>   -4.9668    1.0000 </r>
       <r>   -3.7630    1.0000 </r>
       <r>   -3.4188    1.0000 </r>
       <r>   -2.9225    1.0000 </r>
       <r>    0.0386    0.0000 </r>
       <r>    0.3347    0.0000 </r>
       <r>    1.0055    0.0000 </r>
       <r>    2.0267    0.0000 </r>
       <r>    5.0005    0.0000 </r>
       <r>    5.2093    0.0000 </r>
       <r>    6.0474    0.0000 </r>
       <r>    6.3285    0.0000 </r>
       <r>    6.6751    0.0000 </r>
      </set>
      <set comment="kpoint 13">
       <r>  -62.9045    1.0000 </r>
       <r>  -37.1775    1.0000 </r>
       <r>  -37.0088    1.0000 </r>
       <r>  -36.9558    1.0000 </r>
       <r>  -14.6351    1.0000 </r>
       <r>  -14.2119    1.0000 </r>
       <r>   -7.4033    1.0000 </r>
       <r>   -6.4409    1.0000 </r>
       <r>   -5.9519    1.0000 </r>
       <r>   -5.1310    1.0000 </r>
       <r>   -3.6613    1.0000 </r>
       <r>   -3.6052    1.0000 </r>
       <r>   -2.8666    1.0000 </r>
       <r>    0.1014    0.0000 </r>
       <r>    0.4241    0.0000 </r>
       <r>    1.3983    0.0000 </r>
       <r>    2.1686    0.0000 </r>
       <r>    5.2126    0.0000 </r>
       <r>    5.7392    0.0000 </r>
       <r>    5.7748    0.0000 </r>
       <r>    6.6064    0.0000 </r>
       <r>    6.7806    0.0000 </r>
      </set>
      <set comment="kpoint 14">
       <r>  -62.9002    1.0000 </r>
       <r>  -37.2185    1.0000 </r>
       <r>  -37.0001    1.0000 </r>
       <r>  -36.9669    1.0000 </r>
       <r>  -14.3683    1.0000 </r>
       <r>  -14.1111    1.0000 </r>
       <r>   -7.6441    1.0000 </r>
       <r>   -6.7491    1.0000 </r>
       <r>   -6.0441    1.0000 </r>
       <r>   -5.2178    1.0000 </r>
       <r>   -3.8260    1.0000 </r>
       <r>   -3.4680    1.0000 </r>
       <r>   -2.6675    1.0000 </r>
       <r>    0.1555    0.0000 </r>
       <r>    0.5924    0.0000 </r>
       <r>    1.7210    0.0000 </r>
       <r>    2.1625    0.0000 </r>
       <r>    4.5124    0.0000 </r>
       <r>    6.0542    0.0000 </r>
       <r>    6.1592    0.0000 </r>
       <r>    6.8443    0.0000 </r>
       <r>    7.5472    0.0000 </r>
      </set>
      <set comment="kpoint 15">
       <r>  -62.8986    1.0000 </r>
       <r>  -37.2330    1.0000 </r>
       <r>  -36.9970    1.0000 </r>
       <r>  -36.9708    1.0000 </r>
       <r>  -14.2683    1.0000 </r>
       <r>  -14.0739    1.0000 </r>
       <r>   -7.7365    1.0000 </r>
       <r>   -6.8585    1.0000 </r>
       <r>   -6.0969    1.0000 </r>
       <r>   -5.2446    1.0000 </r>
       <r>   -3.8836    1.0000 </r>
       <r>   -3.4109    1.0000 </r>
       <r>   -2.5594    1.0000 </r>
       <r>    0.1642    0.0000 </r>
       <r>    0.6945    0.0000 </r>
       <r>    1.8916    0.0000 </r>
       <r>    2.0899    0.0000 </r>
       <r>    4.1837    0.0000 </r>
       <r>    6.1917    0.0000 </r>
       <r>    6.3978    0.0000 </r>
       <r>    6.9554    0.0000 </r>
       <r>    7.7443    0.0000 </r>
      </set>
      <set comment="kpoint 16">
       <r>  -62.9192    1.0000 </r>
       <r>  -37.0384    1.0000 </r>
       <r>  -37.0316    1.0000 </r>
       <r>  -36.9221    1.0000 </r>
       <r>  -15.4176    1.0000 </r>
       <r>  -14.5181    1.0000 </r>
       <r>   -7.0203    1.0000 </r>
       <r>   -5.7974    1.0000 </r>
       <r>   -5.2896    1.0000 </r>
       <r>   -4.8658    1.0000 </r>
       <r>   -4.0929    1.0000 </r>
       <r>   -2.9884    1.0000 </r>
       <r>   -2.6272    1.0000 </r>
       <r>    0.0136    0.0000 </r>
       <r>    0.4049    0.0000 </r>
       <r>    0.4498    0.0000 </r>
       <r>    1.7768    0.0000 </r>
       <r>    4.4211    0.0000 </r>
       <r>    4.5690    0.0000 </r>
       <r>    5.3872    0.0000 </r>
       <r>    6.3955    0.0000 </r>
       <r>    6.7248    0.0000 </r>
      </set>
      <set comment="kpoint 17">
       <r>  -62.9124    1.0000 </r>
       <r>  -37.0918    1.0000 </r>
       <r>  -37.0247    1.0000 </r>
       <r>  -36.9458    1.0000 </r>
       <r>  -15.0760    1.0000 </r>
       <r>  -14.3808    1.0000 </r>
       <r>   -7.0003    1.0000 </r>
       <r>   -5.8962    1.0000 </r>
       <r>   -5.7709    1.0000 </r>
       <r>   -5.1811    1.0000 </r>
       <r>   -4.0164    1.0000 </r>
       <r>   -3.1351    1.0000 </r>
       <r>   -2.8504    1.0000 </r>
       <r>   -0.0802    0.0000 </r>
       <r>    0.4004    0.0000 </r>
       <r>    0.6635    0.0000 </r>
       <r>    2.0981    0.0000 </r>
       <r>    4.9306    0.0000 </r>
       <r>    5.0976    0.0000 </r>
       <r>    5.9478    0.0000 </r>
       <r>    6.8076    0.0000 </r>
       <r>    6.8439    0.0000 </r>
      </set>
      <set comment="kpoint 18">
       <r>  -62.9059    1.0000 </r>
       <r>  -37.1484    1.0000 </r>
       <r>  -37.0116    1.0000 </r>
       <r>  -36.9690    1.0000 </r>
       <r>  -14.7193    1.0000 </r>
       <r>  -14.2384    1.0000 </r>
       <r>   -7.1905    1.0000 </r>
       <r>   -6.3203    1.0000 </r>
       <r>   -5.8493    1.0000 </r>
       <r>   -5.2678    1.0000 </r>
       <r>   -4.0853    1.0000 </r>
       <r>   -3.4058    1.0000 </r>
       <r>   -2.8440    1.0000 </r>
       <r>    0.0264    0.0000 </r>
       <r>    0.4399    0.0000 </r>
       <r>    1.0050    0.0000 </r>
       <r>    2.2763    0.0000 </r>
       <r>    5.4260    0.0000 </r>
       <r>    5.6980    0.0000 </r>
       <r>    6.1476    0.0000 </r>
       <r>    6.6398    0.0000 </r>
       <r>    7.0020    0.0000 </r>
      </set>
      <set comment="kpoint 19">
       <r>  -62.9008    1.0000 </r>
       <r>  -37.1920    1.0000 </r>
       <r>  -37.0013    1.0000 </r>
       <r>  -36.9872    1.0000 </r>
       <r>  -14.4139    1.0000 </r>
       <r>  -14.1179    1.0000 </r>
       <r>   -7.4033    1.0000 </r>
       <r>   -6.7499    1.0000 </r>
       <r>   -5.9115    1.0000 </r>
       <r>   -5.2587    1.0000 </r>
       <r>   -4.0992    1.0000 </r>
       <r>   -3.6831    1.0000 </r>
       <r>   -2.6659    1.0000 </r>
       <r>    0.1648    0.0000 </r>
       <r>    0.5611    0.0000 </r>
       <r>    1.3544    0.0000 </r>
       <r>    2.2921    0.0000 </r>
       <r>    5.0362    0.0000 </r>
       <r>    6.2734    0.0000 </r>
       <r>    6.2772    0.0000 </r>
       <r>    7.1059    0.0000 </r>
       <r>    7.4180    0.0000 </r>
      </set>
      <set comment="kpoint 20">
       <r>  -62.8980    1.0000 </r>
       <r>  -37.2157    1.0000 </r>
       <r>  -36.9972    1.0000 </r>
       <r>  -36.9956    1.0000 </r>
       <r>  -14.2343    1.0000 </r>
       <r>  -14.0479    1.0000 </r>
       <r>   -7.5301    1.0000 </r>
       <r>   -6.9828    1.0000 </r>
       <r>   -6.0217    1.0000 </r>
       <r>   -5.2233    1.0000 </r>
       <r>   -4.0616    1.0000 </r>
       <r>   -3.8618    1.0000 </r>
       <r>   -2.4764    1.0000 </r>
       <r>    0.1276    0.0000 </r>
       <r>    0.7944    0.0000 </r>
       <r>    1.6106    0.0000 </r>
       <r>    2.2057    0.0000 </r>
       <r>    4.4684    0.0000 </r>
       <r>    6.7803    0.0000 </r>
       <r>    6.7848    0.0000 </r>
       <r>    7.1699    0.0000 </r>
       <r>    7.7018    0.0000 </r>
      </set>
      <set comment="kpoint 21">
       <r>  -62.9064    1.0000 </r>
       <r>  -37.1345    1.0000 </r>
       <r>  -37.0125    1.0000 </r>
       <r>  -36.9772    1.0000 </r>
       <r>  -14.7489    1.0000 </r>
       <r>  -14.2472    1.0000 </r>
       <r>   -7.0920    1.0000 </r>
       <r>   -6.2594    1.0000 </r>
       <r>   -5.7882    1.0000 </r>
       <r>   -5.3546    1.0000 </r>
       <r>   -4.3055    1.0000 </r>
       <r>   -3.2756    1.0000 </r>
       <r>   -2.8451    1.0000 </r>
       <r>   -0.0136    0.0000 </r>
       <r>    0.4556    0.0000 </r>
       <r>    0.8203    0.0000 </r>
       <r>    2.3359    0.0000 </r>
       <r>    5.4495    0.0000 </r>
       <r>    5.6668    0.0000 </r>
       <r>    6.4264    0.0000 </r>
       <r>    6.6029    0.0000 </r>
       <r>    7.2372    0.0000 </r>
      </set>
      <set comment="kpoint 22">
       <r>  -62.9011    1.0000 </r>
       <r>  -37.1682    1.0000 </r>
       <r>  -37.0078    1.0000 </r>
       <r>  -37.0019    1.0000 </r>
       <r>  -14.4403    1.0000 </r>
       <r>  -14.1200    1.0000 </r>
       <r>   -7.1978    1.0000 </r>
       <r>   -6.7530    1.0000 </r>
       <r>   -5.7311    1.0000 </r>
       <r>   -5.3129    1.0000 </r>
       <r>   -4.6347    1.0000 </r>
       <r>   -3.5487    1.0000 </r>
       <r>   -2.6969    1.0000 </r>
       <r>    0.1488    0.0000 </r>
       <r>    0.5610    0.0000 </r>
       <r>    1.0486    0.0000 </r>
       <r>    2.4484    0.0000 </r>
       <r>    5.5369    0.0000 </r>
       <r>    6.2750    0.0000 </r>
       <r>    6.2863    0.0000 </r>
       <r>    7.2306    0.0000 </r>
       <r>    7.4928    0.0000 </r>
      </set>
      <set comment="kpoint 23">
       <r>  -62.8975    1.0000 </r>
       <r>  -37.1894    1.0000 </r>
       <r>  -37.0301    1.0000 </r>
       <r>  -36.9947    1.0000 </r>
       <r>  -14.2153    1.0000 </r>
       <r>  -14.0266    1.0000 </r>
       <r>   -7.2457    1.0000 </r>
       <r>   -7.0917    1.0000 </r>
       <r>   -5.8686    1.0000 </r>
       <r>   -5.1946    1.0000 </r>
       <r>   -4.7668    1.0000 </r>
       <r>   -3.8286    1.0000 </r>
       <r>   -2.4624    1.0000 </r>
       <r>    0.0350    0.0000 </r>
       <r>    0.9038    0.0000 </r>
       <r>    1.2364    0.0000 </r>
       <r>    2.4758    0.0000 </r>
       <r>    4.9462    0.0000 </r>
       <r>    6.6034    0.0000 </r>
       <r>    6.8734    0.0000 </r>
       <r>    7.4529    0.0000 </r>
       <r>    7.8192    0.0000 </r>
      </set>
      <set comment="kpoint 24">
       <r>  -62.8962    1.0000 </r>
       <r>  -37.1965    1.0000 </r>
       <r>  -37.0383    1.0000 </r>
       <r>  -36.9922    1.0000 </r>
       <r>  -14.1322    1.0000 </r>
       <r>  -13.9921    1.0000 </r>
       <r>   -7.2508    1.0000 </r>
       <r>   -7.2113    1.0000 </r>
       <r>   -5.9723    1.0000 </r>
       <r>   -5.1250    1.0000 </r>
       <r>   -4.7835    1.0000 </r>
       <r>   -3.9564    1.0000 </r>
       <r>   -2.3295    1.0000 </r>
       <r>   -0.0750    0.0000 </r>
       <r>    1.0980    0.0000 </r>
       <r>    1.3078    0.0000 </r>
       <r>    2.4746    0.0000 </r>
       <r>    4.6542    0.0000 </r>
       <r>    6.7270    0.0000 </r>
       <r>    7.2137    0.0000 </r>
       <r>    7.5819    0.0000 </r>
       <r>    7.9610    0.0000 </r>
      </set>
      <set comment="kpoint 25">
       <r>  -62.8973    1.0000 </r>
       <r>  -37.1739    1.0000 </r>
       <r>  -37.0480    1.0000 </r>
       <r>  -36.9944    1.0000 </r>
       <r>  -14.2094    1.0000 </r>
       <r>  -14.0184    1.0000 </r>
       <r>   -7.1343    1.0000 </r>
       <r>   -7.0972    1.0000 </r>
       <r>   -5.6883    1.0000 </r>
       <r>   -5.1908    1.0000 </r>
       <r>   -5.1835    1.0000 </r>
       <r>   -3.8103    1.0000 </r>
       <r>   -2.4638    1.0000 </r>
       <r>   -0.0104    0.0000 </r>
       <r>    0.9472    0.0000 </r>
       <r>    1.0896    0.0000 </r>
       <r>    2.5929    0.0000 </r>
       <r>    5.3168    0.0000 </r>
       <r>    6.1933    0.0000 </r>
       <r>    6.8784    0.0000 </r>
       <r>    7.4543    0.0000 </r>
       <r>    8.0571    0.0000 </r>
      </set>
      <set comment="kpoint 26">
       <r>  -62.8953    1.0000 </r>
       <r>  -37.1702    1.0000 </r>
       <r>  -37.0768    1.0000 </r>
       <r>  -36.9903    1.0000 </r>
       <r>  -14.0778    1.0000 </r>
       <r>  -13.9588    1.0000 </r>
       <r>   -7.3496    1.0000 </r>
       <r>   -6.9249    1.0000 </r>
       <r>   -5.8966    1.0000 </r>
       <r>   -5.4060    1.0000 </r>
       <r>   -5.0186    1.0000 </r>
       <r>   -4.0506    1.0000 </r>
       <r>   -2.2217    1.0000 </r>
       <r>   -0.2694    0.0000 </r>
       <r>    1.1020    0.0000 </r>
       <r>    1.3037    0.0000 </r>
       <r>    2.6905    0.0000 </r>
       <r>    5.0162    0.0000 </r>
       <r>    5.9965    0.0000 </r>
       <r>    7.3456    0.0000 </r>
       <r>    7.9874    0.0000 </r>
       <r>    8.6483    0.0000 </r>
      </set>
      <set comment="kpoint 27">
       <r>  -62.8945    1.0000 </r>
       <r>  -37.1495    1.0000 </r>
       <r>  -37.1072    1.0000 </r>
       <r>  -36.9887    1.0000 </r>
       <r>  -14.0287    1.0000 </r>
       <r>  -13.9335    1.0000 </r>
       <r>   -7.4442    1.0000 </r>
       <r>   -6.6236    1.0000 </r>
       <r>   -6.1077    1.0000 </r>
       <r>   -5.6232    1.0000 </r>
       <r>   -4.9029    1.0000 </r>
       <r>   -4.1824    1.0000 </r>
       <r>   -2.0871    1.0000 </r>
       <r>   -0.4430    0.0000 </r>
       <r>    1.0455    0.0000 </r>
       <r>    1.4791    0.0000 </r>
       <r>    2.7853    0.0000 </r>
       <r>    5.1657    0.0000 </r>
       <r>    5.5879    0.0000 </r>
       <r>    7.5593    0.0000 </r>
       <r>    8.3706    0.0000 </r>
       <r>    9.0637    0.0000 </r>
      </set>
     </set>
    </set>
   </array>
  </eigenvalues>
  <separator name="orbital magnetization" >
   <v name="MAGDIPOLOUT">      0.00000000      0.00000000      0.00000000</v>
  </separator>
 </calculation>
 <structure name="finalpos" >
  <crystal>
   <varray name="basis" >
    <v>       3.19223791       0.00000000       0.00000000 </v>
    <v>       1.59611896       2.76455913       0.00000000 </v>
    <v>       0.00000000       0.00000000      20.00000000 </v>
   </varray>
   <i name="volume">    176.50260910 </i>
   <varray name="rec_basis" >
    <v>       0.31325986      -0.18086066       0.00000000 </v>
    <v>       0.00000000       0.36172133       0.00000000 </v>
    <v>       0.00000000       0.00000000       0.05000000 </v>
   </varray>
  </crystal>
  <varray name="positions" >
   <v>      -0.00000000      -0.00000000       0.50000000 </v>
   <v>       0.33333333       0.33333333       0.42229739 </v>
   <v>       0.33333333       0.33333333       0.57770261 </v>
  </varray>
 </structure>
</modeling>
