   27   27    1    1
  0.6434983E+02  0.1001556E-08  0.1001556E-08  0.2000000E-08  0.5000000E-15
  1.000000000000000E-004
  CAR 
 TaS2 phonon                             
    207     13    132
 
  0.1276756E-14  0.1276756E-14  0.1276756E-14  0.4000000E-01
      1        -37.395619   1.000000
      2        -37.395085   1.000000
      3        -37.394509   1.000000
      4        -37.394264   1.000000
      5        -37.394071   1.000000
      6        -37.393671   1.000000
      7        -37.393195   1.000000
      8        -37.392683   1.000000
      9        -37.359927   1.000000
     10        -37.359351   1.000000
     11        -37.280164   1.000000
     12        -37.239258   1.000000
     13        -37.239201   1.000000
     14        -37.238203   1.000000
     15        -37.238082   1.000000
     16        -37.237068   1.000000
     17        -37.237011   1.000000
     18        -37.226557   1.000000
     19        -37.226240   1.000000
     20        -37.225220   1.000000
     21        -37.225182   1.000000
     22        -37.224188   1.000000
     23        -37.223847   1.000000
     24        -37.216997   1.000000
     25        -37.216850   1.000000
     26        -37.174065   1.000000
     27        -37.173816   1.000000
     28        -16.737922   1.000000
     29        -15.532565   1.000000
     30        -15.530063   1.000000
     31        -15.529940   1.000000
     32        -15.529790   1.000000
     33        -15.529517   1.000000
     34        -15.527353   1.000000
     35        -15.170802   1.000000
     36        -14.821772   1.000000
     37        -14.818640   1.000000
     38        -14.818575   1.000000
     39        -14.818329   1.000000
     40        -14.818075   1.000000
     41        -14.816073   1.000000
     42        -14.792189   1.000000
     43        -14.791067   1.000000
     44        -14.576606   1.000000
     45        -14.573984   1.000000
     46         -8.281524   1.000000
     47         -7.825975   1.000000
     48         -7.825180   1.000000
     49         -7.824703   1.000000
     50         -7.824607   1.000000
     51         -7.824077   1.000000
     52         -7.823353   1.000000
     53         -7.660440   1.000000
     54         -7.659815   1.000000
     55         -7.396930   1.000000
     56         -7.396929   1.000000
     57         -6.739834   1.000000
     58         -6.737537   1.000000
     59         -6.737474   1.000000
     60         -6.737441   1.000000
     61         -6.737305   1.000000
     62         -6.735180   1.000000
     63         -6.610019   1.000000
     64         -6.609932   1.000000
     65         -6.516810   1.000000
     66         -6.516423   1.000000
     67         -6.515107   1.000000
     68         -6.515068   1.000000
     69         -6.513637   1.000000
     70         -6.513417   1.000000
     71         -6.204039   1.000000
     72         -6.202817   1.000000
     73         -5.436295   1.000000
     74         -5.436277   1.000000
     75         -5.337530   1.000000
     76         -5.334110   1.000000
     77         -5.333498   1.000000
     78         -5.333451   1.000000
     79         -5.332855   1.000000
     80         -5.329994   1.000000
     81         -5.178576   1.000000
     82         -5.177587   1.000000
     83         -4.479972   1.000000
     84         -4.476916   1.000000
     85         -4.256524   1.000000
     86         -4.253957   1.000000
     87         -4.253366   1.000000
     88         -4.253360   1.000000
     89         -4.253002   1.000000
     90         -4.250486   1.000000
     91         -4.240191   1.000000
     92         -4.131437   1.000000
     93         -4.128867   1.000000
     94         -4.128576   1.000000
     95         -4.128557   1.000000
     96         -4.128285   1.000000
     97         -4.125731   1.000000
     98         -4.049816   1.000000
     99         -4.045698   1.000000
    100         -3.068550   1.000000
    101         -3.067158   1.000000
    102         -3.066710   1.000000
    103         -3.066678   1.000000
    104         -3.066232   1.000000
    105         -3.064716   1.000000
    106         -2.044013   0.000000
    107         -2.042773   0.000000
    108         -1.681267   0.000000
    109         -0.387469   0.000000
    110         -0.387429   0.000000
    111          0.497430   0.000000
    112          0.500451   0.000000
    113          0.501986   0.000000
    114          0.502708   0.000000
    115          0.502994   0.000000
    116          0.505295   0.000000
    117          0.521436   0.000000
    118          0.525357   0.000000
    119          0.623762   0.000000
    120          0.625993   0.000000
    121          0.667414   0.000000
    122          0.670717   0.000000
    123          0.671506   0.000000
    124          0.671525   0.000000
    125          0.672303   0.000000
    126          0.675892   0.000000
    127          1.340182   0.000000
    128          1.345868   0.000000
    129          1.346266   0.000000
    130          1.346322   0.000000
    131          1.346720   0.000000
    132          1.352551   0.000000
 
  0.2000000E+00  0.1279561E-14  0.1276756E-14  0.8000000E-01
      1        -37.438080   1.000000
      2        -37.416959   1.000000
      3        -37.416341   1.000000
      4        -37.411136   1.000000
      5        -37.410429   1.000000
      6        -37.367761   1.000000
      7        -37.367115   1.000000
      8        -37.337075   1.000000
      9        -37.335563   1.000000
     10        -37.334911   1.000000
     11        -37.277757   1.000000
     12        -37.249308   1.000000
     13        -37.242589   1.000000
     14        -37.242446   1.000000
     15        -37.238297   1.000000
     16        -37.237681   1.000000
     17        -37.235662   1.000000
     18        -37.232686   1.000000
     19        -37.232466   1.000000
     20        -37.229317   1.000000
     21        -37.224743   1.000000
     22        -37.224170   1.000000
     23        -37.218203   1.000000
     24        -37.218069   1.000000
     25        -37.211810   1.000000
     26        -37.186782   1.000000
     27        -37.177011   1.000000
     28        -16.675724   1.000000
     29        -15.880922   1.000000
     30        -15.671926   1.000000
     31        -15.670375   1.000000
     32        -15.343956   1.000000
     33        -15.342571   1.000000
     34        -15.231833   1.000000
     35        -15.152376   1.000000
     36        -14.918930   1.000000
     37        -14.858912   1.000000
     38        -14.856846   1.000000
     39        -14.837036   1.000000
     40        -14.836114   1.000000
     41        -14.764570   1.000000
     42        -14.762571   1.000000
     43        -14.734355   1.000000
     44        -14.593542   1.000000
     45        -14.590966   1.000000
     46         -8.205643   1.000000
     47         -8.197508   1.000000
     48         -7.980793   1.000000
     49         -7.980646   1.000000
     50         -7.611589   1.000000
     51         -7.611344   1.000000
     52         -7.593201   1.000000
     53         -7.592505   1.000000
     54         -7.576825   1.000000
     55         -7.575797   1.000000
     56         -7.510967   1.000000
     57         -6.866913   1.000000
     58         -6.846304   1.000000
     59         -6.833656   1.000000
     60         -6.832629   1.000000
     61         -6.745141   1.000000
     62         -6.744576   1.000000
     63         -6.632144   1.000000
     64         -6.630779   1.000000
     65         -6.581447   1.000000
     66         -6.437888   1.000000
     67         -6.437294   1.000000
     68         -6.311593   1.000000
     69         -6.310788   1.000000
     70         -6.053419   1.000000
     71         -6.052968   1.000000
     72         -6.050308   1.000000
     73         -5.526182   1.000000
     74         -5.506673   1.000000
     75         -5.504942   1.000000
     76         -5.494696   1.000000
     77         -5.494278   1.000000
     78         -5.373386   1.000000
     79         -5.338411   1.000000
     80         -5.335944   1.000000
     81         -5.122022   1.000000
     82         -5.063848   1.000000
     83         -4.556372   1.000000
     84         -4.480773   1.000000
     85         -4.478874   1.000000
     86         -4.477777   1.000000
     87         -4.405551   1.000000
     88         -4.402861   1.000000
     89         -4.378028   1.000000
     90         -4.376401   1.000000
     91         -4.213643   1.000000
     92         -4.152230   1.000000
     93         -4.131773   1.000000
     94         -4.130017   1.000000
     95         -4.092903   1.000000
     96         -3.997315   1.000000
     97         -3.985805   1.000000
     98         -3.984322   1.000000
     99         -3.858090   1.000000
    100         -3.095518   1.000000
    101         -3.017045   1.000000
    102         -3.015844   1.000000
    103         -2.922603   1.000000
    104         -2.920172   1.000000
    105         -2.790294   0.912746
    106         -2.227982   0.000000
    107         -2.227068   0.000000
    108         -1.745166   0.000000
    109         -0.125594   0.000000
    110         -0.125175   0.000000
    111          0.283802   0.000000
    112          0.287073   0.000000
    113          0.395310   0.000000
    114          0.434366   0.000000
    115          0.478427   0.000000
    116          0.511625   0.000000
    117          0.514016   0.000000
    118          0.516143   0.000000
    119          0.581713   0.000000
    120          0.658759   0.000000
    121          0.687328   0.000000
    122          0.694652   0.000000
    123          0.697264   0.000000
    124          0.886395   0.000000
    125          0.887745   0.000000
    126          0.943989   0.000000
    127          0.993579   0.000000
    128          1.113595   0.000000
    129          1.117347   0.000000
    130          1.471280   0.000000
    131          1.474680   0.000000
    132          1.594471   0.000000
 
  0.2000000E+00  0.2000000E+00  0.1276756E-14  0.8000000E-01
      1        -37.438347   1.000000
      2        -37.416891   1.000000
      3        -37.416233   1.000000
      4        -37.411083   1.000000
      5        -37.410453   1.000000
      6        -37.367587   1.000000
      7        -37.366919   1.000000
      8        -37.337336   1.000000
      9        -37.335488   1.000000
     10        -37.334998   1.000000
     11        -37.277756   1.000000
     12        -37.249300   1.000000
     13        -37.242586   1.000000
     14        -37.242458   1.000000
     15        -37.238320   1.000000
     16        -37.237786   1.000000
     17        -37.235466   1.000000
     18        -37.232694   1.000000
     19        -37.232492   1.000000
     20        -37.229282   1.000000
     21        -37.224924   1.000000
     22        -37.224299   1.000000
     23        -37.218204   1.000000
     24        -37.218073   1.000000
     25        -37.211598   1.000000
     26        -37.187000   1.000000
     27        -37.176796   1.000000
     28        -16.675704   1.000000
     29        -15.880599   1.000000
     30        -15.672203   1.000000
     31        -15.670634   1.000000
     32        -15.344173   1.000000
     33        -15.342760   1.000000
     34        -15.231183   1.000000
     35        -15.152402   1.000000
     36        -14.919331   1.000000
     37        -14.858294   1.000000
     38        -14.856779   1.000000
     39        -14.837221   1.000000
     40        -14.835970   1.000000
     41        -14.764431   1.000000
     42        -14.762274   1.000000
     43        -14.735091   1.000000
     44        -14.593523   1.000000
     45        -14.590949   1.000000
     46         -8.205616   1.000000
     47         -8.197925   1.000000
     48         -7.980608   1.000000
     49         -7.980437   1.000000
     50         -7.611403   1.000000
     51         -7.611233   1.000000
     52         -7.593509   1.000000
     53         -7.592497   1.000000
     54         -7.576491   1.000000
     55         -7.576043   1.000000
     56         -7.510636   1.000000
     57         -6.866387   1.000000
     58         -6.845998   1.000000
     59         -6.833999   1.000000
     60         -6.832998   1.000000
     61         -6.744851   1.000000
     62         -6.744285   1.000000
     63         -6.632587   1.000000
     64         -6.631222   1.000000
     65         -6.580496   1.000000
     66         -6.438352   1.000000
     67         -6.437764   1.000000
     68         -6.311972   1.000000
     69         -6.311146   1.000000
     70         -6.053793   1.000000
     71         -6.052101   1.000000
     72         -6.050950   1.000000
     73         -5.524562   1.000000
     74         -5.508187   1.000000
     75         -5.506111   1.000000
     76         -5.494883   1.000000
     77         -5.494576   1.000000
     78         -5.372604   1.000000
     79         -5.338197   1.000000
     80         -5.336257   1.000000
     81         -5.122844   1.000000
     82         -5.061823   1.000000
     83         -4.558117   1.000000
     84         -4.480977   1.000000
     85         -4.479065   1.000000
     86         -4.477847   1.000000
     87         -4.405394   1.000000
     88         -4.402587   1.000000
     89         -4.377689   1.000000
     90         -4.375903   1.000000
     91         -4.214647   1.000000
     92         -4.148901   1.000000
     93         -4.131123   1.000000
     94         -4.129199   1.000000
     95         -4.092625   1.000000
     96         -3.997394   1.000000
     97         -3.986172   1.000000
     98         -3.984651   1.000000
     99         -3.859544   1.000000
    100         -3.097489   1.000000
    101         -3.016796   1.000000
    102         -3.015625   1.000000
    103         -2.921110   1.000000
    104         -2.918589   1.000000
    105         -2.792031   0.920285
    106         -2.227928   0.000000
    107         -2.227007   0.000000
    108         -1.745360   0.000000
    109         -0.125572   0.000000
    110         -0.125203   0.000000
    111          0.282483   0.000000
    112          0.286231   0.000000
    113          0.395865   0.000000
    114          0.434834   0.000000
    115          0.482054   0.000000
    116          0.510100   0.000000
    117          0.514579   0.000000
    118          0.516663   0.000000
    119          0.583508   0.000000
    120          0.654918   0.000000
    121          0.686812   0.000000
    122          0.695381   0.000000
    123          0.698056   0.000000
    124          0.885418   0.000000
    125          0.886876   0.000000
    126          0.944549   0.000000
    127          0.995175   0.000000
    128          1.113477   0.000000
    129          1.117233   0.000000
    130          1.469234   0.000000
    131          1.472727   0.000000
    132          1.590243   0.000000
 
  0.1276756E-14  0.2000000E+00  0.1276756E-14  0.8000000E-01
      1        -37.438227   1.000000
      2        -37.416770   1.000000
      3        -37.416470   1.000000
      4        -37.410981   1.000000
      5        -37.410512   1.000000
      6        -37.367457   1.000000
      7        -37.367252   1.000000
      8        -37.337353   1.000000
      9        -37.335405   1.000000
     10        -37.334922   1.000000
     11        -37.277755   1.000000
     12        -37.249356   1.000000
     13        -37.242574   1.000000
     14        -37.242364   1.000000
     15        -37.238312   1.000000
     16        -37.237873   1.000000
     17        -37.235385   1.000000
     18        -37.232731   1.000000
     19        -37.232538   1.000000
     20        -37.229253   1.000000
     21        -37.224875   1.000000
     22        -37.224262   1.000000
     23        -37.218204   1.000000
     24        -37.218067   1.000000
     25        -37.211669   1.000000
     26        -37.186886   1.000000
     27        -37.176913   1.000000
     28        -16.675714   1.000000
     29        -15.880761   1.000000
     30        -15.672317   1.000000
     31        -15.670250   1.000000
     32        -15.344272   1.000000
     33        -15.342462   1.000000
     34        -15.231506   1.000000
     35        -15.152389   1.000000
     36        -14.919142   1.000000
     37        -14.858372   1.000000
     38        -14.857026   1.000000
     39        -14.837160   1.000000
     40        -14.836011   1.000000
     41        -14.764400   1.000000
     42        -14.762549   1.000000
     43        -14.734703   1.000000
     44        -14.593525   1.000000
     45        -14.590964   1.000000
     46         -8.205597   1.000000
     47         -8.197749   1.000000
     48         -7.980744   1.000000
     49         -7.980501   1.000000
     50         -7.611550   1.000000
     51         -7.611204   1.000000
     52         -7.593659   1.000000
     53         -7.592231   1.000000
     54         -7.576775   1.000000
     55         -7.575802   1.000000
     56         -7.510796   1.000000
     57         -6.866655   1.000000
     58         -6.846172   1.000000
     59         -6.833987   1.000000
     60         -6.832633   1.000000
     61         -6.745242   1.000000
     62         -6.744179   1.000000
     63         -6.632526   1.000000
     64         -6.630841   1.000000
     65         -6.580970   1.000000
     66         -6.438333   1.000000
     67         -6.437313   1.000000
     68         -6.311889   1.000000
     69         -6.310862   1.000000
     70         -6.053676   1.000000
     71         -6.052485   1.000000
     72         -6.050608   1.000000
     73         -5.525447   1.000000
     74         -5.506898   1.000000
     75         -5.505934   1.000000
     76         -5.494756   1.000000
     77         -5.494513   1.000000
     78         -5.373009   1.000000
     79         -5.338417   1.000000
     80         -5.335999   1.000000
     81         -5.122416   1.000000
     82         -5.062823   1.000000
     83         -4.557249   1.000000
     84         -4.481285   1.000000
     85         -4.479118   1.000000
     86         -4.477237   1.000000
     87         -4.405473   1.000000
     88         -4.402724   1.000000
     89         -4.378035   1.000000
     90         -4.375986   1.000000
     91         -4.214170   1.000000
     92         -4.150494   1.000000
     93         -4.131329   1.000000
     94         -4.129769   1.000000
     95         -4.092776   1.000000
     96         -3.997357   1.000000
     97         -3.985882   1.000000
     98         -3.984593   1.000000
     99         -3.858814   1.000000
    100         -3.096495   1.000000
    101         -3.017377   1.000000
    102         -3.015288   1.000000
    103         -2.921419   1.000000
    104         -2.919817   1.000000
    105         -2.791157   0.916557
    106         -2.228040   0.000000
    107         -2.226953   0.000000
    108         -1.745263   0.000000
    109         -0.125719   0.000000
    110         -0.125055   0.000000
    111          0.284562   0.000000
    112          0.285267   0.000000
    113          0.395552   0.000000
    114          0.434619   0.000000
    115          0.480219   0.000000
    116          0.510723   0.000000
    117          0.513367   0.000000
    118          0.517391   0.000000
    119          0.582628   0.000000
    120          0.656857   0.000000
    121          0.686925   0.000000
    122          0.693856   0.000000
    123          0.699030   0.000000
    124          0.885969   0.000000
    125          0.887225   0.000000
    126          0.944269   0.000000
    127          0.994361   0.000000
    128          1.113966   0.000000
    129          1.116873   0.000000
    130          1.471299   0.000000
    131          1.472706   0.000000
    132          1.584264   0.000000
 
  0.4000000E+00  0.8346566E-14  0.1276756E-14  0.8000000E-01
      1        -37.462058   1.000000
      2        -37.428759   1.000000
      3        -37.428198   1.000000
      4        -37.426473   1.000000
      5        -37.425755   1.000000
      6        -37.347878   1.000000
      7        -37.347203   1.000000
      8        -37.298107   1.000000
      9        -37.297505   1.000000
     10        -37.276502   1.000000
     11        -37.270953   1.000000
     12        -37.263483   1.000000
     13        -37.262894   1.000000
     14        -37.260829   1.000000
     15        -37.244935   1.000000
     16        -37.244824   1.000000
     17        -37.241513   1.000000
     18        -37.229817   1.000000
     19        -37.229260   1.000000
     20        -37.227004   1.000000
     21        -37.226750   1.000000
     22        -37.224672   1.000000
     23        -37.223055   1.000000
     24        -37.221583   1.000000
     25        -37.221293   1.000000
     26        -37.197780   1.000000
     27        -37.185353   1.000000
     28        -16.496020   1.000000
     29        -16.219493   1.000000
     30        -15.747718   1.000000
     31        -15.746130   1.000000
     32        -15.142496   1.000000
     33        -15.141295   1.000000
     34        -15.099257   1.000000
     35        -15.057049   1.000000
     36        -15.017844   1.000000
     37        -14.962159   1.000000
     38        -14.960830   1.000000
     39        -14.878430   1.000000
     40        -14.876795   1.000000
     41        -14.700936   1.000000
     42        -14.698704   1.000000
     43        -14.686580   1.000000
     44        -14.639157   1.000000
     45        -14.636703   1.000000
     46         -8.413686   1.000000
     47         -8.007781   1.000000
     48         -8.007556   1.000000
     49         -7.990391   1.000000
     50         -7.879487   1.000000
     51         -7.879193   1.000000
     52         -7.687490   1.000000
     53         -7.384777   1.000000
     54         -7.383707   1.000000
     55         -7.347735   1.000000
     56         -7.346835   1.000000
     57         -7.056697   1.000000
     58         -7.038401   1.000000
     59         -7.037573   1.000000
     60         -6.919498   1.000000
     61         -6.918952   1.000000
     62         -6.528396   1.000000
     63         -6.521734   1.000000
     64         -6.520520   1.000000
     65         -6.440786   1.000000
     66         -6.433135   1.000000
     67         -6.432057   1.000000
     68         -6.133688   1.000000
     69         -6.132126   1.000000
     70         -5.858001   1.000000
     71         -5.625151   1.000000
     72         -5.621371   1.000000
     73         -5.619866   1.000000
     74         -5.594835   1.000000
     75         -5.593862   1.000000
     76         -5.535822   1.000000
     77         -5.491597   1.000000
     78         -5.490707   1.000000
     79         -5.487196   1.000000
     80         -5.485397   1.000000
     81         -5.023843   1.000000
     82         -4.964174   1.000000
     83         -4.860777   1.000000
     84         -4.859799   1.000000
     85         -4.743857   1.000000
     86         -4.731991   1.000000
     87         -4.707812   1.000000
     88         -4.706139   1.000000
     89         -4.412519   1.000000
     90         -4.258914   1.000000
     91         -4.256699   1.000000
     92         -4.252884   1.000000
     93         -4.151116   1.000000
     94         -4.149138   1.000000
     95         -4.013452   1.000000
     96         -3.851892   1.000000
     97         -3.798865   1.000000
     98         -3.797481   1.000000
     99         -3.774814   1.000000
    100         -3.002241   1.000000
    101         -2.809997   0.972263
    102         -2.809203   0.970800
    103         -2.790689   0.914505
    104         -2.787383   0.898939
    105         -2.543230   0.000000
    106         -2.542629   0.000000
    107         -2.361917   0.000000
    108         -1.969513   0.000000
    109          0.098913   0.000000
    110          0.102798   0.000000
    111          0.299102   0.000000
    112          0.332262   0.000000
    113          0.335708   0.000000
    114          0.336794   0.000000
    115          0.400162   0.000000
    116          0.480457   0.000000
    117          0.484720   0.000000
    118          0.559521   0.000000
    119          0.561181   0.000000
    120          0.663054   0.000000
    121          0.751440   0.000000
    122          0.754068   0.000000
    123          0.836684   0.000000
    124          0.879072   0.000000
    125          0.882431   0.000000
    126          1.010083   0.000000
    127          1.063462   0.000000
    128          1.064263   0.000000
    129          1.182358   0.000000
    130          1.388640   0.000000
    131          1.390335   0.000000
    132          1.453355   0.000000
 
  0.4000000E+00  0.4000000E+00  0.1276756E-14  0.8000000E-01
      1        -37.462329   1.000000
      2        -37.428788   1.000000
      3        -37.428056   1.000000
      4        -37.426340   1.000000
      5        -37.425824   1.000000
      6        -37.347631   1.000000
      7        -37.346954   1.000000
      8        -37.298121   1.000000
      9        -37.297549   1.000000
     10        -37.276740   1.000000
     11        -37.270949   1.000000
     12        -37.263522   1.000000
     13        -37.262942   1.000000
     14        -37.260825   1.000000
     15        -37.244934   1.000000
     16        -37.244839   1.000000
     17        -37.241304   1.000000
     18        -37.230087   1.000000
     19        -37.229432   1.000000
     20        -37.227045   1.000000
     21        -37.226765   1.000000
     22        -37.224563   1.000000
     23        -37.223286   1.000000
     24        -37.221577   1.000000
     25        -37.221333   1.000000
     26        -37.197562   1.000000
     27        -37.185142   1.000000
     28        -16.495938   1.000000
     29        -16.219309   1.000000
     30        -15.748004   1.000000
     31        -15.746401   1.000000
     32        -15.142730   1.000000
     33        -15.141346   1.000000
     34        -15.099363   1.000000
     35        -15.056295   1.000000
     36        -15.018080   1.000000
     37        -14.962085   1.000000
     38        -14.961050   1.000000
     39        -14.878139   1.000000
     40        -14.876348   1.000000
     41        -14.700826   1.000000
     42        -14.698532   1.000000
     43        -14.687410   1.000000
     44        -14.639086   1.000000
     45        -14.636639   1.000000
     46         -8.414302   1.000000
     47         -8.007501   1.000000
     48         -8.007294   1.000000
     49         -7.990273   1.000000
     50         -7.879233   1.000000
     51         -7.878949   1.000000
     52         -7.687213   1.000000
     53         -7.384974   1.000000
     54         -7.383841   1.000000
     55         -7.347534   1.000000
     56         -7.346780   1.000000
     57         -7.055850   1.000000
     58         -7.038151   1.000000
     59         -7.037286   1.000000
     60         -6.920014   1.000000
     61         -6.919485   1.000000
     62         -6.527359   1.000000
     63         -6.522320   1.000000
     64         -6.520994   1.000000
     65         -6.440393   1.000000
     66         -6.433698   1.000000
     67         -6.432622   1.000000
     68         -6.134570   1.000000
     69         -6.132981   1.000000
     70         -5.857379   1.000000
     71         -5.623866   1.000000
     72         -5.622305   1.000000
     73         -5.621028   1.000000
     74         -5.595537   1.000000
     75         -5.594584   1.000000
     76         -5.537382   1.000000
     77         -5.491088   1.000000
     78         -5.490199   1.000000
     79         -5.487093   1.000000
     80         -5.484547   1.000000
     81         -5.025820   1.000000
     82         -4.964900   1.000000
     83         -4.860385   1.000000
     84         -4.859264   1.000000
     85         -4.742210   1.000000
     86         -4.731769   1.000000
     87         -4.707708   1.000000
     88         -4.706009   1.000000
     89         -4.409650   1.000000
     90         -4.258433   1.000000
     91         -4.256152   1.000000
     92         -4.254030   1.000000
     93         -4.150359   1.000000
     94         -4.148297   1.000000
     95         -4.013060   1.000000
     96         -3.851789   1.000000
     97         -3.799486   1.000000
     98         -3.798017   1.000000
     99         -3.775169   1.000000
    100         -3.004108   1.000000
    101         -2.809969   0.972212
    102         -2.809063   0.970536
    103         -2.789081   0.907175
    104         -2.785576   0.889599
    105         -2.543124   0.000000
    106         -2.542525   0.000000
    107         -2.363240   0.000000
    108         -1.970240   0.000000
    109          0.097537   0.000000
    110          0.101852   0.000000
    111          0.299014   0.000000
    112          0.331836   0.000000
    113          0.335352   0.000000
    114          0.336949   0.000000
    115          0.401224   0.000000
    116          0.483108   0.000000
    117          0.486209   0.000000
    118          0.559916   0.000000
    119          0.561600   0.000000
    120          0.664910   0.000000
    121          0.752238   0.000000
    122          0.754952   0.000000
    123          0.835959   0.000000
    124          0.879229   0.000000
    125          0.882069   0.000000
    126          1.006801   0.000000
    127          1.062508   0.000000
    128          1.063671   0.000000
    129          1.182268   0.000000
    130          1.388383   0.000000
    131          1.389706   0.000000
    132          1.453576   0.000000
 
  0.1276756E-14  0.4000000E+00  0.1276756E-14  0.8000000E-01
      1        -37.462203   1.000000
      2        -37.428668   1.000000
      3        -37.428333   1.000000
      4        -37.426206   1.000000
      5        -37.425871   1.000000
      6        -37.347466   1.000000
      7        -37.347376   1.000000
      8        -37.297980   1.000000
      9        -37.297685   1.000000
     10        -37.276580   1.000000
     11        -37.270932   1.000000
     12        -37.263381   1.000000
     13        -37.263072   1.000000
     14        -37.260879   1.000000
     15        -37.244943   1.000000
     16        -37.244759   1.000000
     17        -37.241365   1.000000
     18        -37.230060   1.000000
     19        -37.229300   1.000000
     20        -37.227069   1.000000
     21        -37.226802   1.000000
     22        -37.224601   1.000000
     23        -37.223153   1.000000
     24        -37.221581   1.000000
     25        -37.221276   1.000000
     26        -37.197604   1.000000
     27        -37.185293   1.000000
     28        -16.495977   1.000000
     29        -16.219403   1.000000
     30        -15.748122   1.000000
     31        -15.746004   1.000000
     32        -15.142772   1.000000
     33        -15.141162   1.000000
     34        -15.099308   1.000000
     35        -15.056671   1.000000
     36        -15.017969   1.000000
     37        -14.962215   1.000000
     38        -14.960847   1.000000
     39        -14.878012   1.000000
     40        -14.876834   1.000000
     41        -14.700843   1.000000
     42        -14.698709   1.000000
     43        -14.686951   1.000000
     44        -14.639092   1.000000
     45        -14.636696   1.000000
     46         -8.413994   1.000000
     47         -8.007749   1.000000
     48         -8.007332   1.000000
     49         -7.990322   1.000000
     50         -7.879469   1.000000
     51         -7.878958   1.000000
     52         -7.687354   1.000000
     53         -7.385392   1.000000
     54         -7.383254   1.000000
     55         -7.347886   1.000000
     56         -7.346553   1.000000
     57         -7.056282   1.000000
     58         -7.038590   1.000000
     59         -7.037111   1.000000
     60         -6.919999   1.000000
     61         -6.918971   1.000000
     62         -6.527951   1.000000
     63         -6.522179   1.000000
     64         -6.520522   1.000000
     65         -6.440596   1.000000
     66         -6.433638   1.000000
     67         -6.432122   1.000000
     68         -6.134610   1.000000
     69         -6.132065   1.000000
     70         -5.857701   1.000000
     71         -5.624755   1.000000
     72         -5.621306   1.000000
     73         -5.620676   1.000000
     74         -5.594932   1.000000
     75         -5.594510   1.000000
     76         -5.536664   1.000000
     77         -5.491507   1.000000
     78         -5.490306   1.000000
     79         -5.487596   1.000000
     80         -5.484477   1.000000
     81         -5.024849   1.000000
     82         -4.964509   1.000000
     83         -4.860698   1.000000
     84         -4.859423   1.000000
     85         -4.742983   1.000000
     86         -4.731925   1.000000
     87         -4.707724   1.000000
     88         -4.706095   1.000000
     89         -4.411084   1.000000
     90         -4.258788   1.000000
     91         -4.256630   1.000000
     92         -4.253145   1.000000
     93         -4.150616   1.000000
     94         -4.148836   1.000000
     95         -4.013268   1.000000
     96         -3.851836   1.000000
     97         -3.798950   1.000000
     98         -3.797984   1.000000
     99         -3.774985   1.000000
    100         -3.003168   1.000000
    101         -2.810328   0.972854
    102         -2.808766   0.969969
    103         -2.788923   0.906431
    104         -2.787458   0.899315
    105         -2.543446   0.000000
    106         -2.542307   0.000000
    107         -2.362580   0.000000
    108         -1.969877   0.000000
    109          0.099962   0.000000
    110          0.100654   0.000000
    111          0.299138   0.000000
    112          0.332445   0.000000
    113          0.335090   0.000000
    114          0.336658   0.000000
    115          0.400722   0.000000
    116          0.481780   0.000000
    117          0.485448   0.000000
    118          0.558909   0.000000
    119          0.562226   0.000000
    120          0.663954   0.000000
    121          0.750586   0.000000
    122          0.755839   0.000000
    123          0.836313   0.000000
    124          0.879063   0.000000
    125          0.882344   0.000000
    126          1.008451   0.000000
    127          1.062689   0.000000
    128          1.064253   0.000000
    129          1.182319   0.000000
    130          1.387991   0.000000
    131          1.390600   0.000000
    132          1.452314   0.000000
 
  0.4000000E+00  0.2000000E+00  0.1276756E-14  0.8000000E-01
      1        -37.449838   1.000000
      2        -37.449578   1.000000
      3        -37.431999   1.000000
      4        -37.413802   1.000000
      5        -37.393154   1.000000
      6        -37.392997   1.000000
      7        -37.312485   1.000000
      8        -37.310238   1.000000
      9        -37.309854   1.000000
     10        -37.304416   1.000000
     11        -37.273150   1.000000
     12        -37.253861   1.000000
     13        -37.253833   1.000000
     14        -37.248824   1.000000
     15        -37.248473   1.000000
     16        -37.246859   1.000000
     17        -37.246480   1.000000
     18        -37.234840   1.000000
     19        -37.234693   1.000000
     20        -37.225894   1.000000
     21        -37.225737   1.000000
     22        -37.221340   1.000000
     23        -37.219519   1.000000
     24        -37.211513   1.000000
     25        -37.209256   1.000000
     26        -37.208802   1.000000
     27        -37.182992   1.000000
     28        -16.554714   1.000000
     29        -16.018065   1.000000
     30        -16.017775   1.000000
     31        -15.418961   1.000000
     32        -15.418736   1.000000
     33        -15.117108   1.000000
     34        -15.103022   1.000000
     35        -15.102310   1.000000
     36        -14.959832   1.000000
     37        -14.958450   1.000000
     38        -14.953905   1.000000
     39        -14.887176   1.000000
     40        -14.780750   1.000000
     41        -14.780461   1.000000
     42        -14.696566   1.000000
     43        -14.695847   1.000000
     44        -14.632043   1.000000
     45        -14.614903   1.000000
     46         -8.273673   1.000000
     47         -8.273125   1.000000
     48         -8.059336   1.000000
     49         -7.918101   1.000000
     50         -7.710285   1.000000
     51         -7.705176   1.000000
     52         -7.704990   1.000000
     53         -7.502267   1.000000
     54         -7.501914   1.000000
     55         -7.453006   1.000000
     56         -7.386376   1.000000
     57         -7.032759   1.000000
     58         -7.032169   1.000000
     59         -6.743113   1.000000
     60         -6.742649   1.000000
     61         -6.694426   1.000000
     62         -6.694321   1.000000
     63         -6.647085   1.000000
     64         -6.645859   1.000000
     65         -6.529330   1.000000
     66         -6.528313   1.000000
     67         -6.433112   1.000000
     68         -6.403014   1.000000
     69         -5.800860   1.000000
     70         -5.799866   1.000000
     71         -5.788337   1.000000
     72         -5.707117   1.000000
     73         -5.606097   1.000000
     74         -5.604452   1.000000
     75         -5.591900   1.000000
     76         -5.590554   1.000000
     77         -5.583554   1.000000
     78         -5.560846   1.000000
     79         -5.543660   1.000000
     80         -5.088981   1.000000
     81         -5.087298   1.000000
     82         -5.019751   1.000000
     83         -4.874245   1.000000
     84         -4.784023   1.000000
     85         -4.783616   1.000000
     86         -4.642973   1.000000
     87         -4.642518   1.000000
     88         -4.381098   1.000000
     89         -4.335390   1.000000
     90         -4.310502   1.000000
     91         -4.310254   1.000000
     92         -4.255139   1.000000
     93         -4.225574   1.000000
     94         -4.224288   1.000000
     95         -3.974431   1.000000
     96         -3.973742   1.000000
     97         -3.825632   1.000000
     98         -3.825220   1.000000
     99         -3.745598   1.000000
    100         -2.930963   1.000000
    101         -2.929623   1.000000
    102         -2.890953   0.999987
    103         -2.889850   0.999985
    104         -2.601791   0.000035
    105         -2.599870   0.000028
    106         -2.492853   0.000000
    107         -2.423229   0.000000
    108         -1.889568   0.000000
    109          0.185746   0.000000
    110          0.187313   0.000000
    111          0.203801   0.000000
    112          0.228789   0.000000
    113          0.304207   0.000000
    114          0.304828   0.000000
    115          0.366118   0.000000
    116          0.443964   0.000000
    117          0.515416   0.000000
    118          0.532677   0.000000
    119          0.533168   0.000000
    120          0.736473   0.000000
    121          0.737443   0.000000
    122          0.756724   0.000000
    123          0.758192   0.000000
    124          0.915522   0.000000
    125          0.916917   0.000000
    126          0.921205   0.000000
    127          1.099520   0.000000
    128          1.099957   0.000000
    129          1.235496   0.000000
    130          1.236965   0.000000
    131          1.405498   0.000000
    132          1.531630   0.000000
 
  0.2000000E+00  0.4000000E+00  0.1276756E-14  0.8000000E-01
      1        -37.450337   1.000000
      2        -37.449224   1.000000
      3        -37.431882   1.000000
      4        -37.413908   1.000000
      5        -37.393533   1.000000
      6        -37.392405   1.000000
      7        -37.312254   1.000000
      8        -37.310651   1.000000
      9        -37.309666   1.000000
     10        -37.304433   1.000000
     11        -37.273142   1.000000
     12        -37.254431   1.000000
     13        -37.253257   1.000000
     14        -37.249228   1.000000
     15        -37.248276   1.000000
     16        -37.247064   1.000000
     17        -37.246164   1.000000
     18        -37.235393   1.000000
     19        -37.234051   1.000000
     20        -37.226562   1.000000
     21        -37.225224   1.000000
     22        -37.221223   1.000000
     23        -37.219585   1.000000
     24        -37.211391   1.000000
     25        -37.209596   1.000000
     26        -37.208653   1.000000
     27        -37.182891   1.000000
     28        -16.554684   1.000000
     29        -16.018559   1.000000
     30        -16.017247   1.000000
     31        -15.419841   1.000000
     32        -15.418222   1.000000
     33        -15.117136   1.000000
     34        -15.103123   1.000000
     35        -15.101845   1.000000
     36        -14.960080   1.000000
     37        -14.958200   1.000000
     38        -14.953780   1.000000
     39        -14.887394   1.000000
     40        -14.781089   1.000000
     41        -14.779662   1.000000
     42        -14.697351   1.000000
     43        -14.695518   1.000000
     44        -14.632213   1.000000
     45        -14.614674   1.000000
     46         -8.273658   1.000000
     47         -8.273372   1.000000
     48         -8.059299   1.000000
     49         -7.917862   1.000000
     50         -7.710274   1.000000
     51         -7.705622   1.000000
     52         -7.704456   1.000000
     53         -7.502824   1.000000
     54         -7.501263   1.000000
     55         -7.453377   1.000000
     56         -7.385916   1.000000
     57         -7.032652   1.000000
     58         -7.031627   1.000000
     59         -6.743079   1.000000
     60         -6.742792   1.000000
     61         -6.695439   1.000000
     62         -6.693919   1.000000
     63         -6.647598   1.000000
     64         -6.645777   1.000000
     65         -6.529299   1.000000
     66         -6.527915   1.000000
     67         -6.433429   1.000000
     68         -6.403226   1.000000
     69         -5.802047   1.000000
     70         -5.799384   1.000000
     71         -5.787946   1.000000
     72         -5.706755   1.000000
     73         -5.606015   1.000000
     74         -5.604183   1.000000
     75         -5.592471   1.000000
     76         -5.590574   1.000000
     77         -5.583777   1.000000
     78         -5.561184   1.000000
     79         -5.543746   1.000000
     80         -5.089172   1.000000
     81         -5.086028   1.000000
     82         -5.020125   1.000000
     83         -4.875276   1.000000
     84         -4.784238   1.000000
     85         -4.783214   1.000000
     86         -4.644063   1.000000
     87         -4.641515   1.000000
     88         -4.379608   1.000000
     89         -4.334905   1.000000
     90         -4.310237   1.000000
     91         -4.310164   1.000000
     92         -4.255171   1.000000
     93         -4.226242   1.000000
     94         -4.223906   1.000000
     95         -3.974367   1.000000
     96         -3.973603   1.000000
     97         -3.825945   1.000000
     98         -3.825125   1.000000
     99         -3.745894   1.000000
    100         -2.931403   1.000000
    101         -2.930296   1.000000
    102         -2.890244   0.999986
    103         -2.889388   0.999984
    104         -2.601303   0.000033
    105         -2.600307   0.000030
    106         -2.493059   0.000000
    107         -2.422928   0.000000
    108         -1.889870   0.000000
    109          0.185694   0.000000
    110          0.186781   0.000000
    111          0.204118   0.000000
    112          0.228429   0.000000
    113          0.303705   0.000000
    114          0.305026   0.000000
    115          0.365901   0.000000
    116          0.445507   0.000000
    117          0.515834   0.000000
    118          0.532285   0.000000
    119          0.534527   0.000000
    120          0.736514   0.000000
    121          0.737428   0.000000
    122          0.756592   0.000000
    123          0.758562   0.000000
    124          0.915099   0.000000
    125          0.916916   0.000000
    126          0.920042   0.000000
    127          1.098529   0.000000
    128          1.100377   0.000000
    129          1.235520   0.000000
    130          1.236502   0.000000
    131          1.404817   0.000000
    132          1.531444   0.000000
 
 -0.2000000E+00  0.2000000E+00  0.1276756E-14  0.8000000E-01
      1        -37.450170   1.000000
      2        -37.449083   1.000000
      3        -37.432142   1.000000
      4        -37.413649   1.000000
      5        -37.393768   1.000000
      6        -37.392624   1.000000
      7        -37.312501   1.000000
      8        -37.310560   1.000000
      9        -37.309693   1.000000
     10        -37.304218   1.000000
     11        -37.273144   1.000000
     12        -37.254421   1.000000
     13        -37.253270   1.000000
     14        -37.249132   1.000000
     15        -37.247938   1.000000
     16        -37.247321   1.000000
     17        -37.246198   1.000000
     18        -37.235400   1.000000
     19        -37.234021   1.000000
     20        -37.226463   1.000000
     21        -37.225370   1.000000
     22        -37.221195   1.000000
     23        -37.219583   1.000000
     24        -37.211201   1.000000
     25        -37.209609   1.000000
     26        -37.208645   1.000000
     27        -37.183109   1.000000
     28        -16.554743   1.000000
     29        -16.018580   1.000000
     30        -16.017293   1.000000
     31        -15.419406   1.000000
     32        -15.417922   1.000000
     33        -15.117081   1.000000
     34        -15.103383   1.000000
     35        -15.102314   1.000000
     36        -14.959975   1.000000
     37        -14.958339   1.000000
     38        -14.953991   1.000000
     39        -14.886962   1.000000
     40        -14.781513   1.000000
     41        -14.780124   1.000000
     42        -14.696959   1.000000
     43        -14.695050   1.000000
     44        -14.631827   1.000000
     45        -14.615164   1.000000
     46         -8.273425   1.000000
     47         -8.273141   1.000000
     48         -8.059376   1.000000
     49         -7.918337   1.000000
     50         -7.710265   1.000000
     51         -7.705753   1.000000
     52         -7.704540   1.000000
     53         -7.502927   1.000000
     54         -7.501341   1.000000
     55         -7.452636   1.000000
     56         -7.386833   1.000000
     57         -7.033334   1.000000
     58         -7.032246   1.000000
     59         -6.742977   1.000000
     60         -6.742686   1.000000
     61         -6.694770   1.000000
     62         -6.693345   1.000000
     63         -6.647110   1.000000
     64         -6.645402   1.000000
     65         -6.529735   1.000000
     66         -6.528346   1.000000
     67         -6.432814   1.000000
     68         -6.402780   1.000000
     69         -5.801204   1.000000
     70         -5.798807   1.000000
     71         -5.788728   1.000000
     72         -5.707498   1.000000
     73         -5.606324   1.000000
     74         -5.604472   1.000000
     75         -5.591832   1.000000
     76         -5.590180   1.000000
     77         -5.583309   1.000000
     78         -5.560509   1.000000
     79         -5.543570   1.000000
     80         -5.090502   1.000000
     81         -5.086852   1.000000
     82         -5.019337   1.000000
     83         -4.873217   1.000000
     84         -4.784588   1.000000
     85         -4.783243   1.000000
     86         -4.643930   1.000000
     87         -4.641478   1.000000
     88         -4.382593   1.000000
     89         -4.335857   1.000000
     90         -4.310808   1.000000
     91         -4.310320   1.000000
     92         -4.255177   1.000000
     93         -4.225912   1.000000
     94         -4.223591   1.000000
     95         -3.974548   1.000000
     96         -3.973836   1.000000
     97         -3.825738   1.000000
     98         -3.824909   1.000000
     99         -3.745297   1.000000
    100         -2.930317   1.000000
    101         -2.929181   1.000000
    102         -2.891391   0.999988
    103         -2.890544   0.999986
    104         -2.601349   0.000034
    105         -2.600349   0.000030
    106         -2.492639   0.000000
    107         -2.423556   0.000000
    108         -1.889264   0.000000
    109          0.186657   0.000000
    110          0.187380   0.000000
    111          0.203465   0.000000
    112          0.228887   0.000000
    113          0.304138   0.000000
    114          0.305063   0.000000
    115          0.366315   0.000000
    116          0.442432   0.000000
    117          0.514799   0.000000
    118          0.531318   0.000000
    119          0.533666   0.000000
    120          0.735904   0.000000
    121          0.738052   0.000000
    122          0.755967   0.000000
    123          0.758718   0.000000
    124          0.915247   0.000000
    125          0.917324   0.000000
    126          0.922700   0.000000
    127          1.099234   0.000000
    128          1.100780   0.000000
    129          1.235905   0.000000
    130          1.236996   0.000000
    131          1.405812   0.000000
    132          1.531687   0.000000
 
 -0.4000000E+00  0.2000000E+00  0.1276756E-14  0.8000000E-01
      1        -37.461243   1.000000
      2        -37.447988   1.000000
      3        -37.447038   1.000000
      4        -37.409468   1.000000
      5        -37.408746   1.000000
      6        -37.382052   1.000000
      7        -37.298891   1.000000
      8        -37.280207   1.000000
      9        -37.279474   1.000000
     10        -37.271741   1.000000
     11        -37.270833   1.000000
     12        -37.265270   1.000000
     13        -37.264123   1.000000
     14        -37.255956   1.000000
     15        -37.255445   1.000000
     16        -37.255012   1.000000
     17        -37.253444   1.000000
     18        -37.250162   1.000000
     19        -37.235540   1.000000
     20        -37.227929   1.000000
     21        -37.226638   1.000000
     22        -37.223748   1.000000
     23        -37.222648   1.000000
     24        -37.221522   1.000000
     25        -37.210206   1.000000
     26        -37.195285   1.000000
     27        -37.193854   1.000000
     28        -16.327073   1.000000
     29        -16.325689   1.000000
     30        -16.065421   1.000000
     31        -15.445253   1.000000
     32        -15.164977   1.000000
     33        -15.163556   1.000000
     34        -15.049877   1.000000
     35        -15.048645   1.000000
     36        -15.013774   1.000000
     37        -14.981738   1.000000
     38        -14.980340   1.000000
     39        -14.971421   1.000000
     40        -14.786441   1.000000
     41        -14.701051   1.000000
     42        -14.699458   1.000000
     43        -14.671263   1.000000
     44        -14.654207   1.000000
     45        -14.652370   1.000000
     46         -8.379466   1.000000
     47         -8.176555   1.000000
     48         -8.176003   1.000000
     49         -7.793904   1.000000
     50         -7.792129   1.000000
     51         -7.757223   1.000000
     52         -7.756867   1.000000
     53         -7.557226   1.000000
     54         -7.508861   1.000000
     55         -7.247787   1.000000
     56         -7.246677   1.000000
     57         -7.133584   1.000000
     58         -7.047172   1.000000
     59         -7.045519   1.000000
     60         -6.739507   1.000000
     61         -6.677817   1.000000
     62         -6.600864   1.000000
     63         -6.521020   1.000000
     64         -6.519433   1.000000
     65         -6.509340   1.000000
     66         -6.474899   1.000000
     67         -6.473604   1.000000
     68         -6.229114   1.000000
     69         -6.227702   1.000000
     70         -5.652164   1.000000
     71         -5.651017   1.000000
     72         -5.649686   1.000000
     73         -5.638993   1.000000
     74         -5.635347   1.000000
     75         -5.620977   1.000000
     76         -5.619728   1.000000
     77         -5.300938   1.000000
     78         -5.297972   1.000000
     79         -5.285256   1.000000
     80         -5.284545   1.000000
     81         -5.219286   1.000000
     82         -4.965040   1.000000
     83         -4.879278   1.000000
     84         -4.878792   1.000000
     85         -4.844787   1.000000
     86         -4.842771   1.000000
     87         -4.752704   1.000000
     88         -4.749815   1.000000
     89         -4.731843   1.000000
     90         -4.283462   1.000000
     91         -4.260207   1.000000
     92         -4.258397   1.000000
     93         -4.255970   1.000000
     94         -4.077297   1.000000
     95         -4.076539   1.000000
     96         -3.893517   1.000000
     97         -3.722052   1.000000
     98         -3.721504   1.000000
     99         -3.699205   1.000000
    100         -2.859274   0.999532
    101         -2.841929   0.997586
    102         -2.743894   0.518138
    103         -2.743416   0.512739
    104         -2.674993   0.028498
    105         -2.674134   0.026950
    106         -2.515213   0.000000
    107         -2.198543   0.000000
    108         -2.197597   0.000000
    109          0.095700   0.000000
    110          0.218252   0.000000
    111          0.226736   0.000000
    112          0.228237   0.000000
    113          0.424295   0.000000
    114          0.425650   0.000000
    115          0.467421   0.000000
    116          0.468335   0.000000
    117          0.508066   0.000000
    118          0.510546   0.000000
    119          0.572933   0.000000
    120          0.581807   0.000000
    121          0.583999   0.000000
    122          0.619888   0.000000
    123          0.798184   0.000000
    124          0.932628   0.000000
    125          1.060094   0.000000
    126          1.061415   0.000000
    127          1.115266   0.000000
    128          1.261417   0.000000
    129          1.342299   0.000000
    130          1.348100   0.000000
    131          1.355611   0.000000
    132          1.367690   0.000000
 
  0.4000000E+00 -0.4000000E+00  0.1276756E-14  0.8000000E-01
      1        -37.461514   1.000000
      2        -37.447860   1.000000
      3        -37.446948   1.000000
      4        -37.409521   1.000000
      5        -37.408810   1.000000
      6        -37.381786   1.000000
      7        -37.298638   1.000000
      8        -37.280107   1.000000
      9        -37.279479   1.000000
     10        -37.271793   1.000000
     11        -37.270964   1.000000
     12        -37.265266   1.000000
     13        -37.264120   1.000000
     14        -37.256357   1.000000
     15        -37.255442   1.000000
     16        -37.254843   1.000000
     17        -37.253819   1.000000
     18        -37.249950   1.000000
     19        -37.235545   1.000000
     20        -37.227964   1.000000
     21        -37.226639   1.000000
     22        -37.223601   1.000000
     23        -37.222756   1.000000
     24        -37.221521   1.000000
     25        -37.210431   1.000000
     26        -37.195086   1.000000
     27        -37.193703   1.000000
     28        -16.326949   1.000000
     29        -16.325596   1.000000
     30        -16.065624   1.000000
     31        -15.445590   1.000000
     32        -15.164833   1.000000
     33        -15.163576   1.000000
     34        -15.049878   1.000000
     35        -15.048924   1.000000
     36        -15.013045   1.000000
     37        -14.981926   1.000000
     38        -14.980623   1.000000
     39        -14.971195   1.000000
     40        -14.785995   1.000000
     41        -14.701172   1.000000
     42        -14.699535   1.000000
     43        -14.672057   1.000000
     44        -14.653958   1.000000
     45        -14.652069   1.000000
     46         -8.380095   1.000000
     47         -8.176271   1.000000
     48         -8.175677   1.000000
     49         -7.793739   1.000000
     50         -7.791989   1.000000
     51         -7.757063   1.000000
     52         -7.756700   1.000000
     53         -7.557371   1.000000
     54         -7.509067   1.000000
     55         -7.248011   1.000000
     56         -7.246884   1.000000
     57         -7.132680   1.000000
     58         -7.046588   1.000000
     59         -7.045001   1.000000
     60         -6.739907   1.000000
     61         -6.678402   1.000000
     62         -6.602268   1.000000
     63         -6.521208   1.000000
     64         -6.519766   1.000000
     65         -6.508337   1.000000
     66         -6.475422   1.000000
     67         -6.474124   1.000000
     68         -6.228585   1.000000
     69         -6.227374   1.000000
     70         -5.652984   1.000000
     71         -5.651534   1.000000
     72         -5.648804   1.000000
     73         -5.637738   1.000000
     74         -5.634618   1.000000
     75         -5.621711   1.000000
     76         -5.620614   1.000000
     77         -5.302727   1.000000
     78         -5.299270   1.000000
     79         -5.285107   1.000000
     80         -5.284135   1.000000
     81         -5.220191   1.000000
     82         -4.965091   1.000000
     83         -4.879152   1.000000
     84         -4.878605   1.000000
     85         -4.845369   1.000000
     86         -4.843135   1.000000
     87         -4.751175   1.000000
     88         -4.747233   1.000000
     89         -4.731401   1.000000
     90         -4.283269   1.000000
     91         -4.259687   1.000000
     92         -4.257973   1.000000
     93         -4.256710   1.000000
     94         -4.076878   1.000000
     95         -4.076114   1.000000
     96         -3.894014   1.000000
     97         -3.721865   1.000000
     98         -3.721476   1.000000
     99         -3.699692   1.000000
    100         -2.860783   0.999598
    101         -2.840574   0.997282
    102         -2.744170   0.521242
    103         -2.743615   0.514990
    104         -2.674578   0.027740
    105         -2.673775   0.026324
    106         -2.513531   0.000000
    107         -2.199423   0.000000
    108         -2.198558   0.000000
    109          0.094061   0.000000
    110          0.217694   0.000000
    111          0.227350   0.000000
    112          0.228482   0.000000
    113          0.424438   0.000000
    114          0.425711   0.000000
    115          0.467917   0.000000
    116          0.468433   0.000000
    117          0.509565   0.000000
    118          0.512011   0.000000
    119          0.573841   0.000000
    120          0.581937   0.000000
    121          0.584533   0.000000
    122          0.618770   0.000000
    123          0.797442   0.000000
    124          0.933595   0.000000
    125          1.059488   0.000000
    126          1.060690   0.000000
    127          1.116047   0.000000
    128          1.262724   0.000000
    129          1.338960   0.000000
    130          1.343112   0.000000
    131          1.349412   0.000000
    132          1.371541   0.000000
 
 -0.2000000E+00  0.4000000E+00  0.1276756E-14  0.8000000E-01
      1        -37.461397   1.000000
      2        -37.447595   1.000000
      3        -37.447309   1.000000
      4        -37.409281   1.000000
      5        -37.408980   1.000000
      6        -37.381923   1.000000
      7        -37.298743   1.000000
      8        -37.280024   1.000000
      9        -37.279726   1.000000
     10        -37.271426   1.000000
     11        -37.271173   1.000000
     12        -37.264784   1.000000
     13        -37.264652   1.000000
     14        -37.255957   1.000000
     15        -37.255436   1.000000
     16        -37.254816   1.000000
     17        -37.253949   1.000000
     18        -37.249985   1.000000
     19        -37.235526   1.000000
     20        -37.227417   1.000000
     21        -37.227303   1.000000
     22        -37.223768   1.000000
     23        -37.222273   1.000000
     24        -37.221739   1.000000
     25        -37.210341   1.000000
     26        -37.194549   1.000000
     27        -37.194391   1.000000
     28        -16.326386   1.000000
     29        -16.326268   1.000000
     30        -16.065521   1.000000
     31        -15.445421   1.000000
     32        -15.164461   1.000000
     33        -15.164013   1.000000
     34        -15.049444   1.000000
     35        -15.049225   1.000000
     36        -15.013416   1.000000
     37        -14.981615   1.000000
     38        -14.980687   1.000000
     39        -14.971301   1.000000
     40        -14.786215   1.000000
     41        -14.700594   1.000000
     42        -14.700045   1.000000
     43        -14.671682   1.000000
     44        -14.653501   1.000000
     45        -14.652751   1.000000
     46         -8.379781   1.000000
     47         -8.176394   1.000000
     48         -8.175861   1.000000
     49         -7.793001   1.000000
     50         -7.792881   1.000000
     51         -7.756993   1.000000
     52         -7.756935   1.000000
     53         -7.557303   1.000000
     54         -7.508955   1.000000
     55         -7.247851   1.000000
     56         -7.246830   1.000000
     57         -7.133131   1.000000
     58         -7.046705   1.000000
     59         -7.045435   1.000000
     60         -6.739704   1.000000
     61         -6.678105   1.000000
     62         -6.601565   1.000000
     63         -6.520579   1.000000
     64         -6.520180   1.000000
     65         -6.508814   1.000000
     66         -6.474916   1.000000
     67         -6.474087   1.000000
     68         -6.228451   1.000000
     69         -6.227948   1.000000
     70         -5.652398   1.000000
     71         -5.651667   1.000000
     72         -5.648996   1.000000
     73         -5.637854   1.000000
     74         -5.635594   1.000000
     75         -5.621160   1.000000
     76         -5.620285   1.000000
     77         -5.300727   1.000000
     78         -5.299736   1.000000
     79         -5.284949   1.000000
     80         -5.284592   1.000000
     81         -5.219737   1.000000
     82         -4.965049   1.000000
     83         -4.879028   1.000000
     84         -4.878835   1.000000
     85         -4.844417   1.000000
     86         -4.843676   1.000000
     87         -4.750917   1.000000
     88         -4.749525   1.000000
     89         -4.731615   1.000000
     90         -4.283371   1.000000
     91         -4.259844   1.000000
     92         -4.258587   1.000000
     93         -4.256046   1.000000
     94         -4.076733   1.000000
     95         -4.076673   1.000000
     96         -3.893770   1.000000
     97         -3.721781   1.000000
     98         -3.721664   1.000000
     99         -3.699451   1.000000
    100         -2.860041   0.999567
    101         -2.841239   0.997435
    102         -2.744263   0.522293
    103         -2.743263   0.511015
    104         -2.674956   0.028430
    105         -2.673790   0.026349
    106         -2.514386   0.000000
    107         -2.198993   0.000000
    108         -2.198067   0.000000
    109          0.094945   0.000000
    110          0.218235   0.000000
    111          0.226883   0.000000
    112          0.228199   0.000000
    113          0.424920   0.000000
    114          0.425036   0.000000
    115          0.467722   0.000000
    116          0.468373   0.000000
    117          0.509207   0.000000
    118          0.510868   0.000000
    119          0.572690   0.000000
    120          0.582852   0.000000
    121          0.583996   0.000000
    122          0.619341   0.000000
    123          0.797812   0.000000
    124          0.933148   0.000000
    125          1.059853   0.000000
    126          1.060975   0.000000
    127          1.115650   0.000000
    128          1.261093   0.000000
    129          1.344226   0.000000
    130          1.349598   0.000000
    131          1.352515   0.000000
    132          1.399919   0.000000
