Bilayer MoTe2/WS2 2H (relaxed monolayers
   1.00000000000000     
     3.2438784000000003    0.0000000000000000    0.0000000000000000
     1.6219392000000001    2.8092811011876186    0.0000000000000000
     0.0000000000000000    0.0000000000000000   20.0000000000000000
   Mo   Te   W    S 
     1     2     1     2
Direct
     0.0000000000000000   -0.0000000000000000    0.4952529007526408
     0.3333333333333357    0.3333333333333357    0.3989868750803396
     0.3333333333333357    0.3333333333333357    0.5915709764744717
     0.3333333333333357    0.3333333333333357    0.8248686926520442
     0.0000000000000000   -0.0000000000000000    0.7475169616752370
    -0.0000000000000000    0.0000000000000000    0.9021588207583942
 
  0.00000000E+00  0.00000000E+00  0.00000000E+00
  0.00000000E+00  0.00000000E+00  0.00000000E+00
  0.00000000E+00  0.00000000E+00  0.00000000E+00
  0.00000000E+00  0.00000000E+00  0.00000000E+00
  0.00000000E+00  0.00000000E+00  0.00000000E+00
  0.00000000E+00  0.00000000E+00  0.00000000E+00
