cpu-bind=MASK - c154, task  0  0 [2976647]: mask 0x7ffefffefffe set
 running  264 mpi-ranks, with    1 threads/rank, on    6 nodes
 distrk:  each k-point on   44 cores,    6 groups
 distr:  one band on    4 cores,   11 groups
 vasp.6.5.1 10Mar25 (build Aug 29 2025 00:30:47) complex                        
  
 POSCAR found type information on POSCAR B N Ga
 POSCAR found :  3 types and      36 ions
 scaLAPACK will be used
 LDA part: xc-table for (Slater+PW92), standard interpolation
 POSCAR, INCAR and KPOINTS ok, starting setup
 FFT: planning ... GRIDC
 FFT: planning ... GRID_SOFT
 FFT: planning ... GRID
 WAVECAR not read
 entering main loop
       N       E                     dE             d eps       ncg     rms          rms(c)
DAV:   1     0.125511643598E+04    0.12551E+04   -0.54286E+04  2596   0.113E+03
DAV:   2    -0.144512956442E+02   -0.12696E+04   -0.12199E+04  3828   0.257E+02
DAV:   3    -0.261346645549E+03   -0.24690E+03   -0.24483E+03  3047   0.121E+02
DAV:   4    -0.272379974984E+03   -0.11033E+02   -0.11007E+02  3322   0.313E+01
DAV:   5    -0.272668230170E+03   -0.28826E+00   -0.28798E+00  3443   0.432E+00    0.463E+01
DAV:   6    -0.225377885415E+03    0.47290E+02   -0.16599E+02  3036   0.320E+01    0.192E+01
DAV:   7    -0.223094314013E+03    0.22836E+01   -0.11264E+01  3223   0.743E+00    0.975E+00
DAV:   8    -0.221850638342E+03    0.12437E+01   -0.10634E+00  3267   0.297E+00    0.376E+00
DAV:   9    -0.221527004503E+03    0.32363E+00   -0.30272E-01  3278   0.144E+00    0.715E-01
DAV:  10    -0.221502201320E+03    0.24803E-01   -0.39321E-02  3245   0.417E-01    0.463E-01
DAV:  11    -0.221449554485E+03    0.52647E-01   -0.45228E-02  3157   0.529E-01    0.277E-01
DAV:  12    -0.221435251433E+03    0.14303E-01   -0.17343E-02  3190   0.282E-01    0.207E-01
DAV:  13    -0.221373239914E+03    0.62012E-01   -0.26174E-02  3080   0.296E-01    0.159E-01
DAV:  14    -0.221354908742E+03    0.18331E-01   -0.73572E-03  3267   0.191E-01    0.146E-01
DAV:  15    -0.221391093030E+03   -0.36184E-01   -0.24130E-02  2981   0.263E-01    0.889E-02
DAV:  16    -0.221395582901E+03   -0.44899E-02   -0.27709E-03  3256   0.111E-01    0.565E-02
DAV:  17    -0.221396565403E+03   -0.98250E-03   -0.52721E-04  3201   0.605E-02    0.324E-02
DAV:  18    -0.221398440865E+03   -0.18755E-02   -0.40472E-04  3025   0.402E-02    0.232E-02
DAV:  19    -0.221399361421E+03   -0.92056E-03   -0.10339E-04  3069   0.273E-02    0.103E-02
DAV:  20    -0.221399797933E+03   -0.43651E-03   -0.48396E-05  2981   0.145E-02    0.731E-03
DAV:  21    -0.221399918712E+03   -0.12078E-03   -0.17179E-05  2959   0.856E-03    0.401E-03
DAV:  22    -0.221399891390E+03    0.27322E-04   -0.17463E-05  2530   0.732E-03    0.283E-03
DAV:  23    -0.221399863020E+03    0.28369E-04   -0.43589E-06  2805   0.424E-03    0.268E-03
DAV:  24    -0.221399854873E+03    0.81472E-05   -0.25620E-06  2453   0.378E-03    0.278E-03
DAV:  25    -0.221399875308E+03   -0.20434E-04   -0.61583E-06  2783   0.465E-03    0.185E-03
DAV:  26    -0.221399919555E+03   -0.44248E-04   -0.56472E-06  2442   0.360E-03    0.836E-04
DAV:  27    -0.221399925649E+03   -0.60937E-05   -0.64739E-07  2266   0.165E-03    0.478E-04
DAV:  28    -0.221399927133E+03   -0.14841E-05   -0.20222E-07  2134   0.845E-04    0.374E-04
DAV:  29    -0.221399927575E+03   -0.44170E-06   -0.68748E-08  2101   0.494E-04
   1 F= -.22467758E+03 E0= -.22467758E+03  d E =-.198403E-12
