   27   27    1    1
  0.6552115E+02  0.1010630E-08  0.1010630E-08  0.2000000E-08  0.5000000E-15
  1.000000000000000E-004
  CAR 
 NbS2 phonon                             
    225     13    143
 
  0.1276756E-14  0.1276756E-14  0.1276756E-14  0.4000000E-01
      1        -57.446516   1.000000
      2        -57.424467   1.000000
      3        -57.424377   1.000000
      4        -57.423424   1.000000
      5        -57.423299   1.000000
      6        -57.422393   1.000000
      7        -57.422302   1.000000
      8        -57.411682   1.000000
      9        -57.411550   1.000000
     10        -33.632555   1.000000
     11        -33.631560   1.000000
     12        -33.629502   1.000000
     13        -33.628732   1.000000
     14        -33.628149   1.000000
     15        -33.628049   1.000000
     16        -33.627463   1.000000
     17        -33.626763   1.000000
     18        -33.582638   1.000000
     19        -33.582231   1.000000
     20        -33.522477   1.000000
     21        -33.469719   1.000000
     22        -33.469685   1.000000
     23        -33.468817   1.000000
     24        -33.468667   1.000000
     25        -33.467732   1.000000
     26        -33.467693   1.000000
     27        -33.441678   1.000000
     28        -33.441626   1.000000
     29        -33.431813   1.000000
     30        -33.431397   1.000000
     31        -33.430479   1.000000
     32        -33.430447   1.000000
     33        -33.429512   1.000000
     34        -33.429166   1.000000
     35        -33.372817   1.000000
     36        -33.372516   1.000000
     37        -15.856659   1.000000
     38        -14.838052   1.000000
     39        -14.836056   1.000000
     40        -14.835970   1.000000
     41        -14.835810   1.000000
     42        -14.835568   1.000000
     43        -14.833904   1.000000
     44        -14.547712   1.000000
     45        -14.259616   1.000000
     46        -14.256594   1.000000
     47        -14.256405   1.000000
     48        -14.256178   1.000000
     49        -14.255952   1.000000
     50        -14.254368   1.000000
     51        -14.240603   1.000000
     52        -14.239597   1.000000
     53        -14.056925   1.000000
     54        -14.054468   1.000000
     55         -7.386508   1.000000
     56         -7.096951   1.000000
     57         -7.096408   1.000000
     58         -7.064984   1.000000
     59         -7.063870   1.000000
     60         -7.063526   1.000000
     61         -7.063297   1.000000
     62         -7.063130   1.000000
     63         -7.061891   1.000000
     64         -6.382072   1.000000
     65         -6.382065   1.000000
     66         -5.971045   1.000000
     67         -5.969214   1.000000
     68         -5.969163   1.000000
     69         -5.969073   1.000000
     70         -5.968953   1.000000
     71         -5.967431   1.000000
     72         -5.947213   1.000000
     73         -5.946740   1.000000
     74         -5.945018   1.000000
     75         -5.944840   1.000000
     76         -5.944621   1.000000
     77         -5.943314   1.000000
     78         -5.934896   1.000000
     79         -5.934768   1.000000
     80         -5.672680   1.000000
     81         -5.671585   1.000000
     82         -4.951963   1.000000
     83         -4.948539   1.000000
     84         -4.947969   1.000000
     85         -4.947922   1.000000
     86         -4.947363   1.000000
     87         -4.944487   1.000000
     88         -4.816992   1.000000
     89         -4.816069   1.000000
     90         -4.795427   1.000000
     91         -4.795413   1.000000
     92         -4.007671   1.000000
     93         -4.004728   1.000000
     94         -3.854614   1.000000
     95         -3.852012   1.000000
     96         -3.851302   1.000000
     97         -3.851274   1.000000
     98         -3.850995   1.000000
     99         -3.848448   1.000000
    100         -3.767887   1.000000
    101         -3.763852   1.000000
    102         -3.644410   1.000000
    103         -3.584935   1.000000
    104         -3.582497   1.000000
    105         -3.582199   1.000000
    106         -3.582141   1.000000
    107         -3.581828   1.000000
    108         -3.579361   1.000000
    109         -2.660959   1.000000
    110         -2.659668   1.000000
    111         -2.659151   1.000000
    112         -2.659117   1.000000
    113         -2.658613   1.000000
    114         -2.657179   1.000000
    115         -1.899957   0.000000
    116         -1.898621   0.000000
    117         -1.416198   0.000000
    118         -0.422553   0.000000
    119         -0.422508   0.000000
    120          0.297930   0.000000
    121          0.300177   0.000000
    122          0.301210   0.000000
    123          0.301258   0.000000
    124          0.302125   0.000000
    125          0.304051   0.000000
    126          0.497040   0.000000
    127          0.501747   0.000000
    128          0.606578   0.000000
    129          0.609460   0.000000
    130          0.610248   0.000000
    131          0.610256   0.000000
    132          0.611046   0.000000
    133          0.613812   0.000000
    134          0.741967   0.000000
    135          0.743999   0.000000
    136          1.286054   0.000000
    137          1.291242   0.000000
    138          1.291658   0.000000
    139          1.291705   0.000000
    140          1.292109   0.000000
    141          1.297281   0.000000
    142          1.511755   0.000000
    143          1.512198   0.000000
 
  0.2000000E+00  0.1268669E-14  0.1276756E-14  0.8000000E-01
      1        -57.445193   1.000000
      2        -57.429570   1.000000
      3        -57.425931   1.000000
      4        -57.425710   1.000000
      5        -57.420483   1.000000
      6        -57.420176   1.000000
      7        -57.418418   1.000000
      8        -57.412343   1.000000
      9        -57.412180   1.000000
     10        -33.679148   1.000000
     11        -33.654677   1.000000
     12        -33.654014   1.000000
     13        -33.649102   1.000000
     14        -33.648317   1.000000
     15        -33.597632   1.000000
     16        -33.596973   1.000000
     17        -33.561875   1.000000
     18        -33.556764   1.000000
     19        -33.556244   1.000000
     20        -33.519400   1.000000
     21        -33.482989   1.000000
     22        -33.474356   1.000000
     23        -33.474245   1.000000
     24        -33.461676   1.000000
     25        -33.461514   1.000000
     26        -33.457498   1.000000
     27        -33.445381   1.000000
     28        -33.444768   1.000000
     29        -33.443236   1.000000
     30        -33.443183   1.000000
     31        -33.442224   1.000000
     32        -33.430056   1.000000
     33        -33.429532   1.000000
     34        -33.415407   1.000000
     35        -33.387587   1.000000
     36        -33.376140   1.000000
     37        -15.803005   1.000000
     38        -15.127123   1.000000
     39        -14.953018   1.000000
     40        -14.951749   1.000000
     41        -14.683869   1.000000
     42        -14.682745   1.000000
     43        -14.593365   1.000000
     44        -14.532299   1.000000
     45        -14.338635   1.000000
     46        -14.289602   1.000000
     47        -14.287546   1.000000
     48        -14.276300   1.000000
     49        -14.275684   1.000000
     50        -14.212266   1.000000
     51        -14.210398   1.000000
     52        -14.187781   1.000000
     53        -14.070957   1.000000
     54        -14.068542   1.000000
     55         -7.321919   1.000000
     56         -7.311477   1.000000
     57         -7.156032   1.000000
     58         -7.155786   1.000000
     59         -7.014388   1.000000
     60         -7.013783   1.000000
     61         -6.913723   1.000000
     62         -6.912810   1.000000
     63         -6.856339   1.000000
     64         -6.662448   1.000000
     65         -6.662257   1.000000
     66         -6.256299   1.000000
     67         -6.165397   1.000000
     68         -6.164823   1.000000
     69         -5.987256   1.000000
     70         -5.985493   1.000000
     71         -5.984652   1.000000
     72         -5.945389   1.000000
     73         -5.931293   1.000000
     74         -5.930125   1.000000
     75         -5.816336   1.000000
     76         -5.815676   1.000000
     77         -5.774663   1.000000
     78         -5.773835   1.000000
     79         -5.532942   1.000000
     80         -5.414569   1.000000
     81         -5.414078   1.000000
     82         -5.126786   1.000000
     83         -5.082623   1.000000
     84         -5.080866   1.000000
     85         -4.962722   1.000000
     86         -4.930389   1.000000
     87         -4.927923   1.000000
     88         -4.882703   1.000000
     89         -4.882244   1.000000
     90         -4.761179   1.000000
     91         -4.698439   1.000000
     92         -4.130084   1.000000
     93         -4.102147   1.000000
     94         -4.051047   1.000000
     95         -4.049839   1.000000
     96         -3.914108   1.000000
     97         -3.911594   1.000000
     98         -3.901385   1.000000
     99         -3.899829   1.000000
    100         -3.860881   1.000000
    101         -3.684835   1.000000
    102         -3.664342   1.000000
    103         -3.598554   1.000000
    104         -3.596868   1.000000
    105         -3.438051   1.000000
    106         -3.436734   1.000000
    107         -3.432337   1.000000
    108         -3.378888   1.000000
    109         -2.639382   1.000000
    110         -2.638303   1.000000
    111         -2.631997   1.000000
    112         -2.586278   0.999964
    113         -2.584041   0.999953
    114         -2.447288   0.514952
    115         -2.047329   0.000000
    116         -2.046289   0.000000
    117         -1.481477   0.000000
    118         -0.220030   0.000000
    119         -0.219701   0.000000
    120          0.259273   0.000000
    121          0.261548   0.000000
    122          0.320738   0.000000
    123          0.336108   0.000000
    124          0.337292   0.000000
    125          0.350126   0.000000
    126          0.448897   0.000000
    127          0.477216   0.000000
    128          0.577974   0.000000
    129          0.579978   0.000000
    130          0.620955   0.000000
    131          0.640826   0.000000
    132          0.677251   0.000000
    133          0.678193   0.000000
    134          0.691150   0.000000
    135          0.744432   0.000000
    136          0.923533   0.000000
    137          1.019783   0.000000
    138          1.023345   0.000000
    139          1.387075   0.000000
    140          1.390285   0.000000
    141          1.516845   0.000000
    142          1.523389   0.000000
    143          1.571435   0.000000
 
  0.2000000E+00  0.2000000E+00  0.1276756E-14  0.8000000E-01
      1        -57.445193   1.000000
      2        -57.429576   1.000000
      3        -57.425911   1.000000
      4        -57.425712   1.000000
      5        -57.420508   1.000000
      6        -57.420197   1.000000
      7        -57.418382   1.000000
      8        -57.412342   1.000000
      9        -57.412183   1.000000
     10        -33.679479   1.000000
     11        -33.654561   1.000000
     12        -33.653910   1.000000
     13        -33.649066   1.000000
     14        -33.648325   1.000000
     15        -33.597406   1.000000
     16        -33.596743   1.000000
     17        -33.562184   1.000000
     18        -33.556741   1.000000
     19        -33.556290   1.000000
     20        -33.519399   1.000000
     21        -33.482974   1.000000
     22        -33.474368   1.000000
     23        -33.474257   1.000000
     24        -33.461675   1.000000
     25        -33.461540   1.000000
     26        -33.457464   1.000000
     27        -33.445396   1.000000
     28        -33.444930   1.000000
     29        -33.443237   1.000000
     30        -33.443130   1.000000
     31        -33.442016   1.000000
     32        -33.430280   1.000000
     33        -33.429688   1.000000
     34        -33.415152   1.000000
     35        -33.387851   1.000000
     36        -33.375880   1.000000
     37        -15.802987   1.000000
     38        -15.126855   1.000000
     39        -14.953239   1.000000
     40        -14.951966   1.000000
     41        -14.684039   1.000000
     42        -14.682900   1.000000
     43        -14.592850   1.000000
     44        -14.532326   1.000000
     45        -14.339039   1.000000
     46        -14.288873   1.000000
     47        -14.287609   1.000000
     48        -14.276582   1.000000
     49        -14.275414   1.000000
     50        -14.212125   1.000000
     51        -14.210104   1.000000
     52        -14.188511   1.000000
     53        -14.070939   1.000000
     54        -14.068525   1.000000
     55         -7.321890   1.000000
     56         -7.311615   1.000000
     57         -7.155931   1.000000
     58         -7.155687   1.000000
     59         -7.014375   1.000000
     60         -7.013739   1.000000
     61         -6.913877   1.000000
     62         -6.912975   1.000000
     63         -6.856048   1.000000
     64         -6.662284   1.000000
     65         -6.662102   1.000000
     66         -6.255792   1.000000
     67         -6.165053   1.000000
     68         -6.164461   1.000000
     69         -5.986659   1.000000
     70         -5.986016   1.000000
     71         -5.985152   1.000000
     72         -5.944414   1.000000
     73         -5.931788   1.000000
     74         -5.930573   1.000000
     75         -5.816839   1.000000
     76         -5.816232   1.000000
     77         -5.775172   1.000000
     78         -5.774274   1.000000
     79         -5.533816   1.000000
     80         -5.414162   1.000000
     81         -5.413717   1.000000
     82         -5.125131   1.000000
     83         -5.084146   1.000000
     84         -5.082145   1.000000
     85         -4.961959   1.000000
     86         -4.930112   1.000000
     87         -4.928150   1.000000
     88         -4.882939   1.000000
     89         -4.882549   1.000000
     90         -4.761951   1.000000
     91         -4.696390   1.000000
     92         -4.132409   1.000000
     93         -4.102419   1.000000
     94         -4.051085   1.000000
     95         -4.049995   1.000000
     96         -3.913888   1.000000
     97         -3.911291   1.000000
     98         -3.901167   1.000000
     99         -3.899246   1.000000
    100         -3.857574   1.000000
    101         -3.685805   1.000000
    102         -3.664053   1.000000
    103         -3.597911   1.000000
    104         -3.596065   1.000000
    105         -3.438486   1.000000
    106         -3.436997   1.000000
    107         -3.432388   1.000000
    108         -3.379752   1.000000
    109         -2.639116   1.000000
    110         -2.638007   1.000000
    111         -2.633956   1.000000
    112         -2.584818   0.999957
    113         -2.582469   0.999944
    114         -2.449098   0.535338
    115         -2.047292   0.000000
    116         -2.046248   0.000000
    117         -1.481678   0.000000
    118         -0.220012   0.000000
    119         -0.219718   0.000000
    120          0.258389   0.000000
    121          0.261102   0.000000
    122          0.321253   0.000000
    123          0.336414   0.000000
    124          0.337737   0.000000
    125          0.349660   0.000000
    126          0.452534   0.000000
    127          0.477425   0.000000
    128          0.578593   0.000000
    129          0.580512   0.000000
    130          0.617156   0.000000
    131          0.639327   0.000000
    132          0.676621   0.000000
    133          0.677700   0.000000
    134          0.692803   0.000000
    135          0.744527   0.000000
    136          0.925164   0.000000
    137          1.019647   0.000000
    138          1.023248   0.000000
    139          1.385176   0.000000
    140          1.388401   0.000000
    141          1.511352   0.000000
    142          1.524612   0.000000
    143          1.569052   0.000000
 
  0.1276756E-14  0.2000000E+00  0.1276756E-14  0.8000000E-01
      1        -57.445190   1.000000
      2        -57.429660   1.000000
      3        -57.425853   1.000000
      4        -57.425612   1.000000
      5        -57.420576   1.000000
      6        -57.420261   1.000000
      7        -57.418335   1.000000
      8        -57.412342   1.000000
      9        -57.412175   1.000000
     10        -33.679323   1.000000
     11        -33.654494   1.000000
     12        -33.654104   1.000000
     13        -33.649014   1.000000
     14        -33.648356   1.000000
     15        -33.597325   1.000000
     16        -33.597064   1.000000
     17        -33.562075   1.000000
     18        -33.556649   1.000000
     19        -33.556320   1.000000
     20        -33.519398   1.000000
     21        -33.483013   1.000000
     22        -33.474384   1.000000
     23        -33.474166   1.000000
     24        -33.461705   1.000000
     25        -33.461561   1.000000
     26        -33.457452   1.000000
     27        -33.445357   1.000000
     28        -33.444990   1.000000
     29        -33.443238   1.000000
     30        -33.443142   1.000000
     31        -33.441988   1.000000
     32        -33.430200   1.000000
     33        -33.429640   1.000000
     34        -33.415249   1.000000
     35        -33.387716   1.000000
     36        -33.376015   1.000000
     37        -15.802996   1.000000
     38        -15.126989   1.000000
     39        -14.953319   1.000000
     40        -14.951666   1.000000
     41        -14.684112   1.000000
     42        -14.682668   1.000000
     43        -14.593106   1.000000
     44        -14.532313   1.000000
     45        -14.338849   1.000000
     46        -14.289015   1.000000
     47        -14.287783   1.000000
     48        -14.276471   1.000000
     49        -14.275518   1.000000
     50        -14.212094   1.000000
     51        -14.210382   1.000000
     52        -14.188124   1.000000
     53        -14.070941   1.000000
     54        -14.068540   1.000000
     55         -7.321870   1.000000
     56         -7.311580   1.000000
     57         -7.156103   1.000000
     58         -7.155618   1.000000
     59         -7.014493   1.000000
     60         -7.013649   1.000000
     61         -6.914227   1.000000
     62         -6.912467   1.000000
     63         -6.856187   1.000000
     64         -6.662376   1.000000
     65         -6.662173   1.000000
     66         -6.256050   1.000000
     67         -6.165493   1.000000
     68         -6.164369   1.000000
     69         -5.987021   1.000000
     70         -5.985729   1.000000
     71         -5.984859   1.000000
     72         -5.944935   1.000000
     73         -5.931559   1.000000
     74         -5.930298   1.000000
     75         -5.816743   1.000000
     76         -5.815797   1.000000
     77         -5.775025   1.000000
     78         -5.773948   1.000000
     79         -5.533377   1.000000
     80         -5.414457   1.000000
     81         -5.413810   1.000000
     82         -5.125981   1.000000
     83         -5.082893   1.000000
     84         -5.081973   1.000000
     85         -4.962353   1.000000
     86         -4.930388   1.000000
     87         -4.927919   1.000000
     88         -4.882763   1.000000
     89         -4.882451   1.000000
     90         -4.761550   1.000000
     91         -4.697401   1.000000
     92         -4.131256   1.000000
     93         -4.102293   1.000000
     94         -4.051564   1.000000
     95         -4.049397   1.000000
     96         -3.913999   1.000000
     97         -3.911432   1.000000
     98         -3.901467   1.000000
     99         -3.899354   1.000000
    100         -3.859231   1.000000
    101         -3.685322   1.000000
    102         -3.664208   1.000000
    103         -3.598092   1.000000
    104         -3.596595   1.000000
    105         -3.438227   1.000000
    106         -3.436968   1.000000
    107         -3.432309   1.000000
    108         -3.379316   1.000000
    109         -2.639730   1.000000
    110         -2.637643   1.000000
    111         -2.633013   1.000000
    112         -2.585162   0.999959
    113         -2.583635   0.999951
    114         -2.448189   0.525112
    115         -2.047387   0.000000
    116         -2.046193   0.000000
    117         -1.481577   0.000000
    118         -0.220146   0.000000
    119         -0.219588   0.000000
    120          0.259858   0.000000
    121          0.260317   0.000000
    122          0.321000   0.000000
    123          0.335952   0.000000
    124          0.337842   0.000000
    125          0.349835   0.000000
    126          0.450694   0.000000
    127          0.477345   0.000000
    128          0.577302   0.000000
    129          0.581196   0.000000
    130          0.619073   0.000000
    131          0.640090   0.000000
    132          0.676391   0.000000
    133          0.678305   0.000000
    134          0.692174   0.000000
    135          0.744475   0.000000
    136          0.924334   0.000000
    137          1.020109   0.000000
    138          1.022914   0.000000
    139          1.386853   0.000000
    140          1.388634   0.000000
    141          1.518388   0.000000
    142          1.525734   0.000000
    143          1.568054   0.000000
 
  0.4000000E+00  0.8321752E-14  0.1276756E-14  0.8000000E-01
      1        -57.441477   1.000000
      2        -57.435838   1.000000
      3        -57.427174   1.000000
      4        -57.427038   1.000000
      5        -57.417479   1.000000
      6        -57.417139   1.000000
      7        -57.415931   1.000000
      8        -57.414172   1.000000
      9        -57.413758   1.000000
     10        -33.706926   1.000000
     11        -33.668417   1.000000
     12        -33.667775   1.000000
     13        -33.666006   1.000000
     14        -33.665281   1.000000
     15        -33.574592   1.000000
     16        -33.573899   1.000000
     17        -33.514178   1.000000
     18        -33.513637   1.000000
     19        -33.510687   1.000000
     20        -33.497781   1.000000
     21        -33.491766   1.000000
     22        -33.477391   1.000000
     23        -33.477291   1.000000
     24        -33.474388   1.000000
     25        -33.473830   1.000000
     26        -33.454329   1.000000
     27        -33.454146   1.000000
     28        -33.451442   1.000000
     29        -33.448881   1.000000
     30        -33.447591   1.000000
     31        -33.447382   1.000000
     32        -33.436007   1.000000
     33        -33.435539   1.000000
     34        -33.429804   1.000000
     35        -33.399549   1.000000
     36        -33.385571   1.000000
     37        -15.648537   1.000000
     38        -15.412608   1.000000
     39        -15.015850   1.000000
     40        -15.014549   1.000000
     41        -14.520771   1.000000
     42        -14.519808   1.000000
     43        -14.487967   1.000000
     44        -14.453565   1.000000
     45        -14.420322   1.000000
     46        -14.376168   1.000000
     47        -14.375072   1.000000
     48        -14.305126   1.000000
     49        -14.303619   1.000000
     50        -14.159844   1.000000
     51        -14.157765   1.000000
     52        -14.149117   1.000000
     53        -14.108736   1.000000
     54        -14.106434   1.000000
     55         -7.457468   1.000000
     56         -7.145126   1.000000
     57         -7.134055   1.000000
     58         -7.133909   1.000000
     59         -6.968624   1.000000
     60         -6.968384   1.000000
     61         -6.925770   1.000000
     62         -6.794386   1.000000
     63         -6.793295   1.000000
     64         -6.785629   1.000000
     65         -6.784637   1.000000
     66         -6.469567   1.000000
     67         -6.468738   1.000000
     68         -6.424125   1.000000
     69         -5.986691   1.000000
     70         -5.986233   1.000000
     71         -5.966189   1.000000
     72         -5.878593   1.000000
     73         -5.877528   1.000000
     74         -5.830015   1.000000
     75         -5.829096   1.000000
     76         -5.743102   1.000000
     77         -5.636264   1.000000
     78         -5.634705   1.000000
     79         -5.325934   1.000000
     80         -5.218668   1.000000
     81         -5.127801   1.000000
     82         -5.126353   1.000000
     83         -5.068594   1.000000
     84         -5.036750   1.000000
     85         -5.035856   1.000000
     86         -5.033417   1.000000
     87         -5.031129   1.000000
     88         -4.831185   1.000000
     89         -4.830751   1.000000
     90         -4.603921   1.000000
     91         -4.591713   1.000000
     92         -4.401466   1.000000
     93         -4.369603   1.000000
     94         -4.271616   1.000000
     95         -4.270473   1.000000
     96         -4.244194   1.000000
     97         -4.242710   1.000000
     98         -4.098890   1.000000
     99         -3.744347   1.000000
    100         -3.742227   1.000000
    101         -3.734124   1.000000
    102         -3.626227   1.000000
    103         -3.624333   1.000000
    104         -3.567348   1.000000
    105         -3.283143   1.000000
    106         -3.250532   1.000000
    107         -3.249236   1.000000
    108         -3.235765   1.000000
    109         -2.520944   0.983030
    110         -2.517917   0.979084
    111         -2.516012   0.976221
    112         -2.509847   0.964614
    113         -2.508937   0.962559
    114         -2.304590   0.000032
    115         -2.303938   0.000029
    116         -2.067818   0.000000
    117         -1.701250   0.000000
    118          0.154370   0.000000
    119          0.154891   0.000000
    120          0.187760   0.000000
    121          0.190554   0.000000
    122          0.389022   0.000000
    123          0.389500   0.000000
    124          0.406695   0.000000
    125          0.409446   0.000000
    126          0.420311   0.000000
    127          0.428200   0.000000
    128          0.470845   0.000000
    129          0.563678   0.000000
    130          0.592923   0.000000
    131          0.600438   0.000000
    132          0.602524   0.000000
    133          0.749476   0.000000
    134          0.752364   0.000000
    135          0.767542   0.000000
    136          0.768794   0.000000
    137          0.830409   0.000000
    138          0.929152   0.000000
    139          1.112739   0.000000
    140          1.114221   0.000000
    141          1.320368   0.000000
    142          1.466081   0.000000
    143          1.481952   0.000000
 
  0.4000000E+00  0.4000000E+00  0.1276756E-14  0.8000000E-01
      1        -57.441475   1.000000
      2        -57.435842   1.000000
      3        -57.427161   1.000000
      4        -57.427042   1.000000
      5        -57.417573   1.000000
      6        -57.417132   1.000000
      7        -57.415817   1.000000
      8        -57.414151   1.000000
      9        -57.413812   1.000000
     10        -33.707261   1.000000
     11        -33.668383   1.000000
     12        -33.667662   1.000000
     13        -33.665908   1.000000
     14        -33.665309   1.000000
     15        -33.574275   1.000000
     16        -33.573606   1.000000
     17        -33.514212   1.000000
     18        -33.513671   1.000000
     19        -33.510684   1.000000
     20        -33.497770   1.000000
     21        -33.492055   1.000000
     22        -33.477406   1.000000
     23        -33.477304   1.000000
     24        -33.474432   1.000000
     25        -33.473890   1.000000
     26        -33.454352   1.000000
     27        -33.454166   1.000000
     28        -33.451361   1.000000
     29        -33.448635   1.000000
     30        -33.447593   1.000000
     31        -33.447399   1.000000
     32        -33.436368   1.000000
     33        -33.435700   1.000000
     34        -33.430080   1.000000
     35        -33.399288   1.000000
     36        -33.385315   1.000000
     37        -15.648467   1.000000
     38        -15.412452   1.000000
     39        -15.016080   1.000000
     40        -15.014777   1.000000
     41        -14.520964   1.000000
     42        -14.519841   1.000000
     43        -14.488074   1.000000
     44        -14.452978   1.000000
     45        -14.420561   1.000000
     46        -14.376081   1.000000
     47        -14.375271   1.000000
     48        -14.304842   1.000000
     49        -14.303166   1.000000
     50        -14.159744   1.000000
     51        -14.157586   1.000000
     52        -14.149934   1.000000
     53        -14.108667   1.000000
     54        -14.106371   1.000000
     55         -7.457760   1.000000
     56         -7.145009   1.000000
     57         -7.133838   1.000000
     58         -7.133728   1.000000
     59         -6.968380   1.000000
     60         -6.968183   1.000000
     61         -6.925518   1.000000
     62         -6.794609   1.000000
     63         -6.793414   1.000000
     64         -6.785304   1.000000
     65         -6.784698   1.000000
     66         -6.469271   1.000000
     67         -6.468451   1.000000
     68         -6.423290   1.000000
     69         -5.987425   1.000000
     70         -5.987040   1.000000
     71         -5.965178   1.000000
     72         -5.879160   1.000000
     73         -5.878056   1.000000
     74         -5.830579   1.000000
     75         -5.829675   1.000000
     76         -5.742508   1.000000
     77         -5.637338   1.000000
     78         -5.635776   1.000000
     79         -5.325241   1.000000
     80         -5.217087   1.000000
     81         -5.129053   1.000000
     82         -5.127524   1.000000
     83         -5.070207   1.000000
     84         -5.037515   1.000000
     85         -5.036492   1.000000
     86         -5.032686   1.000000
     87         -5.030392   1.000000
     88         -4.830797   1.000000
     89         -4.830296   1.000000
     90         -4.604601   1.000000
     91         -4.593831   1.000000
     92         -4.399112   1.000000
     93         -4.370060   1.000000
     94         -4.271129   1.000000
     95         -4.269946   1.000000
     96         -4.244044   1.000000
     97         -4.242603   1.000000
     98         -4.096025   1.000000
     99         -3.743767   1.000000
    100         -3.741608   1.000000
    101         -3.735341   1.000000
    102         -3.625435   1.000000
    103         -3.623502   1.000000
    104         -3.566896   1.000000
    105         -3.283009   1.000000
    106         -3.251210   1.000000
    107         -3.249802   1.000000
    108         -3.236005   1.000000
    109         -2.519235   0.980889
    110         -2.517822   0.978948
    111         -2.516391   0.976815
    112         -2.509626   0.964124
    113         -2.508984   0.962667
    114         -2.304526   0.000032
    115         -2.303869   0.000029
    116         -2.069185   0.000000
    117         -1.701997   0.000000
    118          0.154497   0.000000
    119          0.154894   0.000000
    120          0.186773   0.000000
    121          0.189833   0.000000
    122          0.389061   0.000000
    123          0.390259   0.000000
    124          0.406017   0.000000
    125          0.409244   0.000000
    126          0.421253   0.000000
    127          0.430835   0.000000
    128          0.469966   0.000000
    129          0.565047   0.000000
    130          0.594777   0.000000
    131          0.601303   0.000000
    132          0.603459   0.000000
    133          0.749116   0.000000
    134          0.752516   0.000000
    135          0.766973   0.000000
    136          0.768244   0.000000
    137          0.830103   0.000000
    138          0.925915   0.000000
    139          1.112428   0.000000
    140          1.113915   0.000000
    141          1.322484   0.000000
    142          1.462895   0.000000
    143          1.489774   0.000000
 
  0.1276756E-14  0.4000000E+00  0.1276756E-14  0.8000000E-01
      1        -57.441443   1.000000
      2        -57.435929   1.000000
      3        -57.427135   1.000000
      4        -57.426962   1.000000
      5        -57.417609   1.000000
      6        -57.417178   1.000000
      7        -57.415861   1.000000
      8        -57.414151   1.000000
      9        -57.413738   1.000000
     10        -33.707101   1.000000
     11        -33.668316   1.000000
     12        -33.667854   1.000000
     13        -33.665841   1.000000
     14        -33.665349   1.000000
     15        -33.574189   1.000000
     16        -33.574005   1.000000
     17        -33.514093   1.000000
     18        -33.513773   1.000000
     19        -33.510674   1.000000
     20        -33.497807   1.000000
     21        -33.491875   1.000000
     22        -33.477436   1.000000
     23        -33.477221   1.000000
     24        -33.474301   1.000000
     25        -33.473992   1.000000
     26        -33.454372   1.000000
     27        -33.454181   1.000000
     28        -33.451389   1.000000
     29        -33.448729   1.000000
     30        -33.447598   1.000000
     31        -33.447362   1.000000
     32        -33.436267   1.000000
     33        -33.435576   1.000000
     34        -33.429949   1.000000
     35        -33.399365   1.000000
     36        -33.385476   1.000000
     37        -15.648501   1.000000
     38        -15.412531   1.000000
     39        -15.016161   1.000000
     40        -15.014467   1.000000
     41        -14.520989   1.000000
     42        -14.519704   1.000000
     43        -14.488019   1.000000
     44        -14.453270   1.000000
     45        -14.420449   1.000000
     46        -14.376195   1.000000
     47        -14.375101   1.000000
     48        -14.304697   1.000000
     49        -14.303669   1.000000
     50        -14.159761   1.000000
     51        -14.157775   1.000000
     52        -14.149468   1.000000
     53        -14.108671   1.000000
     54        -14.106429   1.000000
     55         -7.457612   1.000000
     56         -7.145089   1.000000
     57         -7.133902   1.000000
     58         -7.133845   1.000000
     59         -6.968495   1.000000
     60         -6.968291   1.000000
     61         -6.925649   1.000000
     62         -6.795008   1.000000
     63         -6.792852   1.000000
     64         -6.785695   1.000000
     65         -6.784423   1.000000
     66         -6.469760   1.000000
     67         -6.468260   1.000000
     68         -6.423706   1.000000
     69         -5.987184   1.000000
     70         -5.986504   1.000000
     71         -5.965686   1.000000
     72         -5.878972   1.000000
     73         -5.877681   1.000000
     74         -5.830437   1.000000
     75         -5.829255   1.000000
     76         -5.742812   1.000000
     77         -5.637247   1.000000
     78         -5.634787   1.000000
     79         -5.325599   1.000000
     80         -5.217887   1.000000
     81         -5.127870   1.000000
     82         -5.127439   1.000000
     83         -5.069464   1.000000
     84         -5.037082   1.000000
     85         -5.036492   1.000000
     86         -5.033341   1.000000
     87         -5.030200   1.000000
     88         -4.831123   1.000000
     89         -4.830389   1.000000
     90         -4.604246   1.000000
     91         -4.592794   1.000000
     92         -4.400258   1.000000
     93         -4.369824   1.000000
     94         -4.271474   1.000000
     95         -4.270137   1.000000
     96         -4.244275   1.000000
     97         -4.242482   1.000000
     98         -4.097456   1.000000
     99         -3.744093   1.000000
    100         -3.742049   1.000000
    101         -3.734572   1.000000
    102         -3.625702   1.000000
    103         -3.624042   1.000000
    104         -3.567133   1.000000
    105         -3.283074   1.000000
    106         -3.250664   1.000000
    107         -3.249739   1.000000
    108         -3.235873   1.000000
    109         -2.519172   0.980806
    110         -2.518029   0.979242
    111         -2.516854   0.977525
    112         -2.510145   0.965265
    113         -2.508647   0.961886
    114         -2.304805   0.000033
    115         -2.303656   0.000028
    116         -2.068502   0.000000
    117         -1.701624   0.000000
    118          0.154307   0.000000
    119          0.155148   0.000000
    120          0.188545   0.000000
    121          0.188801   0.000000
    122          0.388787   0.000000
    123          0.390101   0.000000
    124          0.406200   0.000000
    125          0.409456   0.000000
    126          0.420796   0.000000
    127          0.429520   0.000000
    128          0.470378   0.000000
    129          0.564299   0.000000
    130          0.593819   0.000000
    131          0.599880   0.000000
    132          0.604083   0.000000
    133          0.749260   0.000000
    134          0.752487   0.000000
    135          0.766645   0.000000
    136          0.769151   0.000000
    137          0.830257   0.000000
    138          0.927547   0.000000
    139          1.111957   0.000000
    140          1.114618   0.000000
    141          1.318432   0.000000
    142          1.465304   0.000000
    143          1.481829   0.000000
 
  0.4000000E+00  0.2000000E+00  0.1276756E-14  0.8000000E-01
      1        -57.442672   1.000000
      2        -57.432030   1.000000
      3        -57.432006   1.000000
      4        -57.421697   1.000000
      5        -57.421478   1.000000
      6        -57.416699   1.000000
      7        -57.416478   1.000000
      8        -57.414026   1.000000
      9        -57.412920   1.000000
     10        -33.692806   1.000000
     11        -33.692486   1.000000
     12        -33.672492   1.000000
     13        -33.651603   1.000000
     14        -33.627160   1.000000
     15        -33.626969   1.000000
     16        -33.531548   1.000000
     17        -33.530863   1.000000
     18        -33.529730   1.000000
     19        -33.521460   1.000000
     20        -33.513502   1.000000
     21        -33.488847   1.000000
     22        -33.488801   1.000000
     23        -33.464432   1.000000
     24        -33.464312   1.000000
     25        -33.457623   1.000000
     26        -33.457326   1.000000
     27        -33.455179   1.000000
     28        -33.454858   1.000000
     29        -33.452995   1.000000
     30        -33.452868   1.000000
     31        -33.447264   1.000000
     32        -33.444994   1.000000
     33        -33.416129   1.000000
     34        -33.412642   1.000000
     35        -33.412275   1.000000
     36        -33.382901   1.000000
     37        -15.698895   1.000000
     38        -15.242258   1.000000
     39        -15.242012   1.000000
     40        -14.744669   1.000000
     41        -14.744476   1.000000
     42        -14.502832   1.000000
     43        -14.489843   1.000000
     44        -14.489298   1.000000
     45        -14.372920   1.000000
     46        -14.371168   1.000000
     47        -14.368536   1.000000
     48        -14.316789   1.000000
     49        -14.224847   1.000000
     50        -14.224560   1.000000
     51        -14.156982   1.000000
     52        -14.156273   1.000000
     53        -14.102438   1.000000
     54        -14.088787   1.000000
     55         -7.347004   1.000000
     56         -7.346740   1.000000
     57         -7.200381   1.000000
     58         -6.965265   1.000000
     59         -6.961921   1.000000
     60         -6.961710   1.000000
     61         -6.883433   1.000000
     62         -6.834214   1.000000
     63         -6.828582   1.000000
     64         -6.826043   1.000000
     65         -6.825600   1.000000
     66         -6.423990   1.000000
     67         -6.423418   1.000000
     68         -6.110510   1.000000
     69         -6.109189   1.000000
     70         -5.939354   1.000000
     71         -5.938336   1.000000
     72         -5.924253   1.000000
     73         -5.923450   1.000000
     74         -5.906079   1.000000
     75         -5.905897   1.000000
     76         -5.877817   1.000000
     77         -5.741013   1.000000
     78         -5.312480   1.000000
     79         -5.311567   1.000000
     80         -5.213380   1.000000
     81         -5.171612   1.000000
     82         -5.169934   1.000000
     83         -5.140258   1.000000
     84         -5.114249   1.000000
     85         -5.112807   1.000000
     86         -5.004436   1.000000
     87         -4.992555   1.000000
     88         -4.871392   1.000000
     89         -4.702532   1.000000
     90         -4.700886   1.000000
     91         -4.657898   1.000000
     92         -4.446827   1.000000
     93         -4.254016   1.000000
     94         -4.253383   1.000000
     95         -4.249594   1.000000
     96         -4.249004   1.000000
     97         -4.063950   1.000000
     98         -3.829106   1.000000
     99         -3.801338   1.000000
    100         -3.801246   1.000000
    101         -3.741705   1.000000
    102         -3.704072   1.000000
    103         -3.702816   1.000000
    104         -3.436908   1.000000
    105         -3.436172   1.000000
    106         -3.269032   1.000000
    107         -3.268611   1.000000
    108         -3.230190   1.000000
    109         -2.613636   0.999999
    110         -2.612565   0.999999
    111         -2.522474   0.984770
    112         -2.521148   0.983272
    113         -2.301883   0.000023
    114         -2.299980   0.000018
    115         -2.284672   0.000003
    116         -2.184869   0.000000
    117         -1.625102   0.000000
    118          0.017139   0.000000
    119          0.093266   0.000000
    120          0.262988   0.000000
    121          0.264353   0.000000
    122          0.317854   0.000000
    123          0.318385   0.000000
    124          0.392771   0.000000
    125          0.395973   0.000000
    126          0.399118   0.000000
    127          0.503391   0.000000
    128          0.509015   0.000000
    129          0.509735   0.000000
    130          0.606197   0.000000
    131          0.637406   0.000000
    132          0.638497   0.000000
    133          0.664733   0.000000
    134          0.666111   0.000000
    135          0.800609   0.000000
    136          0.800872   0.000000
    137          0.853086   0.000000
    138          1.098833   0.000000
    139          1.100145   0.000000
    140          1.158308   0.000000
    141          1.298220   0.000000
    142          1.425118   0.000000
    143          1.663484   0.000000
 
  0.2000000E+00  0.4000000E+00  0.1276756E-14  0.8000000E-01
      1        -57.442660   1.000000
      2        -57.432586   1.000000
      3        -57.431442   1.000000
      4        -57.422135   1.000000
      5        -57.420882   1.000000
      6        -57.417340   1.000000
      7        -57.416092   1.000000
      8        -57.413864   1.000000
      9        -57.413005   1.000000
     10        -33.693307   1.000000
     11        -33.692163   1.000000
     12        -33.672350   1.000000
     13        -33.651742   1.000000
     14        -33.627475   1.000000
     15        -33.626387   1.000000
     16        -33.531625   1.000000
     17        -33.530745   1.000000
     18        -33.529696   1.000000
     19        -33.521550   1.000000
     20        -33.513496   1.000000
     21        -33.489334   1.000000
     22        -33.488310   1.000000
     23        -33.464963   1.000000
     24        -33.463732   1.000000
     25        -33.458075   1.000000
     26        -33.457045   1.000000
     27        -33.455480   1.000000
     28        -33.454494   1.000000
     29        -33.453570   1.000000
     30        -33.452379   1.000000
     31        -33.447185   1.000000
     32        -33.445042   1.000000
     33        -33.416136   1.000000
     34        -33.413021   1.000000
     35        -33.411989   1.000000
     36        -33.382775   1.000000
     37        -15.698869   1.000000
     38        -15.242641   1.000000
     39        -15.241601   1.000000
     40        -14.745355   1.000000
     41        -14.744085   1.000000
     42        -14.502865   1.000000
     43        -14.489924   1.000000
     44        -14.488930   1.000000
     45        -14.373057   1.000000
     46        -14.371031   1.000000
     47        -14.368445   1.000000
     48        -14.316956   1.000000
     49        -14.225139   1.000000
     50        -14.223810   1.000000
     51        -14.157716   1.000000
     52        -14.155989   1.000000
     53        -14.102602   1.000000
     54        -14.088565   1.000000
     55         -7.347003   1.000000
     56         -7.346802   1.000000
     57         -7.200347   1.000000
     58         -6.965155   1.000000
     59         -6.962392   1.000000
     60         -6.961278   1.000000
     61         -6.883803   1.000000
     62         -6.833842   1.000000
     63         -6.828426   1.000000
     64         -6.826348   1.000000
     65         -6.825182   1.000000
     66         -6.423871   1.000000
     67         -6.422852   1.000000
     68         -6.111024   1.000000
     69         -6.109162   1.000000
     70         -5.939288   1.000000
     71         -5.937970   1.000000
     72         -5.924088   1.000000
     73         -5.923667   1.000000
     74         -5.906828   1.000000
     75         -5.905900   1.000000
     76         -5.878163   1.000000
     77         -5.741175   1.000000
     78         -5.313755   1.000000
     79         -5.311105   1.000000
     80         -5.212995   1.000000
     81         -5.171506   1.000000
     82         -5.169749   1.000000
     83         -5.139955   1.000000
     84         -5.114725   1.000000
     85         -5.112842   1.000000
     86         -5.004678   1.000000
     87         -4.992922   1.000000
     88         -4.871383   1.000000
     89         -4.702603   1.000000
     90         -4.699648   1.000000
     91         -4.658250   1.000000
     92         -4.447961   1.000000
     93         -4.254831   1.000000
     94         -4.252647   1.000000
     95         -4.249915   1.000000
     96         -4.248453   1.000000
     97         -4.062445   1.000000
     98         -3.828622   1.000000
     99         -3.801271   1.000000
    100         -3.800935   1.000000
    101         -3.741688   1.000000
    102         -3.704749   1.000000
    103         -3.702418   1.000000
    104         -3.436841   1.000000
    105         -3.436073   1.000000
    106         -3.269368   1.000000
    107         -3.268485   1.000000
    108         -3.230407   1.000000
    109         -2.612921   0.999999
    110         -2.612139   0.999999
    111         -2.522823   0.985145
    112         -2.521865   0.984098
    113         -2.301420   0.000022
    114         -2.300446   0.000019
    115         -2.284851   0.000003
    116         -2.184650   0.000000
    117         -1.625397   0.000000
    118          0.017469   0.000000
    119          0.092996   0.000000
    120          0.262903   0.000000
    121          0.263879   0.000000
    122          0.317055   0.000000
    123          0.319217   0.000000
    124          0.393136   0.000000
    125          0.396241   0.000000
    126          0.399689   0.000000
    127          0.503073   0.000000
    128          0.508676   0.000000
    129          0.511090   0.000000
    130          0.606442   0.000000
    131          0.636504   0.000000
    132          0.639616   0.000000
    133          0.664331   0.000000
    134          0.666678   0.000000
    135          0.799797   0.000000
    136          0.801290   0.000000
    137          0.851386   0.000000
    138          1.098783   0.000000
    139          1.099866   0.000000
    140          1.157853   0.000000
    141          1.298614   0.000000
    142          1.425007   0.000000
    143          1.668769   0.000000
 
 -0.2000000E+00  0.2000000E+00  0.1276756E-14  0.8000000E-01
      1        -57.442661   1.000000
      2        -57.432569   1.000000
      3        -57.431460   1.000000
      4        -57.422151   1.000000
      5        -57.420868   1.000000
      6        -57.417221   1.000000
      7        -57.416245   1.000000
      8        -57.413816   1.000000
      9        -57.413015   1.000000
     10        -33.693088   1.000000
     11        -33.692001   1.000000
     12        -33.672667   1.000000
     13        -33.651427   1.000000
     14        -33.627782   1.000000
     15        -33.626639   1.000000
     16        -33.531721   1.000000
     17        -33.530653   1.000000
     18        -33.529916   1.000000
     19        -33.521285   1.000000
     20        -33.513500   1.000000
     21        -33.489340   1.000000
     22        -33.488307   1.000000
     23        -33.464971   1.000000
     24        -33.463689   1.000000
     25        -33.457865   1.000000
     26        -33.456773   1.000000
     27        -33.455726   1.000000
     28        -33.454557   1.000000
     29        -33.453512   1.000000
     30        -33.452489   1.000000
     31        -33.447171   1.000000
     32        -33.445033   1.000000
     33        -33.415871   1.000000
     34        -33.413059   1.000000
     35        -33.411987   1.000000
     36        -33.383038   1.000000
     37        -15.698919   1.000000
     38        -15.242656   1.000000
     39        -15.241642   1.000000
     40        -14.744994   1.000000
     41        -14.743854   1.000000
     42        -14.502801   1.000000
     43        -14.490131   1.000000
     44        -14.489297   1.000000
     45        -14.373009   1.000000
     46        -14.371161   1.000000
     47        -14.368536   1.000000
     48        -14.316624   1.000000
     49        -14.225555   1.000000
     50        -14.224274   1.000000
     51        -14.157328   1.000000
     52        -14.155530   1.000000
     53        -14.102225   1.000000
     54        -14.089044   1.000000
     55         -7.346932   1.000000
     56         -7.346744   1.000000
     57         -7.200422   1.000000
     58         -6.965417   1.000000
     59         -6.962361   1.000000
     60         -6.961199   1.000000
     61         -6.883067   1.000000
     62         -6.834582   1.000000
     63         -6.828661   1.000000
     64         -6.826722   1.000000
     65         -6.825101   1.000000
     66         -6.424585   1.000000
     67         -6.423512   1.000000
     68         -6.110496   1.000000
     69         -6.108714   1.000000
     70         -5.939735   1.000000
     71         -5.938385   1.000000
     72         -5.924009   1.000000
     73         -5.923615   1.000000
     74         -5.906046   1.000000
     75         -5.905187   1.000000
     76         -5.877486   1.000000
     77         -5.740849   1.000000
     78         -5.312783   1.000000
     79         -5.310424   1.000000
     80         -5.213791   1.000000
     81         -5.171883   1.000000
     82         -5.169940   1.000000
     83         -5.140561   1.000000
     84         -5.114222   1.000000
     85         -5.112369   1.000000
     86         -5.004203   1.000000
     87         -4.992172   1.000000
     88         -4.871394   1.000000
     89         -4.704110   1.000000
     90         -4.700475   1.000000
     91         -4.657518   1.000000
     92         -4.445693   1.000000
     93         -4.254943   1.000000
     94         -4.252418   1.000000
     95         -4.249873   1.000000
     96         -4.248916   1.000000
     97         -4.065457   1.000000
     98         -3.829585   1.000000
     99         -3.801720   1.000000
    100         -3.801260   1.000000
    101         -3.741774   1.000000
    102         -3.704437   1.000000
    103         -3.702112   1.000000
    104         -3.436986   1.000000
    105         -3.436270   1.000000
    106         -3.269162   1.000000
    107         -3.268280   1.000000
    108         -3.229966   1.000000
    109         -2.614028   0.999999
    110         -2.613307   0.999999
    111         -2.521780   0.984001
    112         -2.520780   0.982835
    113         -2.301387   0.000022
    114         -2.300421   0.000019
    115         -2.284511   0.000002
    116         -2.185115   0.000000
    117         -1.624805   0.000000
    118          0.016828   0.000000
    119          0.093515   0.000000
    120          0.263623   0.000000
    121          0.264466   0.000000
    122          0.317255   0.000000
    123          0.318829   0.000000
    124          0.392061   0.000000
    125          0.395572   0.000000
    126          0.398915   0.000000
    127          0.503094   0.000000
    128          0.508240   0.000000
    129          0.510084   0.000000
    130          0.605832   0.000000
    131          0.636485   0.000000
    132          0.639376   0.000000
    133          0.664301   0.000000
    134          0.666391   0.000000
    135          0.800320   0.000000
    136          0.801555   0.000000
    137          0.854758   0.000000
    138          1.099153   0.000000
    139          1.100147   0.000000
    140          1.158759   0.000000
    141          1.297912   0.000000
    142          1.425683   0.000000
    143          1.658272   0.000000
 
 -0.4000000E+00  0.2000000E+00  0.1276756E-14  0.8000000E-01
      1        -57.438572   1.000000
      2        -57.437437   1.000000
      3        -57.432869   1.000000
      4        -57.422040   1.000000
      5        -57.418010   1.000000
      6        -57.416848   1.000000
      7        -57.415654   1.000000
      8        -57.414791   1.000000
      9        -57.413786   1.000000
     10        -33.705994   1.000000
     11        -33.690698   1.000000
     12        -33.689685   1.000000
     13        -33.646211   1.000000
     14        -33.645371   1.000000
     15        -33.614332   1.000000
     16        -33.517763   1.000000
     17        -33.503195   1.000000
     18        -33.502199   1.000000
     19        -33.493758   1.000000
     20        -33.492964   1.000000
     21        -33.490880   1.000000
     22        -33.483799   1.000000
     23        -33.482871   1.000000
     24        -33.467539   1.000000
     25        -33.466073   1.000000
     26        -33.465343   1.000000
     27        -33.464351   1.000000
     28        -33.458897   1.000000
     29        -33.455401   1.000000
     30        -33.454207   1.000000
     31        -33.450112   1.000000
     32        -33.448870   1.000000
     33        -33.447812   1.000000
     34        -33.413804   1.000000
     35        -33.396684   1.000000
     36        -33.395326   1.000000
     37        -15.504080   1.000000
     38        -15.502982   1.000000
     39        -15.282171   1.000000
     40        -14.766031   1.000000
     41        -14.538303   1.000000
     42        -14.537186   1.000000
     43        -14.446949   1.000000
     44        -14.445822   1.000000
     45        -14.418859   1.000000
     46        -14.392613   1.000000
     47        -14.391471   1.000000
     48        -14.381888   1.000000
     49        -14.229273   1.000000
     50        -14.159263   1.000000
     51        -14.157782   1.000000
     52        -14.136391   1.000000
     53        -14.121852   1.000000
     54        -14.120128   1.000000
     55         -7.416132   1.000000
     56         -7.228570   1.000000
     57         -7.228000   1.000000
     58         -6.995822   1.000000
     59         -6.994059   1.000000
     60         -6.944797   1.000000
     61         -6.944359   1.000000
     62         -6.867461   1.000000
     63         -6.818556   1.000000
     64         -6.661235   1.000000
     65         -6.660121   1.000000
     66         -6.514638   1.000000
     67         -6.505941   1.000000
     68         -6.504304   1.000000
     69         -6.086518   1.000000
     70         -5.957917   1.000000
     71         -5.914737   1.000000
     72         -5.913584   1.000000
     73         -5.891230   1.000000
     74         -5.883144   1.000000
     75         -5.801067   1.000000
     76         -5.799922   1.000000
     77         -5.596718   1.000000
     78         -5.595606   1.000000
     79         -5.200484   1.000000
     80         -5.168214   1.000000
     81         -5.144506   1.000000
     82         -5.118235   1.000000
     83         -5.117498   1.000000
     84         -5.116091   1.000000
     85         -5.114174   1.000000
     86         -4.852844   1.000000
     87         -4.849680   1.000000
     88         -4.807057   1.000000
     89         -4.669591   1.000000
     90         -4.668766   1.000000
     91         -4.475888   1.000000
     92         -4.473926   1.000000
     93         -4.413878   1.000000
     94         -4.397076   1.000000
     95         -4.394288   1.000000
     96         -4.329694   1.000000
     97         -4.266458   1.000000
     98         -4.265947   1.000000
     99         -3.765091   1.000000
    100         -3.743935   1.000000
    101         -3.742100   1.000000
    102         -3.738951   1.000000
    103         -3.547470   1.000000
    104         -3.546745   1.000000
    105         -3.351436   1.000000
    106         -3.175074   1.000000
    107         -3.174473   1.000000
    108         -3.148478   1.000000
    109         -2.603760   0.999996
    110         -2.508965   0.962624
    111         -2.508457   0.961438
    112         -2.441175   0.446140
    113         -2.359174   0.007049
    114         -2.358320   0.006589
    115         -2.239860   0.000000
    116         -1.923557   0.000000
    117         -1.922624   0.000000
    118          0.215154   0.000000
    119          0.292701   0.000000
    120          0.295280   0.000000
    121          0.302150   0.000000
    122          0.355365   0.000000
    123          0.356459   0.000000
    124          0.373614   0.000000
    125          0.375817   0.000000
    126          0.401454   0.000000
    127          0.433107   0.000000
    128          0.435532   0.000000
    129          0.512178   0.000000
    130          0.514529   0.000000
    131          0.515390   0.000000
    132          0.542778   0.000000
    133          0.631950   0.000000
    134          0.752979   0.000000
    135          0.754660   0.000000
    136          0.875518   0.000000
    137          0.962745   0.000000
    138          0.994730   0.000000
    139          0.996359   0.000000
    140          1.235491   0.000000
    141          1.237799   0.000000
    142          1.255488   0.000000
    143          1.256395   0.000000
 
  0.4000000E+00 -0.4000000E+00  0.1276756E-14  0.8000000E-01
      1        -57.438561   1.000000
      2        -57.437451   1.000000
      3        -57.432865   1.000000
      4        -57.422030   1.000000
      5        -57.418060   1.000000
      6        -57.416879   1.000000
      7        -57.415500   1.000000
      8        -57.414862   1.000000
      9        -57.413801   1.000000
     10        -33.706329   1.000000
     11        -33.690533   1.000000
     12        -33.689580   1.000000
     13        -33.646283   1.000000
     14        -33.645445   1.000000
     15        -33.614005   1.000000
     16        -33.517455   1.000000
     17        -33.503198   1.000000
     18        -33.502184   1.000000
     19        -33.493655   1.000000
     20        -33.492948   1.000000
     21        -33.490891   1.000000
     22        -33.483889   1.000000
     23        -33.483002   1.000000
     24        -33.467887   1.000000
     25        -33.466062   1.000000
     26        -33.465356   1.000000
     27        -33.464738   1.000000
     28        -33.458645   1.000000
     29        -33.455428   1.000000
     30        -33.454194   1.000000
     31        -33.449991   1.000000
     32        -33.448977   1.000000
     33        -33.447801   1.000000
     34        -33.414076   1.000000
     35        -33.396448   1.000000
     36        -33.395140   1.000000
     37        -15.503972   1.000000
     38        -15.502906   1.000000
     39        -15.282341   1.000000
     40        -14.766303   1.000000
     41        -14.538176   1.000000
     42        -14.537215   1.000000
     43        -14.446956   1.000000
     44        -14.446101   1.000000
     45        -14.418293   1.000000
     46        -14.392718   1.000000
     47        -14.391736   1.000000
     48        -14.381643   1.000000
     49        -14.228830   1.000000
     50        -14.159383   1.000000
     51        -14.157857   1.000000
     52        -14.137171   1.000000
     53        -14.121607   1.000000
     54        -14.119835   1.000000
     55         -7.416440   1.000000
     56         -7.228410   1.000000
     57         -7.227783   1.000000
     58         -6.995666   1.000000
     59         -6.993933   1.000000
     60         -6.944646   1.000000
     61         -6.944160   1.000000
     62         -6.867669   1.000000
     63         -6.818706   1.000000
     64         -6.661441   1.000000
     65         -6.660333   1.000000
     66         -6.513732   1.000000
     67         -6.505367   1.000000
     68         -6.503770   1.000000
     69         -6.087990   1.000000
     70         -5.956930   1.000000
     71         -5.915299   1.000000
     72         -5.914073   1.000000
     73         -5.891841   1.000000
     74         -5.883992   1.000000
     75         -5.801309   1.000000
     76         -5.800173   1.000000
     77         -5.596060   1.000000
     78         -5.595165   1.000000
     79         -5.199048   1.000000
     80         -5.167900   1.000000
     81         -5.143360   1.000000
     82         -5.119559   1.000000
     83         -5.117924   1.000000
     84         -5.116322   1.000000
     85         -5.115463   1.000000
     86         -4.854568   1.000000
     87         -4.851255   1.000000
     88         -4.807690   1.000000
     89         -4.669252   1.000000
     90         -4.668366   1.000000
     91         -4.476475   1.000000
     92         -4.474271   1.000000
     93         -4.413897   1.000000
     94         -4.395516   1.000000
     95         -4.391670   1.000000
     96         -4.329238   1.000000
     97         -4.266271   1.000000
     98         -4.265759   1.000000
     99         -3.764830   1.000000
    100         -3.743340   1.000000
    101         -3.741480   1.000000
    102         -3.739934   1.000000
    103         -3.547007   1.000000
    104         -3.546283   1.000000
    105         -3.352010   1.000000
    106         -3.174878   1.000000
    107         -3.174460   1.000000
    108         -3.148977   1.000000
    109         -2.602452   0.999995
    110         -2.509204   0.963173
    111         -2.508687   0.961978
    112         -2.442622   0.462366
    113         -2.358832   0.006862
    114         -2.358006   0.006427
    115         -2.238271   0.000000
    116         -1.924439   0.000000
    117         -1.923579   0.000000
    118          0.213719   0.000000
    119          0.293080   0.000000
    120          0.295486   0.000000
    121          0.301939   0.000000
    122          0.355904   0.000000
    123          0.356941   0.000000
    124          0.373678   0.000000
    125          0.375862   0.000000
    126          0.400636   0.000000
    127          0.434533   0.000000
    128          0.437045   0.000000
    129          0.511157   0.000000
    130          0.514586   0.000000
    131          0.515382   0.000000
    132          0.543751   0.000000
    133          0.632957   0.000000
    134          0.752338   0.000000
    135          0.754090   0.000000
    136          0.875104   0.000000
    137          0.963509   0.000000
    138          0.994638   0.000000
    139          0.996421   0.000000
    140          1.233471   0.000000
    141          1.235870   0.000000
    142          1.254449   0.000000
    143          1.255093   0.000000
 
 -0.2000000E+00  0.4000000E+00  0.1276756E-14  0.8000000E-01
      1        -57.438143   1.000000
      2        -57.437946   1.000000
      3        -57.432786   1.000000
      4        -57.422006   1.000000
      5        -57.417636   1.000000
      6        -57.417459   1.000000
      7        -57.415607   1.000000
      8        -57.414537   1.000000
      9        -57.413889   1.000000
     10        -33.706176   1.000000
     11        -33.690293   1.000000
     12        -33.689945   1.000000
     13        -33.646009   1.000000
     14        -33.645640   1.000000
     15        -33.614169   1.000000
     16        -33.517599   1.000000
     17        -33.502756   1.000000
     18        -33.502660   1.000000
     19        -33.493544   1.000000
     20        -33.493205   1.000000
     21        -33.490856   1.000000
     22        -33.483504   1.000000
     23        -33.483218   1.000000
     24        -33.467096   1.000000
     25        -33.466659   1.000000
     26        -33.465341   1.000000
     27        -33.464614   1.000000
     28        -33.458711   1.000000
     29        -33.454893   1.000000
     30        -33.454811   1.000000
     31        -33.450155   1.000000
     32        -33.448467   1.000000
     33        -33.448082   1.000000
     34        -33.413963   1.000000
     35        -33.395980   1.000000
     36        -33.395795   1.000000
     37        -15.503538   1.000000
     38        -15.503433   1.000000
     39        -15.282255   1.000000
     40        -14.766167   1.000000
     41        -14.537904   1.000000
     42        -14.537539   1.000000
     43        -14.446570   1.000000
     44        -14.446351   1.000000
     45        -14.418580   1.000000
     46        -14.392498   1.000000
     47        -14.391763   1.000000
     48        -14.381757   1.000000
     49        -14.229049   1.000000
     50        -14.158861   1.000000
     51        -14.158316   1.000000
     52        -14.136800   1.000000
     53        -14.121200   1.000000
     54        -14.120460   1.000000
     55         -7.416284   1.000000
     56         -7.228311   1.000000
     57         -7.228074   1.000000
     58         -6.994928   1.000000
     59         -6.994815   1.000000
     60         -6.944565   1.000000
     61         -6.944418   1.000000
     62         -6.867574   1.000000
     63         -6.818616   1.000000
     64         -6.661300   1.000000
     65         -6.660266   1.000000
     66         -6.514181   1.000000
     67         -6.505492   1.000000
     68         -6.504203   1.000000
     69         -6.087253   1.000000
     70         -5.957438   1.000000
     71         -5.914815   1.000000
     72         -5.913981   1.000000
     73         -5.891571   1.000000
     74         -5.883566   1.000000
     75         -5.800857   1.000000
     76         -5.800372   1.000000
     77         -5.596202   1.000000
     78         -5.595584   1.000000
     79         -5.199723   1.000000
     80         -5.168087   1.000000
     81         -5.144026   1.000000
     82         -5.118516   1.000000
     83         -5.117692   1.000000
     84         -5.115982   1.000000
     85         -5.115359   1.000000
     86         -4.852552   1.000000
     87         -4.851667   1.000000
     88         -4.807354   1.000000
     89         -4.669059   1.000000
     90         -4.668930   1.000000
     91         -4.475527   1.000000
     92         -4.474738   1.000000
     93         -4.413882   1.000000
     94         -4.395277   1.000000
     95         -4.393977   1.000000
     96         -4.329476   1.000000
     97         -4.266183   1.000000
     98         -4.266034   1.000000
     99         -3.764967   1.000000
    100         -3.743448   1.000000
    101         -3.742299   1.000000
    102         -3.739128   1.000000
    103         -3.546941   1.000000
    104         -3.546805   1.000000
    105         -3.351727   1.000000
    106         -3.174796   1.000000
    107         -3.174644   1.000000
    108         -3.148729   1.000000
    109         -2.603099   0.999996
    110         -2.509291   0.963370
    111         -2.508378   0.961250
    112         -2.441881   0.454052
    113         -2.359093   0.007004
    114         -2.358070   0.006460
    115         -2.239077   0.000000
    116         -1.923980   0.000000
    117         -1.923119   0.000000
    118          0.214513   0.000000
    119          0.294047   0.000000
    120          0.294835   0.000000
    121          0.301371   0.000000
    122          0.355235   0.000000
    123          0.356865   0.000000
    124          0.374580   0.000000
    125          0.375085   0.000000
    126          0.401026   0.000000
    127          0.434245   0.000000
    128          0.435841   0.000000
    129          0.511679   0.000000
    130          0.514455   0.000000
    131          0.515457   0.000000
    132          0.543288   0.000000
    133          0.632516   0.000000
    134          0.753041   0.000000
    135          0.753992   0.000000
    136          0.875297   0.000000
    137          0.963120   0.000000
    138          0.995189   0.000000
    139          0.995910   0.000000
    140          1.234729   0.000000
    141          1.236606   0.000000
    142          1.254663   0.000000
    143          1.255884   0.000000
