Mo1 W1 Se2 S2                           
   1.00000000000000     
     3.2206090000000001   -0.0000000000000020    0.0000000000000000
     1.6103045000000051    2.7891292096567892    0.0000000000000000
     0.0000000000000000    0.0000000000000000   20.4422856505076815
   Mo   S    W    Se
     1     2     1     2
Direct
    -0.0000000000000000   -0.0000000000000000    0.5113040753559652
     0.3333333333333357    0.3333333333333357    0.4357342215634550
     0.3333333333333357    0.3333333333333357    0.5867278705518589
     0.3333333333333357    0.3333333333333357    0.8137205169390846
     0.6666666666666714    0.6666666666666714    0.7300428335213220
     0.6666666666666714    0.6666666666666714    0.8974704820685712
 
  0.00000000E+00  0.00000000E+00  0.00000000E+00
  0.00000000E+00  0.00000000E+00  0.00000000E+00
  0.00000000E+00  0.00000000E+00  0.00000000E+00
  0.00000000E+00  0.00000000E+00  0.00000000E+00
  0.00000000E+00  0.00000000E+00  0.00000000E+00
  0.00000000E+00  0.00000000E+00  0.00000000E+00
