generated by phonopy                    
   1.00000000000000     
     9.7597246244515858    0.0000000000000000    0.0000000000000000
     4.8798623122257929    8.4521694587156126    0.0000000000000000
     0.0000000000000000    0.0000000000000000   20.0000000000000000
   Mo   Se   W    S 
     9    18     9    18
Direct
     0.0000000000000000    0.0000000000000000    0.5068301942989777
     0.3333333333333357    0.0000000000000000    0.5068301942989777
     0.6666666666666643    0.0000000000000000    0.5068301942989777
     0.0000000000000000    0.3333333333333357    0.5068301942989777
     0.3333333333333357    0.3333333333333357    0.5068301942989777
     0.6666666666666643    0.3333333333333357    0.5068301942989777
     0.0000000000000000    0.6666666666666643    0.5068301942989777
     0.3333333333333357    0.6666666666666643    0.5068301942989777
     0.6666666666666643    0.6666666666666643    0.5068301942989777
     0.1111111111111143    0.1111111111111143    0.4224787751035279
     0.4444444444444429    0.1111111111111143    0.4224787751035279
     0.7777777777777786    0.1111111111111143    0.4224787751035279
     0.1111111111111143    0.4444444444444429    0.4224787751035279
     0.4444444444444429    0.4444444444444429    0.4224787751035279
     0.7777777777777786    0.4444444444444429    0.4224787751035279
     0.1111111111111143    0.7777777777777786    0.4224787751035279
     0.4444444444444429    0.7777777777777786    0.4224787751035279
     0.7777777777777786    0.7777777777777786    0.4224787751035279
     0.1111111111111143    0.1111111111111143    0.5911155108166852
     0.4444444444444429    0.1111111111111143    0.5911155108166852
     0.7777777777777786    0.1111111111111143    0.5911155108166852
     0.1111111111111143    0.4444444444444429    0.5911155108166852
     0.4444444444444429    0.4444444444444429    0.5911155108166852
     0.7777777777777786    0.4444444444444429    0.5911155108166852
     0.1111111111111143    0.7777777777777786    0.5911155108166852
     0.4444444444444429    0.7777777777777786    0.5911155108166852
     0.7777777777777786    0.7777777777777786    0.5911155108166852
     0.1111111111111143    0.1111111111111143    0.8181821320564495
     0.4444444444444429    0.1111111111111143    0.8181821320564495
     0.7777777777777786    0.1111111111111143    0.8181821320564495
     0.1111111111111143    0.4444444444444429    0.8181821320564495
     0.4444444444444429    0.4444444444444429    0.8181821320564495
     0.7777777777777786    0.4444444444444429    0.8181821320564495
     0.1111111111111143    0.7777777777777786    0.8181821320564495
     0.4444444444444429    0.7777777777777786    0.8181821320564495
     0.7777777777777786    0.7777777777777786    0.8181821320564495
     0.0000000000000000    0.0000000000000000    0.7410492100455386
     0.3333333333333357    0.0000000000000000    0.7410492100455386
     0.6666666666666643    0.0000000000000000    0.7410492100455386
     0.0000000000000000    0.3333333333333357    0.7410492100455386
     0.3333333333333357    0.3333333333333357    0.7410492100455386
     0.6666666666666643    0.3333333333333357    0.7410492100455386
     0.0000000000000000    0.6666666666666643    0.7410492100455386
     0.3333333333333357    0.6666666666666643    0.7410492100455386
     0.6666666666666643    0.6666666666666643    0.7410492100455386
     0.9995506478929883    0.0000000000000000    0.8948948255717966
     0.3333333333333357    0.0000000000000000    0.8953441776788083
     0.6666666666666643    0.0000000000000000    0.8953441776788083
     0.0000000000000000    0.3333333333333357    0.8953441776788083
     0.3333333333333357    0.3333333333333357    0.8953441776788083
     0.6666666666666643    0.3333333333333357    0.8953441776788083
     0.0000000000000000    0.6666666666666643    0.8953441776788083
     0.3333333333333357    0.6666666666666643    0.8953441776788083
     0.6666666666666643    0.6666666666666643    0.8953441776788083
 
  0.00000000E+00  0.00000000E+00  0.00000000E+00
  0.00000000E+00  0.00000000E+00  0.00000000E+00
  0.00000000E+00  0.00000000E+00  0.00000000E+00
  0.00000000E+00  0.00000000E+00  0.00000000E+00
  0.00000000E+00  0.00000000E+00  0.00000000E+00
  0.00000000E+00  0.00000000E+00  0.00000000E+00
  0.00000000E+00  0.00000000E+00  0.00000000E+00
  0.00000000E+00  0.00000000E+00  0.00000000E+00
  0.00000000E+00  0.00000000E+00  0.00000000E+00
  0.00000000E+00  0.00000000E+00  0.00000000E+00
  0.00000000E+00  0.00000000E+00  0.00000000E+00
  0.00000000E+00  0.00000000E+00  0.00000000E+00
  0.00000000E+00  0.00000000E+00  0.00000000E+00
  0.00000000E+00  0.00000000E+00  0.00000000E+00
  0.00000000E+00  0.00000000E+00  0.00000000E+00
  0.00000000E+00  0.00000000E+00  0.00000000E+00
  0.00000000E+00  0.00000000E+00  0.00000000E+00
  0.00000000E+00  0.00000000E+00  0.00000000E+00
  0.00000000E+00  0.00000000E+00  0.00000000E+00
  0.00000000E+00  0.00000000E+00  0.00000000E+00
  0.00000000E+00  0.00000000E+00  0.00000000E+00
  0.00000000E+00  0.00000000E+00  0.00000000E+00
  0.00000000E+00  0.00000000E+00  0.00000000E+00
  0.00000000E+00  0.00000000E+00  0.00000000E+00
  0.00000000E+00  0.00000000E+00  0.00000000E+00
  0.00000000E+00  0.00000000E+00  0.00000000E+00
  0.00000000E+00  0.00000000E+00  0.00000000E+00
  0.00000000E+00  0.00000000E+00  0.00000000E+00
  0.00000000E+00  0.00000000E+00  0.00000000E+00
  0.00000000E+00  0.00000000E+00  0.00000000E+00
  0.00000000E+00  0.00000000E+00  0.00000000E+00
  0.00000000E+00  0.00000000E+00  0.00000000E+00
  0.00000000E+00  0.00000000E+00  0.00000000E+00
  0.00000000E+00  0.00000000E+00  0.00000000E+00
  0.00000000E+00  0.00000000E+00  0.00000000E+00
  0.00000000E+00  0.00000000E+00  0.00000000E+00
  0.00000000E+00  0.00000000E+00  0.00000000E+00
  0.00000000E+00  0.00000000E+00  0.00000000E+00
  0.00000000E+00  0.00000000E+00  0.00000000E+00
  0.00000000E+00  0.00000000E+00  0.00000000E+00
  0.00000000E+00  0.00000000E+00  0.00000000E+00
  0.00000000E+00  0.00000000E+00  0.00000000E+00
  0.00000000E+00  0.00000000E+00  0.00000000E+00
  0.00000000E+00  0.00000000E+00  0.00000000E+00
  0.00000000E+00  0.00000000E+00  0.00000000E+00
  0.00000000E+00  0.00000000E+00  0.00000000E+00
  0.00000000E+00  0.00000000E+00  0.00000000E+00
  0.00000000E+00  0.00000000E+00  0.00000000E+00
  0.00000000E+00  0.00000000E+00  0.00000000E+00
  0.00000000E+00  0.00000000E+00  0.00000000E+00
  0.00000000E+00  0.00000000E+00  0.00000000E+00
  0.00000000E+00  0.00000000E+00  0.00000000E+00
  0.00000000E+00  0.00000000E+00  0.00000000E+00
  0.00000000E+00  0.00000000E+00  0.00000000E+00
