 vasp.6.5.1 10Mar25 (build Aug 29 2025 00:30:47) complex                        
  
 executed on             LinuxIFC date 2026.06.04  23:03:42
 running  264 mpi-ranks, with    1 threads/rank, on    6 nodes
 distrk:  each k-point on   44 cores,    6 groups
 distr:  one band on NCORE=   4 cores,   11 groups


--------------------------------------------------------------------------------------------------------


 INCAR:
   SYSTEM = MoSe2_WS2_2H phonon
   PREC = Accurate
   ENCUT = 520
   EDIFF = 1E-6
   ISMEAR = 0
   SIGMA = 0.05
   LREAL = Auto
   ALGO = Normal
   AMIN = 0.01
   NELM = 200
   NSW = 0
   IBRION = -1
   IVDW = 12
   KPAR = 6
   NCORE = 4
   LWAVE = .FALSE.
   LCHARG = .FALSE.

 POTCAR:    PAW_PBE Mo_sv 02Feb2006               
 POTCAR:    PAW_PBE Se 06Sep2000                  
 POTCAR:    PAW_PBE W_sv 04Sep2015                
 POTCAR:    PAW_PBE S 06Sep2000                   
 POTCAR:    PAW_PBE Mo_sv 02Feb2006               
   SHA256 =  2731df97e41766cc617548c5a8267718fdef1f509ac6bafa01e745abea2bdfaa Mo_sv/POTCAR          
   COPYR  = (c) Copyright 02Feb2006 Georg Kresse                                                    
   COPYR  = This file is part of the software VASP. Any use, copying, and all other rights are regul
   COPYR  = If you do not have a valid VASP license, you may not use, copy or distribute this file. 
   VRHFIN =Mo: 4p5s4d                                                                               
   LEXCH  = PE                                                                                      
   EATOM  =  1862.2866 eV,  136.8742 Ry                                                             
                                                                                                    
   TITEL  = PAW_PBE Mo_sv 02Feb2006                                                                 
   LULTRA =        F    use ultrasoft PP ?                                                          
   IUNSCR =        1    unscreen: 0-lin 1-nonlin 2-no                                               
   RPACOR =    2.200    partial core radius                                                         
   POMASS =   95.940; ZVAL   =   14.000    mass and valenz                                          
   RCORE  =    2.500    outmost cutoff radius                                                       
   RWIGS  =    2.750; RWIGS  =    1.455    wigner-seitz radius (au A)                               
   ENMAX  =  242.676; ENMIN  =  182.007 eV                                                          
   ICORE  =        3    local potential                                                             
   LCOR   =        T    correct aug charges                                                         
   LPAW   =        T    paw PP                                                                      
   EAUG   =  446.014                                                                                
   DEXC   =    0.000                                                                                
   RMAX   =    2.563    core radius for proj-oper                                                   
   RAUG   =    1.300    factor for augmentation sphere                                              
   RDEP   =    2.641    radius for radial grids                                                     
   RDEPT  =    2.031    core radius for aug-charge                                                  
                                                                                                    
   Atomic configuration                                                                             
   11 entries                                                                                       
     n  l   j            E        occ.                                                              
     1  0  0.50    -19819.0341   2.0000                                                             
     2  0  0.50     -2799.0127   2.0000                                                             
     2  1  1.50     -2502.0276   6.0000                                                             
     3  0  0.50      -476.4449   2.0000                                                             
     3  1  1.50      -379.1496   6.0000                                                             
     3  2  2.50      -220.9367  10.0000                                                             
     4  0  0.50       -64.3378   2.0000                                                             
     5  0  0.50        -4.0862   1.0000                                                             
     4  1  1.50       -38.4773   6.0000                                                             
     4  2  2.50        -3.7535   5.0000                                                             
     4  3  2.50        -1.3606   0.0000                                                             
   Description                                                                                      
     l       E           TYP  RCUT    TYP  RCUT                                                     
     0    -64.3377829     23  2.100                                                                 
     0     -4.0861640     23  2.400                                                                 
     1    -38.4772993     23  2.100                                                                 
     1     13.6058260     23  2.100                                                                 
     2     -3.7534941     23  2.400                                                                 
     2     -5.1140767     23  2.400                                                                 
     3     -4.0817478     23  2.500                                                                 
  local pseudopotential read in
  partial core-charges read in
  partial kinetic energy density read in
  atomic valenz-charges read in
  non local Contribution for L=           0  read in
    real space projection operators read in
  non local Contribution for L=           0  read in
    real space projection operators read in
  non local Contribution for L=           1  read in
    real space projection operators read in
  non local Contribution for L=           1  read in
    real space projection operators read in
  non local Contribution for L=           2  read in
    real space projection operators read in
  non local Contribution for L=           2  read in
    real space projection operators read in
    PAW grid and wavefunctions read in
 
   number of l-projection  operators is LMAX  =           6
   number of lm-projection operators is LMMAX =          18
 
 POTCAR:    PAW_PBE Se 06Sep2000                  
   SHA256 =  eabb916e6b4c819dc065ce039373bc328651da483898f08fb9e49c498452bf12 Se/POTCAR             
   COPYR  = (c) Copyright 06Sep2000 Georg Kresse                                                    
   COPYR  = This file is part of the software VASP. Any use, copying, and all other rights are regul
   COPYR  = If you do not have a valid VASP license, you may not use, copy or distribute this file. 
   VRHFIN =Se: s2p4                                                                                 
   LEXCH  = PE                                                                                      
   EATOM  =   257.1286 eV,   18.8984 Ry                                                             
                                                                                                    
   TITEL  = PAW_PBE Se 06Sep2000                                                                    
   LULTRA =        F    use ultrasoft PP ?                                                          
   IUNSCR =        1    unscreen: 0-lin 1-nonlin 2-no                                               
   RPACOR =    1.900    partial core radius                                                         
   POMASS =   78.960; ZVAL   =    6.000    mass and valenz                                          
   RCORE  =    2.100    outmost cutoff radius                                                       
   RWIGS  =    2.200; RWIGS  =    1.164    wigner-seitz radius (au A)                               
   ENMAX  =  211.555; ENMIN  =  158.666 eV                                                          
   ICORE  =        3    local potential                                                             
   LCOR   =        T    correct aug charges                                                         
   LPAW   =        T    paw PP                                                                      
   EAUG   =  446.842                                                                                
   DEXC   =    0.000                                                                                
   RMAX   =    2.147    core radius for proj-oper                                                   
   RAUG   =    1.300    factor for augmentation sphere                                              
   RDEP   =    2.177    radius for radial grids                                                     
   RDEPT  =    1.928    core radius for aug-charge                                                  
                                                                                                    
   Atomic configuration                                                                             
   10 entries                                                                                       
     n  l   j            E        occ.                                                              
     1  0  0.50    -12503.4787   2.0000                                                             
     2  0  0.50     -1606.9547   2.0000                                                             
     2  1  1.50     -1413.3140   6.0000                                                             
     3  0  0.50      -213.4885   2.0000                                                             
     3  1  1.50      -152.9538   6.0000                                                             
     3  2  2.50       -53.1221  10.0000                                                             
     4  0  0.50       -17.2865   2.0000                                                             
     4  1  0.50        -6.5110   4.0000                                                             
     4  2  2.50        -6.8029   0.0000                                                             
     4  3  2.50        -6.8029   0.0000                                                             
   Description                                                                                      
     l       E           TYP  RCUT    TYP  RCUT                                                     
     0    -17.2865377     23  2.100                                                                 
     0    -15.3094411     23  2.100                                                                 
     1     -6.5110275     23  2.100                                                                 
     1     -0.0695192     23  2.100                                                                 
     2     -6.8029130     23  2.100                                                                 
     3     -1.3605826      7  2.100                                                                 
  local pseudopotential read in
  partial core-charges read in
  partial kinetic energy density read in
  atomic valenz-charges read in
  non local Contribution for L=           0  read in
    real space projection operators read in
  non local Contribution for L=           0  read in
    real space projection operators read in
  non local Contribution for L=           1  read in
    real space projection operators read in
  non local Contribution for L=           1  read in
    real space projection operators read in
  non local Contribution for L=           2  read in
    real space projection operators read in
    PAW grid and wavefunctions read in
 
   number of l-projection  operators is LMAX  =           5
   number of lm-projection operators is LMMAX =          13
 
 POTCAR:    PAW_PBE W_sv 04Sep2015                
   SHA256 =  931c2d770f65867ef30f3db3421922900fc0890ebac5c3e12f63b6a2064023d7 W_sv/POTCAR           
   COPYR  = (c) Copyright 04Sep2015 Georg Kresse                                                    
   COPYR  = This file is part of the software VASP. Any use, copying, and all other rights are regul
   COPYR  = If you do not have a valid VASP license, you may not use, copy or distribute this file. 
   VRHFIN =W : 5p6s5d                                                                               
   LEXCH  = PE                                                                                      
   EATOM  =  1865.5791 eV,  137.1162 Ry                                                             
                                                                                                    
   TITEL  = PAW_PBE W_sv 04Sep2015                                                                  
   LULTRA =        F    use ultrasoft PP ?                                                          
   IUNSCR =        1    unscreen: 0-lin 1-nonlin 2-no                                               
   RPACOR =    2.330    partial core radius                                                         
   POMASS =  183.850; ZVAL   =   14.000    mass and valenz                                          
   RCORE  =    2.500    outmost cutoff radius                                                       
   RWIGS  =    2.750; RWIGS  =    1.455    wigner-seitz radius (au A)                               
   ENMAX  =  223.057; ENMIN  =  167.293 eV                                                          
   ICORE  =        3    local potential                                                             
   LCOR   =        T    correct aug charges                                                         
   LPAW   =        T    paw PP                                                                      
   EAUG   =  373.438                                                                                
   DEXC   =    0.000                                                                                
   RMAX   =    2.565    core radius for proj-oper                                                   
   RAUG   =    1.300    factor for augmentation sphere                                              
   RDEP   =    2.539    radius for radial grids                                                     
   RDEPT  =    2.126    core radius for aug-charge                                                  
                                                                                                    
   Atomic configuration                                                                             
   15 entries                                                                                       
     n  l   j            E        occ.                                                              
     1  0  0.50    -69465.5834   2.0000                                                             
     2  0  0.50    -11986.2640   2.0000                                                             
     2  1  1.50    -10479.8613   6.0000                                                             
     3  0  0.50     -2759.0756   2.0000                                                             
     3  1  1.50     -2313.1855   6.0000                                                             
     3  2  2.50     -1801.1183  10.0000                                                             
     4  0  0.50      -567.6789   2.0000                                                             
     4  1  1.50      -421.4692   6.0000                                                             
     4  2  2.50      -236.3471  10.0000                                                             
     4  3  3.50       -31.2665  14.0000                                                             
     5  0  0.50       -77.1084   2.0000                                                             
     6  0  0.50        -5.1438   1.0000                                                             
     5  1  1.50       -41.3856   6.0000                                                             
     5  2  2.50        -3.3185   5.0000                                                             
     5  3  2.50        -1.3606   0.0000                                                             
   Description                                                                                      
     l       E           TYP  RCUT    TYP  RCUT                                                     
     0    -77.1084470     23  2.100                                                                 
     0     -5.1437956     23  2.300                                                                 
     1    -41.3855615     23  2.500                                                                 
     1     -2.7211652     23  2.500                                                                 
     2     -3.3185025     23  2.500                                                                 
     2     -1.5965151     23  2.500                                                                 
     3     -1.3605826     23  2.500                                                                 
  local pseudopotential read in
  partial core-charges read in
  partial kinetic energy density read in
  kinetic energy density of atom read in
  atomic valenz-charges read in
  non local Contribution for L=           0  read in
    real space projection operators read in
  non local Contribution for L=           0  read in
    real space projection operators read in
  non local Contribution for L=           1  read in
    real space projection operators read in
  non local Contribution for L=           1  read in
    real space projection operators read in
  non local Contribution for L=           2  read in
    real space projection operators read in
  non local Contribution for L=           2  read in
    real space projection operators read in
    PAW grid and wavefunctions read in
 
   number of l-projection  operators is LMAX  =           6
   number of lm-projection operators is LMMAX =          18
 
 POTCAR:    PAW_PBE S 06Sep2000                   
   SHA256 =  0fc7481fb0695f01bdc6462160264c5c84044ae9ec85a907d398b887a2bc3132 S/POTCAR              
   COPYR  = (c) Copyright 06Sep2000 Georg Kresse                                                    
   COPYR  = This file is part of the software VASP. Any use, copying, and all other rights are regul
   COPYR  = If you do not have a valid VASP license, you may not use, copy or distribute this file. 
   VRHFIN =S : s2p4                                                                                 
   LEXCH  = PE                                                                                      
   EATOM  =   276.8230 eV,   20.3459 Ry                                                             
                                                                                                    
   TITEL  = PAW_PBE S 06Sep2000                                                                     
   LULTRA =        F    use ultrasoft PP ?                                                          
   IUNSCR =        1    unscreen: 0-lin 1-nonlin 2-no                                               
   RPACOR =    1.500    partial core radius                                                         
   POMASS =   32.066; ZVAL   =    6.000    mass and valenz                                          
   RCORE  =    1.900    outmost cutoff radius                                                       
   RWIGS  =    2.200; RWIGS  =    1.164    wigner-seitz radius (au A)                               
   ENMAX  =  258.689; ENMIN  =  194.016 eV                                                          
   ICORE  =        2    local potential                                                             
   LCOR   =        T    correct aug charges                                                         
   LPAW   =        T    paw PP                                                                      
   EAUG   =  335.092                                                                                
   DEXC   =    0.000                                                                                
   RMAX   =    1.942    core radius for proj-oper                                                   
   RAUG   =    1.300    factor for augmentation sphere                                              
   RDEP   =    1.954    radius for radial grids                                                     
   RDEPT  =    1.744    core radius for aug-charge                                                  
                                                                                                    
   Atomic configuration                                                                             
    6 entries                                                                                       
     n  l   j            E        occ.                                                              
     1  0  0.50     -2405.8406   2.0000                                                             
     2  0  0.50      -211.7007   2.0000                                                             
     2  1  1.50      -156.4958   6.0000                                                             
     3  0  0.50       -17.2562   2.0000                                                             
     3  1  0.50        -7.0085   4.0000                                                             
     3  2  1.50        -6.8029   0.0000                                                             
   Description                                                                                      
     l       E           TYP  RCUT    TYP  RCUT                                                     
     0    -17.2561641     23  1.900                                                                 
     0    -15.8743224     23  1.900                                                                 
     1     -7.0085400     23  1.900                                                                 
     1     -2.7779785     23  1.900                                                                 
     2     -6.8029130     23  1.900                                                                 
  local pseudopotential read in
  partial core-charges read in
  partial kinetic energy density read in
  atomic valenz-charges read in
  non local Contribution for L=           0  read in
    real space projection operators read in
  non local Contribution for L=           0  read in
    real space projection operators read in
  non local Contribution for L=           1  read in
    real space projection operators read in
  non local Contribution for L=           1  read in
    real space projection operators read in
    PAW grid and wavefunctions read in
 
   number of l-projection  operators is LMAX  =           4
   number of lm-projection operators is LMMAX =           8
 
 Optimization of the real space projectors (new method)

 maximal supplied QI-value         = 15.12
 optimisation between [QCUT,QGAM] = [ 11.64, 23.28] = [ 37.95,151.78] Ry 
 Optimized for a Real-space Cutoff    1.53 Angstroem

   l    n(q)    QCUT    max X(q) W(low)/X(q) W(high)/X(q)  e(spline) 
   0     11    11.641     3.559    0.80E-05    0.27E-04    0.27E-06
   0     11    11.641    20.730    0.39E-04    0.26E-04    0.29E-06
   1     10    11.641     3.279    0.18E-05    0.27E-05    0.28E-07
   1     10    11.641     4.693    0.11E-03    0.12E-04    0.28E-06
   2     10    11.641    67.616    0.19E-03    0.29E-03    0.91E-06
   2     10    11.641    62.420    0.19E-03    0.29E-03    0.92E-06
 Optimization of the real space projectors (new method)

 maximal supplied QI-value         = 17.95
 optimisation between [QCUT,QGAM] = [ 11.67, 23.34] = [ 38.13,152.52] Ry 
 Optimized for a Real-space Cutoff    1.25 Angstroem

   l    n(q)    QCUT    max X(q) W(low)/X(q) W(high)/X(q)  e(spline) 
   0      9    11.669   133.320    0.17E-03    0.44E-04    0.69E-07
   0      9    11.669   111.601    0.18E-03    0.46E-04    0.72E-07
   1      8    11.669    47.222    0.22E-03    0.37E-03    0.10E-06
   1      8    11.669    33.775    0.22E-03    0.36E-03    0.10E-06
   2      8    11.669     3.720    0.19E-03    0.46E-04    0.50E-07
 Optimization of the real space projectors (new method)

 maximal supplied QI-value         = 15.12
 optimisation between [QCUT,QGAM] = [ 11.64, 23.28] = [ 37.95,151.78] Ry 
 Optimized for a Real-space Cutoff    1.53 Angstroem

   l    n(q)    QCUT    max X(q) W(low)/X(q) W(high)/X(q)  e(spline) 
   0     11    11.641     3.377    0.18E-04    0.34E-04    0.29E-06
   0     11    11.641    17.603    0.39E-04    0.41E-04    0.35E-06
   1     10    11.641     4.278    0.12E-04    0.15E-04    0.63E-07
   1     10    11.641     5.278    0.15E-04    0.52E-04    0.18E-06
   2     10    11.641    67.938    0.89E-04    0.14E-03    0.15E-06
   2     10    11.641    59.529    0.87E-04    0.14E-03    0.15E-06
 Optimization of the real space projectors (new method)

 maximal supplied QI-value         = 19.84
 optimisation between [QCUT,QGAM] = [ 11.51, 23.22] = [ 37.09,150.92] Ry 
 Optimized for a Real-space Cutoff    1.21 Angstroem

   l    n(q)    QCUT    max X(q) W(low)/X(q) W(high)/X(q)  e(spline) 
   0      8    11.508   187.594    0.96E-04    0.18E-03    0.54E-07
   0      8    11.508   164.243    0.96E-04    0.18E-03    0.54E-07
   1      8    11.508    67.533    0.18E-03    0.65E-04    0.94E-07
   1      8    11.508    50.729    0.18E-03    0.63E-04    0.92E-07
  PAW_PBE Mo_sv 02Feb2006               :
 energy of atom  1       EATOM=-1862.2866
 kinetic energy error for atom=    0.0070 (will be added to EATOM!!)
  PAW_PBE Se 06Sep2000                  :
 energy of atom  2       EATOM= -257.1286
 kinetic energy error for atom=    0.0007 (will be added to EATOM!!)
  PAW_PBE W_sv 04Sep2015                :
 energy of atom  3       EATOM=-1865.5791
 kinetic energy error for atom=    0.0026 (will be added to EATOM!!)
  PAW_PBE S 06Sep2000                   :
 energy of atom  4       EATOM= -276.8230
 kinetic energy error for atom=    0.0016 (will be added to EATOM!!)
 
 
 POSCAR: generated by phonopy
  positions in direct lattice
  No initial velocities read in
 IVDW         = 12
 VDW_S6       =    1.0000
 VDW_S8       =    0.7875
 VDW_A1       =    0.4289
 VDW_A2       =    4.4407
 VDW_RADIUS   =   50.2022 A
 VDW_CNRADIUS =   21.1671 A


 exchange-correlation table for PE
   RHO(1)=    0.500       N(1)  =     2000
   RHO(2)=  100.500       N(2)  =     4000
 


--------------------------------------------------------------------------------------------------------


 ion  position               nearest neighbor table
   1  0.000  0.000  0.507-  21 2.52  25 2.52  19 2.52  16 2.52  12 2.52  10 2.52   2 3.25   3 3.25
                             4 3.25   6 3.25   7 3.25   8 3.25
   2  0.333  0.000  0.507-  19 2.52  20 2.52  26 2.52  10 2.52  11 2.52  17 2.52   3 3.25   9 3.25
                             8 3.25   1 3.25   4 3.25   5 3.25
   3  0.667  0.000  0.507-  20 2.52  27 2.52  21 2.52  18 2.52  11 2.52  12 2.52   2 3.25   5 3.25
                             7 3.25   9 3.25   1 3.25   6 3.25
   4  0.000  0.333  0.507-  19 2.52  22 2.52  24 2.52  10 2.52  13 2.52  15 2.52   7 3.25   9 3.25
                             1 3.25   2 3.25   5 3.25   6 3.25
   5  0.333  0.333  0.507-  23 2.52  22 2.52  20 2.52  14 2.52  11 2.52  13 2.52   8 3.25   6 3.25
                             7 3.25   3 3.25   4 3.25   2 3.25
   6  0.667  0.333  0.507-  21 2.52  23 2.52  24 2.52  12 2.52  14 2.52  15 2.52   8 3.25   9 3.25
                             5 3.25   1 3.25   3 3.25   4 3.25
   7  0.000  0.667  0.507-  22 2.52  27 2.52  25 2.52  18 2.52  13 2.52  16 2.52   4 3.25   5 3.25
                             8 3.25   9 3.25   1 3.25   3 3.25
   8  0.333  0.667  0.507-  23 2.52  25 2.52  26 2.52  14 2.52  16 2.52  17 2.52   5 3.25   6 3.25
                             9 3.25   2 3.25   7 3.25   1 3.25
   9  0.667  0.667  0.507-  24 2.52  26 2.52  27 2.52  17 2.52  15 2.52  18 2.52   6 3.25   8 3.25
                             2 3.25   4 3.25   7 3.25   3 3.25
  10  0.111  0.111  0.422-   2 2.52   4 2.52   1 2.52
  11  0.444  0.111  0.422-   2 2.52   3 2.52   5 2.52
  12  0.778  0.111  0.422-   1 2.52   6 2.52   3 2.52
  13  0.111  0.444  0.422-   4 2.52   5 2.52   7 2.52
  14  0.444  0.444  0.422-   5 2.52   6 2.52   8 2.52
  15  0.778  0.444  0.422-   4 2.52   6 2.52   9 2.52
  16  0.111  0.778  0.422-   1 2.52   8 2.52   7 2.52
  17  0.444  0.778  0.422-   2 2.52   8 2.52   9 2.52
  18  0.778  0.778  0.422-   3 2.52   7 2.52   9 2.52
  19  0.111  0.111  0.591-   2 2.52   4 2.52   1 2.52
  20  0.444  0.111  0.591-   2 2.52   3 2.52   5 2.52
  21  0.778  0.111  0.591-   1 2.52   6 2.52   3 2.52
  22  0.111  0.444  0.591-   4 2.52   5 2.52   7 2.52
  23  0.444  0.444  0.591-   5 2.52   6 2.52   8 2.52
  24  0.778  0.444  0.591-   4 2.52   6 2.52   9 2.52
  25  0.111  0.778  0.591-   1 2.52   8 2.52   7 2.52
  26  0.444  0.778  0.591-   2 2.52   8 2.52   9 2.52
  27  0.778  0.778  0.591-   3 2.52   7 2.52   9 2.52
  28  0.111  0.111  0.818-  46 2.43  40 2.43  38 2.43  37 2.43  47 2.43  49 2.43  31 3.25  29 3.25
                            33 3.25  35 3.25  34 3.25  30 3.25
  29  0.444  0.111  0.818-  38 2.43  39 2.43  41 2.43  47 2.43  48 2.43  50 2.43  31 3.25  32 3.25
                            28 3.25  30 3.25  35 3.25  36 3.25
  30  0.778  0.111  0.818-  46 2.42  42 2.43  37 2.43  39 2.43  51 2.43  48 2.43  33 3.25  32 3.25
                            34 3.25  36 3.25  28 3.25  29 3.25
  31  0.111  0.444  0.818-  40 2.43  41 2.43  43 2.43  49 2.43  50 2.43  52 2.43  28 3.25  29 3.25
                            32 3.25  33 3.25  34 3.25  36 3.25
  32  0.444  0.444  0.818-  41 2.43  42 2.43  44 2.43  50 2.43  51 2.43  53 2.43  29 3.25  31 3.25
                            30 3.25  34 3.25  33 3.25  35 3.25
  33  0.778  0.444  0.818-  40 2.43  42 2.43  45 2.43  49 2.43  51 2.43  54 2.43  30 3.25  28 3.25
                            35 3.25  36 3.25  31 3.25  32 3.25
  34  0.111  0.778  0.818-  46 2.43  44 2.43  37 2.43  43 2.43  53 2.43  52 2.43  35 3.25  32 3.25
                            30 3.25  36 3.25  31 3.25  28 3.25
  35  0.444  0.778  0.818-  38 2.43  44 2.43  45 2.43  47 2.43  53 2.43  54 2.43  34 3.25  28 3.25
                            29 3.25  36 3.25  32 3.25  33 3.25
  36  0.778  0.778  0.818-  39 2.43  43 2.43  45 2.43  48 2.43  52 2.43  54 2.43  29 3.25  30 3.25
                            31 3.25  33 3.25  34 3.25  35 3.25
  37  0.000  0.000  0.741-  30 2.43  34 2.43  28 2.43
  38  0.333  0.000  0.741-  28 2.43  29 2.43  35 2.43
  39  0.667  0.000  0.741-  29 2.43  36 2.43  30 2.43
  40  0.000  0.333  0.741-  28 2.43  31 2.43  33 2.43
  41  0.333  0.333  0.741-  32 2.43  31 2.43  29 2.43
  42  0.667  0.333  0.741-  30 2.43  32 2.43  33 2.43
  43  0.000  0.667  0.741-  31 2.43  36 2.43  34 2.43
  44  0.333  0.667  0.741-  32 2.43  34 2.43  35 2.43
  45  0.667  0.667  0.741-  33 2.43  35 2.43  36 2.43
  46  1.000  0.000  0.895-  30 2.42  34 2.43  28 2.43
  47  0.333  0.000  0.895-  28 2.43  29 2.43  35 2.43
  48  0.667  0.000  0.895-  29 2.43  36 2.43  30 2.43
  49  0.000  0.333  0.895-  28 2.43  31 2.43  33 2.43
  50  0.333  0.333  0.895-  32 2.43  31 2.43  29 2.43
  51  0.667  0.333  0.895-  30 2.43  32 2.43  33 2.43
  52  0.000  0.667  0.895-  31 2.43  36 2.43  34 2.43
  53  0.333  0.667  0.895-  32 2.43  34 2.43  35 2.43
  54  0.667  0.667  0.895-  33 2.43  35 2.43  36 2.43
 
  LATTYP: Found a hexagonal cell.
 ALAT       =     9.7597246245
 C/A-ratio  =     2.0492381465
  
  Lattice vectors:
  
 A1 = (  -4.8798623122,  -8.4521694587,   0.0000000000)
 A2 = (   9.7597246245,   0.0000000000,   0.0000000000)
 A3 = (   0.0000000000,   0.0000000000,  20.0000000000)


Analysis of symmetry for initial positions (statically):
=====================================================================
 Subroutine PRICEL returns:
 Original cell was already a primitive cell.
 

 Routine SETGRP: Setting up the symmetry group for a 
 hexagonal supercell.


 Subroutine GETGRP returns: Found  1 space group operations
 (whereof  1 operations were pure point group operations)
 out of a pool of 24 trial point group operations.


The static configuration has the point symmetry C_1 .


Analysis of symmetry for dynamics (positions and initial velocities):
=====================================================================
 Subroutine PRICEL returns:
 Original cell was already a primitive cell.
 

 Routine SETGRP: Setting up the symmetry group for a 
 hexagonal supercell.


 Subroutine GETGRP returns: Found  1 space group operations
 (whereof  1 operations were pure point group operations)
 out of a pool of 24 trial point group operations.


The dynamic configuration has the point symmetry C_1 .


 Subroutine INISYM returns: Found  1 space group operations
 (whereof  1 operations are pure point group operations),
 and found     1 'primitive' translations


----------------------------------------------------------------------------------------

                                     Primitive cell                                     

  volume of cell :    1649.8169

  direct lattice vectors                    reciprocal lattice vectors
     9.759724624  0.000000000  0.000000000     0.102461907 -0.059156410  0.000000000
     4.879862312  8.452169459  0.000000000     0.000000000  0.118312820  0.000000000
     0.000000000  0.000000000 20.000000000     0.000000000  0.000000000  0.050000000

  length of vectors
     9.759724624  9.759724624 20.000000000     0.118312820  0.118312820  0.050000000

  position of ions in fractional coordinates (direct lattice)
     0.000000000  0.000000000  0.506830194
     0.333333333  0.000000000  0.506830194
     0.666666667  0.000000000  0.506830194
     0.000000000  0.333333333  0.506830194
     0.333333333  0.333333333  0.506830194
     0.666666667  0.333333333  0.506830194
     0.000000000  0.666666667  0.506830194
     0.333333333  0.666666667  0.506830194
     0.666666667  0.666666667  0.506830194
     0.111111111  0.111111111  0.422478775
     0.444444444  0.111111111  0.422478775
     0.777777778  0.111111111  0.422478775
     0.111111111  0.444444444  0.422478775
     0.444444444  0.444444444  0.422478775
     0.777777778  0.444444444  0.422478775
     0.111111111  0.777777778  0.422478775
     0.444444444  0.777777778  0.422478775
     0.777777778  0.777777778  0.422478775
     0.111111111  0.111111111  0.591115511
     0.444444444  0.111111111  0.591115511
     0.777777778  0.111111111  0.591115511
     0.111111111  0.444444444  0.591115511
     0.444444444  0.444444444  0.591115511
     0.777777778  0.444444444  0.591115511
     0.111111111  0.777777778  0.591115511
     0.444444444  0.777777778  0.591115511
     0.777777778  0.777777778  0.591115511
     0.111111111  0.111111111  0.818182132
     0.444444444  0.111111111  0.818182132
     0.777777778  0.111111111  0.818182132
     0.111111111  0.444444444  0.818182132
     0.444444444  0.444444444  0.818182132
     0.777777778  0.444444444  0.818182132
     0.111111111  0.777777778  0.818182132
     0.444444444  0.777777778  0.818182132
     0.777777778  0.777777778  0.818182132
     0.000000000  0.000000000  0.741049210
     0.333333333  0.000000000  0.741049210
     0.666666667  0.000000000  0.741049210
     0.000000000  0.333333333  0.741049210
     0.333333333  0.333333333  0.741049210
     0.666666667  0.333333333  0.741049210
     0.000000000  0.666666667  0.741049210
     0.333333333  0.666666667  0.741049210
     0.666666667  0.666666667  0.741049210
     0.999550648  0.000000000  0.894894826
     0.333333333  0.000000000  0.895344178
     0.666666667  0.000000000  0.895344178
     0.000000000  0.333333333  0.895344178
     0.333333333  0.333333333  0.895344178
     0.666666667  0.333333333  0.895344178
     0.000000000  0.666666667  0.895344178
     0.333333333  0.666666667  0.895344178
     0.666666667  0.666666667  0.895344178

  ion indices of the primitive-cell ions
   primitive index   ion index
                 1           1
                 2           2
                 3           3
                 4           4
                 5           5
                 6           6
                 7           7
                 8           8
                 9           9
                10          10
                11          11
                12          12
                13          13
                14          14
                15          15
                16          16
                17          17
                18          18
                19          19
                20          20
                21          21
                22          22
                23          23
                24          24
                25          25
                26          26
                27          27
                28          28
                29          29
                30          30
                31          31
                32          32
                33          33
                34          34
                35          35
                36          36
                37          37
                38          38
                39          39
                40          40
                41          41
                42          42
                43          43
                44          44
                45          45
                46          46
                47          47
                48          48
                49          49
                50          50
                51          51
                52          52
                53          53
                54          54

----------------------------------------------------------------------------------------

 
 
 KPOINTS: Automatic mesh                          

Automatic generation of k-mesh.
 Grid dimensions read from file:
 generate k-points for:    5    5    1

 Generating k-lattice:

  Cartesian coordinates                     Fractional coordinates (reciprocal lattice)
     0.020492381 -0.011831282  0.000000000     0.200000000  0.000000000  0.000000000
     0.000000000  0.023662564  0.000000000     0.000000000  0.200000000  0.000000000
     0.000000000  0.000000000  0.050000000     0.000000000  0.000000000  1.000000000

  Length of vectors
     0.023662564  0.023662564  0.050000000

  Shift w.r.t. Gamma in fractional coordinates (k-lattice)
     0.000000000  0.000000000  0.000000000

 
 Subroutine IBZKPT returns following result:
 ===========================================
 
 Found     13 irreducible k-points:
 
 Following reciprocal coordinates:
            Coordinates               Weight
  0.000000  0.000000  0.000000      1.000000
  0.200000  0.000000  0.000000      2.000000
  0.200000  0.200000  0.000000      2.000000
  0.000000  0.200000  0.000000      2.000000
  0.400000  0.000000  0.000000      2.000000
  0.400000  0.400000  0.000000      2.000000
  0.000000  0.400000  0.000000      2.000000
  0.400000  0.200000  0.000000      2.000000
  0.200000  0.400000  0.000000      2.000000
 -0.200000  0.200000  0.000000      2.000000
 -0.400000  0.200000  0.000000      2.000000
  0.400000 -0.400000  0.000000      2.000000
 -0.200000  0.400000  0.000000      2.000000
 
 Following cartesian coordinates:
            Coordinates               Weight
  0.000000  0.000000  0.000000      1.000000
  0.020492 -0.011831  0.000000      2.000000
  0.020492  0.011831  0.000000      2.000000
  0.000000  0.023663  0.000000      2.000000
  0.040985 -0.023663  0.000000      2.000000
  0.040985  0.023663  0.000000      2.000000
  0.000000  0.047325  0.000000      2.000000
  0.040985  0.000000  0.000000      2.000000
  0.020492  0.035494  0.000000      2.000000
 -0.020492  0.035494  0.000000      2.000000
 -0.040985  0.047325  0.000000      2.000000
  0.040985 -0.070988  0.000000      2.000000
 -0.020492  0.059156  0.000000      2.000000
 


--------------------------------------------------------------------------------------------------------




 Dimension of arrays:
   k-points           NKPTS =     13   k-points in BZ     NKDIM =     13   number of bands    NBANDS=    286
   number of dos      NEDOS =    301   number of ions     NIONS =     54
   non local maximal  LDIM  =      6   non local SUM 2l+1 LMDIM =     18
   total plane-waves  NPLWV = 960000
   max r-space proj   IRMAX =   8845   max aug-charges    IRDMAX=  33410
   dimension x,y,z NGX =    80 NGY =   80 NGZ =  150
   dimension x,y,z NGXF=   160 NGYF=  160 NGZF=  300
   support grid    NGXF=   160 NGYF=  160 NGZF=  300
   ions per type =               9  18   9  18
   NGX,Y,Z   is equivalent  to a cutoff of  13.63, 13.63, 12.47 a.u.
   NGXF,Y,Z  is equivalent  to a cutoff of  27.25, 27.25, 24.94 a.u.

 SYSTEM =  MoSe2_WS2_2H phonon                     
 POSCAR =  generated by phonopy                    

 Startparameter for this run:
   NWRITE =      2    write-flag & timer
   PREC   = accura    normal or accurate (medium, high low for compatibility)
   ISTART =      0    job   : 0-new  1-cont  2-samecut
   ICHARG =      2    charge: 1-file 2-atom 10-const
   ISPIN  =      1    spin polarized calculation?
   LNONCOLLINEAR =      F non collinear calculations
   LSORBIT =      F    spin-orbit coupling
   INIWAV =      1    electr: 0-lowe 1-rand  2-diag
   LASPH  =      F    aspherical Exc in radial PAW
 Electronic Relaxation 1
   ENCUT  =  520.0 eV  38.22 Ry    6.18 a.u.  18.15 18.15 37.19*2*pi/ulx,y,z
   ENINI  =  520.0     initial cutoff
   ENAUG  =  446.8 eV  augmentation charge cutoff
   NELM   =    200;   NELMIN=  2; NELMDL= -5     # of ELM steps 
   EDIFF  = 0.1E-05   stopping-criterion for ELM
   LREAL  =      T    real-space projection
   NLSPLINE    = F    spline interpolate recip. space projectors
   LCOMPAT=      F    compatible to vasp.4.4
   GGA_COMPAT  = T    GGA compatible to vasp.4.4-vasp.4.6
   LMAXPAW     = -100 max onsite density
   LMAXMIX     =    2 max onsite mixed and CHGCAR
   VOSKOWN=      0    Vosko Wilk Nusair interpolation
   ROPT   =   -0.00025  -0.00025  -0.00025  -0.00025
 Ionic relaxation
   EDIFFG = 0.1E-04   stopping-criterion for IOM
   NSW    =      0    number of steps for IOM
   NBLOCK =      1;   KBLOCK =      1    inner block; outer block 
   IBRION =     -1    ionic relax: 0-MD 1-quasi-New 2-CG
   NFREE  =      0    steps in history (QN), initial steepest desc. (CG)
   ISIF   =      2    stress and relaxation
   IWAVPR =     10    prediction:  0-non 1-charg 2-wave 3-comb
   ISYM   =      2    0-nonsym 1-usesym 2-fastsym
   LCORR  =      T    Harris-Foulkes like correction to forces

   POTIM  = 0.5000    time-step for ionic-motion
   TEIN   =    0.0    initial temperature
   TEBEG  =    0.0;   TEEND  =   0.0 temperature during run
   SMASS  =  -3.00    Nose mass-parameter (am)
   estimated Nose-frequenzy (Omega)   =  0.10E-29 period in steps = 0.13E+47 mass=  -0.218E-26a.u.
   SCALEE = 1.0000    scale energy and forces
   NPACO  =    256;   APACO  = 10.0  distance and # of slots for P.C.
   PSTRESS=    0.0 pullay stress

  Mass of Ions in am
   POMASS =  95.94 78.96183.85 32.07
  Ionic Valenz
   ZVAL   =  14.00  6.00 14.00  6.00
  Atomic Wigner-Seitz radii
   RWIGS  =  -1.00 -1.00 -1.00 -1.00
  virtual crystal weights 
   VCA    =   1.00  1.00  1.00  1.00
   NELECT =     468.0000    total number of electrons
   NUPDOWN=      -1.0000    fix difference up-down

 DOS related values:
   EMIN   =  10.00;   EMAX   =-10.00  energy-range for DOS
   EFERMI =   0.00;   METHOD = LEGACY      
   ISMEAR =     0;   SIGMA  =   0.05  broadening in eV -4-tet -1-fermi 0-gaus
   EFERMI_NEDOS =   21; number of points for ismear=-14 and -15

 Electronic relaxation 2 (details)
   IALGO  =     38    algorithm
   LDIAG  =      T    sub-space diagonalisation (order eigenvalues)
   LSUBROT=      F    optimize rotation matrix (better conditioning)
   LROBUST=      F    robust break criterion during scf (extrapolated energy error)
   ISEARCH=      0    line search for conjugate gradient (0, 1=use gradient)
   TURBO    =      0    0=normal 1=particle mesh
   IRESTART =      0    0=no restart 2=restart with 2 vectors
   NREBOOT  =      0    no. of reboots
   NMIN     =      0    reboot dimension
   EREF     =   0.00    reference energy to select bands
   IMIX   =      4    mixing-type and parameters
     AMIX     =   0.40;   BMIX     =  1.00
     AMIX_MAG =   1.60;   BMIX_MAG =  1.00
     AMIN     =   0.01
     WC   =   100.;   INIMIX=   1;  MIXPRE=   1;  MAXMIX= -45

 Intra band minimization:
   WEIMIN = 0.0000     energy-eigenvalue tresh-hold
   EBREAK =  0.87E-09  absolut break condition
   DEPER  =   0.30     relativ break condition  

   TIME   =   0.40     timestep for ELM

  volume/ion in A,a.u.               =      30.55       206.18
  Fermi-wavevector in a.u.,A,eV,Ry     =   1.075668  2.032718 15.742776  1.157061
  Thomas-Fermi vector in A             =   2.211531
 
 Write flags
   LWAVE        =      F    write WAVECAR
   LDOWNSAMPLE  =      F    k-point downsampling of WAVECAR
   LCHARG       =      F    write CHGCAR
   LVTOT        =      F    write LOCPOT, total local potential
   LVHAR        =      F    write LOCPOT, Hartree potential only
   WRT_POTENTIAL= false  ! write potential to hdf5 file
   LELF         =      F    write electronic localiz. function (ELF)
   LORBIT       =      0    0 simple, 1 ext, 2 COOP (PROOUT), +10 PAW based schemes


 Python interface
   PLUGINS active      =      F    recompile with -DPLUGINS to activate
 
 Dipole corrections
   LMONO      =      F    monopole corrections only (constant potential shift)
   LDIPOL     =      F    correct potential (dipole corrections)
   IDIPOL     =      0    1-x, 2-y, 3-z, 4-all directions 
   EPSILON    =  1.0000000 bulk dielectric constant
   LVACPOTAV  =      F  vacuum potentials using an averaging scheme for the charge density
   VACPOTFLAT =  0.1000000 required flatness to determine vacuum potential
 
Coulomb truncation method
  LTRUNCATE          =      F  Coulomb kernel truncation to be used

 
 Exchange correlation treatment:
   GGA     = PE    functional components
   XC_C    = 1    coefficients multiplying the functional components
   LIBXC   =     F    Libxc                    
   VOSKOWN =     0    Vosko Wilk Nusair interpolation
   LHFCALC =     F    Hartree Fock is set to
   LHFONE  =     F    Hartree Fock one center treatment
   AEXX    =    0.0000 exact exchange contribution

 Parameters of functionals:
   PE:
     No parameter
 
 Van der Waals corrections
   IVDW    =    12    specifies the selected vdW correction

 Linear response parameters
   LEPSILON=     F    determine dielectric tensor
   LRPA    =     F    only Hartree local field effects (RPA)
   LNABLA  =     F    use nabla operator in PAW spheres
   LVEL    =     F    velocity operator in full k-point grid
   CSHIFT  =0.1000    complex shift for real part using Kramers Kronig
   OMEGAMAX=  -1.0    maximum frequency
   DEG_THRESHOLD= 0.2000000E-02 threshold for treating states as degnerate
   RTIME   =   -0.100 relaxation time in fs
  (WPLASMAI=    0.000 imaginary part of plasma frequency in eV, 0.658/RTIME)
   DFIELD  = 0.0000000 0.0000000 0.0000000 field for delta impulse in time
 
  Optional k-point grid parameters
   LKPOINTS_OPT  =     F    use optional k-point grid
   KPOINTS_OPT_MODE=     1    mode for optional k-point grid
 
 Orbital magnetization related:
   ORBITALMAG=     F  switch on orbital magnetization
   LCHIMAG   =     F  perturbation theory with respect to B field
   DQ        =  0.001000  dq finite difference perturbation B field
   LLRAUG    =     F  two centre corrections for induced B field
   LBONE     =     F  B-component reconstruction in AE one-centre
   LVGVCALC  =     T  calculate vGv susceptibility
   LVGVAPPL  =     F  apply vGv susceptibility instead of pGv for G=0

 Random number generation:
   RANDOM_GENERATOR = DEFAULT
   PCG_SEED         = not used


--------------------------------------------------------------------------------------------------------


 Static calculation
 charge density and potential will be updated during run
 non-spin polarized calculation
 Variant of blocked Davidson
 Davidson routine will perform the subspace rotation
 perform sub-space diagonalisation
    after iterative eigenvector-optimisation
 modified Broyden-mixing scheme, WC =      100.0
 initial mixing is a Kerker type mixing with AMIX =  0.4000 and BMIX =      1.0000
 Hartree-type preconditioning will be used
 using additional bands           52
 real space projection scheme for non local part
 use partial core corrections
 calculate Harris-corrections to forces 
   (improved forces if not selfconsistent)
 use gradient corrections 
 use of overlap-Matrix (Vanderbilt PP)
 Gauss-broadening in eV      SIGMA  =   0.05


--------------------------------------------------------------------------------------------------------


  energy-cutoff  :      520.00
  volume of cell :     1649.82
      direct lattice vectors                 reciprocal lattice vectors
     9.759724624  0.000000000  0.000000000     0.102461907 -0.059156410  0.000000000
     4.879862312  8.452169459  0.000000000     0.000000000  0.118312820  0.000000000
     0.000000000  0.000000000 20.000000000     0.000000000  0.000000000  0.050000000

  length of vectors
     9.759724624  9.759724624 20.000000000     0.118312820  0.118312820  0.050000000


 
 k-points in units of 2pi/SCALE and weight: Automatic mesh                          
   0.00000000  0.00000000  0.00000000       0.040
   0.02049238 -0.01183128  0.00000000       0.080
   0.02049238  0.01183128  0.00000000       0.080
   0.00000000  0.02366256  0.00000000       0.080
   0.04098476 -0.02366256  0.00000000       0.080
   0.04098476  0.02366256  0.00000000       0.080
   0.00000000  0.04732513  0.00000000       0.080
   0.04098476  0.00000000  0.00000000       0.080
   0.02049238  0.03549385  0.00000000       0.080
  -0.02049238  0.03549385  0.00000000       0.080
  -0.04098476  0.04732513  0.00000000       0.080
   0.04098476 -0.07098769  0.00000000       0.080
  -0.02049238  0.05915641  0.00000000       0.080
 
 k-points in reciprocal lattice and weights: Automatic mesh                          
   0.00000000  0.00000000  0.00000000       0.040
   0.20000000  0.00000000  0.00000000       0.080
   0.20000000  0.20000000  0.00000000       0.080
   0.00000000  0.20000000  0.00000000       0.080
   0.40000000  0.00000000  0.00000000       0.080
   0.40000000  0.40000000  0.00000000       0.080
   0.00000000  0.40000000  0.00000000       0.080
   0.40000000  0.20000000  0.00000000       0.080
   0.20000000  0.40000000  0.00000000       0.080
  -0.20000000  0.20000000  0.00000000       0.080
  -0.40000000  0.20000000  0.00000000       0.080
   0.40000000 -0.40000000  0.00000000       0.080
  -0.20000000  0.40000000  0.00000000       0.080
 
 position of ions in fractional coordinates (direct lattice) 
   0.00000000  0.00000000  0.50683019
   0.33333333  0.00000000  0.50683019
   0.66666667  0.00000000  0.50683019
   0.00000000  0.33333333  0.50683019
   0.33333333  0.33333333  0.50683019
   0.66666667  0.33333333  0.50683019
   0.00000000  0.66666667  0.50683019
   0.33333333  0.66666667  0.50683019
   0.66666667  0.66666667  0.50683019
   0.11111111  0.11111111  0.42247878
   0.44444444  0.11111111  0.42247878
   0.77777778  0.11111111  0.42247878
   0.11111111  0.44444444  0.42247878
   0.44444444  0.44444444  0.42247878
   0.77777778  0.44444444  0.42247878
   0.11111111  0.77777778  0.42247878
   0.44444444  0.77777778  0.42247878
   0.77777778  0.77777778  0.42247878
   0.11111111  0.11111111  0.59111551
   0.44444444  0.11111111  0.59111551
   0.77777778  0.11111111  0.59111551
   0.11111111  0.44444444  0.59111551
   0.44444444  0.44444444  0.59111551
   0.77777778  0.44444444  0.59111551
   0.11111111  0.77777778  0.59111551
   0.44444444  0.77777778  0.59111551
   0.77777778  0.77777778  0.59111551
   0.11111111  0.11111111  0.81818213
   0.44444444  0.11111111  0.81818213
   0.77777778  0.11111111  0.81818213
   0.11111111  0.44444444  0.81818213
   0.44444444  0.44444444  0.81818213
   0.77777778  0.44444444  0.81818213
   0.11111111  0.77777778  0.81818213
   0.44444444  0.77777778  0.81818213
   0.77777778  0.77777778  0.81818213
   0.00000000  0.00000000  0.74104921
   0.33333333  0.00000000  0.74104921
   0.66666667  0.00000000  0.74104921
   0.00000000  0.33333333  0.74104921
   0.33333333  0.33333333  0.74104921
   0.66666667  0.33333333  0.74104921
   0.00000000  0.66666667  0.74104921
   0.33333333  0.66666667  0.74104921
   0.66666667  0.66666667  0.74104921
   0.99955065  0.00000000  0.89489483
   0.33333333  0.00000000  0.89534418
   0.66666667  0.00000000  0.89534418
   0.00000000  0.33333333  0.89534418
   0.33333333  0.33333333  0.89534418
   0.66666667  0.33333333  0.89534418
   0.00000000  0.66666667  0.89534418
   0.33333333  0.66666667  0.89534418
   0.66666667  0.66666667  0.89534418
 
 position of ions in cartesian coordinates  (Angst):
   0.00000000  0.00000000 10.13660389
   3.25324154  0.00000000 10.13660389
   6.50648308  0.00000000 10.13660389
   1.62662077  2.81738982 10.13660389
   4.87986231  2.81738982 10.13660389
   8.13310385  2.81738982 10.13660389
   3.25324154  5.63477964 10.13660389
   6.50648308  5.63477964 10.13660389
   9.75972462  5.63477964 10.13660389
   1.62662077  0.93912994  8.44957550
   4.87986231  0.93912994  8.44957550
   8.13310385  0.93912994  8.44957550
   3.25324154  3.75651976  8.44957550
   6.50648308  3.75651976  8.44957550
   9.75972462  3.75651976  8.44957550
   4.87986231  6.57390958  8.44957550
   8.13310385  6.57390958  8.44957550
  11.38634540  6.57390958  8.44957550
   1.62662077  0.93912994 11.82231022
   4.87986231  0.93912994 11.82231022
   8.13310385  0.93912994 11.82231022
   3.25324154  3.75651976 11.82231022
   6.50648308  3.75651976 11.82231022
   9.75972462  3.75651976 11.82231022
   4.87986231  6.57390958 11.82231022
   8.13310385  6.57390958 11.82231022
  11.38634540  6.57390958 11.82231022
   1.62662077  0.93912994 16.36364264
   4.87986231  0.93912994 16.36364264
   8.13310385  0.93912994 16.36364264
   3.25324154  3.75651976 16.36364264
   6.50648308  3.75651976 16.36364264
   9.75972462  3.75651976 16.36364264
   4.87986231  6.57390958 16.36364264
   8.13310385  6.57390958 16.36364264
  11.38634540  6.57390958 16.36364264
   0.00000000  0.00000000 14.82098420
   3.25324154  0.00000000 14.82098420
   6.50648308  0.00000000 14.82098420
   1.62662077  2.81738982 14.82098420
   4.87986231  2.81738982 14.82098420
   8.13310385  2.81738982 14.82098420
   3.25324154  5.63477964 14.82098420
   6.50648308  5.63477964 14.82098420
   9.75972462  5.63477964 14.82098420
   9.75533907  0.00000000 17.89789651
   3.25324154  0.00000000 17.90688355
   6.50648308  0.00000000 17.90688355
   1.62662077  2.81738982 17.90688355
   4.87986231  2.81738982 17.90688355
   8.13310385  2.81738982 17.90688355
   3.25324154  5.63477964 17.90688355
   6.50648308  5.63477964 17.90688355
   9.75972462  5.63477964 17.90688355
 


--------------------------------------------------------------------------------------------------------


 k-point     1 :   0.0000 0.0000 0.0000  plane waves:   44367
 k-point     2 :   0.2000 0.0000 0.0000  plane waves:   44431
 k-point     3 :   0.2000 0.2000 0.0000  plane waves:   44431
 k-point     4 :   0.0000 0.2000 0.0000  plane waves:   44431
 k-point     5 :   0.4000 0.0000 0.0000  plane waves:   44438
 k-point     6 :   0.4000 0.4000 0.0000  plane waves:   44438
 k-point     7 :   0.0000 0.4000 0.0000  plane waves:   44438
 k-point     8 :   0.4000 0.2000 0.0000  plane waves:   44408
 k-point     9 :   0.2000 0.4000 0.0000  plane waves:   44408
 k-point    10 :  -0.2000 0.2000 0.0000  plane waves:   44408
 k-point    11 :  -0.4000 0.2000 0.0000  plane waves:   44432
 k-point    12 :   0.4000-0.4000 0.0000  plane waves:   44432
 k-point    13 :  -0.2000 0.4000 0.0000  plane waves:   44432

 maximum and minimum number of plane-waves per node :     11147    11056

 maximum number of plane-waves:     44438
 maximum index in each direction: 
   IXMAX=   18   IYMAX=   18   IZMAX=   37
   IXMIN=  -18   IYMIN=  -18   IZMIN=  -37


 real space projection operators:
  total allocation   :      34707.05 KBytes
  max/ min on nodes  :       8682.63       8672.39


 parallel 3D FFT for wavefunctions:
    minimum data exchange during FFTs selected (reduces bandwidth)
 parallel 3D FFT for charge:
    minimum data exchange during FFTs selected (reduces bandwidth)


 total amount of memory used by VASP MPI-rank0   147274. kBytes
=======================================================================

   base                                    :      30000. kBytes
   nonlr-proj                              :      18792. kBytes
   fftplans                                :      13412. kBytes
   grid                                    :      23521. kBytes
   one-center                              :        217. kBytes
   wavefun                                 :      61332. kBytes
 
     INWAV:  cpu time      0.0000: real time      0.0003
 Broyden mixing: mesh for mixing (old mesh)
   NGX = 37   NGY = 37   NGZ = 75
  (NGX  =160   NGY  =160   NGZ  =300)
  gives a total of 102675 points

 initial charge density was supplied:
 charge density of overlapping atoms calculated
 number of electron     468.0000000 magnetization 
 keeping initial charge density in first step


--------------------------------------------------------------------------------------------------------


 Maximum index for non-local projection operator         2151
 Maximum index for augmentation-charges          964 (set IRDMAX)


--------------------------------------------------------------------------------------------------------


 First call to EWALD:  gamma=   0.150
 Maximum number of real-space cells   4x   4x   2
 Maximum number of reciprocal cells   2x   2x   4

    FEWALD:  cpu time      0.0922: real time      0.0922


--------------------------------------- Ionic step        1  -------------------------------------------




--------------------------------------- Iteration      1(   1)  ---------------------------------------


    POTLOK:  cpu time      0.1318: real time      0.1318
    SETDIJ:  cpu time      0.0460: real time      0.0460
     EDDAV:  cpu time      8.1434: real time      8.1434
       DOS:  cpu time      0.0021: real time      0.0021
    --------------------------------------------
      LOOP:  cpu time      8.3233: real time      8.3234

 eigenvalue-minimisations  :  8855
 total energy-change (2. order) : 0.4573971E+04  (-0.2473818E+05)
 number of electron     468.0000000 magnetization 
 augmentation part      468.0000000 magnetization 

 Free energy of the ion-electron system (eV)
  ---------------------------------------------------
  alpha Z        PSCENC =      1198.06820637
  Ewald energy   TEWEN  =     42460.73338212
  -Hartree energ DENC   =    -82148.64233683
  -exchange      EXHF   =         0.00000000
  -V(xc)+E(xc)   XCENC  =      1333.22018487
  PAW double counting   =     34351.68047665   -33677.40238700
  entropy T*S    EENTRO =        -0.02504016
  eigenvalues    EBANDS =     -2105.45309308
  atomic energy  EATOM  =     43161.79194098
  Solvation  Ediel_sol  =         0.00000000
  ---------------------------------------------------
  free energy    TOTEN  =      4573.97133393 eV

  energy without entropy =     4573.99637408  energy(sigma->0) =     4573.98385401


--------------------------------------------------------------------------------------------------------




--------------------------------------- Iteration      1(   2)  ---------------------------------------


     EDDAV:  cpu time      8.1390: real time      8.1398
       DOS:  cpu time      0.0018: real time      0.0018
    --------------------------------------------
      LOOP:  cpu time      8.1408: real time      8.1416

 eigenvalue-minimisations  :  8822
 total energy-change (2. order) :-0.4610447E+04  (-0.4481300E+04)
 number of electron     468.0000000 magnetization 
 augmentation part      468.0000000 magnetization 

 Free energy of the ion-electron system (eV)
  ---------------------------------------------------
  alpha Z        PSCENC =      1198.06820637
  Ewald energy   TEWEN  =     42460.73338212
  -Hartree energ DENC   =    -82148.64233683
  -exchange      EXHF   =         0.00000000
  -V(xc)+E(xc)   XCENC  =      1333.22018487
  PAW double counting   =     34351.68047665   -33677.40238700
  entropy T*S    EENTRO =        -0.00000000
  eigenvalues    EBANDS =     -6715.92504001
  atomic energy  EATOM  =     43161.79194098
  Solvation  Ediel_sol  =         0.00000000
  ---------------------------------------------------
  free energy    TOTEN  =       -36.47557284 eV

  energy without entropy =      -36.47557284  energy(sigma->0) =      -36.47557284


--------------------------------------------------------------------------------------------------------




--------------------------------------- Iteration      1(   3)  ---------------------------------------


     EDDAV:  cpu time      8.1234: real time      8.1238
       DOS:  cpu time      0.0017: real time      0.0017
    --------------------------------------------
      LOOP:  cpu time      8.1251: real time      8.1255

 eigenvalue-minimisations  :  8844
 total energy-change (2. order) :-0.3606724E+03  (-0.3539153E+03)
 number of electron     468.0000000 magnetization 
 augmentation part      468.0000000 magnetization 

 Free energy of the ion-electron system (eV)
  ---------------------------------------------------
  alpha Z        PSCENC =      1198.06820637
  Ewald energy   TEWEN  =     42460.73338212
  -Hartree energ DENC   =    -82148.64233683
  -exchange      EXHF   =         0.00000000
  -V(xc)+E(xc)   XCENC  =      1333.22018487
  PAW double counting   =     34351.68047665   -33677.40238700
  entropy T*S    EENTRO =        -0.00000000
  eigenvalues    EBANDS =     -7076.59740858
  atomic energy  EATOM  =     43161.79194098
  Solvation  Ediel_sol  =         0.00000000
  ---------------------------------------------------
  free energy    TOTEN  =      -397.14794142 eV

  energy without entropy =     -397.14794142  energy(sigma->0) =     -397.14794142


--------------------------------------------------------------------------------------------------------




--------------------------------------- Iteration      1(   4)  ---------------------------------------


     EDDAV:  cpu time      8.7807: real time      8.7812
       DOS:  cpu time      0.0017: real time      0.0017
    --------------------------------------------
      LOOP:  cpu time      8.7824: real time      8.7829

 eigenvalue-minimisations  :  9900
 total energy-change (2. order) :-0.1621915E+02  (-0.1609455E+02)
 number of electron     468.0000000 magnetization 
 augmentation part      468.0000000 magnetization 

 Free energy of the ion-electron system (eV)
  ---------------------------------------------------
  alpha Z        PSCENC =      1198.06820637
  Ewald energy   TEWEN  =     42460.73338212
  -Hartree energ DENC   =    -82148.64233683
  -exchange      EXHF   =         0.00000000
  -V(xc)+E(xc)   XCENC  =      1333.22018487
  PAW double counting   =     34351.68047665   -33677.40238700
  entropy T*S    EENTRO =        -0.00000000
  eigenvalues    EBANDS =     -7092.81655829
  atomic energy  EATOM  =     43161.79194098
  Solvation  Ediel_sol  =         0.00000000
  ---------------------------------------------------
  free energy    TOTEN  =      -413.36709113 eV

  energy without entropy =     -413.36709113  energy(sigma->0) =     -413.36709113


--------------------------------------------------------------------------------------------------------




--------------------------------------- Iteration      1(   5)  ---------------------------------------


     EDDAV:  cpu time      9.0848: real time      9.0853
       DOS:  cpu time      0.0018: real time      0.0018
    CHARGE:  cpu time      0.6219: real time      0.6290
    MIXING:  cpu time      0.0327: real time      0.0327
    --------------------------------------------
      LOOP:  cpu time      9.7413: real time      9.7489

 eigenvalue-minimisations  : 10230
 total energy-change (2. order) :-0.4783481E+00  (-0.4765429E+00)
 number of electron     468.0000032 magnetization 
 augmentation part       18.7500029 magnetization 

 Broyden mixing:
  rms(total) = 0.91964E+01    rms(broyden)= 0.91964E+01
  rms(prec ) = 0.93040E+01
  weight for this iteration     100.00

 Free energy of the ion-electron system (eV)
  ---------------------------------------------------
  alpha Z        PSCENC =      1198.06820637
  Ewald energy   TEWEN  =     42460.73338212
  -Hartree energ DENC   =    -82148.64233683
  -exchange      EXHF   =         0.00000000
  -V(xc)+E(xc)   XCENC  =      1333.22018487
  PAW double counting   =     34351.68047665   -33677.40238700
  entropy T*S    EENTRO =        -0.00000000
  eigenvalues    EBANDS =     -7093.29490641
  atomic energy  EATOM  =     43161.79194098
  Solvation  Ediel_sol  =         0.00000000
  ---------------------------------------------------
  free energy    TOTEN  =      -413.84543925 eV

  energy without entropy =     -413.84543925  energy(sigma->0) =     -413.84543925


--------------------------------------------------------------------------------------------------------




--------------------------------------- Iteration      1(   6)  ---------------------------------------


    POTLOK:  cpu time      0.1282: real time      0.1284
    SETDIJ:  cpu time      0.0324: real time      0.0324
     EDDAV:  cpu time      6.9170: real time      6.9179
       DOS:  cpu time      0.0216: real time      0.0216
    CHARGE:  cpu time      0.4720: real time      0.4720
    MIXING:  cpu time      0.0333: real time      0.0333
    --------------------------------------------
      LOOP:  cpu time      7.6045: real time      7.6056

 eigenvalue-minimisations  :  8822
 total energy-change (2. order) : 0.1741116E+02  (-0.1177654E+02)
 number of electron     468.0000033 magnetization 
 augmentation part       27.4371344 magnetization 

 Broyden mixing:
  rms(total) = 0.37390E+01    rms(broyden)= 0.37390E+01
  rms(prec ) = 0.38353E+01
  weight for this iteration     100.00

 eigenvalues of (default mixing * dielectric matrix)
  average eigenvalue GAMMA=   1.2560
  1.2560

 Free energy of the ion-electron system (eV)
  ---------------------------------------------------
  alpha Z        PSCENC =      1198.06820637
  Ewald energy   TEWEN  =     42460.73338212
  -Hartree energ DENC   =    -81700.96375962
  -exchange      EXHF   =         0.00000000
  -V(xc)+E(xc)   XCENC  =      1321.03809424
  PAW double counting   =     42009.72147630   -41392.28474212
  entropy T*S    EENTRO =        -0.00000000
  eigenvalues    EBANDS =     -7454.53887653
  atomic energy  EATOM  =     43161.79194098
  Solvation  Ediel_sol  =         0.00000000
  ---------------------------------------------------
  free energy    TOTEN  =      -396.43427827 eV

  energy without entropy =     -396.43427827  energy(sigma->0) =     -396.43427827


--------------------------------------------------------------------------------------------------------




--------------------------------------- Iteration      1(   7)  ---------------------------------------


    POTLOK:  cpu time      0.1259: real time      0.1264
    SETDIJ:  cpu time      0.0297: real time      0.0297
     EDDAV:  cpu time      8.0175: real time      8.0175
       DOS:  cpu time      0.0016: real time      0.0016
    CHARGE:  cpu time      0.6025: real time      0.6025
    MIXING:  cpu time      0.0278: real time      0.0278
    --------------------------------------------
      LOOP:  cpu time      8.8049: real time      8.8054

 eigenvalue-minimisations  :  8690
 total energy-change (2. order) : 0.1443103E+01  (-0.5041005E+01)
 number of electron     468.0000033 magnetization 
 augmentation part       23.0182819 magnetization 

 Broyden mixing:
  rms(total) = 0.20593E+01    rms(broyden)= 0.20593E+01
  rms(prec ) = 0.21656E+01
  weight for this iteration     100.00

 eigenvalues of (default mixing * dielectric matrix)
  average eigenvalue GAMMA=   1.2633
  1.8492  0.6775

 Free energy of the ion-electron system (eV)
  ---------------------------------------------------
  alpha Z        PSCENC =      1198.06820637
  Ewald energy   TEWEN  =     42460.73338212
  -Hartree energ DENC   =    -81986.24085986
  -exchange      EXHF   =         0.00000000
  -V(xc)+E(xc)   XCENC  =      1325.12169213
  PAW double counting   =     48703.03402134   -48085.89860623
  entropy T*S    EENTRO =        -0.00000000
  eigenvalues    EBANDS =     -7171.60095184
  atomic energy  EATOM  =     43161.79194098
  Solvation  Ediel_sol  =         0.00000000
  ---------------------------------------------------
  free energy    TOTEN  =      -394.99117499 eV

  energy without entropy =     -394.99117499  energy(sigma->0) =     -394.99117499


--------------------------------------------------------------------------------------------------------




--------------------------------------- Iteration      1(   8)  ---------------------------------------


    POTLOK:  cpu time      0.1229: real time      0.1235
    SETDIJ:  cpu time      0.0282: real time      0.0282
     EDDAV:  cpu time      6.8298: real time      6.8299
       DOS:  cpu time      0.0016: real time      0.0016
    CHARGE:  cpu time      0.4590: real time      0.4590
    MIXING:  cpu time      0.0273: real time      0.0273
    --------------------------------------------
      LOOP:  cpu time      7.4688: real time      7.4693

 eigenvalue-minimisations  :  8492
 total energy-change (2. order) : 0.3176513E+01  (-0.1212355E+01)
 number of electron     468.0000033 magnetization 
 augmentation part       25.1914317 magnetization 

 Broyden mixing:
  rms(total) = 0.53810E+00    rms(broyden)= 0.53810E+00
  rms(prec ) = 0.56396E+00
  weight for this iteration     100.00

 eigenvalues of (default mixing * dielectric matrix)
  average eigenvalue GAMMA=   1.2087
  2.1384  0.8684  0.6193

 Free energy of the ion-electron system (eV)
  ---------------------------------------------------
  alpha Z        PSCENC =      1198.06820637
  Ewald energy   TEWEN  =     42460.73338212
  -Hartree energ DENC   =    -81842.87622897
  -exchange      EXHF   =         0.00000000
  -V(xc)+E(xc)   XCENC  =      1321.64197727
  PAW double counting   =     52839.81072168   -52242.72956851
  entropy T*S    EENTRO =        -0.00000000
  eigenvalues    EBANDS =     -7288.25509341
  atomic energy  EATOM  =     43161.79194098
  Solvation  Ediel_sol  =         0.00000000
  ---------------------------------------------------
  free energy    TOTEN  =      -391.81466247 eV

  energy without entropy =     -391.81466247  energy(sigma->0) =     -391.81466247


--------------------------------------------------------------------------------------------------------




--------------------------------------- Iteration      1(   9)  ---------------------------------------


    POTLOK:  cpu time      0.1226: real time      0.1231
    SETDIJ:  cpu time      0.0268: real time      0.0268
     EDDAV:  cpu time      8.5255: real time      8.5255
       DOS:  cpu time      0.0017: real time      0.0017
    CHARGE:  cpu time      0.5989: real time      0.5995
    MIXING:  cpu time      0.0267: real time      0.0267
    --------------------------------------------
      LOOP:  cpu time      9.3022: real time      9.3033

 eigenvalue-minimisations  :  9262
 total energy-change (2. order) : 0.9042174E-01  (-0.1274496E+00)
 number of electron     468.0000033 magnetization 
 augmentation part       25.4332217 magnetization 

 Broyden mixing:
  rms(total) = 0.22801E+00    rms(broyden)= 0.22801E+00
  rms(prec ) = 0.24348E+00
  weight for this iteration     100.00

 eigenvalues of (default mixing * dielectric matrix)
  average eigenvalue GAMMA=   1.1618
  2.2144  1.1540  0.6394  0.6394

 Free energy of the ion-electron system (eV)
  ---------------------------------------------------
  alpha Z        PSCENC =      1198.06820637
  Ewald energy   TEWEN  =     42460.73338212
  -Hartree energ DENC   =    -81849.34115031
  -exchange      EXHF   =         0.00000000
  -V(xc)+E(xc)   XCENC  =      1321.92417865
  PAW double counting   =     54254.62471952   -53660.94263031
  entropy T*S    EENTRO =        -0.00000000
  eigenvalues    EBANDS =     -7278.58288774
  atomic energy  EATOM  =     43161.79194098
  Solvation  Ediel_sol  =         0.00000000
  ---------------------------------------------------
  free energy    TOTEN  =      -391.72424072 eV

  energy without entropy =     -391.72424072  energy(sigma->0) =     -391.72424072


--------------------------------------------------------------------------------------------------------




--------------------------------------- Iteration      1(  10)  ---------------------------------------


    POTLOK:  cpu time      0.1226: real time      0.1233
    SETDIJ:  cpu time      0.0282: real time      0.0282
     EDDAV:  cpu time      7.4212: real time      7.4211
       DOS:  cpu time      0.0021: real time      0.0021
    CHARGE:  cpu time      0.4612: real time      0.4612
    MIXING:  cpu time      0.0257: real time      0.0257
    --------------------------------------------
      LOOP:  cpu time      8.0611: real time      8.0617

 eigenvalue-minimisations  :  9460
 total energy-change (2. order) : 0.2624415E-01  (-0.1153451E-01)
 number of electron     468.0000033 magnetization 
 augmentation part       25.3351157 magnetization 

 Broyden mixing:
  rms(total) = 0.11106E+00    rms(broyden)= 0.11106E+00
  rms(prec ) = 0.12795E+00
  weight for this iteration     100.00

 eigenvalues of (default mixing * dielectric matrix)
  average eigenvalue GAMMA=   1.2093
  2.2370  1.5952  0.7660  0.7660  0.6822

 Free energy of the ion-electron system (eV)
  ---------------------------------------------------
  alpha Z        PSCENC =      1198.06820637
  Ewald energy   TEWEN  =     42460.73338212
  -Hartree energ DENC   =    -81866.49763102
  -exchange      EXHF   =         0.00000000
  -V(xc)+E(xc)   XCENC  =      1322.41539482
  PAW double counting   =     54510.31574590   -53916.63671804
  entropy T*S    EENTRO =        -0.00000000
  eigenvalues    EBANDS =     -7261.88831772
  atomic energy  EATOM  =     43161.79194098
  Solvation  Ediel_sol  =         0.00000000
  ---------------------------------------------------
  free energy    TOTEN  =      -391.69799658 eV

  energy without entropy =     -391.69799658  energy(sigma->0) =     -391.69799658


--------------------------------------------------------------------------------------------------------




--------------------------------------- Iteration      1(  11)  ---------------------------------------


    POTLOK:  cpu time      0.1227: real time      0.1232
    SETDIJ:  cpu time      0.0269: real time      0.0269
     EDDAV:  cpu time      8.6765: real time      8.6765
       DOS:  cpu time      0.0017: real time      0.0017
    CHARGE:  cpu time      0.6022: real time      0.6022
    MIXING:  cpu time      0.0264: real time      0.0264
    --------------------------------------------
      LOOP:  cpu time      9.4565: real time      9.4570

 eigenvalue-minimisations  :  9801
 total energy-change (2. order) : 0.1848709E-01  (-0.3384724E-02)
 number of electron     468.0000033 magnetization 
 augmentation part       25.2346215 magnetization 

 Broyden mixing:
  rms(total) = 0.42621E-01    rms(broyden)= 0.42620E-01
  rms(prec ) = 0.66166E-01
  weight for this iteration     100.00

 eigenvalues of (default mixing * dielectric matrix)
  average eigenvalue GAMMA=   1.2026
  2.2503  1.8781  0.9974  0.6573  0.7162  0.7162

 Free energy of the ion-electron system (eV)
  ---------------------------------------------------
  alpha Z        PSCENC =      1198.06820637
  Ewald energy   TEWEN  =     42460.73338212
  -Hartree energ DENC   =    -81883.55181004
  -exchange      EXHF   =         0.00000000
  -V(xc)+E(xc)   XCENC  =      1322.80007535
  PAW double counting   =     54539.10788980   -53944.93829677
  entropy T*S    EENTRO =        -0.00000000
  eigenvalues    EBANDS =     -7245.69089730
  atomic energy  EATOM  =     43161.79194098
  Solvation  Ediel_sol  =         0.00000000
  ---------------------------------------------------
  free energy    TOTEN  =      -391.67950949 eV

  energy without entropy =     -391.67950949  energy(sigma->0) =     -391.67950949


--------------------------------------------------------------------------------------------------------




--------------------------------------- Iteration      1(  12)  ---------------------------------------


    POTLOK:  cpu time      0.1228: real time      0.1232
    SETDIJ:  cpu time      0.0278: real time      0.0278
     EDDAV:  cpu time      7.0127: real time      7.0127
       DOS:  cpu time      0.0016: real time      0.0016
    CHARGE:  cpu time      0.4599: real time      0.4599
    MIXING:  cpu time      0.0264: real time      0.0264
    --------------------------------------------
      LOOP:  cpu time      7.6513: real time      7.6517

 eigenvalue-minimisations  :  8976
 total energy-change (2. order) : 0.7566866E-02  (-0.1713581E-02)
 number of electron     468.0000033 magnetization 
 augmentation part       25.2260736 magnetization 

 Broyden mixing:
  rms(total) = 0.33317E-01    rms(broyden)= 0.33316E-01
  rms(prec ) = 0.56978E-01
  weight for this iteration     100.00

 eigenvalues of (default mixing * dielectric matrix)
  average eigenvalue GAMMA=   1.2028
  2.2775  2.2775  1.2642  0.7571  0.7571  0.6703  0.4162

 Free energy of the ion-electron system (eV)
  ---------------------------------------------------
  alpha Z        PSCENC =      1198.06820637
  Ewald energy   TEWEN  =     42460.73338212
  -Hartree energ DENC   =    -81891.52843556
  -exchange      EXHF   =         0.00000000
  -V(xc)+E(xc)   XCENC  =      1322.91560645
  PAW double counting   =     54541.09128079   -53946.84077643
  entropy T*S    EENTRO =        -0.00000000
  eigenvalues    EBANDS =     -7237.90314734
  atomic energy  EATOM  =     43161.79194098
  Solvation  Ediel_sol  =         0.00000000
  ---------------------------------------------------
  free energy    TOTEN  =      -391.67194262 eV

  energy without entropy =     -391.67194262  energy(sigma->0) =     -391.67194262


--------------------------------------------------------------------------------------------------------




--------------------------------------- Iteration      1(  13)  ---------------------------------------


    POTLOK:  cpu time      0.1225: real time      0.1231
    SETDIJ:  cpu time      0.0279: real time      0.0279
     EDDAV:  cpu time      8.6860: real time      8.6869
       DOS:  cpu time      0.0021: real time      0.0021
    CHARGE:  cpu time      0.6012: real time      0.6012
    MIXING:  cpu time      0.0271: real time      0.0271
    --------------------------------------------
      LOOP:  cpu time      9.4668: real time      9.4683

 eigenvalue-minimisations  :  9603
 total energy-change (2. order) : 0.9765404E-02  (-0.7131387E-03)
 number of electron     468.0000033 magnetization 
 augmentation part       25.2312346 magnetization 

 Broyden mixing:
  rms(total) = 0.15501E-01    rms(broyden)= 0.15500E-01
  rms(prec ) = 0.39408E-01
  weight for this iteration     100.00

 eigenvalues of (default mixing * dielectric matrix)
  average eigenvalue GAMMA=   1.2334
  2.4028  2.4028  1.4854  0.9741  0.7968  0.7060  0.7060  0.3931

 Free energy of the ion-electron system (eV)
  ---------------------------------------------------
  alpha Z        PSCENC =      1198.06820637
  Ewald energy   TEWEN  =     42460.73338212
  -Hartree energ DENC   =    -81900.59086381
  -exchange      EXHF   =         0.00000000
  -V(xc)+E(xc)   XCENC  =      1323.01013455
  PAW double counting   =     54524.48645946   -53930.19605899
  entropy T*S    EENTRO =        -0.00000000
  eigenvalues    EBANDS =     -7228.96537789
  atomic energy  EATOM  =     43161.79194098
  Solvation  Ediel_sol  =         0.00000000
  ---------------------------------------------------
  free energy    TOTEN  =      -391.66217722 eV

  energy without entropy =     -391.66217722  energy(sigma->0) =     -391.66217722


--------------------------------------------------------------------------------------------------------




--------------------------------------- Iteration      1(  14)  ---------------------------------------


    POTLOK:  cpu time      0.1226: real time      0.1231
    SETDIJ:  cpu time      0.0285: real time      0.0285
     EDDAV:  cpu time      7.2524: real time      7.2524
       DOS:  cpu time      0.0019: real time      0.0019
    CHARGE:  cpu time      0.4595: real time      0.4595
    MIXING:  cpu time      0.0265: real time      0.0265
    --------------------------------------------
      LOOP:  cpu time      7.8915: real time      7.8919

 eigenvalue-minimisations  :  9427
 total energy-change (2. order) : 0.7060709E-02  (-0.5198083E-03)
 number of electron     468.0000033 magnetization 
 augmentation part       25.2395300 magnetization 

 Broyden mixing:
  rms(total) = 0.15340E-01    rms(broyden)= 0.15340E-01
  rms(prec ) = 0.33018E-01
  weight for this iteration     100.00

 eigenvalues of (default mixing * dielectric matrix)
  average eigenvalue GAMMA=   1.2159
  2.5488  2.5488  1.6644  1.1313  0.7211  0.7211  0.7257  0.4944  0.3876

 Free energy of the ion-electron system (eV)
  ---------------------------------------------------
  alpha Z        PSCENC =      1198.06820637
  Ewald energy   TEWEN  =     42460.73338212
  -Hartree energ DENC   =    -81912.46596114
  -exchange      EXHF   =         0.00000000
  -V(xc)+E(xc)   XCENC  =      1323.07988177
  PAW double counting   =     54494.18924778   -53899.89437540
  entropy T*S    EENTRO =        -0.00000000
  eigenvalues    EBANDS =     -7217.15743899
  atomic energy  EATOM  =     43161.79194098
  Solvation  Ediel_sol  =         0.00000000
  ---------------------------------------------------
  free energy    TOTEN  =      -391.65511651 eV

  energy without entropy =     -391.65511651  energy(sigma->0) =     -391.65511651


--------------------------------------------------------------------------------------------------------




--------------------------------------- Iteration      1(  15)  ---------------------------------------


    POTLOK:  cpu time      0.1228: real time      0.1239
    SETDIJ:  cpu time      0.0274: real time      0.0274
     EDDAV:  cpu time      8.3708: real time      8.3708
       DOS:  cpu time      0.0018: real time      0.0018
    CHARGE:  cpu time      0.5987: real time      0.5987
    MIXING:  cpu time      0.0254: real time      0.0254
    --------------------------------------------
      LOOP:  cpu time      9.1469: real time      9.1479

 eigenvalue-minimisations  :  9229
 total energy-change (2. order) : 0.4109882E-02  (-0.5347918E-03)
 number of electron     468.0000033 magnetization 
 augmentation part       25.2461778 magnetization 

 Broyden mixing:
  rms(total) = 0.13193E-01    rms(broyden)= 0.13193E-01
  rms(prec ) = 0.25746E-01
  weight for this iteration     100.00

 eigenvalues of (default mixing * dielectric matrix)
  average eigenvalue GAMMA=   1.2285
  3.0767  2.4632  1.8376  1.2208  0.7595  0.7595  0.6720  0.6720  0.4421  0.3817

 Free energy of the ion-electron system (eV)
  ---------------------------------------------------
  alpha Z        PSCENC =      1198.06820637
  Ewald energy   TEWEN  =     42460.73338212
  -Hartree energ DENC   =    -81923.45758205
  -exchange      EXHF   =         0.00000000
  -V(xc)+E(xc)   XCENC  =      1323.14358518
  PAW double counting   =     54480.49405784   -53886.21455550
  entropy T*S    EENTRO =        -0.00000000
  eigenvalues    EBANDS =     -7206.21004156
  atomic energy  EATOM  =     43161.79194098
  Solvation  Ediel_sol  =         0.00000000
  ---------------------------------------------------
  free energy    TOTEN  =      -391.65100663 eV

  energy without entropy =     -391.65100663  energy(sigma->0) =     -391.65100663


--------------------------------------------------------------------------------------------------------




--------------------------------------- Iteration      1(  16)  ---------------------------------------


    POTLOK:  cpu time      0.1225: real time      0.1229
    SETDIJ:  cpu time      0.0280: real time      0.0280
     EDDAV:  cpu time      7.0991: real time      7.0991
       DOS:  cpu time      0.0020: real time      0.0020
    CHARGE:  cpu time      0.4599: real time      0.4599
    MIXING:  cpu time      0.0265: real time      0.0264
    --------------------------------------------
      LOOP:  cpu time      7.7379: real time      7.7383

 eigenvalue-minimisations  :  9130
 total energy-change (2. order) : 0.1744048E-02  (-0.3581829E-03)
 number of electron     468.0000033 magnetization 
 augmentation part       25.2513606 magnetization 

 Broyden mixing:
  rms(total) = 0.10684E-01    rms(broyden)= 0.10684E-01
  rms(prec ) = 0.17699E-01
  weight for this iteration     100.00

 eigenvalues of (default mixing * dielectric matrix)
  average eigenvalue GAMMA=   1.3251
  3.7018  2.2494  2.2494  1.1720  1.1720  1.0844  0.7324  0.7324  0.6827  0.3864
  0.4135

 Free energy of the ion-electron system (eV)
  ---------------------------------------------------
  alpha Z        PSCENC =      1198.06820637
  Ewald energy   TEWEN  =     42460.73338212
  -Hartree energ DENC   =    -81936.73718636
  -exchange      EXHF   =         0.00000000
  -V(xc)+E(xc)   XCENC  =      1323.21837101
  PAW double counting   =     54484.78429262   -53890.55265082
  entropy T*S    EENTRO =        -0.00000000
  eigenvalues    EBANDS =     -7192.95561850
  atomic energy  EATOM  =     43161.79194098
  Solvation  Ediel_sol  =         0.00000000
  ---------------------------------------------------
  free energy    TOTEN  =      -391.64926258 eV

  energy without entropy =     -391.64926258  energy(sigma->0) =     -391.64926258


--------------------------------------------------------------------------------------------------------




--------------------------------------- Iteration      1(  17)  ---------------------------------------


    POTLOK:  cpu time      0.1229: real time      0.1233
    SETDIJ:  cpu time      0.0275: real time      0.0275
     EDDAV:  cpu time      8.2130: real time      8.2143
       DOS:  cpu time      0.0020: real time      0.0020
    CHARGE:  cpu time      0.5990: real time      0.5990
    MIXING:  cpu time      0.0268: real time      0.0268
    --------------------------------------------
      LOOP:  cpu time      8.9911: real time      8.9928

 eigenvalue-minimisations  :  9020
 total energy-change (2. order) :-0.2201689E-02  (-0.3019351E-03)
 number of electron     468.0000033 magnetization 
 augmentation part       25.2537365 magnetization 

 Broyden mixing:
  rms(total) = 0.10024E-01    rms(broyden)= 0.10024E-01
  rms(prec ) = 0.13525E-01
  weight for this iteration     100.00

 eigenvalues of (default mixing * dielectric matrix)
  average eigenvalue GAMMA=   1.3680
  4.2175  2.4408  2.4408  1.4505  1.4505  0.8824  0.7444  0.7444  0.6662  0.5852
  0.4094  0.3842

 Free energy of the ion-electron system (eV)
  ---------------------------------------------------
  alpha Z        PSCENC =      1198.06820637
  Ewald energy   TEWEN  =     42460.73338212
  -Hartree energ DENC   =    -81946.89368152
  -exchange      EXHF   =         0.00000000
  -V(xc)+E(xc)   XCENC  =      1323.25164019
  PAW double counting   =     54501.64486620   -53907.46442636
  entropy T*S    EENTRO =        -0.00000000
  eigenvalues    EBANDS =     -7182.78339225
  atomic energy  EATOM  =     43161.79194098
  Solvation  Ediel_sol  =         0.00000000
  ---------------------------------------------------
  free energy    TOTEN  =      -391.65146427 eV

  energy without entropy =     -391.65146427  energy(sigma->0) =     -391.65146427


--------------------------------------------------------------------------------------------------------




--------------------------------------- Iteration      1(  18)  ---------------------------------------


    POTLOK:  cpu time      0.1224: real time      0.1228
    SETDIJ:  cpu time      0.0276: real time      0.0276
     EDDAV:  cpu time      7.2463: real time      7.2463
       DOS:  cpu time      0.0020: real time      0.0020
    CHARGE:  cpu time      0.4602: real time      0.4602
    MIXING:  cpu time      0.0262: real time      0.0262
    --------------------------------------------
      LOOP:  cpu time      7.8848: real time      7.8851

 eigenvalue-minimisations  :  9372
 total energy-change (2. order) :-0.2083459E-02  (-0.7671176E-04)
 number of electron     468.0000033 magnetization 
 augmentation part       25.2500025 magnetization 

 Broyden mixing:
  rms(total) = 0.75580E-02    rms(broyden)= 0.75580E-02
  rms(prec ) = 0.99865E-02
  weight for this iteration     100.00

 eigenvalues of (default mixing * dielectric matrix)
  average eigenvalue GAMMA=   1.4052
  5.1379  2.6543  2.1557  1.5185  1.5185  0.8684  0.8684  0.7623  0.7248  0.7248
  0.5360  0.4135  0.3846

 Free energy of the ion-electron system (eV)
  ---------------------------------------------------
  alpha Z        PSCENC =      1198.06820637
  Ewald energy   TEWEN  =     42460.73338212
  -Hartree energ DENC   =    -81951.48398186
  -exchange      EXHF   =         0.00000000
  -V(xc)+E(xc)   XCENC  =      1323.26188807
  PAW double counting   =     54499.69400670   -53905.50559469
  entropy T*S    EENTRO =        -0.00000000
  eigenvalues    EBANDS =     -7178.21339541
  atomic energy  EATOM  =     43161.79194098
  Solvation  Ediel_sol  =         0.00000000
  ---------------------------------------------------
  free energy    TOTEN  =      -391.65354773 eV

  energy without entropy =     -391.65354773  energy(sigma->0) =     -391.65354773


--------------------------------------------------------------------------------------------------------




--------------------------------------- Iteration      1(  19)  ---------------------------------------


    POTLOK:  cpu time      0.1224: real time      0.1228
    SETDIJ:  cpu time      0.0279: real time      0.0279
     EDDAV:  cpu time      8.1568: real time      8.1568
       DOS:  cpu time      0.0014: real time      0.0014
    CHARGE:  cpu time      0.5993: real time      0.5993
    MIXING:  cpu time      0.0254: real time      0.0254
    --------------------------------------------
      LOOP:  cpu time      8.9333: real time      8.9337

 eigenvalue-minimisations  :  8767
 total energy-change (2. order) :-0.1667690E-02  (-0.1966838E-04)
 number of electron     468.0000033 magnetization 
 augmentation part       25.2472103 magnetization 

 Broyden mixing:
  rms(total) = 0.44997E-02    rms(broyden)= 0.44997E-02
  rms(prec ) = 0.66642E-02
  weight for this iteration     100.00

 eigenvalues of (default mixing * dielectric matrix)
  average eigenvalue GAMMA=   1.6236
  7.5277  2.6790  2.1536  2.1536  1.7950  1.0488  1.0488  0.8394  0.7393  0.7393
  0.7021  0.5068  0.4119  0.3846

 Free energy of the ion-electron system (eV)
  ---------------------------------------------------
  alpha Z        PSCENC =      1198.06820637
  Ewald energy   TEWEN  =     42460.73338212
  -Hartree energ DENC   =    -81954.72846225
  -exchange      EXHF   =         0.00000000
  -V(xc)+E(xc)   XCENC  =      1323.27223951
  PAW double counting   =     54481.34988965   -53887.12548217
  entropy T*S    EENTRO =        -0.00000000
  eigenvalues    EBANDS =     -7175.01692963
  atomic energy  EATOM  =     43161.79194098
  Solvation  Ediel_sol  =         0.00000000
  ---------------------------------------------------
  free energy    TOTEN  =      -391.65521542 eV

  energy without entropy =     -391.65521542  energy(sigma->0) =     -391.65521542


--------------------------------------------------------------------------------------------------------




--------------------------------------- Iteration      1(  20)  ---------------------------------------


    POTLOK:  cpu time      0.1227: real time      0.1231
    SETDIJ:  cpu time      0.0288: real time      0.0288
     EDDAV:  cpu time      6.7315: real time      6.7325
       DOS:  cpu time      0.0019: real time      0.0019
    CHARGE:  cpu time      0.4597: real time      0.4597
    MIXING:  cpu time      0.0263: real time      0.0263
    --------------------------------------------
      LOOP:  cpu time      7.3710: real time      7.3725

 eigenvalue-minimisations  :  8525
 total energy-change (2. order) :-0.2716836E-02  (-0.2808734E-04)
 number of electron     468.0000033 magnetization 
 augmentation part       25.2480095 magnetization 

 Broyden mixing:
  rms(total) = 0.29320E-02    rms(broyden)= 0.29320E-02
  rms(prec ) = 0.41154E-02
  weight for this iteration     100.00

 eigenvalues of (default mixing * dielectric matrix)
  average eigenvalue GAMMA=   1.7099
  9.4102  2.8032  2.2966  2.2966  1.6096  1.2152  0.9612  0.7969  0.7969  0.7297
  0.7297  0.6994  0.5074  0.3845  0.4119

 Free energy of the ion-electron system (eV)
  ---------------------------------------------------
  alpha Z        PSCENC =      1198.06820637
  Ewald energy   TEWEN  =     42460.73338212
  -Hartree energ DENC   =    -81958.85347491
  -exchange      EXHF   =         0.00000000
  -V(xc)+E(xc)   XCENC  =      1323.28181220
  PAW double counting   =     54474.31078519   -53880.08756410
  entropy T*S    EENTRO =        -0.00000000
  eigenvalues    EBANDS =     -7170.90302011
  atomic energy  EATOM  =     43161.79194098
  Solvation  Ediel_sol  =         0.00000000
  ---------------------------------------------------
  free energy    TOTEN  =      -391.65793225 eV

  energy without entropy =     -391.65793225  energy(sigma->0) =     -391.65793225


--------------------------------------------------------------------------------------------------------




--------------------------------------- Iteration      1(  21)  ---------------------------------------


    POTLOK:  cpu time      0.1229: real time      0.1236
    SETDIJ:  cpu time      0.0277: real time      0.0277
     EDDAV:  cpu time      8.1098: real time      8.1097
       DOS:  cpu time      0.0012: real time      0.0012
    CHARGE:  cpu time      0.6010: real time      0.6010
    MIXING:  cpu time      0.0264: real time      0.0264
    --------------------------------------------
      LOOP:  cpu time      8.8889: real time      8.8896

 eigenvalue-minimisations  :  8932
 total energy-change (2. order) :-0.8567308E-03  (-0.7517736E-05)
 number of electron     468.0000033 magnetization 
 augmentation part       25.2469755 magnetization 

 Broyden mixing:
  rms(total) = 0.24427E-02    rms(broyden)= 0.24427E-02
  rms(prec ) = 0.32586E-02
  weight for this iteration     100.00

 eigenvalues of (default mixing * dielectric matrix)
  average eigenvalue GAMMA=   1.6889
  9.9399  2.9378  2.4431  2.1395  1.3961  1.3961  1.0243  0.8950  0.8950  0.7333
  0.7333  0.6899  0.5310  0.3846  0.4119  0.4716

 Free energy of the ion-electron system (eV)
  ---------------------------------------------------
  alpha Z        PSCENC =      1198.06820637
  Ewald energy   TEWEN  =     42460.73338212
  -Hartree energ DENC   =    -81959.96171557
  -exchange      EXHF   =         0.00000000
  -V(xc)+E(xc)   XCENC  =      1323.28343129
  PAW double counting   =     54478.16608103   -53883.94810880
  entropy T*S    EENTRO =        -0.00000000
  eigenvalues    EBANDS =     -7169.79200641
  atomic energy  EATOM  =     43161.79194098
  Solvation  Ediel_sol  =         0.00000000
  ---------------------------------------------------
  free energy    TOTEN  =      -391.65878898 eV

  energy without entropy =     -391.65878898  energy(sigma->0) =     -391.65878898


--------------------------------------------------------------------------------------------------------




--------------------------------------- Iteration      1(  22)  ---------------------------------------


    POTLOK:  cpu time      0.1225: real time      0.1234
    SETDIJ:  cpu time      0.0288: real time      0.0288
     EDDAV:  cpu time      6.8775: real time      6.8774
       DOS:  cpu time      0.0019: real time      0.0019
    CHARGE:  cpu time      0.4610: real time      0.4610
    MIXING:  cpu time      0.0264: real time      0.0264
    --------------------------------------------
      LOOP:  cpu time      7.5181: real time      7.5189

 eigenvalue-minimisations  :  8811
 total energy-change (2. order) :-0.3159167E-03  (-0.2866116E-05)
 number of electron     468.0000033 magnetization 
 augmentation part       25.2463417 magnetization 

 Broyden mixing:
  rms(total) = 0.15311E-02    rms(broyden)= 0.15311E-02
  rms(prec ) = 0.22937E-02
  weight for this iteration     100.00

 eigenvalues of (default mixing * dielectric matrix)
  average eigenvalue GAMMA=   1.7117
 10.3813  3.1377  2.5180  2.0242  1.6539  1.6539  1.1674  0.9659  0.9659  0.7520
  0.7520  0.6883  0.6883  0.5050  0.3845  0.4119  0.4482

 Free energy of the ion-electron system (eV)
  ---------------------------------------------------
  alpha Z        PSCENC =      1198.06820637
  Ewald energy   TEWEN  =     42460.73338212
  -Hartree energ DENC   =    -81960.27458641
  -exchange      EXHF   =         0.00000000
  -V(xc)+E(xc)   XCENC  =      1323.28291126
  PAW double counting   =     54482.36512686   -53888.15104777
  entropy T*S    EENTRO =        -0.00000000
  eigenvalues    EBANDS =     -7169.47503831
  atomic energy  EATOM  =     43161.79194098
  Solvation  Ediel_sol  =         0.00000000
  ---------------------------------------------------
  free energy    TOTEN  =      -391.65910490 eV

  energy without entropy =     -391.65910490  energy(sigma->0) =     -391.65910490


--------------------------------------------------------------------------------------------------------




--------------------------------------- Iteration      1(  23)  ---------------------------------------


    POTLOK:  cpu time      0.1227: real time      0.1232
    SETDIJ:  cpu time      0.0278: real time      0.0278
     EDDAV:  cpu time      7.8064: real time      7.8064
       DOS:  cpu time      0.0020: real time      0.0020
    CHARGE:  cpu time      0.5995: real time      0.5995
    MIXING:  cpu time      0.0261: real time      0.0261
    --------------------------------------------
      LOOP:  cpu time      8.5845: real time      8.5849

 eigenvalue-minimisations  :  8602
 total energy-change (2. order) :-0.3261501E-03  (-0.2949193E-05)
 number of electron     468.0000033 magnetization 
 augmentation part       25.2465424 magnetization 

 Broyden mixing:
  rms(total) = 0.13719E-02    rms(broyden)= 0.13719E-02
  rms(prec ) = 0.18399E-02
  weight for this iteration     100.00

 eigenvalues of (default mixing * dielectric matrix)
  average eigenvalue GAMMA=   1.8537
 12.2991  4.0398  2.3704  2.3704  2.0007  1.8009  1.2809  0.9148  0.9148  0.7875
  0.7875  0.7334  0.7334  0.6140  0.5046  0.3845  0.4122  0.4182

 Free energy of the ion-electron system (eV)
  ---------------------------------------------------
  alpha Z        PSCENC =      1198.06820637
  Ewald energy   TEWEN  =     42460.73338212
  -Hartree energ DENC   =    -81960.71684124
  -exchange      EXHF   =         0.00000000
  -V(xc)+E(xc)   XCENC  =      1323.28162613
  PAW double counting   =     54484.50034188   -53890.28834344
  entropy T*S    EENTRO =        -0.00000000
  eigenvalues    EBANDS =     -7169.02974386
  atomic energy  EATOM  =     43161.79194098
  Solvation  Ediel_sol  =         0.00000000
  ---------------------------------------------------
  free energy    TOTEN  =      -391.65943105 eV

  energy without entropy =     -391.65943105  energy(sigma->0) =     -391.65943105


--------------------------------------------------------------------------------------------------------




--------------------------------------- Iteration      1(  24)  ---------------------------------------


    POTLOK:  cpu time      0.1221: real time      0.1234
    SETDIJ:  cpu time      0.0288: real time      0.0288
     EDDAV:  cpu time      6.3500: real time      6.3511
       DOS:  cpu time      0.0018: real time      0.0018
    CHARGE:  cpu time      0.4608: real time      0.4608
    MIXING:  cpu time      0.0254: real time      0.0254
    --------------------------------------------
      LOOP:  cpu time      6.9889: real time      6.9914

 eigenvalue-minimisations  :  7876
 total energy-change (2. order) :-0.1008257E-03  (-0.6244659E-05)
 number of electron     468.0000033 magnetization 
 augmentation part       25.2472101 magnetization 

 Broyden mixing:
  rms(total) = 0.14223E-02    rms(broyden)= 0.14223E-02
  rms(prec ) = 0.15878E-02
  weight for this iteration     100.00

 eigenvalues of (default mixing * dielectric matrix)
  average eigenvalue GAMMA=   1.8630
 13.1518  4.3035  2.5562  2.5562  1.9184  1.5732  1.1143  1.0922  0.9969  0.9969
  0.7400  0.7400  0.7051  0.7051  0.5411  0.5012  0.3846  0.4119  0.4088

 Free energy of the ion-electron system (eV)
  ---------------------------------------------------
  alpha Z        PSCENC =      1198.06820637
  Ewald energy   TEWEN  =     42460.73338212
  -Hartree energ DENC   =    -81961.33376075
  -exchange      EXHF   =         0.00000000
  -V(xc)+E(xc)   XCENC  =      1323.28212072
  PAW double counting   =     54482.41053394   -53888.19672004
  entropy T*S    EENTRO =        -0.00000000
  eigenvalues    EBANDS =     -7168.41523521
  atomic energy  EATOM  =     43161.79194098
  Solvation  Ediel_sol  =         0.00000000
  ---------------------------------------------------
  free energy    TOTEN  =      -391.65953188 eV

  energy without entropy =     -391.65953188  energy(sigma->0) =     -391.65953188


--------------------------------------------------------------------------------------------------------




--------------------------------------- Iteration      1(  25)  ---------------------------------------


    POTLOK:  cpu time      0.1226: real time      0.1236
    SETDIJ:  cpu time      0.0269: real time      0.0269
     EDDAV:  cpu time      7.7677: real time      7.7677
       DOS:  cpu time      0.0017: real time      0.0017
    CHARGE:  cpu time      0.5997: real time      0.5997
    MIXING:  cpu time      0.0267: real time      0.0267
    --------------------------------------------
      LOOP:  cpu time      8.5453: real time      8.5463

 eigenvalue-minimisations  :  8250
 total energy-change (2. order) : 0.2376043E-04  (-0.1933091E-05)
 number of electron     468.0000033 magnetization 
 augmentation part       25.2474172 magnetization 

 Broyden mixing:
  rms(total) = 0.95331E-03    rms(broyden)= 0.95331E-03
  rms(prec ) = 0.11089E-02
  weight for this iteration     100.00

 eigenvalues of (default mixing * dielectric matrix)
  average eigenvalue GAMMA=   1.8375
 13.3397  4.3935  2.6435  2.6435  2.0557  1.5834  1.1196  1.1196  1.1065  1.1065
  0.7468  0.7468  0.6960  0.6960  0.5412  0.5412  0.3845  0.4576  0.4123  0.4163

 Free energy of the ion-electron system (eV)
  ---------------------------------------------------
  alpha Z        PSCENC =      1198.06820637
  Ewald energy   TEWEN  =     42460.73338212
  -Hartree energ DENC   =    -81961.58131830
  -exchange      EXHF   =         0.00000000
  -V(xc)+E(xc)   XCENC  =      1323.28367829
  PAW double counting   =     54480.22653260   -53886.01103381
  entropy T*S    EENTRO =        -0.00000000
  eigenvalues    EBANDS =     -7168.17089637
  atomic energy  EATOM  =     43161.79194098
  Solvation  Ediel_sol  =         0.00000000
  ---------------------------------------------------
  free energy    TOTEN  =      -391.65950811 eV

  energy without entropy =     -391.65950811  energy(sigma->0) =     -391.65950811


--------------------------------------------------------------------------------------------------------




--------------------------------------- Iteration      1(  26)  ---------------------------------------


    POTLOK:  cpu time      0.1229: real time      0.1234
    SETDIJ:  cpu time      0.0289: real time      0.0289
     EDDAV:  cpu time      5.3226: real time      5.3226
       DOS:  cpu time      0.0012: real time      0.0012
    CHARGE:  cpu time      0.4602: real time      0.4602
    MIXING:  cpu time      0.0268: real time      0.0268
    --------------------------------------------
      LOOP:  cpu time      5.9625: real time      5.9630

 eigenvalue-minimisations  :  6138
 total energy-change (2. order) : 0.4414789E-05  (-0.1500178E-06)
 number of electron     468.0000033 magnetization 
 augmentation part       25.2474331 magnetization 

 Broyden mixing:
  rms(total) = 0.49979E-03    rms(broyden)= 0.49979E-03
  rms(prec ) = 0.66653E-03
  weight for this iteration     100.00

 eigenvalues of (default mixing * dielectric matrix)
  average eigenvalue GAMMA=   1.8627
 13.4987  4.8928  2.8241  2.5432  2.3405  1.6681  1.3343  1.3343  1.0970  1.0970
  0.7943  0.7943  0.7220  0.7220  0.6871  0.6116  0.5002  0.4569  0.3845  0.4118
  0.4023

 Free energy of the ion-electron system (eV)
  ---------------------------------------------------
  alpha Z        PSCENC =      1198.06820637
  Ewald energy   TEWEN  =     42460.73338212
  -Hartree energ DENC   =    -81961.68732304
  -exchange      EXHF   =         0.00000000
  -V(xc)+E(xc)   XCENC  =      1323.28481840
  PAW double counting   =     54479.83974211   -53885.62470286
  entropy T*S    EENTRO =        -0.00000000
  eigenvalues    EBANDS =     -7168.06556778
  atomic energy  EATOM  =     43161.79194098
  Solvation  Ediel_sol  =         0.00000000
  ---------------------------------------------------
  free energy    TOTEN  =      -391.65950370 eV

  energy without entropy =     -391.65950370  energy(sigma->0) =     -391.65950370


--------------------------------------------------------------------------------------------------------




--------------------------------------- Iteration      1(  27)  ---------------------------------------


    POTLOK:  cpu time      0.1224: real time      0.1229
    SETDIJ:  cpu time      0.0278: real time      0.0278
     EDDAV:  cpu time      6.4990: real time      6.4990
       DOS:  cpu time      0.0016: real time      0.0016
    --------------------------------------------
      LOOP:  cpu time      6.6508: real time      6.6513

 eigenvalue-minimisations  :  6600
 total energy-change (2. order) : 0.2318920E-06  (-0.1506485E-06)
 number of electron     468.0000033 magnetization 
 augmentation part       25.2474331 magnetization 

 Free energy of the ion-electron system (eV)
  ---------------------------------------------------
  alpha Z        PSCENC =      1198.06820637
  Ewald energy   TEWEN  =     42460.73338212
  -Hartree energ DENC   =    -81961.74110247
  -exchange      EXHF   =         0.00000000
  -V(xc)+E(xc)   XCENC  =      1323.28590052
  PAW double counting   =     54480.13415861   -53885.92067142
  entropy T*S    EENTRO =        -0.00000000
  eigenvalues    EBANDS =     -7168.01131818
  atomic energy  EATOM  =     43161.79194098
  Solvation  Ediel_sol  =         0.00000000
  ---------------------------------------------------
  free energy    TOTEN  =      -391.65950347 eV

  energy without entropy =     -391.65950347  energy(sigma->0) =     -391.65950347


--------------------------------------------------------------------------------------------------------




 average (electrostatic) potential at core
  the test charge radii are     1.0818  1.0808  1.1823  0.9698
  (the norm of the test charge is              1.0000)
       1 -79.3918       2 -79.3918       3 -79.3919       4 -79.3918       5 -79.3918
       6 -79.3918       7 -79.3918       8 -79.3920       9 -79.3917      10 -55.9787
      11 -55.9788      12 -55.9787      13 -55.9787      14 -55.9787      15 -55.9787
      16 -55.9787      17 -55.9787      18 -55.9787      19 -55.9924      20 -55.9924
      21 -55.9924      22 -55.9924      23 -55.9924      24 -55.9924      25 -55.9924
      26 -55.9924      27 -55.9924      28 -70.5056      29 -70.5069      30 -70.5042
      31 -70.5069      32 -70.5069      33 -70.5071      34 -70.5049      35 -70.5071
      36 -70.5071      37 -89.8201      38 -89.8210      39 -89.8204      40 -89.8211
      41 -89.8208      42 -89.8203      43 -89.8208      44 -89.8206      45 -89.8211
      46 -89.7959      47 -89.7903      48 -89.7910      49 -89.7904      50 -89.7911
      51 -89.7909      52 -89.7908      53 -89.7905      54 -89.7911
 
 
 
 E-fermi :   2.6488     XC(G=0):  -7.2333     alpha+bet : -7.8559

 val. band max:        2.3058698399   @ k =   0.0000   0.0000   0.0000
 cond. band min:       3.1618441009   @ k =   0.0000   0.0000   0.0000
 fundamental gap:      0.8559742610
 Fermi energy:         2.6488409090

 k-point     1 :       0.0000    0.0000    0.0000
  band No.  band energies     occupation 
      1     -72.4551      2.00000
      2     -72.4467      2.00000
      3     -72.4467      2.00000
      4     -72.4466      2.00000
      5     -72.4459      2.00000
      6     -72.4455      2.00000
      7     -72.4451      2.00000
      8     -72.4415      2.00000
      9     -72.4411      2.00000
     10     -58.6505      2.00000
     11     -58.6295      2.00000
     12     -58.6294      2.00000
     13     -58.6294      2.00000
     14     -58.6294      2.00000
     15     -58.6294      2.00000
     16     -58.6293      2.00000
     17     -58.6189      2.00000
     18     -58.6188      2.00000
     19     -36.7623      2.00000
     20     -36.7621      2.00000
     21     -36.7620      2.00000
     22     -36.7619      2.00000
     23     -36.7617      2.00000
     24     -36.7614      2.00000
     25     -36.7612      2.00000
     26     -36.7610      2.00000
     27     -36.7330      2.00000
     28     -36.7329      2.00000
     29     -36.6403      2.00000
     30     -36.6108      2.00000
     31     -36.6107      2.00000
     32     -36.6106      2.00000
     33     -36.6105      2.00000
     34     -36.6105      2.00000
     35     -36.6097      2.00000
     36     -36.6050      2.00000
     37     -36.6050      2.00000
     38     -36.6049      2.00000
     39     -36.6041      2.00000
     40     -36.6040      2.00000
     41     -36.6040      2.00000
     42     -36.5865      2.00000
     43     -36.5864      2.00000
     44     -36.5635      2.00000
     45     -36.5635      2.00000
     46     -32.8374      2.00000
     47     -32.8304      2.00000
     48     -32.8304      2.00000
     49     -32.8304      2.00000
     50     -32.8304      2.00000
     51     -32.8303      2.00000
     52     -32.8303      2.00000
     53     -32.8296      2.00000
     54     -32.8296      2.00000
     55     -32.7966      2.00000
     56     -32.7966      2.00000
     57     -32.7905      2.00000
     58     -32.7904      2.00000
     59     -32.7904      2.00000
     60     -32.7904      2.00000
     61     -32.7904      2.00000
     62     -32.7903      2.00000
     63     -32.7669      2.00000
     64     -32.7668      2.00000
     65     -32.6598      2.00000
     66     -32.6598      2.00000
     67     -32.6597      2.00000
     68     -32.6597      2.00000
     69     -32.6597      2.00000
     70     -32.6597      2.00000
     71     -32.6084      2.00000
     72     -32.6084      2.00000
     73     -12.9465      2.00000
     74     -12.2482      2.00000
     75     -11.6194      2.00000
     76     -11.6091      2.00000
     77     -11.6090      2.00000
     78     -11.6090      2.00000
     79     -11.6088      2.00000
     80     -11.6088      2.00000
     81     -11.3839      2.00000
     82     -11.1381      2.00000
     83     -10.9565      2.00000
     84     -10.9546      2.00000
     85     -10.9546      2.00000
     86     -10.9546      2.00000
     87     -10.9545      2.00000
     88     -10.9545      2.00000
     89     -10.8058      2.00000
     90     -10.8032      2.00000
     91     -10.8032      2.00000
     92     -10.8032      2.00000
     93     -10.8030      2.00000
     94     -10.8029      2.00000
     95     -10.7597      2.00000
     96     -10.7566      2.00000
     97     -10.5176      2.00000
     98     -10.5153      2.00000
     99     -10.4980      2.00000
    100     -10.4979      2.00000
    101     -10.4979      2.00000
    102     -10.4979      2.00000
    103     -10.4979      2.00000
    104     -10.4979      2.00000
    105     -10.0383      2.00000
    106     -10.0383      2.00000
    107      -9.9982      2.00000
    108      -9.9982      2.00000
    109      -4.5932      2.00000
    110      -4.0431      2.00000
    111      -4.0423      2.00000
    112      -4.0413      2.00000
    113      -4.0381      2.00000
    114      -4.0381      2.00000
    115      -4.0372      2.00000
    116      -3.9308      2.00000
    117      -3.9299      2.00000
    118      -3.5988      2.00000
    119      -3.5967      2.00000
    120      -3.3774      2.00000
    121      -3.0552      2.00000
    122      -3.0550      2.00000
    123      -3.0331      2.00000
    124      -3.0330      2.00000
    125      -3.0325      2.00000
    126      -3.0316      2.00000
    127      -3.0315      2.00000
    128      -3.0314      2.00000
    129      -2.8060      2.00000
    130      -2.8031      2.00000
    131      -2.8031      2.00000
    132      -2.8030      2.00000
    133      -2.8028      2.00000
    134      -2.8025      2.00000
    135      -2.7180      2.00000
    136      -2.7157      2.00000
    137      -2.6786      2.00000
    138      -2.6782      2.00000
    139      -2.6768      2.00000
    140      -2.6760      2.00000
    141      -2.6752      2.00000
    142      -2.6744      2.00000
    143      -2.6455      2.00000
    144      -2.6451      2.00000
    145      -2.2078      2.00000
    146      -2.2062      2.00000
    147      -2.0151      2.00000
    148      -2.0151      2.00000
    149      -2.0150      2.00000
    150      -2.0149      2.00000
    151      -2.0149      2.00000
    152      -2.0149      2.00000
    153      -1.9500      2.00000
    154      -1.9500      2.00000
    155      -1.7006      2.00000
    156      -1.7004      2.00000
    157      -1.7004      2.00000
    158      -1.7003      2.00000
    159      -1.7002      2.00000
    160      -1.7002      2.00000
    161      -1.6414      2.00000
    162      -1.6397      2.00000
    163      -1.4975      2.00000
    164      -1.4944      2.00000
    165      -1.4902      2.00000
    166      -1.4899      2.00000
    167      -1.4898      2.00000
    168      -1.4896      2.00000
    169      -1.3525      2.00000
    170      -1.3520      2.00000
    171      -1.1525      2.00000
    172      -1.1521      2.00000
    173      -1.0407      2.00000
    174      -1.0403      2.00000
    175      -0.6406      2.00000
    176      -0.4316      2.00000
    177      -0.4300      2.00000
    178      -0.2774      2.00000
    179      -0.2774      2.00000
    180      -0.2766      2.00000
    181      -0.2766      2.00000
    182      -0.2766      2.00000
    183      -0.2766      2.00000
    184      -0.1826      2.00000
    185      -0.1823      2.00000
    186      -0.1765      2.00000
    187      -0.1764      2.00000
    188      -0.1764      2.00000
    189      -0.1762      2.00000
    190      -0.1509      2.00000
    191      -0.1491      2.00000
    192      -0.1414      2.00000
    193      -0.1412      2.00000
    194      -0.1409      2.00000
    195      -0.1407      2.00000
    196      -0.1403      2.00000
    197      -0.1353      2.00000
    198      -0.0915      2.00000
    199      -0.0914      2.00000
    200       0.0941      2.00000
    201       0.0941      2.00000
    202       0.3432      2.00000
    203       0.3435      2.00000
    204       0.3435      2.00000
    205       0.3436      2.00000
    206       0.3441      2.00000
    207       0.3458      2.00000
    208       0.5672      2.00000
    209       0.6050      2.00000
    210       0.6062      2.00000
    211       0.6065      2.00000
    212       0.6067      2.00000
    213       0.6070      2.00000
    214       0.6087      2.00000
    215       1.0760      2.00000
    216       1.0760      2.00000
    217       1.0760      2.00000
    218       1.0760      2.00000
    219       1.0760      2.00000
    220       1.0761      2.00000
    221       1.1037      2.00000
    222       1.1037      2.00000
    223       1.2638      2.00000
    224       1.2638      2.00000
    225       1.2638      2.00000
    226       1.2638      2.00000
    227       1.2638      2.00000
    228       1.2639      2.00000
    229       1.5988      2.00000
    230       1.5991      2.00000
    231       1.5998      2.00000
    232       2.1411      2.00000
    233       2.1411      2.00000
    234       2.3059      2.00000
    235       3.1618      0.00000
    236       3.1620      0.00000
    237       3.7983      0.00000
    238       3.7984      0.00000
    239       3.9861      0.00000
    240       3.9862      0.00000
    241       3.9863      0.00000
    242       3.9867      0.00000
    243       3.9868      0.00000
    244       3.9872      0.00000
    245       4.0300      0.00000
    246       4.0302      0.00000
    247       4.0308      0.00000
    248       4.0312      0.00000
    249       4.0331      0.00000
    250       4.0336      0.00000
    251       4.2499      0.00000
    252       4.2499      0.00000
    253       4.2499      0.00000
    254       4.2500      0.00000
    255       4.2502      0.00000
    256       4.2502      0.00000
    257       4.3623      0.00000
    258       4.3645      0.00000
    259       4.3751      0.00000
    260       4.3752      0.00000
    261       4.3756      0.00000
    262       4.3774      0.00000
    263       4.3785      0.00000
    264       4.3795      0.00000
    265       4.4508      0.00000
    266       4.4510      0.00000
    267       4.5891      0.00000
    268       4.5901      0.00000
    269       5.0357      0.00000
    270       5.0358      0.00000
    271       5.0363      0.00000
    272       5.0374      0.00000
    273       5.0379      0.00000
    274       5.0399      0.00000
    275       5.1331      0.00000
    276       5.1331      0.00000
    277       5.2534      0.00000
    278       5.2545      0.00000
    279       5.2786      0.00000
    280       5.2786      0.00000
    281       5.3478      0.00000
    282       5.3478      0.00000
    283       5.5388      0.00000
    284       5.5401      0.00000
    285       5.5406      0.00000
    286       5.5412      0.00000

 k-point     2 :       0.2000    0.0000    0.0000
  band No.  band energies     occupation 
      1     -72.4546      2.00000
      2     -72.4486      2.00000
      3     -72.4472      2.00000
      4     -72.4468      2.00000
      5     -72.4450      2.00000
      6     -72.4449      2.00000
      7     -72.4440      2.00000
      8     -72.4417      2.00000
      9     -72.4413      2.00000
     10     -58.6492      2.00000
     11     -58.6350      2.00000
     12     -58.6316      2.00000
     13     -58.6315      2.00000
     14     -58.6266      2.00000
     15     -58.6266      2.00000
     16     -58.6250      2.00000
     17     -58.6195      2.00000
     18     -58.6194      2.00000
     19     -36.8018      2.00000
     20     -36.7824      2.00000
     21     -36.7820      2.00000
     22     -36.7772      2.00000
     23     -36.7767      2.00000
     24     -36.7378      2.00000
     25     -36.7375      2.00000
     26     -36.7105      2.00000
     27     -36.7102      2.00000
     28     -36.7101      2.00000
     29     -36.6383      2.00000
     30     -36.6221      2.00000
     31     -36.6220      2.00000
     32     -36.6200      2.00000
     33     -36.6140      2.00000
     34     -36.6099      2.00000
     35     -36.6097      2.00000
     36     -36.6082      2.00000
     37     -36.6082      2.00000
     38     -36.5998      2.00000
     39     -36.5997      2.00000
     40     -36.5981      2.00000
     41     -36.5970      2.00000
     42     -36.5875      2.00000
     43     -36.5875      2.00000
     44     -36.5751      2.00000
     45     -36.5662      2.00000
     46     -32.8751      2.00000
     47     -32.8532      2.00000
     48     -32.8531      2.00000
     49     -32.8469      2.00000
     50     -32.8469      2.00000
     51     -32.8347      2.00000
     52     -32.8033      2.00000
     53     -32.8033      2.00000
     54     -32.8029      2.00000
     55     -32.7953      2.00000
     56     -32.7953      2.00000
     57     -32.7842      2.00000
     58     -32.7842      2.00000
     59     -32.7807      2.00000
     60     -32.7726      2.00000
     61     -32.7713      2.00000
     62     -32.7713      2.00000
     63     -32.7683      2.00000
     64     -32.7682      2.00000
     65     -32.6725      2.00000
     66     -32.6725      2.00000
     67     -32.6702      2.00000
     68     -32.6592      2.00000
     69     -32.6591      2.00000
     70     -32.6463      2.00000
     71     -32.6214      2.00000
     72     -32.6114      2.00000
     73     -12.8792      2.00000
     74     -12.1837      2.00000
     75     -12.0060      2.00000
     76     -11.7731      2.00000
     77     -11.7694      2.00000
     78     -11.3995      2.00000
     79     -11.3959      2.00000
     80     -11.3520      2.00000
     81     -11.3334      2.00000
     82     -11.2675      2.00000
     83     -11.1098      2.00000
     84     -11.1047      2.00000
     85     -11.1044      2.00000
     86     -10.9719      2.00000
     87     -10.8751      2.00000
     88     -10.8742      2.00000
     89     -10.8123      2.00000
     90     -10.8087      2.00000
     91     -10.8011      2.00000
     92     -10.8001      2.00000
     93     -10.7422      2.00000
     94     -10.7025      2.00000
     95     -10.6625      2.00000
     96     -10.6623      2.00000
     97     -10.5809      2.00000
     98     -10.5809      2.00000
     99     -10.5438      2.00000
    100     -10.5406      2.00000
    101     -10.5384      2.00000
    102     -10.3833      2.00000
    103     -10.3833      2.00000
    104     -10.3161      2.00000
    105     -10.0892      2.00000
    106     -10.0892      2.00000
    107     -10.0345      2.00000
    108     -10.0345      2.00000
    109      -4.5139      2.00000
    110      -4.4113      2.00000
    111      -4.1911      2.00000
    112      -4.1904      2.00000
    113      -3.8477      2.00000
    114      -3.8473      2.00000
    115      -3.8306      2.00000
    116      -3.8301      2.00000
    117      -3.8052      2.00000
    118      -3.8041      2.00000
    119      -3.7827      2.00000
    120      -3.3698      2.00000
    121      -3.2996      2.00000
    122      -3.1376      2.00000
    123      -3.1374      2.00000
    124      -3.1005      2.00000
    125      -3.0171      2.00000
    126      -3.0160      2.00000
    127      -2.9948      2.00000
    128      -2.9947      2.00000
    129      -2.9842      2.00000
    130      -2.9599      2.00000
    131      -2.9593      2.00000
    132      -2.8728      2.00000
    133      -2.8726      2.00000
    134      -2.8150      2.00000
    135      -2.7777      2.00000
    136      -2.7759      2.00000
    137      -2.6538      2.00000
    138      -2.6532      2.00000
    139      -2.6067      2.00000
    140      -2.5189      2.00000
    141      -2.5184      2.00000
    142      -2.4525      2.00000
    143      -2.4519      2.00000
    144      -2.4325      2.00000
    145      -2.2560      2.00000
    146      -2.2558      2.00000
    147      -2.1966      2.00000
    148      -2.1297      2.00000
    149      -2.1288      2.00000
    150      -1.7640      2.00000
    151      -1.7626      2.00000
    152      -1.7559      2.00000
    153      -1.7558      2.00000
    154      -1.7466      2.00000
    155      -1.7455      2.00000
    156      -1.7116      2.00000
    157      -1.7111      2.00000
    158      -1.6947      2.00000
    159      -1.6909      2.00000
    160      -1.6031      2.00000
    161      -1.5714      2.00000
    162      -1.5699      2.00000
    163      -1.5426      2.00000
    164      -1.5419      2.00000
    165      -1.5332      2.00000
    166      -1.4460      2.00000
    167      -1.4371      2.00000
    168      -1.4353      2.00000
    169      -1.2868      2.00000
    170      -1.2098      2.00000
    171      -1.1118      2.00000
    172      -1.1117      2.00000
    173      -0.9984      2.00000
    174      -0.9982      2.00000
    175      -0.8465      2.00000
    176      -0.6100      2.00000
    177      -0.6100      2.00000
    178      -0.4960      2.00000
    179      -0.4953      2.00000
    180      -0.4929      2.00000
    181      -0.4751      2.00000
    182      -0.4055      2.00000
    183      -0.4046      2.00000
    184      -0.4018      2.00000
    185      -0.4001      2.00000
    186      -0.3173      2.00000
    187      -0.3154      2.00000
    188      -0.2576      2.00000
    189      -0.2565      2.00000
    190      -0.1755      2.00000
    191      -0.1141      2.00000
    192      -0.1121      2.00000
    193      -0.0733      2.00000
    194       0.0252      2.00000
    195       0.0252      2.00000
    196       0.0258      2.00000
    197       0.0380      2.00000
    198       0.0570      2.00000
    199       0.0935      2.00000
    200       0.0954      2.00000
    201       0.1593      2.00000
    202       0.1686      2.00000
    203       0.3643      2.00000
    204       0.3646      2.00000
    205       0.4897      2.00000
    206       0.6173      2.00000
    207       0.6179      2.00000
    208       0.6194      2.00000
    209       0.6549      2.00000
    210       0.6684      2.00000
    211       0.6695      2.00000
    212       0.7379      2.00000
    213       0.7381      2.00000
    214       0.8153      2.00000
    215       0.8155      2.00000
    216       0.8238      2.00000
    217       0.8241      2.00000
    218       0.8429      2.00000
    219       0.9565      2.00000
    220       0.9956      2.00000
    221       1.1863      2.00000
    222       1.1914      2.00000
    223       1.1947      2.00000
    224       1.3366      2.00000
    225       1.3367      2.00000
    226       1.4259      2.00000
    227       1.4264      2.00000
    228       1.4857      2.00000
    229       1.5143      2.00000
    230       1.5143      2.00000
    231       1.5910      2.00000
    232       2.0349      2.00000
    233       2.0349      2.00000
    234       2.2020      2.00000
    235       3.4154      0.00000
    236       3.4158      0.00000
    237       3.7299      0.00000
    238       3.7303      0.00000
    239       3.8319      0.00000
    240       3.8986      0.00000
    241       3.8994      0.00000
    242       3.9097      0.00000
    243       3.9097      0.00000
    244       4.0301      0.00000
    245       4.0307      0.00000
    246       4.0539      0.00000
    247       4.1009      0.00000
    248       4.1238      0.00000
    249       4.1244      0.00000
    250       4.1981      0.00000
    251       4.2554      0.00000
    252       4.2598      0.00000
    253       4.2714      0.00000
    254       4.2720      0.00000
    255       4.3125      0.00000
    256       4.3397      0.00000
    257       4.3400      0.00000
    258       4.4165      0.00000
    259       4.4182      0.00000
    260       4.4189      0.00000
    261       4.4704      0.00000
    262       4.4706      0.00000
    263       4.4827      0.00000
    264       4.4878      0.00000
    265       4.5325      0.00000
    266       4.5340      0.00000
    267       4.5347      0.00000
    268       4.5353      0.00000
    269       4.6992      0.00000
    270       4.7661      0.00000
    271       4.7665      0.00000
    272       4.9352      0.00000
    273       5.0556      0.00000
    274       5.0987      0.00000
    275       5.0988      0.00000
    276       5.1119      0.00000
    277       5.1130      0.00000
    278       5.1545      0.00000
    279       5.2220      0.00000
    280       5.2222      0.00000
    281       5.2276      0.00000
    282       5.2504      0.00000
    283       5.2870      0.00000
    284       5.2901      0.00000
    285       5.3045      0.00000
    286       5.3683      0.00000

 k-point     3 :       0.2000    0.2000    0.0000
  band No.  band energies     occupation 
      1     -72.4546      2.00000
      2     -72.4486      2.00000
      3     -72.4471      2.00000
      4     -72.4470      2.00000
      5     -72.4451      2.00000
      6     -72.4448      2.00000
      7     -72.4440      2.00000
      8     -72.4417      2.00000
      9     -72.4413      2.00000
     10     -58.6492      2.00000
     11     -58.6350      2.00000
     12     -58.6316      2.00000
     13     -58.6315      2.00000
     14     -58.6266      2.00000
     15     -58.6266      2.00000
     16     -58.6250      2.00000
     17     -58.6195      2.00000
     18     -58.6194      2.00000
     19     -36.8018      2.00000
     20     -36.7824      2.00000
     21     -36.7820      2.00000
     22     -36.7772      2.00000
     23     -36.7767      2.00000
     24     -36.7379      2.00000
     25     -36.7375      2.00000
     26     -36.7105      2.00000
     27     -36.7102      2.00000
     28     -36.7101      2.00000
     29     -36.6383      2.00000
     30     -36.6222      2.00000
     31     -36.6219      2.00000
     32     -36.6201      2.00000
     33     -36.6140      2.00000
     34     -36.6100      2.00000
     35     -36.6096      2.00000
     36     -36.6082      2.00000
     37     -36.6082      2.00000
     38     -36.5998      2.00000
     39     -36.5997      2.00000
     40     -36.5981      2.00000
     41     -36.5970      2.00000
     42     -36.5875      2.00000
     43     -36.5875      2.00000
     44     -36.5751      2.00000
     45     -36.5662      2.00000
     46     -32.8751      2.00000
     47     -32.8532      2.00000
     48     -32.8531      2.00000
     49     -32.8469      2.00000
     50     -32.8469      2.00000
     51     -32.8347      2.00000
     52     -32.8033      2.00000
     53     -32.8033      2.00000
     54     -32.8029      2.00000
     55     -32.7953      2.00000
     56     -32.7953      2.00000
     57     -32.7842      2.00000
     58     -32.7842      2.00000
     59     -32.7807      2.00000
     60     -32.7726      2.00000
     61     -32.7713      2.00000
     62     -32.7713      2.00000
     63     -32.7683      2.00000
     64     -32.7682      2.00000
     65     -32.6725      2.00000
     66     -32.6725      2.00000
     67     -32.6702      2.00000
     68     -32.6592      2.00000
     69     -32.6591      2.00000
     70     -32.6463      2.00000
     71     -32.6214      2.00000
     72     -32.6114      2.00000
     73     -12.8792      2.00000
     74     -12.1837      2.00000
     75     -12.0062      2.00000
     76     -11.7727      2.00000
     77     -11.7694      2.00000
     78     -11.3993      2.00000
     79     -11.3959      2.00000
     80     -11.3520      2.00000
     81     -11.3334      2.00000
     82     -11.2678      2.00000
     83     -11.1098      2.00000
     84     -11.1047      2.00000
     85     -11.1044      2.00000
     86     -10.9717      2.00000
     87     -10.8754      2.00000
     88     -10.8742      2.00000
     89     -10.8123      2.00000
     90     -10.8087      2.00000
     91     -10.8012      2.00000
     92     -10.8001      2.00000
     93     -10.7418      2.00000
     94     -10.7025      2.00000
     95     -10.6625      2.00000
     96     -10.6623      2.00000
     97     -10.5809      2.00000
     98     -10.5809      2.00000
     99     -10.5437      2.00000
    100     -10.5406      2.00000
    101     -10.5384      2.00000
    102     -10.3833      2.00000
    103     -10.3833      2.00000
    104     -10.3161      2.00000
    105     -10.0892      2.00000
    106     -10.0892      2.00000
    107     -10.0345      2.00000
    108     -10.0345      2.00000
    109      -4.5139      2.00000
    110      -4.4111      2.00000
    111      -4.1911      2.00000
    112      -4.1906      2.00000
    113      -3.8478      2.00000
    114      -3.8473      2.00000
    115      -3.8308      2.00000
    116      -3.8298      2.00000
    117      -3.8053      2.00000
    118      -3.8041      2.00000
    119      -3.7828      2.00000
    120      -3.3698      2.00000
    121      -3.2997      2.00000
    122      -3.1377      2.00000
    123      -3.1374      2.00000
    124      -3.1006      2.00000
    125      -3.0172      2.00000
    126      -3.0158      2.00000
    127      -2.9948      2.00000
    128      -2.9947      2.00000
    129      -2.9844      2.00000
    130      -2.9598      2.00000
    131      -2.9597      2.00000
    132      -2.8727      2.00000
    133      -2.8726      2.00000
    134      -2.8155      2.00000
    135      -2.7767      2.00000
    136      -2.7764      2.00000
    137      -2.6536      2.00000
    138      -2.6533      2.00000
    139      -2.6067      2.00000
    140      -2.5190      2.00000
    141      -2.5179      2.00000
    142      -2.4525      2.00000
    143      -2.4515      2.00000
    144      -2.4326      2.00000
    145      -2.2560      2.00000
    146      -2.2558      2.00000
    147      -2.1962      2.00000
    148      -2.1304      2.00000
    149      -2.1284      2.00000
    150      -1.7632      2.00000
    151      -1.7627      2.00000
    152      -1.7559      2.00000
    153      -1.7557      2.00000
    154      -1.7466      2.00000
    155      -1.7453      2.00000
    156      -1.7114      2.00000
    157      -1.7111      2.00000
    158      -1.6947      2.00000
    159      -1.6918      2.00000
    160      -1.6031      2.00000
    161      -1.5705      2.00000
    162      -1.5700      2.00000
    163      -1.5426      2.00000
    164      -1.5420      2.00000
    165      -1.5337      2.00000
    166      -1.4460      2.00000
    167      -1.4368      2.00000
    168      -1.4358      2.00000
    169      -1.2864      2.00000
    170      -1.2109      2.00000
    171      -1.1118      2.00000
    172      -1.1117      2.00000
    173      -0.9984      2.00000
    174      -0.9982      2.00000
    175      -0.8459      2.00000
    176      -0.6100      2.00000
    177      -0.6099      2.00000
    178      -0.4961      2.00000
    179      -0.4949      2.00000
    180      -0.4931      2.00000
    181      -0.4751      2.00000
    182      -0.4053      2.00000
    183      -0.4046      2.00000
    184      -0.4019      2.00000
    185      -0.4002      2.00000
    186      -0.3177      2.00000
    187      -0.3158      2.00000
    188      -0.2584      2.00000
    189      -0.2572      2.00000
    190      -0.1745      2.00000
    191      -0.1140      2.00000
    192      -0.1129      2.00000
    193      -0.0733      2.00000
    194       0.0251      2.00000
    195       0.0252      2.00000
    196       0.0258      2.00000
    197       0.0378      2.00000
    198       0.0569      2.00000
    199       0.0936      2.00000
    200       0.0957      2.00000
    201       0.1593      2.00000
    202       0.1689      2.00000
    203       0.3642      2.00000
    204       0.3646      2.00000
    205       0.4899      2.00000
    206       0.6170      2.00000
    207       0.6175      2.00000
    208       0.6201      2.00000
    209       0.6553      2.00000
    210       0.6681      2.00000
    211       0.6697      2.00000
    212       0.7377      2.00000
    213       0.7379      2.00000
    214       0.8151      2.00000
    215       0.8152      2.00000
    216       0.8238      2.00000
    217       0.8242      2.00000
    218       0.8436      2.00000
    219       0.9565      2.00000
    220       0.9956      2.00000
    221       1.1863      2.00000
    222       1.1914      2.00000
    223       1.1947      2.00000
    224       1.3366      2.00000
    225       1.3367      2.00000
    226       1.4258      2.00000
    227       1.4265      2.00000
    228       1.4857      2.00000
    229       1.5143      2.00000
    230       1.5143      2.00000
    231       1.5910      2.00000
    232       2.0349      2.00000
    233       2.0349      2.00000
    234       2.2021      2.00000
    235       3.4155      0.00000
    236       3.4157      0.00000
    237       3.7303      0.00000
    238       3.7305      0.00000
    239       3.8320      0.00000
    240       3.8985      0.00000
    241       3.8992      0.00000
    242       3.9097      0.00000
    243       3.9097      0.00000
    244       4.0302      0.00000
    245       4.0308      0.00000
    246       4.0536      0.00000
    247       4.1010      0.00000
    248       4.1238      0.00000
    249       4.1245      0.00000
    250       4.1981      0.00000
    251       4.2551      0.00000
    252       4.2597      0.00000
    253       4.2713      0.00000
    254       4.2720      0.00000
    255       4.3104      0.00000
    256       4.3398      0.00000
    257       4.3401      0.00000
    258       4.4165      0.00000
    259       4.4182      0.00000
    260       4.4189      0.00000
    261       4.4706      0.00000
    262       4.4708      0.00000
    263       4.4836      0.00000
    264       4.4886      0.00000
    265       4.5326      0.00000
    266       4.5340      0.00000
    267       4.5348      0.00000
    268       4.5354      0.00000
    269       4.6986      0.00000
    270       4.7661      0.00000
    271       4.7668      0.00000
    272       4.9352      0.00000
    273       5.0556      0.00000
    274       5.0987      0.00000
    275       5.0987      0.00000
    276       5.1119      0.00000
    277       5.1141      0.00000
    278       5.1544      0.00000
    279       5.2215      0.00000
    280       5.2220      0.00000
    281       5.2276      0.00000
    282       5.2504      0.00000
    283       5.2884      0.00000
    284       5.2908      0.00000
    285       5.3036      0.00000
    286       5.3677      0.00000

 k-point     4 :       0.0000    0.2000    0.0000
  band No.  band energies     occupation 
      1     -72.4546      2.00000
      2     -72.4486      2.00000
      3     -72.4472      2.00000
      4     -72.4469      2.00000
      5     -72.4451      2.00000
      6     -72.4448      2.00000
      7     -72.4440      2.00000
      8     -72.4417      2.00000
      9     -72.4413      2.00000
     10     -58.6492      2.00000
     11     -58.6350      2.00000
     12     -58.6316      2.00000
     13     -58.6315      2.00000
     14     -58.6266      2.00000
     15     -58.6266      2.00000
     16     -58.6250      2.00000
     17     -58.6195      2.00000
     18     -58.6194      2.00000
     19     -36.8018      2.00000
     20     -36.7824      2.00000
     21     -36.7820      2.00000
     22     -36.7772      2.00000
     23     -36.7767      2.00000
     24     -36.7379      2.00000
     25     -36.7375      2.00000
     26     -36.7105      2.00000
     27     -36.7102      2.00000
     28     -36.7101      2.00000
     29     -36.6383      2.00000
     30     -36.6222      2.00000
     31     -36.6219      2.00000
     32     -36.6201      2.00000
     33     -36.6140      2.00000
     34     -36.6100      2.00000
     35     -36.6097      2.00000
     36     -36.6082      2.00000
     37     -36.6082      2.00000
     38     -36.5998      2.00000
     39     -36.5997      2.00000
     40     -36.5981      2.00000
     41     -36.5970      2.00000
     42     -36.5875      2.00000
     43     -36.5875      2.00000
     44     -36.5751      2.00000
     45     -36.5662      2.00000
     46     -32.8751      2.00000
     47     -32.8532      2.00000
     48     -32.8531      2.00000
     49     -32.8469      2.00000
     50     -32.8469      2.00000
     51     -32.8347      2.00000
     52     -32.8033      2.00000
     53     -32.8033      2.00000
     54     -32.8029      2.00000
     55     -32.7953      2.00000
     56     -32.7953      2.00000
     57     -32.7842      2.00000
     58     -32.7842      2.00000
     59     -32.7807      2.00000
     60     -32.7726      2.00000
     61     -32.7713      2.00000
     62     -32.7713      2.00000
     63     -32.7683      2.00000
     64     -32.7682      2.00000
     65     -32.6725      2.00000
     66     -32.6725      2.00000
     67     -32.6702      2.00000
     68     -32.6592      2.00000
     69     -32.6591      2.00000
     70     -32.6463      2.00000
     71     -32.6214      2.00000
     72     -32.6114      2.00000
     73     -12.8792      2.00000
     74     -12.1837      2.00000
     75     -12.0061      2.00000
     76     -11.7730      2.00000
     77     -11.7693      2.00000
     78     -11.3994      2.00000
     79     -11.3958      2.00000
     80     -11.3520      2.00000
     81     -11.3334      2.00000
     82     -11.2677      2.00000
     83     -11.1098      2.00000
     84     -11.1047      2.00000
     85     -11.1044      2.00000
     86     -10.9718      2.00000
     87     -10.8753      2.00000
     88     -10.8741      2.00000
     89     -10.8123      2.00000
     90     -10.8087      2.00000
     91     -10.8012      2.00000
     92     -10.8001      2.00000
     93     -10.7420      2.00000
     94     -10.7025      2.00000
     95     -10.6625      2.00000
     96     -10.6623      2.00000
     97     -10.5809      2.00000
     98     -10.5809      2.00000
     99     -10.5437      2.00000
    100     -10.5406      2.00000
    101     -10.5384      2.00000
    102     -10.3833      2.00000
    103     -10.3833      2.00000
    104     -10.3161      2.00000
    105     -10.0892      2.00000
    106     -10.0892      2.00000
    107     -10.0345      2.00000
    108     -10.0345      2.00000
    109      -4.5139      2.00000
    110      -4.4112      2.00000
    111      -4.1911      2.00000
    112      -4.1904      2.00000
    113      -3.8479      2.00000
    114      -3.8471      2.00000
    115      -3.8307      2.00000
    116      -3.8299      2.00000
    117      -3.8058      2.00000
    118      -3.8036      2.00000
    119      -3.7827      2.00000
    120      -3.3698      2.00000
    121      -3.2996      2.00000
    122      -3.1376      2.00000
    123      -3.1374      2.00000
    124      -3.1005      2.00000
    125      -3.0171      2.00000
    126      -3.0159      2.00000
    127      -2.9948      2.00000
    128      -2.9947      2.00000
    129      -2.9843      2.00000
    130      -2.9599      2.00000
    131      -2.9595      2.00000
    132      -2.8728      2.00000
    133      -2.8726      2.00000
    134      -2.8153      2.00000
    135      -2.7773      2.00000
    136      -2.7761      2.00000
    137      -2.6538      2.00000
    138      -2.6531      2.00000
    139      -2.6067      2.00000
    140      -2.5191      2.00000
    141      -2.5180      2.00000
    142      -2.4526      2.00000
    143      -2.4517      2.00000
    144      -2.4325      2.00000
    145      -2.2560      2.00000
    146      -2.2558      2.00000
    147      -2.1964      2.00000
    148      -2.1302      2.00000
    149      -2.1284      2.00000
    150      -1.7637      2.00000
    151      -1.7626      2.00000
    152      -1.7559      2.00000
    153      -1.7558      2.00000
    154      -1.7466      2.00000
    155      -1.7455      2.00000
    156      -1.7115      2.00000
    157      -1.7111      2.00000
    158      -1.6947      2.00000
    159      -1.6914      2.00000
    160      -1.6031      2.00000
    161      -1.5710      2.00000
    162      -1.5699      2.00000
    163      -1.5427      2.00000
    164      -1.5419      2.00000
    165      -1.5334      2.00000
    166      -1.4460      2.00000
    167      -1.4370      2.00000
    168      -1.4355      2.00000
    169      -1.2866      2.00000
    170      -1.2103      2.00000
    171      -1.1118      2.00000
    172      -1.1117      2.00000
    173      -0.9984      2.00000
    174      -0.9982      2.00000
    175      -0.8462      2.00000
    176      -0.6100      2.00000
    177      -0.6099      2.00000
    178      -0.4961      2.00000
    179      -0.4950      2.00000
    180      -0.4930      2.00000
    181      -0.4751      2.00000
    182      -0.4054      2.00000
    183      -0.4046      2.00000
    184      -0.4018      2.00000
    185      -0.4002      2.00000
    186      -0.3178      2.00000
    187      -0.3153      2.00000
    188      -0.2579      2.00000
    189      -0.2570      2.00000
    190      -0.1750      2.00000
    191      -0.1140      2.00000
    192      -0.1125      2.00000
    193      -0.0733      2.00000
    194       0.0251      2.00000
    195       0.0252      2.00000
    196       0.0258      2.00000
    197       0.0379      2.00000
    198       0.0570      2.00000
    199       0.0935      2.00000
    200       0.0955      2.00000
    201       0.1593      2.00000
    202       0.1687      2.00000
    203       0.3642      2.00000
    204       0.3646      2.00000
    205       0.4898      2.00000
    206       0.6171      2.00000
    207       0.6178      2.00000
    208       0.6197      2.00000
    209       0.6551      2.00000
    210       0.6682      2.00000
    211       0.6697      2.00000
    212       0.7378      2.00000
    213       0.7380      2.00000
    214       0.8151      2.00000
    215       0.8154      2.00000
    216       0.8238      2.00000
    217       0.8242      2.00000
    218       0.8432      2.00000
    219       0.9565      2.00000
    220       0.9956      2.00000
    221       1.1863      2.00000
    222       1.1914      2.00000
    223       1.1947      2.00000
    224       1.3366      2.00000
    225       1.3367      2.00000
    226       1.4258      2.00000
    227       1.4265      2.00000
    228       1.4857      2.00000
    229       1.5143      2.00000
    230       1.5143      2.00000
    231       1.5910      2.00000
    232       2.0349      2.00000
    233       2.0349      2.00000
    234       2.2020      2.00000
    235       3.4154      0.00000
    236       3.4158      0.00000
    237       3.7300      0.00000
    238       3.7305      0.00000
    239       3.8319      0.00000
    240       3.8985      0.00000
    241       3.8993      0.00000
    242       3.9097      0.00000
    243       3.9097      0.00000
    244       4.0302      0.00000
    245       4.0308      0.00000
    246       4.0538      0.00000
    247       4.1009      0.00000
    248       4.1238      0.00000
    249       4.1245      0.00000
    250       4.1981      0.00000
    251       4.2553      0.00000
    252       4.2597      0.00000
    253       4.2713      0.00000
    254       4.2721      0.00000
    255       4.3114      0.00000
    256       4.3398      0.00000
    257       4.3400      0.00000
    258       4.4165      0.00000
    259       4.4181      0.00000
    260       4.4189      0.00000
    261       4.4705      0.00000
    262       4.4707      0.00000
    263       4.4831      0.00000
    264       4.4883      0.00000
    265       4.5325      0.00000
    266       4.5340      0.00000
    267       4.5347      0.00000
    268       4.5354      0.00000
    269       4.6989      0.00000
    270       4.7659      0.00000
    271       4.7668      0.00000
    272       4.9352      0.00000
    273       5.0556      0.00000
    274       5.0987      0.00000
    275       5.0988      0.00000
    276       5.1119      0.00000
    277       5.1136      0.00000
    278       5.1544      0.00000
    279       5.2218      0.00000
    280       5.2221      0.00000
    281       5.2276      0.00000
    282       5.2504      0.00000
    283       5.2877      0.00000
    284       5.2928      0.00000
    285       5.3040      0.00000
    286       5.3682      0.00000

 k-point     5 :       0.4000    0.0000    0.0000
  band No.  band energies     occupation 
      1     -72.4532      2.00000
      2     -72.4510      2.00000
      3     -72.4477      2.00000
      4     -72.4473      2.00000
      5     -72.4439      2.00000
      6     -72.4439      2.00000
      7     -72.4433      2.00000
      8     -72.4423      2.00000
      9     -72.4416      2.00000
     10     -58.6458      2.00000
     11     -58.6408      2.00000
     12     -58.6328      2.00000
     13     -58.6327      2.00000
     14     -58.6237      2.00000
     15     -58.6237      2.00000
     16     -58.6227      2.00000
     17     -58.6212      2.00000
     18     -58.6211      2.00000
     19     -36.8236      2.00000
     20     -36.7931      2.00000
     21     -36.7927      2.00000
     22     -36.7913      2.00000
     23     -36.7909      2.00000
     24     -36.7198      2.00000
     25     -36.7195      2.00000
     26     -36.6763      2.00000
     27     -36.6761      2.00000
     28     -36.6558      2.00000
     29     -36.6450      2.00000
     30     -36.6448      2.00000
     31     -36.6325      2.00000
     32     -36.6253      2.00000
     33     -36.6239      2.00000
     34     -36.6144      2.00000
     35     -36.6142      2.00000
     36     -36.6102      2.00000
     37     -36.6102      2.00000
     38     -36.6079      2.00000
     39     -36.5949      2.00000
     40     -36.5948      2.00000
     41     -36.5930      2.00000
     42     -36.5904      2.00000
     43     -36.5903      2.00000
     44     -36.5852      2.00000
     45     -36.5739      2.00000
     46     -32.8994      2.00000
     47     -32.8650      2.00000
     48     -32.8650      2.00000
     49     -32.8628      2.00000
     50     -32.8628      2.00000
     51     -32.8271      2.00000
     52     -32.8158      2.00000
     53     -32.7980      2.00000
     54     -32.7979      2.00000
     55     -32.7832      2.00000
     56     -32.7831      2.00000
     57     -32.7778      2.00000
     58     -32.7777      2.00000
     59     -32.7754      2.00000
     60     -32.7721      2.00000
     61     -32.7720      2.00000
     62     -32.7331      2.00000
     63     -32.7331      2.00000
     64     -32.7117      2.00000
     65     -32.6981      2.00000
     66     -32.6981      2.00000
     67     -32.6760      2.00000
     68     -32.6643      2.00000
     69     -32.6643      2.00000
     70     -32.6581      2.00000
     71     -32.6321      2.00000
     72     -32.6198      2.00000
     73     -12.6840      2.00000
     74     -12.3812      2.00000
     75     -11.9958      2.00000
     76     -11.8587      2.00000
     77     -11.8550      2.00000
     78     -11.7016      2.00000
     79     -11.2616      2.00000
     80     -11.1886      2.00000
     81     -11.1883      2.00000
     82     -11.1674      2.00000
     83     -11.1638      2.00000
     84     -11.1276      2.00000
     85     -11.0629      2.00000
     86     -11.0253      2.00000
     87     -10.9577      2.00000
     88     -10.9543      2.00000
     89     -10.9086      2.00000
     90     -10.9079      2.00000
     91     -10.8866      2.00000
     92     -10.6923      2.00000
     93     -10.6905      2.00000
     94     -10.6662      2.00000
     95     -10.6239      2.00000
     96     -10.6239      2.00000
     97     -10.6034      2.00000
     98     -10.6015      2.00000
     99     -10.4461      2.00000
    100     -10.4461      2.00000
    101     -10.3381      2.00000
    102     -10.2523      2.00000
    103     -10.2523      2.00000
    104     -10.2361      2.00000
    105     -10.2361      2.00000
    106     -10.2069      2.00000
    107     -10.1275      2.00000
    108     -10.1275      2.00000
    109      -4.6386      2.00000
    110      -4.2898      2.00000
    111      -4.2187      2.00000
    112      -4.2180      2.00000
    113      -4.0893      2.00000
    114      -4.0885      2.00000
    115      -3.9781      2.00000
    116      -3.6676      2.00000
    117      -3.6668      2.00000
    118      -3.6648      2.00000
    119      -3.5882      2.00000
    120      -3.5871      2.00000
    121      -3.2854      2.00000
    122      -3.2744      2.00000
    123      -3.2733      2.00000
    124      -3.1835      2.00000
    125      -3.1834      2.00000
    126      -3.1275      2.00000
    127      -3.1274      2.00000
    128      -3.0837      2.00000
    129      -3.0259      2.00000
    130      -3.0224      2.00000
    131      -2.9258      2.00000
    132      -2.8261      2.00000
    133      -2.8259      2.00000
    134      -2.8077      2.00000
    135      -2.7554      2.00000
    136      -2.7540      2.00000
    137      -2.5887      2.00000
    138      -2.5365      2.00000
    139      -2.5333      2.00000
    140      -2.5330      2.00000
    141      -2.5164      2.00000
    142      -2.5149      2.00000
    143      -2.4496      2.00000
    144      -2.4488      2.00000
    145      -2.2580      2.00000
    146      -2.2574      2.00000
    147      -1.9909      2.00000
    148      -1.8705      2.00000
    149      -1.8687      2.00000
    150      -1.8485      2.00000
    151      -1.8469      2.00000
    152      -1.7940      2.00000
    153      -1.7856      2.00000
    154      -1.7844      2.00000
    155      -1.7171      2.00000
    156      -1.7166      2.00000
    157      -1.5751      2.00000
    158      -1.5748      2.00000
    159      -1.5274      2.00000
    160      -1.5262      2.00000
    161      -1.5107      2.00000
    162      -1.5103      2.00000
    163      -1.4426      2.00000
    164      -1.4422      2.00000
    165      -1.3494      2.00000
    166      -1.3490      2.00000
    167      -1.2528      2.00000
    168      -1.1033      2.00000
    169      -1.0989      2.00000
    170      -0.9896      2.00000
    171      -0.9894      2.00000
    172      -0.9511      2.00000
    173      -0.9507      2.00000
    174      -0.9007      2.00000
    175      -0.8752      2.00000
    176      -0.8158      2.00000
    177      -0.7842      2.00000
    178      -0.7828      2.00000
    179      -0.7781      2.00000
    180      -0.7766      2.00000
    181      -0.6792      2.00000
    182      -0.6774      2.00000
    183      -0.5815      2.00000
    184      -0.5433      2.00000
    185      -0.5431      2.00000
    186      -0.5295      2.00000
    187      -0.5224      2.00000
    188      -0.4421      2.00000
    189      -0.3024      2.00000
    190      -0.2543      2.00000
    191      -0.2528      2.00000
    192      -0.1545      2.00000
    193      -0.1527      2.00000
    194       0.0876      2.00000
    195       0.1525      2.00000
    196       0.2230      2.00000
    197       0.2231      2.00000
    198       0.2264      2.00000
    199       0.2265      2.00000
    200       0.2767      2.00000
    201       0.3119      2.00000
    202       0.3132      2.00000
    203       0.3463      2.00000
    204       0.3623      2.00000
    205       0.3624      2.00000
    206       0.3698      2.00000
    207       0.4198      2.00000
    208       0.4914      2.00000
    209       0.4917      2.00000
    210       0.6285      2.00000
    211       0.7197      2.00000
    212       0.7600      2.00000
    213       0.8199      2.00000
    214       0.8205      2.00000
    215       0.9113      2.00000
    216       0.9121      2.00000
    217       1.0026      2.00000
    218       1.0402      2.00000
    219       1.0403      2.00000
    220       1.1407      2.00000
    221       1.1410      2.00000
    222       1.2112      2.00000
    223       1.2578      2.00000
    224       1.3449      2.00000
    225       1.4044      2.00000
    226       1.4044      2.00000
    227       1.4808      2.00000
    228       1.5246      2.00000
    229       1.5942      2.00000
    230       1.6852      2.00000
    231       1.6852      2.00000
    232       1.8420      2.00000
    233       1.8420      2.00000
    234       1.8817      2.00000
    235       3.5377      0.00000
    236       3.5380      0.00000
    237       3.8432      0.00000
    238       3.8442      0.00000
    239       3.9207      0.00000
    240       3.9213      0.00000
    241       3.9218      0.00000
    242       3.9301      0.00000
    243       3.9307      0.00000
    244       4.0800      0.00000
    245       4.0800      0.00000
    246       4.1777      0.00000
    247       4.1797      0.00000
    248       4.2074      0.00000
    249       4.2086      0.00000
    250       4.2109      0.00000
    251       4.2224      0.00000
    252       4.2345      0.00000
    253       4.2775      0.00000
    254       4.2971      0.00000
    255       4.2983      0.00000
    256       4.3608      0.00000
    257       4.4310      0.00000
    258       4.4461      0.00000
    259       4.4467      0.00000
    260       4.4837      0.00000
    261       4.4842      0.00000
    262       4.4920      0.00000
    263       4.4929      0.00000
    264       4.5010      0.00000
    265       4.5294      0.00000
    266       4.5765      0.00000
    267       4.5766      0.00000
    268       4.6655      0.00000
    269       4.6658      0.00000
    270       4.6720      0.00000
    271       4.6829      0.00000
    272       4.7127      0.00000
    273       4.8158      0.00000
    274       4.8283      0.00000
    275       4.8413      0.00000
    276       4.8413      0.00000
    277       4.9221      0.00000
    278       4.9226      0.00000
    279       4.9509      0.00000
    280       4.9526      0.00000
    281       5.0082      0.00000
    282       5.0551      0.00000
    283       5.0561      0.00000
    284       5.2661      0.00000
    285       5.4298      0.00000
    286       5.4598      0.00000

 k-point     6 :       0.4000    0.4000    0.0000
  band No.  band energies     occupation 
      1     -72.4532      2.00000
      2     -72.4509      2.00000
      3     -72.4476      2.00000
      4     -72.4475      2.00000
      5     -72.4439      2.00000
      6     -72.4438      2.00000
      7     -72.4432      2.00000
      8     -72.4422      2.00000
      9     -72.4417      2.00000
     10     -58.6458      2.00000
     11     -58.6408      2.00000
     12     -58.6328      2.00000
     13     -58.6327      2.00000
     14     -58.6237      2.00000
     15     -58.6237      2.00000
     16     -58.6227      2.00000
     17     -58.6212      2.00000
     18     -58.6211      2.00000
     19     -36.8236      2.00000
     20     -36.7931      2.00000
     21     -36.7927      2.00000
     22     -36.7913      2.00000
     23     -36.7908      2.00000
     24     -36.7198      2.00000
     25     -36.7195      2.00000
     26     -36.6763      2.00000
     27     -36.6760      2.00000
     28     -36.6557      2.00000
     29     -36.6451      2.00000
     30     -36.6447      2.00000
     31     -36.6325      2.00000
     32     -36.6254      2.00000
     33     -36.6239      2.00000
     34     -36.6145      2.00000
     35     -36.6141      2.00000
     36     -36.6102      2.00000
     37     -36.6102      2.00000
     38     -36.6079      2.00000
     39     -36.5949      2.00000
     40     -36.5948      2.00000
     41     -36.5930      2.00000
     42     -36.5904      2.00000
     43     -36.5904      2.00000
     44     -36.5852      2.00000
     45     -36.5739      2.00000
     46     -32.8994      2.00000
     47     -32.8650      2.00000
     48     -32.8650      2.00000
     49     -32.8628      2.00000
     50     -32.8628      2.00000
     51     -32.8271      2.00000
     52     -32.8158      2.00000
     53     -32.7980      2.00000
     54     -32.7979      2.00000
     55     -32.7832      2.00000
     56     -32.7831      2.00000
     57     -32.7778      2.00000
     58     -32.7777      2.00000
     59     -32.7754      2.00000
     60     -32.7721      2.00000
     61     -32.7720      2.00000
     62     -32.7331      2.00000
     63     -32.7331      2.00000
     64     -32.7117      2.00000
     65     -32.6981      2.00000
     66     -32.6981      2.00000
     67     -32.6760      2.00000
     68     -32.6643      2.00000
     69     -32.6643      2.00000
     70     -32.6581      2.00000
     71     -32.6321      2.00000
     72     -32.6198      2.00000
     73     -12.6840      2.00000
     74     -12.3813      2.00000
     75     -11.9958      2.00000
     76     -11.8584      2.00000
     77     -11.8550      2.00000
     78     -11.7016      2.00000
     79     -11.2615      2.00000
     80     -11.1886      2.00000
     81     -11.1883      2.00000
     82     -11.1672      2.00000
     83     -11.1638      2.00000
     84     -11.1275      2.00000
     85     -11.0633      2.00000
     86     -11.0253      2.00000
     87     -10.9576      2.00000
     88     -10.9543      2.00000
     89     -10.9090      2.00000
     90     -10.9079      2.00000
     91     -10.8866      2.00000
     92     -10.6924      2.00000
     93     -10.6904      2.00000
     94     -10.6658      2.00000
     95     -10.6239      2.00000
     96     -10.6239      2.00000
     97     -10.6035      2.00000
     98     -10.6015      2.00000
     99     -10.4462      2.00000
    100     -10.4461      2.00000
    101     -10.3381      2.00000
    102     -10.2523      2.00000
    103     -10.2523      2.00000
    104     -10.2361      2.00000
    105     -10.2361      2.00000
    106     -10.2069      2.00000
    107     -10.1275      2.00000
    108     -10.1275      2.00000
    109      -4.6382      2.00000
    110      -4.2898      2.00000
    111      -4.2188      2.00000
    112      -4.2183      2.00000
    113      -4.0894      2.00000
    114      -4.0887      2.00000
    115      -3.9782      2.00000
    116      -3.6677      2.00000
    117      -3.6666      2.00000
    118      -3.6647      2.00000
    119      -3.5880      2.00000
    120      -3.5874      2.00000
    121      -3.2858      2.00000
    122      -3.2742      2.00000
    123      -3.2737      2.00000
    124      -3.1836      2.00000
    125      -3.1833      2.00000
    126      -3.1274      2.00000
    127      -3.1274      2.00000
    128      -3.0837      2.00000
    129      -3.0256      2.00000
    130      -3.0223      2.00000
    131      -2.9260      2.00000
    132      -2.8261      2.00000
    133      -2.8259      2.00000
    134      -2.8078      2.00000
    135      -2.7548      2.00000
    136      -2.7542      2.00000
    137      -2.5891      2.00000
    138      -2.5365      2.00000
    139      -2.5334      2.00000
    140      -2.5331      2.00000
    141      -2.5158      2.00000
    142      -2.5150      2.00000
    143      -2.4493      2.00000
    144      -2.4489      2.00000
    145      -2.2578      2.00000
    146      -2.2567      2.00000
    147      -1.9912      2.00000
    148      -1.8696      2.00000
    149      -1.8688      2.00000
    150      -1.8479      2.00000
    151      -1.8469      2.00000
    152      -1.7948      2.00000
    153      -1.7854      2.00000
    154      -1.7845      2.00000
    155      -1.7167      2.00000
    156      -1.7163      2.00000
    157      -1.5752      2.00000
    158      -1.5749      2.00000
    159      -1.5276      2.00000
    160      -1.5261      2.00000
    161      -1.5104      2.00000
    162      -1.5103      2.00000
    163      -1.4425      2.00000
    164      -1.4423      2.00000
    165      -1.3495      2.00000
    166      -1.3493      2.00000
    167      -1.2520      2.00000
    168      -1.1033      2.00000
    169      -1.0985      2.00000
    170      -0.9896      2.00000
    171      -0.9895      2.00000
    172      -0.9511      2.00000
    173      -0.9506      2.00000
    174      -0.9006      2.00000
    175      -0.8763      2.00000
    176      -0.8158      2.00000
    177      -0.7848      2.00000
    178      -0.7830      2.00000
    179      -0.7780      2.00000
    180      -0.7768      2.00000
    181      -0.6793      2.00000
    182      -0.6773      2.00000
    183      -0.5815      2.00000
    184      -0.5433      2.00000
    185      -0.5432      2.00000
    186      -0.5310      2.00000
    187      -0.5224      2.00000
    188      -0.4418      2.00000
    189      -0.3019      2.00000
    190      -0.2545      2.00000
    191      -0.2531      2.00000
    192      -0.1547      2.00000
    193      -0.1534      2.00000
    194       0.0878      2.00000
    195       0.1523      2.00000
    196       0.2230      2.00000
    197       0.2231      2.00000
    198       0.2264      2.00000
    199       0.2265      2.00000
    200       0.2766      2.00000
    201       0.3118      2.00000
    202       0.3141      2.00000
    203       0.3463      2.00000
    204       0.3623      2.00000
    205       0.3624      2.00000
    206       0.3698      2.00000
    207       0.4200      2.00000
    208       0.4913      2.00000
    209       0.4917      2.00000
    210       0.6285      2.00000
    211       0.7197      2.00000
    212       0.7609      2.00000
    213       0.8190      2.00000
    214       0.8197      2.00000
    215       0.9110      2.00000
    216       0.9126      2.00000
    217       1.0027      2.00000
    218       1.0401      2.00000
    219       1.0403      2.00000
    220       1.1403      2.00000
    221       1.1414      2.00000
    222       1.2112      2.00000
    223       1.2584      2.00000
    224       1.3449      2.00000
    225       1.4044      2.00000
    226       1.4044      2.00000
    227       1.4809      2.00000
    228       1.5248      2.00000
    229       1.5942      2.00000
    230       1.6852      2.00000
    231       1.6852      2.00000
    232       1.8420      2.00000
    233       1.8420      2.00000
    234       1.8819      2.00000
    235       3.5380      0.00000
    236       3.5382      0.00000
    237       3.8432      0.00000
    238       3.8441      0.00000
    239       3.9206      0.00000
    240       3.9215      0.00000
    241       3.9216      0.00000
    242       3.9305      0.00000
    243       3.9306      0.00000
    244       4.0800      0.00000
    245       4.0800      0.00000
    246       4.1778      0.00000
    247       4.1792      0.00000
    248       4.2073      0.00000
    249       4.2085      0.00000
    250       4.2110      0.00000
    251       4.2222      0.00000
    252       4.2337      0.00000
    253       4.2767      0.00000
    254       4.2966      0.00000
    255       4.2982      0.00000
    256       4.3600      0.00000
    257       4.4304      0.00000
    258       4.4461      0.00000
    259       4.4462      0.00000
    260       4.4839      0.00000
    261       4.4847      0.00000
    262       4.4923      0.00000
    263       4.4933      0.00000
    264       4.5010      0.00000
    265       4.5294      0.00000
    266       4.5766      0.00000
    267       4.5767      0.00000
    268       4.6656      0.00000
    269       4.6658      0.00000
    270       4.6721      0.00000
    271       4.6829      0.00000
    272       4.7127      0.00000
    273       4.8159      0.00000
    274       4.8300      0.00000
    275       4.8413      0.00000
    276       4.8413      0.00000
    277       4.9215      0.00000
    278       4.9223      0.00000
    279       4.9513      0.00000
    280       4.9528      0.00000
    281       5.0083      0.00000
    282       5.0554      0.00000
    283       5.0567      0.00000
    284       5.2692      0.00000
    285       5.4263      0.00000
    286       5.4601      0.00000

 k-point     7 :       0.0000    0.4000    0.0000
  band No.  band energies     occupation 
      1     -72.4532      2.00000
      2     -72.4510      2.00000
      3     -72.4477      2.00000
      4     -72.4474      2.00000
      5     -72.4439      2.00000
      6     -72.4438      2.00000
      7     -72.4433      2.00000
      8     -72.4422      2.00000
      9     -72.4416      2.00000
     10     -58.6458      2.00000
     11     -58.6408      2.00000
     12     -58.6328      2.00000
     13     -58.6327      2.00000
     14     -58.6237      2.00000
     15     -58.6237      2.00000
     16     -58.6227      2.00000
     17     -58.6212      2.00000
     18     -58.6211      2.00000
     19     -36.8236      2.00000
     20     -36.7931      2.00000
     21     -36.7927      2.00000
     22     -36.7913      2.00000
     23     -36.7908      2.00000
     24     -36.7199      2.00000
     25     -36.7195      2.00000
     26     -36.6763      2.00000
     27     -36.6760      2.00000
     28     -36.6558      2.00000
     29     -36.6450      2.00000
     30     -36.6448      2.00000
     31     -36.6325      2.00000
     32     -36.6254      2.00000
     33     -36.6239      2.00000
     34     -36.6144      2.00000
     35     -36.6141      2.00000
     36     -36.6102      2.00000
     37     -36.6102      2.00000
     38     -36.6079      2.00000
     39     -36.5949      2.00000
     40     -36.5948      2.00000
     41     -36.5930      2.00000
     42     -36.5904      2.00000
     43     -36.5903      2.00000
     44     -36.5852      2.00000
     45     -36.5739      2.00000
     46     -32.8994      2.00000
     47     -32.8650      2.00000
     48     -32.8650      2.00000
     49     -32.8628      2.00000
     50     -32.8628      2.00000
     51     -32.8271      2.00000
     52     -32.8158      2.00000
     53     -32.7980      2.00000
     54     -32.7979      2.00000
     55     -32.7832      2.00000
     56     -32.7831      2.00000
     57     -32.7778      2.00000
     58     -32.7777      2.00000
     59     -32.7754      2.00000
     60     -32.7721      2.00000
     61     -32.7720      2.00000
     62     -32.7331      2.00000
     63     -32.7331      2.00000
     64     -32.7117      2.00000
     65     -32.6981      2.00000
     66     -32.6981      2.00000
     67     -32.6760      2.00000
     68     -32.6643      2.00000
     69     -32.6643      2.00000
     70     -32.6581      2.00000
     71     -32.6321      2.00000
     72     -32.6198      2.00000
     73     -12.6840      2.00000
     74     -12.3813      2.00000
     75     -11.9958      2.00000
     76     -11.8586      2.00000
     77     -11.8549      2.00000
     78     -11.7016      2.00000
     79     -11.2615      2.00000
     80     -11.1886      2.00000
     81     -11.1883      2.00000
     82     -11.1673      2.00000
     83     -11.1638      2.00000
     84     -11.1276      2.00000
     85     -11.0631      2.00000
     86     -11.0253      2.00000
     87     -10.9577      2.00000
     88     -10.9543      2.00000
     89     -10.9089      2.00000
     90     -10.9078      2.00000
     91     -10.8866      2.00000
     92     -10.6924      2.00000
     93     -10.6904      2.00000
     94     -10.6660      2.00000
     95     -10.6239      2.00000
     96     -10.6239      2.00000
     97     -10.6035      2.00000
     98     -10.6015      2.00000
     99     -10.4462      2.00000
    100     -10.4461      2.00000
    101     -10.3381      2.00000
    102     -10.2523      2.00000
    103     -10.2523      2.00000
    104     -10.2361      2.00000
    105     -10.2361      2.00000
    106     -10.2069      2.00000
    107     -10.1275      2.00000
    108     -10.1275      2.00000
    109      -4.6384      2.00000
    110      -4.2898      2.00000
    111      -4.2190      2.00000
    112      -4.2179      2.00000
    113      -4.0897      2.00000
    114      -4.0882      2.00000
    115      -3.9782      2.00000
    116      -3.6677      2.00000
    117      -3.6667      2.00000
    118      -3.6648      2.00000
    119      -3.5881      2.00000
    120      -3.5872      2.00000
    121      -3.2856      2.00000
    122      -3.2743      2.00000
    123      -3.2735      2.00000
    124      -3.1836      2.00000
    125      -3.1834      2.00000
    126      -3.1275      2.00000
    127      -3.1274      2.00000
    128      -3.0837      2.00000
    129      -3.0258      2.00000
    130      -3.0223      2.00000
    131      -2.9259      2.00000
    132      -2.8261      2.00000
    133      -2.8259      2.00000
    134      -2.8077      2.00000
    135      -2.7551      2.00000
    136      -2.7541      2.00000
    137      -2.5889      2.00000
    138      -2.5365      2.00000
    139      -2.5335      2.00000
    140      -2.5329      2.00000
    141      -2.5161      2.00000
    142      -2.5149      2.00000
    143      -2.4494      2.00000
    144      -2.4489      2.00000
    145      -2.2581      2.00000
    146      -2.2569      2.00000
    147      -1.9911      2.00000
    148      -1.8702      2.00000
    149      -1.8686      2.00000
    150      -1.8482      2.00000
    151      -1.8469      2.00000
    152      -1.7943      2.00000
    153      -1.7855      2.00000
    154      -1.7844      2.00000
    155      -1.7168      2.00000
    156      -1.7166      2.00000
    157      -1.5752      2.00000
    158      -1.5749      2.00000
    159      -1.5281      2.00000
    160      -1.5255      2.00000
    161      -1.5106      2.00000
    162      -1.5103      2.00000
    163      -1.4426      2.00000
    164      -1.4422      2.00000
    165      -1.3495      2.00000
    166      -1.3491      2.00000
    167      -1.2524      2.00000
    168      -1.1033      2.00000
    169      -1.0987      2.00000
    170      -0.9896      2.00000
    171      -0.9895      2.00000
    172      -0.9513      2.00000
    173      -0.9504      2.00000
    174      -0.9006      2.00000
    175      -0.8758      2.00000
    176      -0.8158      2.00000
    177      -0.7848      2.00000
    178      -0.7827      2.00000
    179      -0.7781      2.00000
    180      -0.7767      2.00000
    181      -0.6793      2.00000
    182      -0.6773      2.00000
    183      -0.5815      2.00000
    184      -0.5433      2.00000
    185      -0.5431      2.00000
    186      -0.5303      2.00000
    187      -0.5224      2.00000
    188      -0.4419      2.00000
    189      -0.3021      2.00000
    190      -0.2545      2.00000
    191      -0.2530      2.00000
    192      -0.1546      2.00000
    193      -0.1530      2.00000
    194       0.0877      2.00000
    195       0.1524      2.00000
    196       0.2230      2.00000
    197       0.2231      2.00000
    198       0.2264      2.00000
    199       0.2265      2.00000
    200       0.2766      2.00000
    201       0.3118      2.00000
    202       0.3136      2.00000
    203       0.3463      2.00000
    204       0.3623      2.00000
    205       0.3624      2.00000
    206       0.3698      2.00000
    207       0.4199      2.00000
    208       0.4913      2.00000
    209       0.4917      2.00000
    210       0.6285      2.00000
    211       0.7197      2.00000
    212       0.7604      2.00000
    213       0.8193      2.00000
    214       0.8202      2.00000
    215       0.9110      2.00000
    216       0.9125      2.00000
    217       1.0026      2.00000
    218       1.0402      2.00000
    219       1.0403      2.00000
    220       1.1404      2.00000
    221       1.1413      2.00000
    222       1.2112      2.00000
    223       1.2581      2.00000
    224       1.3449      2.00000
    225       1.4044      2.00000
    226       1.4044      2.00000
    227       1.4808      2.00000
    228       1.5247      2.00000
    229       1.5942      2.00000
    230       1.6852      2.00000
    231       1.6852      2.00000
    232       1.8420      2.00000
    233       1.8420      2.00000
    234       1.8818      2.00000
    235       3.5377      0.00000
    236       3.5382      0.00000
    237       3.8431      0.00000
    238       3.8442      0.00000
    239       3.9206      0.00000
    240       3.9214      0.00000
    241       3.9217      0.00000
    242       3.9303      0.00000
    243       3.9306      0.00000
    244       4.0800      0.00000
    245       4.0800      0.00000
    246       4.1778      0.00000
    247       4.1794      0.00000
    248       4.2073      0.00000
    249       4.2085      0.00000
    250       4.2109      0.00000
    251       4.2224      0.00000
    252       4.2341      0.00000
    253       4.2771      0.00000
    254       4.2969      0.00000
    255       4.2983      0.00000
    256       4.3604      0.00000
    257       4.4307      0.00000
    258       4.4461      0.00000
    259       4.4464      0.00000
    260       4.4836      0.00000
    261       4.4846      0.00000
    262       4.4921      0.00000
    263       4.4931      0.00000
    264       4.5010      0.00000
    265       4.5294      0.00000
    266       4.5765      0.00000
    267       4.5767      0.00000
    268       4.6656      0.00000
    269       4.6658      0.00000
    270       4.6720      0.00000
    271       4.6829      0.00000
    272       4.7127      0.00000
    273       4.8158      0.00000
    274       4.8291      0.00000
    275       4.8413      0.00000
    276       4.8413      0.00000
    277       4.9220      0.00000
    278       4.9223      0.00000
    279       4.9510      0.00000
    280       4.9528      0.00000
    281       5.0083      0.00000
    282       5.0552      0.00000
    283       5.0565      0.00000
    284       5.2668      0.00000
    285       5.4310      0.00000
    286       5.4619      0.00000

 k-point     8 :       0.4000    0.2000    0.0000
  band No.  band energies     occupation 
      1     -72.4537      2.00000
      2     -72.4498      2.00000
      3     -72.4491      2.00000
      4     -72.4457      2.00000
      5     -72.4451      2.00000
      6     -72.4438      2.00000
      7     -72.4433      2.00000
      8     -72.4421      2.00000
      9     -72.4415      2.00000
     10     -58.6469      2.00000
     11     -58.6373      2.00000
     12     -58.6372      2.00000
     13     -58.6277      2.00000
     14     -58.6277      2.00000
     15     -58.6233      2.00000
     16     -58.6232      2.00000
     17     -58.6210      2.00000
     18     -58.6202      2.00000
     19     -36.8124      2.00000
     20     -36.8122      2.00000
     21     -36.7963      2.00000
     22     -36.7798      2.00000
     23     -36.7612      2.00000
     24     -36.7608      2.00000
     25     -36.6892      2.00000
     26     -36.6862      2.00000
     27     -36.6859      2.00000
     28     -36.6822      2.00000
     29     -36.6343      2.00000
     30     -36.6315      2.00000
     31     -36.6314      2.00000
     32     -36.6305      2.00000
     33     -36.6300      2.00000
     34     -36.6181      2.00000
     35     -36.6176      2.00000
     36     -36.6018      2.00000
     37     -36.6013      2.00000
     38     -36.5970      2.00000
     39     -36.5959      2.00000
     40     -36.5956      2.00000
     41     -36.5943      2.00000
     42     -36.5938      2.00000
     43     -36.5902      2.00000
     44     -36.5887      2.00000
     45     -36.5718      2.00000
     46     -32.8867      2.00000
     47     -32.8867      2.00000
     48     -32.8686      2.00000
     49     -32.8501      2.00000
     50     -32.8296      2.00000
     51     -32.8293      2.00000
     52     -32.8293      2.00000
     53     -32.8080      2.00000
     54     -32.8080      2.00000
     55     -32.7866      2.00000
     56     -32.7866      2.00000
     57     -32.7767      2.00000
     58     -32.7767      2.00000
     59     -32.7718      2.00000
     60     -32.7699      2.00000
     61     -32.7477      2.00000
     62     -32.7456      2.00000
     63     -32.7456      2.00000
     64     -32.7398      2.00000
     65     -32.6832      2.00000
     66     -32.6832      2.00000
     67     -32.6816      2.00000
     68     -32.6816      2.00000
     69     -32.6458      2.00000
     70     -32.6438      2.00000
     71     -32.6438      2.00000
     72     -32.6175      2.00000
     73     -12.7479      2.00000
     74     -12.1605      2.00000
     75     -12.1570      2.00000
     76     -12.0575      2.00000
     77     -11.4870      2.00000
     78     -11.4838      2.00000
     79     -11.4837      2.00000
     80     -11.4834      2.00000
     81     -11.2908      2.00000
     82     -11.1200      2.00000
     83     -11.1165      2.00000
     84     -11.0534      2.00000
     85     -11.0340      2.00000
     86     -11.0333      2.00000
     87     -10.9496      2.00000
     88     -10.8683      2.00000
     89     -10.8544      2.00000
     90     -10.8536      2.00000
     91     -10.7785      2.00000
     92     -10.7785      2.00000
     93     -10.7275      2.00000
     94     -10.7270      2.00000
     95     -10.6825      2.00000
     96     -10.6807      2.00000
     97     -10.5954      2.00000
     98     -10.5696      2.00000
     99     -10.4264      2.00000
    100     -10.4264      2.00000
    101     -10.3959      2.00000
    102     -10.3958      2.00000
    103     -10.2334      2.00000
    104     -10.2334      2.00000
    105     -10.2309      2.00000
    106     -10.1460      2.00000
    107     -10.1200      2.00000
    108     -10.0761      2.00000
    109      -4.4922      2.00000
    110      -4.4902      2.00000
    111      -4.3615      2.00000
    112      -4.1276      2.00000
    113      -3.9231      2.00000
    114      -3.9216      2.00000
    115      -3.9206      2.00000
    116      -3.7942      2.00000
    117      -3.7918      2.00000
    118      -3.7012      2.00000
    119      -3.6304      2.00000
    120      -3.4965      2.00000
    121      -3.4965      2.00000
    122      -3.2557      2.00000
    123      -3.2540      2.00000
    124      -3.1925      2.00000
    125      -3.1520      2.00000
    126      -2.9790      2.00000
    127      -2.9776      2.00000
    128      -2.9672      2.00000
    129      -2.9497      2.00000
    130      -2.8640      2.00000
    131      -2.8630      2.00000
    132      -2.8584      2.00000
    133      -2.8577      2.00000
    134      -2.8222      2.00000
    135      -2.8214      2.00000
    136      -2.7734      2.00000
    137      -2.6672      2.00000
    138      -2.6665      2.00000
    139      -2.6179      2.00000
    140      -2.6173      2.00000
    141      -2.5640      2.00000
    142      -2.5387      2.00000
    143      -2.5376      2.00000
    144      -2.4327      2.00000
    145      -2.0512      2.00000
    146      -2.0510      2.00000
    147      -1.9521      2.00000
    148      -1.9509      2.00000
    149      -1.9341      2.00000
    150      -1.8532      2.00000
    151      -1.8509      2.00000
    152      -1.8480      2.00000
    153      -1.8213      2.00000
    154      -1.8197      2.00000
    155      -1.8165      2.00000
    156      -1.7700      2.00000
    157      -1.6284      2.00000
    158      -1.6279      2.00000
    159      -1.5736      2.00000
    160      -1.5040      2.00000
    161      -1.5032      2.00000
    162      -1.4656      2.00000
    163      -1.4205      2.00000
    164      -1.4204      2.00000
    165      -1.3586      2.00000
    166      -1.2963      2.00000
    167      -1.2949      2.00000
    168      -1.1638      2.00000
    169      -1.1200      2.00000
    170      -1.0824      2.00000
    171      -1.0816      2.00000
    172      -1.0495      2.00000
    173      -0.9596      2.00000
    174      -0.9445      2.00000
    175      -0.9096      2.00000
    176      -0.9090      2.00000
    177      -0.7535      2.00000
    178      -0.7510      2.00000
    179      -0.6842      2.00000
    180      -0.6832      2.00000
    181      -0.6769      2.00000
    182      -0.6768      2.00000
    183      -0.5662      2.00000
    184      -0.4999      2.00000
    185      -0.3800      2.00000
    186      -0.3471      2.00000
    187      -0.3140      2.00000
    188      -0.2552      2.00000
    189      -0.2545      2.00000
    190      -0.2513      2.00000
    191      -0.2115      2.00000
    192      -0.2096      2.00000
    193      -0.1403      2.00000
    194      -0.1402      2.00000
    195       0.0651      2.00000
    196       0.0674      2.00000
    197       0.0969      2.00000
    198       0.1803      2.00000
    199       0.1805      2.00000
    200       0.2546      2.00000
    201       0.2807      2.00000
    202       0.2989      2.00000
    203       0.2993      2.00000
    204       0.3136      2.00000
    205       0.3162      2.00000
    206       0.4691      2.00000
    207       0.6491      2.00000
    208       0.6494      2.00000
    209       0.7165      2.00000
    210       0.7165      2.00000
    211       0.7408      2.00000
    212       0.8063      2.00000
    213       0.8080      2.00000
    214       0.8174      2.00000
    215       0.8185      2.00000
    216       0.9278      2.00000
    217       0.9282      2.00000
    218       0.9808      2.00000
    219       0.9823      2.00000
    220       1.0597      2.00000
    221       1.0600      2.00000
    222       1.1642      2.00000
    223       1.2690      2.00000
    224       1.2797      2.00000
    225       1.3500      2.00000
    226       1.3500      2.00000
    227       1.5232      2.00000
    228       1.5232      2.00000
    229       1.5561      2.00000
    230       1.6836      2.00000
    231       1.6836      2.00000
    232       1.8363      2.00000
    233       1.9519      2.00000
    234       1.9912      2.00000
    235       3.6493      0.00000
    236       3.6498      0.00000
    237       3.7083      0.00000
    238       3.7396      0.00000
    239       3.7403      0.00000
    240       3.7613      0.00000
    241       4.0341      0.00000
    242       4.0444      0.00000
    243       4.0465      0.00000
    244       4.0476      0.00000
    245       4.0596      0.00000
    246       4.0607      0.00000
    247       4.1137      0.00000
    248       4.1142      0.00000
    249       4.1904      0.00000
    250       4.1909      0.00000
    251       4.2353      0.00000
    252       4.2535      0.00000
    253       4.2550      0.00000
    254       4.2967      0.00000
    255       4.3823      0.00000
    256       4.3834      0.00000
    257       4.4213      0.00000
    258       4.4453      0.00000
    259       4.4461      0.00000
    260       4.4701      0.00000
    261       4.4705      0.00000
    262       4.4982      0.00000
    263       4.4986      0.00000
    264       4.5045      0.00000
    265       4.5048      0.00000
    266       4.5570      0.00000
    267       4.6156      0.00000
    268       4.6170      0.00000
    269       4.6404      0.00000
    270       4.7473      0.00000
    271       4.7556      0.00000
    272       4.7561      0.00000
    273       4.7604      0.00000
    274       4.7772      0.00000
    275       4.8269      0.00000
    276       4.8794      0.00000
    277       4.8800      0.00000
    278       4.9576      0.00000
    279       4.9615      0.00000
    280       5.0574      0.00000
    281       5.1216      0.00000
    282       5.2072      0.00000
    283       5.2077      0.00000
    284       5.3404      0.00000
    285       5.4017      0.00000
    286       5.4053      0.00000

 k-point     9 :       0.2000    0.4000    0.0000
  band No.  band energies     occupation 
      1     -72.4537      2.00000
      2     -72.4498      2.00000
      3     -72.4491      2.00000
      4     -72.4457      2.00000
      5     -72.4452      2.00000
      6     -72.4438      2.00000
      7     -72.4433      2.00000
      8     -72.4421      2.00000
      9     -72.4415      2.00000
     10     -58.6469      2.00000
     11     -58.6373      2.00000
     12     -58.6372      2.00000
     13     -58.6277      2.00000
     14     -58.6276      2.00000
     15     -58.6233      2.00000
     16     -58.6232      2.00000
     17     -58.6210      2.00000
     18     -58.6202      2.00000
     19     -36.8124      2.00000
     20     -36.8121      2.00000
     21     -36.7963      2.00000
     22     -36.7798      2.00000
     23     -36.7612      2.00000
     24     -36.7609      2.00000
     25     -36.6892      2.00000
     26     -36.6862      2.00000
     27     -36.6860      2.00000
     28     -36.6822      2.00000
     29     -36.6343      2.00000
     30     -36.6315      2.00000
     31     -36.6314      2.00000
     32     -36.6304      2.00000
     33     -36.6300      2.00000
     34     -36.6181      2.00000
     35     -36.6176      2.00000
     36     -36.6018      2.00000
     37     -36.6013      2.00000
     38     -36.5969      2.00000
     39     -36.5959      2.00000
     40     -36.5957      2.00000
     41     -36.5943      2.00000
     42     -36.5938      2.00000
     43     -36.5902      2.00000
     44     -36.5887      2.00000
     45     -36.5718      2.00000
     46     -32.8868      2.00000
     47     -32.8867      2.00000
     48     -32.8686      2.00000
     49     -32.8501      2.00000
     50     -32.8296      2.00000
     51     -32.8293      2.00000
     52     -32.8293      2.00000
     53     -32.8080      2.00000
     54     -32.8080      2.00000
     55     -32.7866      2.00000
     56     -32.7866      2.00000
     57     -32.7767      2.00000
     58     -32.7767      2.00000
     59     -32.7718      2.00000
     60     -32.7699      2.00000
     61     -32.7477      2.00000
     62     -32.7456      2.00000
     63     -32.7456      2.00000
     64     -32.7398      2.00000
     65     -32.6832      2.00000
     66     -32.6832      2.00000
     67     -32.6816      2.00000
     68     -32.6816      2.00000
     69     -32.6458      2.00000
     70     -32.6438      2.00000
     71     -32.6438      2.00000
     72     -32.6175      2.00000
     73     -12.7479      2.00000
     74     -12.1606      2.00000
     75     -12.1569      2.00000
     76     -12.0575      2.00000
     77     -11.4868      2.00000
     78     -11.4838      2.00000
     79     -11.4837      2.00000
     80     -11.4834      2.00000
     81     -11.2908      2.00000
     82     -11.1202      2.00000
     83     -11.1165      2.00000
     84     -11.0534      2.00000
     85     -11.0341      2.00000
     86     -11.0332      2.00000
     87     -10.9496      2.00000
     88     -10.8682      2.00000
     89     -10.8546      2.00000
     90     -10.8535      2.00000
     91     -10.7785      2.00000
     92     -10.7785      2.00000
     93     -10.7276      2.00000
     94     -10.7269      2.00000
     95     -10.6823      2.00000
     96     -10.6808      2.00000
     97     -10.5953      2.00000
     98     -10.5698      2.00000
     99     -10.4264      2.00000
    100     -10.4264      2.00000
    101     -10.3959      2.00000
    102     -10.3958      2.00000
    103     -10.2334      2.00000
    104     -10.2334      2.00000
    105     -10.2309      2.00000
    106     -10.1460      2.00000
    107     -10.1200      2.00000
    108     -10.0761      2.00000
    109      -4.4923      2.00000
    110      -4.4899      2.00000
    111      -4.3615      2.00000
    112      -4.1277      2.00000
    113      -3.9234      2.00000
    114      -3.9215      2.00000
    115      -3.9204      2.00000
    116      -3.7943      2.00000
    117      -3.7918      2.00000
    118      -3.7010      2.00000
    119      -3.6306      2.00000
    120      -3.4965      2.00000
    121      -3.4965      2.00000
    122      -3.2561      2.00000
    123      -3.2540      2.00000
    124      -3.1925      2.00000
    125      -3.1520      2.00000
    126      -2.9790      2.00000
    127      -2.9776      2.00000
    128      -2.9672      2.00000
    129      -2.9497      2.00000
    130      -2.8644      2.00000
    131      -2.8628      2.00000
    132      -2.8583      2.00000
    133      -2.8578      2.00000
    134      -2.8224      2.00000
    135      -2.8208      2.00000
    136      -2.7734      2.00000
    137      -2.6672      2.00000
    138      -2.6664      2.00000
    139      -2.6177      2.00000
    140      -2.6175      2.00000
    141      -2.5639      2.00000
    142      -2.5389      2.00000
    143      -2.5375      2.00000
    144      -2.4326      2.00000
    145      -2.0511      2.00000
    146      -2.0510      2.00000
    147      -1.9517      2.00000
    148      -1.9510      2.00000
    149      -1.9343      2.00000
    150      -1.8528      2.00000
    151      -1.8510      2.00000
    152      -1.8482      2.00000
    153      -1.8216      2.00000
    154      -1.8197      2.00000
    155      -1.8164      2.00000
    156      -1.7700      2.00000
    157      -1.6284      2.00000
    158      -1.6279      2.00000
    159      -1.5735      2.00000
    160      -1.5040      2.00000
    161      -1.5032      2.00000
    162      -1.4657      2.00000
    163      -1.4204      2.00000
    164      -1.4204      2.00000
    165      -1.3586      2.00000
    166      -1.2964      2.00000
    167      -1.2950      2.00000
    168      -1.1637      2.00000
    169      -1.1195      2.00000
    170      -1.0828      2.00000
    171      -1.0815      2.00000
    172      -1.0495      2.00000
    173      -0.9597      2.00000
    174      -0.9445      2.00000
    175      -0.9096      2.00000
    176      -0.9089      2.00000
    177      -0.7537      2.00000
    178      -0.7510      2.00000
    179      -0.6842      2.00000
    180      -0.6832      2.00000
    181      -0.6769      2.00000
    182      -0.6768      2.00000
    183      -0.5662      2.00000
    184      -0.5008      2.00000
    185      -0.3799      2.00000
    186      -0.3473      2.00000
    187      -0.3138      2.00000
    188      -0.2552      2.00000
    189      -0.2544      2.00000
    190      -0.2512      2.00000
    191      -0.2115      2.00000
    192      -0.2099      2.00000
    193      -0.1404      2.00000
    194      -0.1402      2.00000
    195       0.0652      2.00000
    196       0.0673      2.00000
    197       0.0969      2.00000
    198       0.1804      2.00000
    199       0.1805      2.00000
    200       0.2546      2.00000
    201       0.2807      2.00000
    202       0.2989      2.00000
    203       0.2993      2.00000
    204       0.3135      2.00000
    205       0.3163      2.00000
    206       0.4692      2.00000
    207       0.6489      2.00000
    208       0.6493      2.00000
    209       0.7165      2.00000
    210       0.7165      2.00000
    211       0.7408      2.00000
    212       0.8065      2.00000
    213       0.8082      2.00000
    214       0.8172      2.00000
    215       0.8184      2.00000
    216       0.9279      2.00000
    217       0.9283      2.00000
    218       0.9808      2.00000
    219       0.9824      2.00000
    220       1.0596      2.00000
    221       1.0601      2.00000
    222       1.1643      2.00000
    223       1.2689      2.00000
    224       1.2797      2.00000
    225       1.3500      2.00000
    226       1.3500      2.00000
    227       1.5232      2.00000
    228       1.5232      2.00000
    229       1.5562      2.00000
    230       1.6836      2.00000
    231       1.6836      2.00000
    232       1.8364      2.00000
    233       1.9519      2.00000
    234       1.9913      2.00000
    235       3.6494      0.00000
    236       3.6498      0.00000
    237       3.7082      0.00000
    238       3.7396      0.00000
    239       3.7405      0.00000
    240       3.7615      0.00000
    241       4.0341      0.00000
    242       4.0442      0.00000
    243       4.0467      0.00000
    244       4.0476      0.00000
    245       4.0596      0.00000
    246       4.0607      0.00000
    247       4.1137      0.00000
    248       4.1141      0.00000
    249       4.1905      0.00000
    250       4.1908      0.00000
    251       4.2344      0.00000
    252       4.2533      0.00000
    253       4.2549      0.00000
    254       4.2967      0.00000
    255       4.3822      0.00000
    256       4.3835      0.00000
    257       4.4213      0.00000
    258       4.4455      0.00000
    259       4.4457      0.00000
    260       4.4702      0.00000
    261       4.4705      0.00000
    262       4.4981      0.00000
    263       4.4987      0.00000
    264       4.5046      0.00000
    265       4.5048      0.00000
    266       4.5570      0.00000
    267       4.6157      0.00000
    268       4.6169      0.00000
    269       4.6404      0.00000
    270       4.7473      0.00000
    271       4.7556      0.00000
    272       4.7561      0.00000
    273       4.7614      0.00000
    274       4.7772      0.00000
    275       4.8269      0.00000
    276       4.8794      0.00000
    277       4.8798      0.00000
    278       4.9576      0.00000
    279       4.9618      0.00000
    280       5.0574      0.00000
    281       5.1214      0.00000
    282       5.2073      0.00000
    283       5.2076      0.00000
    284       5.3266      0.00000
    285       5.4015      0.00000
    286       5.4051      0.00000

 k-point    10 :      -0.2000    0.2000    0.0000
  band No.  band energies     occupation 
      1     -72.4536      2.00000
      2     -72.4499      2.00000
      3     -72.4491      2.00000
      4     -72.4458      2.00000
      5     -72.4450      2.00000
      6     -72.4439      2.00000
      7     -72.4434      2.00000
      8     -72.4421      2.00000
      9     -72.4415      2.00000
     10     -58.6469      2.00000
     11     -58.6373      2.00000
     12     -58.6372      2.00000
     13     -58.6277      2.00000
     14     -58.6276      2.00000
     15     -58.6233      2.00000
     16     -58.6232      2.00000
     17     -58.6210      2.00000
     18     -58.6202      2.00000
     19     -36.8124      2.00000
     20     -36.8122      2.00000
     21     -36.7963      2.00000
     22     -36.7798      2.00000
     23     -36.7613      2.00000
     24     -36.7607      2.00000
     25     -36.6891      2.00000
     26     -36.6862      2.00000
     27     -36.6859      2.00000
     28     -36.6822      2.00000
     29     -36.6343      2.00000
     30     -36.6315      2.00000
     31     -36.6314      2.00000
     32     -36.6305      2.00000
     33     -36.6300      2.00000
     34     -36.6182      2.00000
     35     -36.6176      2.00000
     36     -36.6019      2.00000
     37     -36.6013      2.00000
     38     -36.5970      2.00000
     39     -36.5959      2.00000
     40     -36.5956      2.00000
     41     -36.5943      2.00000
     42     -36.5937      2.00000
     43     -36.5902      2.00000
     44     -36.5887      2.00000
     45     -36.5718      2.00000
     46     -32.8868      2.00000
     47     -32.8867      2.00000
     48     -32.8686      2.00000
     49     -32.8501      2.00000
     50     -32.8296      2.00000
     51     -32.8293      2.00000
     52     -32.8293      2.00000
     53     -32.8080      2.00000
     54     -32.8080      2.00000
     55     -32.7866      2.00000
     56     -32.7866      2.00000
     57     -32.7767      2.00000
     58     -32.7767      2.00000
     59     -32.7718      2.00000
     60     -32.7699      2.00000
     61     -32.7477      2.00000
     62     -32.7456      2.00000
     63     -32.7456      2.00000
     64     -32.7398      2.00000
     65     -32.6832      2.00000
     66     -32.6832      2.00000
     67     -32.6816      2.00000
     68     -32.6816      2.00000
     69     -32.6458      2.00000
     70     -32.6438      2.00000
     71     -32.6438      2.00000
     72     -32.6175      2.00000
     73     -12.7479      2.00000
     74     -12.1606      2.00000
     75     -12.1570      2.00000
     76     -12.0575      2.00000
     77     -11.4873      2.00000
     78     -11.4838      2.00000
     79     -11.4837      2.00000
     80     -11.4834      2.00000
     81     -11.2908      2.00000
     82     -11.1197      2.00000
     83     -11.1166      2.00000
     84     -11.0534      2.00000
     85     -11.0341      2.00000
     86     -11.0332      2.00000
     87     -10.9495      2.00000
     88     -10.8685      2.00000
     89     -10.8543      2.00000
     90     -10.8535      2.00000
     91     -10.7785      2.00000
     92     -10.7785      2.00000
     93     -10.7274      2.00000
     94     -10.7270      2.00000
     95     -10.6828      2.00000
     96     -10.6807      2.00000
     97     -10.5955      2.00000
     98     -10.5695      2.00000
     99     -10.4264      2.00000
    100     -10.4264      2.00000
    101     -10.3959      2.00000
    102     -10.3958      2.00000
    103     -10.2334      2.00000
    104     -10.2334      2.00000
    105     -10.2309      2.00000
    106     -10.1460      2.00000
    107     -10.1200      2.00000
    108     -10.0761      2.00000
    109      -4.4920      2.00000
    110      -4.4905      2.00000
    111      -4.3615      2.00000
    112      -4.1274      2.00000
    113      -3.9228      2.00000
    114      -3.9217      2.00000
    115      -3.9207      2.00000
    116      -3.7942      2.00000
    117      -3.7918      2.00000
    118      -3.7014      2.00000
    119      -3.6302      2.00000
    120      -3.4965      2.00000
    121      -3.4965      2.00000
    122      -3.2553      2.00000
    123      -3.2541      2.00000
    124      -3.1925      2.00000
    125      -3.1520      2.00000
    126      -2.9790      2.00000
    127      -2.9776      2.00000
    128      -2.9672      2.00000
    129      -2.9497      2.00000
    130      -2.8637      2.00000
    131      -2.8633      2.00000
    132      -2.8585      2.00000
    133      -2.8576      2.00000
    134      -2.8223      2.00000
    135      -2.8216      2.00000
    136      -2.7734      2.00000
    137      -2.6673      2.00000
    138      -2.6666      2.00000
    139      -2.6181      2.00000
    140      -2.6172      2.00000
    141      -2.5641      2.00000
    142      -2.5384      2.00000
    143      -2.5378      2.00000
    144      -2.4329      2.00000
    145      -2.0513      2.00000
    146      -2.0510      2.00000
    147      -1.9527      2.00000
    148      -1.9506      2.00000
    149      -1.9340      2.00000
    150      -1.8535      2.00000
    151      -1.8508      2.00000
    152      -1.8479      2.00000
    153      -1.8210      2.00000
    154      -1.8197      2.00000
    155      -1.8167      2.00000
    156      -1.7701      2.00000
    157      -1.6284      2.00000
    158      -1.6279      2.00000
    159      -1.5738      2.00000
    160      -1.5041      2.00000
    161      -1.5032      2.00000
    162      -1.4656      2.00000
    163      -1.4205      2.00000
    164      -1.4204      2.00000
    165      -1.3586      2.00000
    166      -1.2963      2.00000
    167      -1.2946      2.00000
    168      -1.1640      2.00000
    169      -1.1205      2.00000
    170      -1.0820      2.00000
    171      -1.0816      2.00000
    172      -1.0495      2.00000
    173      -0.9596      2.00000
    174      -0.9445      2.00000
    175      -0.9095      2.00000
    176      -0.9090      2.00000
    177      -0.7533      2.00000
    178      -0.7511      2.00000
    179      -0.6843      2.00000
    180      -0.6831      2.00000
    181      -0.6769      2.00000
    182      -0.6768      2.00000
    183      -0.5662      2.00000
    184      -0.4991      2.00000
    185      -0.3800      2.00000
    186      -0.3469      2.00000
    187      -0.3142      2.00000
    188      -0.2552      2.00000
    189      -0.2546      2.00000
    190      -0.2514      2.00000
    191      -0.2115      2.00000
    192      -0.2094      2.00000
    193      -0.1403      2.00000
    194      -0.1402      2.00000
    195       0.0650      2.00000
    196       0.0675      2.00000
    197       0.0970      2.00000
    198       0.1803      2.00000
    199       0.1805      2.00000
    200       0.2546      2.00000
    201       0.2807      2.00000
    202       0.2990      2.00000
    203       0.2994      2.00000
    204       0.3136      2.00000
    205       0.3161      2.00000
    206       0.4690      2.00000
    207       0.6492      2.00000
    208       0.6495      2.00000
    209       0.7165      2.00000
    210       0.7165      2.00000
    211       0.7408      2.00000
    212       0.8060      2.00000
    213       0.8078      2.00000
    214       0.8177      2.00000
    215       0.8185      2.00000
    216       0.9277      2.00000
    217       0.9281      2.00000
    218       0.9809      2.00000
    219       0.9821      2.00000
    220       1.0598      2.00000
    221       1.0600      2.00000
    222       1.1641      2.00000
    223       1.2692      2.00000
    224       1.2797      2.00000
    225       1.3500      2.00000
    226       1.3500      2.00000
    227       1.5232      2.00000
    228       1.5232      2.00000
    229       1.5561      2.00000
    230       1.6836      2.00000
    231       1.6836      2.00000
    232       1.8363      2.00000
    233       1.9519      2.00000
    234       1.9911      2.00000
    235       3.6493      0.00000
    236       3.6498      0.00000
    237       3.7085      0.00000
    238       3.7395      0.00000
    239       3.7402      0.00000
    240       3.7612      0.00000
    241       4.0341      0.00000
    242       4.0445      0.00000
    243       4.0465      0.00000
    244       4.0476      0.00000
    245       4.0595      0.00000
    246       4.0608      0.00000
    247       4.1137      0.00000
    248       4.1142      0.00000
    249       4.1902      0.00000
    250       4.1909      0.00000
    251       4.2361      0.00000
    252       4.2537      0.00000
    253       4.2552      0.00000
    254       4.2968      0.00000
    255       4.3825      0.00000
    256       4.3832      0.00000
    257       4.4213      0.00000
    258       4.4450      0.00000
    259       4.4465      0.00000
    260       4.4700      0.00000
    261       4.4705      0.00000
    262       4.4982      0.00000
    263       4.4986      0.00000
    264       4.5045      0.00000
    265       4.5047      0.00000
    266       4.5570      0.00000
    267       4.6154      0.00000
    268       4.6171      0.00000
    269       4.6404      0.00000
    270       4.7474      0.00000
    271       4.7555      0.00000
    272       4.7561      0.00000
    273       4.7593      0.00000
    274       4.7772      0.00000
    275       4.8269      0.00000
    276       4.8795      0.00000
    277       4.8802      0.00000
    278       4.9576      0.00000
    279       4.9611      0.00000
    280       5.0574      0.00000
    281       5.1218      0.00000
    282       5.2074      0.00000
    283       5.2077      0.00000
    284       5.3326      0.00000
    285       5.4022      0.00000
    286       5.4050      0.00000

 k-point    11 :      -0.4000    0.2000    0.0000
  band No.  band energies     occupation 
      1     -72.4521      2.00000
      2     -72.4516      2.00000
      3     -72.4497      2.00000
      4     -72.4456      2.00000
      5     -72.4441      2.00000
      6     -72.4438      2.00000
      7     -72.4432      2.00000
      8     -72.4424      2.00000
      9     -72.4416      2.00000
     10     -58.6427      2.00000
     11     -58.6427      2.00000
     12     -58.6381      2.00000
     13     -58.6281      2.00000
     14     -58.6240      2.00000
     15     -58.6239      2.00000
     16     -58.6221      2.00000
     17     -58.6216      2.00000
     18     -58.6215      2.00000
     19     -36.8229      2.00000
     20     -36.8104      2.00000
     21     -36.8102      2.00000
     22     -36.7757      2.00000
     23     -36.7755      2.00000
     24     -36.7509      2.00000
     25     -36.6757      2.00000
     26     -36.6599      2.00000
     27     -36.6597      2.00000
     28     -36.6524      2.00000
     29     -36.6522      2.00000
     30     -36.6374      2.00000
     31     -36.6364      2.00000
     32     -36.6360      2.00000
     33     -36.6332      2.00000
     34     -36.6274      2.00000
     35     -36.6269      2.00000
     36     -36.6192      2.00000
     37     -36.6022      2.00000
     38     -36.5968      2.00000
     39     -36.5955      2.00000
     40     -36.5950      2.00000
     41     -36.5921      2.00000
     42     -36.5913      2.00000
     43     -36.5906      2.00000
     44     -36.5824      2.00000
     45     -36.5822      2.00000
     46     -32.8986      2.00000
     47     -32.8844      2.00000
     48     -32.8844      2.00000
     49     -32.8455      2.00000
     50     -32.8455      2.00000
     51     -32.8201      2.00000
     52     -32.8201      2.00000
     53     -32.8180      2.00000
     54     -32.8098      2.00000
     55     -32.7875      2.00000
     56     -32.7783      2.00000
     57     -32.7783      2.00000
     58     -32.7740      2.00000
     59     -32.7729      2.00000
     60     -32.7728      2.00000
     61     -32.7340      2.00000
     62     -32.7149      2.00000
     63     -32.7149      2.00000
     64     -32.7063      2.00000
     65     -32.7063      2.00000
     66     -32.6899      2.00000
     67     -32.6898      2.00000
     68     -32.6898      2.00000
     69     -32.6848      2.00000
     70     -32.6449      2.00000
     71     -32.6290      2.00000
     72     -32.6290      2.00000
     73     -12.5005      2.00000
     74     -12.4968      2.00000
     75     -12.2116      2.00000
     76     -11.8162      2.00000
     77     -11.8161      2.00000
     78     -11.5359      2.00000
     79     -11.5160      2.00000
     80     -11.1946      2.00000
     81     -11.1911      2.00000
     82     -11.1787      2.00000
     83     -11.1781      2.00000
     84     -11.0551      2.00000
     85     -11.0129      2.00000
     86     -10.9782      2.00000
     87     -10.9749      2.00000
     88     -10.9415      2.00000
     89     -10.9413      2.00000
     90     -10.8768      2.00000
     91     -10.8041      2.00000
     92     -10.7456      2.00000
     93     -10.6972      2.00000
     94     -10.6953      2.00000
     95     -10.6449      2.00000
     96     -10.6218      2.00000
     97     -10.6202      2.00000
     98     -10.4749      2.00000
     99     -10.4749      2.00000
    100     -10.4411      2.00000
    101     -10.2879      2.00000
    102     -10.2620      2.00000
    103     -10.2620      2.00000
    104     -10.2538      2.00000
    105     -10.2538      2.00000
    106     -10.1765      2.00000
    107     -10.1480      2.00000
    108     -10.1480      2.00000
    109      -4.6042      2.00000
    110      -4.3937      2.00000
    111      -4.3920      2.00000
    112      -4.0875      2.00000
    113      -4.0855      2.00000
    114      -3.9698      2.00000
    115      -3.9692      2.00000
    116      -3.8043      2.00000
    117      -3.7860      2.00000
    118      -3.6482      2.00000
    119      -3.4925      2.00000
    120      -3.4901      2.00000
    121      -3.4208      2.00000
    122      -3.4203      2.00000
    123      -3.3575      2.00000
    124      -3.2677      2.00000
    125      -3.2647      2.00000
    126      -2.9710      2.00000
    127      -2.9707      2.00000
    128      -2.9488      2.00000
    129      -2.9437      2.00000
    130      -2.9134      2.00000
    131      -2.9128      2.00000
    132      -2.8950      2.00000
    133      -2.8947      2.00000
    134      -2.7827      2.00000
    135      -2.7793      2.00000
    136      -2.6391      2.00000
    137      -2.6040      2.00000
    138      -2.6029      2.00000
    139      -2.5975      2.00000
    140      -2.5750      2.00000
    141      -2.5728      2.00000
    142      -2.5613      2.00000
    143      -2.3643      2.00000
    144      -2.3640      2.00000
    145      -2.3459      2.00000
    146      -2.3425      2.00000
    147      -1.9731      2.00000
    148      -1.9265      2.00000
    149      -1.9257      2.00000
    150      -1.8593      2.00000
    151      -1.8585      2.00000
    152      -1.8579      2.00000
    153      -1.8446      2.00000
    154      -1.7860      2.00000
    155      -1.6543      2.00000
    156      -1.5483      2.00000
    157      -1.5479      2.00000
    158      -1.5017      2.00000
    159      -1.4996      2.00000
    160      -1.4823      2.00000
    161      -1.4303      2.00000
    162      -1.4299      2.00000
    163      -1.4207      2.00000
    164      -1.3140      2.00000
    165      -1.3129      2.00000
    166      -1.3103      2.00000
    167      -1.0648      2.00000
    168      -1.0325      2.00000
    169      -1.0324      2.00000
    170      -0.9510      2.00000
    171      -0.9476      2.00000
    172      -0.9376      2.00000
    173      -0.9301      2.00000
    174      -0.9294      2.00000
    175      -0.9147      2.00000
    176      -0.8993      2.00000
    177      -0.8958      2.00000
    178      -0.8750      2.00000
    179      -0.8748      2.00000
    180      -0.7783      2.00000
    181      -0.7641      2.00000
    182      -0.7630      2.00000
    183      -0.6926      2.00000
    184      -0.6426      2.00000
    185      -0.6418      2.00000
    186      -0.3897      2.00000
    187      -0.3895      2.00000
    188      -0.3241      2.00000
    189      -0.3017      2.00000
    190      -0.2966      2.00000
    191      -0.2945      2.00000
    192      -0.1654      2.00000
    193      -0.0196      2.00000
    194      -0.0176      2.00000
    195      -0.0093      2.00000
    196       0.1134      2.00000
    197       0.1667      2.00000
    198       0.1668      2.00000
    199       0.2340      2.00000
    200       0.2368      2.00000
    201       0.2369      2.00000
    202       0.2865      2.00000
    203       0.2867      2.00000
    204       0.4540      2.00000
    205       0.4555      2.00000
    206       0.4586      2.00000
    207       0.4977      2.00000
    208       0.4980      2.00000
    209       0.5128      2.00000
    210       0.5128      2.00000
    211       0.6045      2.00000
    212       0.7470      2.00000
    213       0.8908      2.00000
    214       0.9180      2.00000
    215       0.9323      2.00000
    216       0.9333      2.00000
    217       0.9665      2.00000
    218       1.0675      2.00000
    219       1.0690      2.00000
    220       1.0893      2.00000
    221       1.2454      2.00000
    222       1.2469      2.00000
    223       1.2596      2.00000
    224       1.4056      2.00000
    225       1.4073      2.00000
    226       1.4155      2.00000
    227       1.5168      2.00000
    228       1.6260      2.00000
    229       1.6263      2.00000
    230       1.6499      2.00000
    231       1.6500      2.00000
    232       1.7601      2.00000
    233       1.8367      2.00000
    234       1.8367      2.00000
    235       3.5516      0.00000
    236       3.6767      0.00000
    237       3.7827      0.00000
    238       3.7833      0.00000
    239       3.9741      0.00000
    240       3.9748      0.00000
    241       4.0109      0.00000
    242       4.0170      0.00000
    243       4.0306      0.00000
    244       4.0311      0.00000
    245       4.1738      0.00000
    246       4.1739      0.00000
    247       4.1768      0.00000
    248       4.1934      0.00000
    249       4.1959      0.00000
    250       4.2060      0.00000
    251       4.2065      0.00000
    252       4.2110      0.00000
    253       4.2533      0.00000
    254       4.2563      0.00000
    255       4.2610      0.00000
    256       4.2939      0.00000
    257       4.3537      0.00000
    258       4.3541      0.00000
    259       4.3920      0.00000
    260       4.4532      0.00000
    261       4.4536      0.00000
    262       4.4961      0.00000
    263       4.5137      0.00000
    264       4.5666      0.00000
    265       4.5839      0.00000
    266       4.5999      0.00000
    267       4.6001      0.00000
    268       4.6554      0.00000
    269       4.6558      0.00000
    270       4.6645      0.00000
    271       4.6648      0.00000
    272       4.7278      0.00000
    273       4.7423      0.00000
    274       4.7428      0.00000
    275       4.7446      0.00000
    276       4.7603      0.00000
    277       4.7604      0.00000
    278       4.8139      0.00000
    279       4.8145      0.00000
    280       5.0420      0.00000
    281       5.1876      0.00000
    282       5.1890      0.00000
    283       5.2463      0.00000
    284       5.2476      0.00000
    285       5.2609      0.00000
    286       5.2618      0.00000

 k-point    12 :       0.4000   -0.4000    0.0000
  band No.  band energies     occupation 
      1     -72.4522      2.00000
      2     -72.4515      2.00000
      3     -72.4497      2.00000
      4     -72.4456      2.00000
      5     -72.4442      2.00000
      6     -72.4437      2.00000
      7     -72.4431      2.00000
      8     -72.4424      2.00000
      9     -72.4417      2.00000
     10     -58.6427      2.00000
     11     -58.6427      2.00000
     12     -58.6381      2.00000
     13     -58.6281      2.00000
     14     -58.6240      2.00000
     15     -58.6239      2.00000
     16     -58.6221      2.00000
     17     -58.6216      2.00000
     18     -58.6215      2.00000
     19     -36.8228      2.00000
     20     -36.8104      2.00000
     21     -36.8102      2.00000
     22     -36.7757      2.00000
     23     -36.7754      2.00000
     24     -36.7509      2.00000
     25     -36.6757      2.00000
     26     -36.6599      2.00000
     27     -36.6597      2.00000
     28     -36.6525      2.00000
     29     -36.6521      2.00000
     30     -36.6373      2.00000
     31     -36.6365      2.00000
     32     -36.6359      2.00000
     33     -36.6332      2.00000
     34     -36.6274      2.00000
     35     -36.6269      2.00000
     36     -36.6192      2.00000
     37     -36.6022      2.00000
     38     -36.5967      2.00000
     39     -36.5955      2.00000
     40     -36.5950      2.00000
     41     -36.5921      2.00000
     42     -36.5913      2.00000
     43     -36.5906      2.00000
     44     -36.5824      2.00000
     45     -36.5822      2.00000
     46     -32.8986      2.00000
     47     -32.8844      2.00000
     48     -32.8844      2.00000
     49     -32.8455      2.00000
     50     -32.8455      2.00000
     51     -32.8201      2.00000
     52     -32.8201      2.00000
     53     -32.8180      2.00000
     54     -32.8098      2.00000
     55     -32.7875      2.00000
     56     -32.7783      2.00000
     57     -32.7783      2.00000
     58     -32.7740      2.00000
     59     -32.7729      2.00000
     60     -32.7728      2.00000
     61     -32.7340      2.00000
     62     -32.7149      2.00000
     63     -32.7149      2.00000
     64     -32.7063      2.00000
     65     -32.7063      2.00000
     66     -32.6899      2.00000
     67     -32.6898      2.00000
     68     -32.6898      2.00000
     69     -32.6848      2.00000
     70     -32.6449      2.00000
     71     -32.6290      2.00000
     72     -32.6290      2.00000
     73     -12.5006      2.00000
     74     -12.4968      2.00000
     75     -12.2115      2.00000
     76     -11.8162      2.00000
     77     -11.8161      2.00000
     78     -11.5359      2.00000
     79     -11.5158      2.00000
     80     -11.1947      2.00000
     81     -11.1911      2.00000
     82     -11.1786      2.00000
     83     -11.1781      2.00000
     84     -11.0552      2.00000
     85     -11.0133      2.00000
     86     -10.9779      2.00000
     87     -10.9750      2.00000
     88     -10.9415      2.00000
     89     -10.9413      2.00000
     90     -10.8769      2.00000
     91     -10.8042      2.00000
     92     -10.7458      2.00000
     93     -10.6970      2.00000
     94     -10.6954      2.00000
     95     -10.6444      2.00000
     96     -10.6222      2.00000
     97     -10.6202      2.00000
     98     -10.4749      2.00000
     99     -10.4749      2.00000
    100     -10.4411      2.00000
    101     -10.2879      2.00000
    102     -10.2620      2.00000
    103     -10.2620      2.00000
    104     -10.2538      2.00000
    105     -10.2538      2.00000
    106     -10.1765      2.00000
    107     -10.1480      2.00000
    108     -10.1480      2.00000
    109      -4.6038      2.00000
    110      -4.3936      2.00000
    111      -4.3925      2.00000
    112      -4.0877      2.00000
    113      -4.0854      2.00000
    114      -3.9702      2.00000
    115      -3.9690      2.00000
    116      -3.8042      2.00000
    117      -3.7859      2.00000
    118      -3.6482      2.00000
    119      -3.4924      2.00000
    120      -3.4900      2.00000
    121      -3.4208      2.00000
    122      -3.4203      2.00000
    123      -3.3580      2.00000
    124      -3.2684      2.00000
    125      -3.2647      2.00000
    126      -2.9710      2.00000
    127      -2.9706      2.00000
    128      -2.9490      2.00000
    129      -2.9436      2.00000
    130      -2.9131      2.00000
    131      -2.9129      2.00000
    132      -2.8951      2.00000
    133      -2.8947      2.00000
    134      -2.7818      2.00000
    135      -2.7792      2.00000
    136      -2.6390      2.00000
    137      -2.6040      2.00000
    138      -2.6028      2.00000
    139      -2.5978      2.00000
    140      -2.5742      2.00000
    141      -2.5731      2.00000
    142      -2.5612      2.00000
    143      -2.3643      2.00000
    144      -2.3640      2.00000
    145      -2.3465      2.00000
    146      -2.3423      2.00000
    147      -1.9732      2.00000
    148      -1.9262      2.00000
    149      -1.9255      2.00000
    150      -1.8592      2.00000
    151      -1.8584      2.00000
    152      -1.8576      2.00000
    153      -1.8452      2.00000
    154      -1.7865      2.00000
    155      -1.6544      2.00000
    156      -1.5480      2.00000
    157      -1.5478      2.00000
    158      -1.5001      2.00000
    159      -1.4996      2.00000
    160      -1.4825      2.00000
    161      -1.4301      2.00000
    162      -1.4297      2.00000
    163      -1.4202      2.00000
    164      -1.3140      2.00000
    165      -1.3131      2.00000
    166      -1.3103      2.00000
    167      -1.0650      2.00000
    168      -1.0326      2.00000
    169      -1.0324      2.00000
    170      -0.9500      2.00000
    171      -0.9478      2.00000
    172      -0.9375      2.00000
    173      -0.9299      2.00000
    174      -0.9295      2.00000
    175      -0.9149      2.00000
    176      -0.9018      2.00000
    177      -0.8955      2.00000
    178      -0.8750      2.00000
    179      -0.8748      2.00000
    180      -0.7786      2.00000
    181      -0.7643      2.00000
    182      -0.7631      2.00000
    183      -0.6926      2.00000
    184      -0.6426      2.00000
    185      -0.6418      2.00000
    186      -0.3897      2.00000
    187      -0.3895      2.00000
    188      -0.3241      2.00000
    189      -0.3012      2.00000
    190      -0.2967      2.00000
    191      -0.2950      2.00000
    192      -0.1654      2.00000
    193      -0.0197      2.00000
    194      -0.0180      2.00000
    195      -0.0092      2.00000
    196       0.1134      2.00000
    197       0.1667      2.00000
    198       0.1667      2.00000
    199       0.2342      2.00000
    200       0.2368      2.00000
    201       0.2368      2.00000
    202       0.2865      2.00000
    203       0.2867      2.00000
    204       0.4541      2.00000
    205       0.4554      2.00000
    206       0.4588      2.00000
    207       0.4977      2.00000
    208       0.4980      2.00000
    209       0.5128      2.00000
    210       0.5128      2.00000
    211       0.6045      2.00000
    212       0.7465      2.00000
    213       0.8906      2.00000
    214       0.9186      2.00000
    215       0.9323      2.00000
    216       0.9336      2.00000
    217       0.9666      2.00000
    218       1.0673      2.00000
    219       1.0688      2.00000
    220       1.0885      2.00000
    221       1.2457      2.00000
    222       1.2469      2.00000
    223       1.2596      2.00000
    224       1.4063      2.00000
    225       1.4072      2.00000
    226       1.4155      2.00000
    227       1.5168      2.00000
    228       1.6262      2.00000
    229       1.6263      2.00000
    230       1.6499      2.00000
    231       1.6500      2.00000
    232       1.7601      2.00000
    233       1.8367      2.00000
    234       1.8367      2.00000
    235       3.5517      0.00000
    236       3.6771      0.00000
    237       3.7827      0.00000
    238       3.7833      0.00000
    239       3.9741      0.00000
    240       3.9748      0.00000
    241       4.0112      0.00000
    242       4.0170      0.00000
    243       4.0303      0.00000
    244       4.0311      0.00000
    245       4.1738      0.00000
    246       4.1739      0.00000
    247       4.1772      0.00000
    248       4.1933      0.00000
    249       4.1950      0.00000
    250       4.2056      0.00000
    251       4.2066      0.00000
    252       4.2110      0.00000
    253       4.2534      0.00000
    254       4.2549      0.00000
    255       4.2609      0.00000
    256       4.2942      0.00000
    257       4.3538      0.00000
    258       4.3543      0.00000
    259       4.3917      0.00000
    260       4.4535      0.00000
    261       4.4538      0.00000
    262       4.4962      0.00000
    263       4.5136      0.00000
    264       4.5667      0.00000
    265       4.5839      0.00000
    266       4.5999      0.00000
    267       4.6002      0.00000
    268       4.6555      0.00000
    269       4.6558      0.00000
    270       4.6644      0.00000
    271       4.6650      0.00000
    272       4.7280      0.00000
    273       4.7421      0.00000
    274       4.7434      0.00000
    275       4.7441      0.00000
    276       4.7603      0.00000
    277       4.7605      0.00000
    278       4.8141      0.00000
    279       4.8143      0.00000
    280       5.0416      0.00000
    281       5.1878      0.00000
    282       5.1907      0.00000
    283       5.2466      0.00000
    284       5.2481      0.00000
    285       5.2610      0.00000
    286       5.2621      0.00000

 k-point    13 :      -0.2000    0.4000    0.0000
  band No.  band energies     occupation 
      1     -72.4521      2.00000
      2     -72.4516      2.00000
      3     -72.4497      2.00000
      4     -72.4456      2.00000
      5     -72.4441      2.00000
      6     -72.4438      2.00000
      7     -72.4432      2.00000
      8     -72.4424      2.00000
      9     -72.4416      2.00000
     10     -58.6427      2.00000
     11     -58.6427      2.00000
     12     -58.6381      2.00000
     13     -58.6281      2.00000
     14     -58.6240      2.00000
     15     -58.6239      2.00000
     16     -58.6221      2.00000
     17     -58.6215      2.00000
     18     -58.6215      2.00000
     19     -36.8228      2.00000
     20     -36.8104      2.00000
     21     -36.8102      2.00000
     22     -36.7757      2.00000
     23     -36.7754      2.00000
     24     -36.7509      2.00000
     25     -36.6757      2.00000
     26     -36.6599      2.00000
     27     -36.6597      2.00000
     28     -36.6525      2.00000
     29     -36.6521      2.00000
     30     -36.6374      2.00000
     31     -36.6365      2.00000
     32     -36.6360      2.00000
     33     -36.6332      2.00000
     34     -36.6274      2.00000
     35     -36.6269      2.00000
     36     -36.6192      2.00000
     37     -36.6022      2.00000
     38     -36.5967      2.00000
     39     -36.5955      2.00000
     40     -36.5950      2.00000
     41     -36.5921      2.00000
     42     -36.5913      2.00000
     43     -36.5906      2.00000
     44     -36.5824      2.00000
     45     -36.5822      2.00000
     46     -32.8986      2.00000
     47     -32.8844      2.00000
     48     -32.8844      2.00000
     49     -32.8455      2.00000
     50     -32.8455      2.00000
     51     -32.8201      2.00000
     52     -32.8201      2.00000
     53     -32.8180      2.00000
     54     -32.8098      2.00000
     55     -32.7875      2.00000
     56     -32.7783      2.00000
     57     -32.7783      2.00000
     58     -32.7740      2.00000
     59     -32.7729      2.00000
     60     -32.7728      2.00000
     61     -32.7340      2.00000
     62     -32.7149      2.00000
     63     -32.7149      2.00000
     64     -32.7063      2.00000
     65     -32.7063      2.00000
     66     -32.6899      2.00000
     67     -32.6898      2.00000
     68     -32.6898      2.00000
     69     -32.6848      2.00000
     70     -32.6449      2.00000
     71     -32.6290      2.00000
     72     -32.6290      2.00000
     73     -12.5005      2.00000
     74     -12.4969      2.00000
     75     -12.2116      2.00000
     76     -11.8162      2.00000
     77     -11.8161      2.00000
     78     -11.5359      2.00000
     79     -11.5159      2.00000
     80     -11.1946      2.00000
     81     -11.1911      2.00000
     82     -11.1785      2.00000
     83     -11.1782      2.00000
     84     -11.0552      2.00000
     85     -11.0131      2.00000
     86     -10.9781      2.00000
     87     -10.9750      2.00000
     88     -10.9414      2.00000
     89     -10.9414      2.00000
     90     -10.8768      2.00000
     91     -10.8042      2.00000
     92     -10.7457      2.00000
     93     -10.6971      2.00000
     94     -10.6954      2.00000
     95     -10.6447      2.00000
     96     -10.6220      2.00000
     97     -10.6202      2.00000
     98     -10.4749      2.00000
     99     -10.4749      2.00000
    100     -10.4411      2.00000
    101     -10.2879      2.00000
    102     -10.2620      2.00000
    103     -10.2620      2.00000
    104     -10.2538      2.00000
    105     -10.2538      2.00000
    106     -10.1765      2.00000
    107     -10.1480      2.00000
    108     -10.1480      2.00000
    109      -4.6040      2.00000
    110      -4.3937      2.00000
    111      -4.3922      2.00000
    112      -4.0875      2.00000
    113      -4.0855      2.00000
    114      -3.9700      2.00000
    115      -3.9691      2.00000
    116      -3.8042      2.00000
    117      -3.7859      2.00000
    118      -3.6482      2.00000
    119      -3.4924      2.00000
    120      -3.4901      2.00000
    121      -3.4208      2.00000
    122      -3.4203      2.00000
    123      -3.3577      2.00000
    124      -3.2680      2.00000
    125      -3.2647      2.00000
    126      -2.9710      2.00000
    127      -2.9707      2.00000
    128      -2.9489      2.00000
    129      -2.9436      2.00000
    130      -2.9133      2.00000
    131      -2.9128      2.00000
    132      -2.8950      2.00000
    133      -2.8947      2.00000
    134      -2.7822      2.00000
    135      -2.7793      2.00000
    136      -2.6390      2.00000
    137      -2.6039      2.00000
    138      -2.6028      2.00000
    139      -2.5977      2.00000
    140      -2.5746      2.00000
    141      -2.5729      2.00000
    142      -2.5612      2.00000
    143      -2.3643      2.00000
    144      -2.3640      2.00000
    145      -2.3462      2.00000
    146      -2.3424      2.00000
    147      -1.9731      2.00000
    148      -1.9263      2.00000
    149      -1.9256      2.00000
    150      -1.8593      2.00000
    151      -1.8585      2.00000
    152      -1.8577      2.00000
    153      -1.8449      2.00000
    154      -1.7862      2.00000
    155      -1.6544      2.00000
    156      -1.5482      2.00000
    157      -1.5479      2.00000
    158      -1.5009      2.00000
    159      -1.4996      2.00000
    160      -1.4824      2.00000
    161      -1.4302      2.00000
    162      -1.4298      2.00000
    163      -1.4205      2.00000
    164      -1.3140      2.00000
    165      -1.3130      2.00000
    166      -1.3103      2.00000
    167      -1.0649      2.00000
    168      -1.0325      2.00000
    169      -1.0324      2.00000
    170      -0.9505      2.00000
    171      -0.9477      2.00000
    172      -0.9376      2.00000
    173      -0.9300      2.00000
    174      -0.9294      2.00000
    175      -0.9148      2.00000
    176      -0.9005      2.00000
    177      -0.8957      2.00000
    178      -0.8750      2.00000
    179      -0.8748      2.00000
    180      -0.7784      2.00000
    181      -0.7642      2.00000
    182      -0.7631      2.00000
    183      -0.6926      2.00000
    184      -0.6426      2.00000
    185      -0.6417      2.00000
    186      -0.3897      2.00000
    187      -0.3895      2.00000
    188      -0.3241      2.00000
    189      -0.3014      2.00000
    190      -0.2967      2.00000
    191      -0.2947      2.00000
    192      -0.1654      2.00000
    193      -0.0196      2.00000
    194      -0.0178      2.00000
    195      -0.0093      2.00000
    196       0.1134      2.00000
    197       0.1666      2.00000
    198       0.1668      2.00000
    199       0.2341      2.00000
    200       0.2368      2.00000
    201       0.2368      2.00000
    202       0.2865      2.00000
    203       0.2867      2.00000
    204       0.4541      2.00000
    205       0.4554      2.00000
    206       0.4587      2.00000
    207       0.4977      2.00000
    208       0.4980      2.00000
    209       0.5128      2.00000
    210       0.5129      2.00000
    211       0.6045      2.00000
    212       0.7468      2.00000
    213       0.8907      2.00000
    214       0.9183      2.00000
    215       0.9323      2.00000
    216       0.9335      2.00000
    217       0.9666      2.00000
    218       1.0674      2.00000
    219       1.0689      2.00000
    220       1.0889      2.00000
    221       1.2456      2.00000
    222       1.2469      2.00000
    223       1.2596      2.00000
    224       1.4060      2.00000
    225       1.4072      2.00000
    226       1.4155      2.00000
    227       1.5168      2.00000
    228       1.6262      2.00000
    229       1.6263      2.00000
    230       1.6499      2.00000
    231       1.6499      2.00000
    232       1.7601      2.00000
    233       1.8367      2.00000
    234       1.8367      2.00000
    235       3.5516      0.00000
    236       3.6769      0.00000
    237       3.7827      0.00000
    238       3.7833      0.00000
    239       3.9741      0.00000
    240       3.9748      0.00000
    241       4.0111      0.00000
    242       4.0170      0.00000
    243       4.0304      0.00000
    244       4.0311      0.00000
    245       4.1738      0.00000
    246       4.1739      0.00000
    247       4.1770      0.00000
    248       4.1937      0.00000
    249       4.1952      0.00000
    250       4.2058      0.00000
    251       4.2065      0.00000
    252       4.2110      0.00000
    253       4.2533      0.00000
    254       4.2557      0.00000
    255       4.2610      0.00000
    256       4.2941      0.00000
    257       4.3537      0.00000
    258       4.3543      0.00000
    259       4.3918      0.00000
    260       4.4533      0.00000
    261       4.4537      0.00000
    262       4.4962      0.00000
    263       4.5137      0.00000
    264       4.5666      0.00000
    265       4.5839      0.00000
    266       4.5999      0.00000
    267       4.6001      0.00000
    268       4.6555      0.00000
    269       4.6558      0.00000
    270       4.6645      0.00000
    271       4.6649      0.00000
    272       4.7279      0.00000
    273       4.7422      0.00000
    274       4.7431      0.00000
    275       4.7443      0.00000
    276       4.7603      0.00000
    277       4.7604      0.00000
    278       4.8140      0.00000
    279       4.8144      0.00000
    280       5.0418      0.00000
    281       5.1879      0.00000
    282       5.1897      0.00000
    283       5.2464      0.00000
    284       5.2479      0.00000
    285       5.2609      0.00000
    286       5.2620      0.00000


--------------------------------------------------------------------------------------------------------


 soft charge-density along one line, spin component           1
         0         1         2         3         4         5         6         7         8         9
 total charge-density along one line
 
 pseudopotential strength for first ion, spin component:           1
 -4.876  12.211   0.000  -0.000   0.000  -0.000   0.000  -0.000
 12.211   3.227  -0.000   0.000  -0.000   0.000  -0.000   0.000
  0.000  -0.000 -19.014  -0.000  -0.000   9.912   0.000   0.000
 -0.000   0.000  -0.000 -19.018  -0.000   0.000   9.917   0.000
  0.000  -0.000  -0.000  -0.000 -19.014   0.000   0.000   9.912
 -0.000   0.000   9.912   0.000   0.000   5.190  -0.000  -0.000
  0.000  -0.000   0.000   9.917   0.000  -0.000   5.187  -0.000
 -0.000   0.000   0.000   0.000   9.912  -0.000  -0.000   5.190
 -0.000   0.000   0.000   0.000  -0.008  -0.000  -0.000   0.004
 -0.000   0.000  -0.000   0.000   0.000   0.000  -0.000  -0.000
 -0.002   0.001  -0.000  -0.000  -0.000   0.000   0.000   0.000
 -0.000   0.000   0.000   0.000  -0.000  -0.000  -0.000   0.000
  0.000  -0.000  -0.008   0.000   0.000   0.004  -0.000  -0.000
 -0.000   0.000   0.000   0.000  -0.008  -0.000  -0.000   0.004
 -0.000   0.000  -0.000   0.000   0.000   0.000  -0.000  -0.000
 -0.002   0.001  -0.000  -0.000  -0.000   0.000   0.000   0.000
 -0.000   0.000   0.000   0.000  -0.000  -0.000  -0.000   0.000
  0.000  -0.000  -0.008   0.000   0.000   0.004  -0.000  -0.000
 total augmentation occupancy for first ion, spin component:           1
  1.996  -0.036  -0.000   0.000   0.000  -0.000   0.000   0.000  -0.000  -0.000  -0.004   0.000   0.000   0.000   0.000   0.003
 -0.036   1.136  -0.000   0.000   0.000  -0.000   0.000   0.000  -0.000  -0.000  -0.136  -0.000   0.000   0.000   0.000   0.223
 -0.000  -0.000   1.998   0.000  -0.000  -0.039   0.000  -0.000   0.000   0.000  -0.000   0.000  -0.010  -0.000   0.000   0.000
  0.000   0.000   0.000   1.999   0.000   0.000  -0.043   0.000   0.000   0.000   0.000   0.000   0.000  -0.000  -0.000  -0.000
  0.000   0.000  -0.000   0.000   1.998  -0.000   0.000  -0.039  -0.010   0.000  -0.000   0.000   0.000   0.001  -0.000   0.000
 -0.000  -0.000  -0.039   0.000  -0.000   0.090  -0.000  -0.000   0.000  -0.001   0.000  -0.000  -0.147   0.000   0.000  -0.000
  0.000   0.000   0.000  -0.043   0.000  -0.000   0.111  -0.000  -0.000  -0.000   0.000  -0.000  -0.000   0.000   0.000   0.000
  0.000   0.000  -0.000   0.000  -0.039  -0.000  -0.000   0.090  -0.147  -0.000  -0.000  -0.001  -0.000   0.172   0.000   0.000
 -0.000  -0.000   0.000   0.000  -0.010   0.000  -0.000  -0.147   1.934   0.000   0.000   0.003   0.000  -2.198  -0.000   0.000
 -0.000  -0.000   0.000   0.000   0.000  -0.001  -0.000  -0.000   0.000   3.117   0.000   0.000   0.003  -0.000  -3.921   0.000
 -0.004  -0.136  -0.000   0.000  -0.000   0.000   0.000  -0.000   0.000   0.000   1.519  -0.000  -0.000   0.000  -0.000  -1.679
  0.000  -0.000   0.000   0.000   0.000  -0.000  -0.000  -0.001   0.003   0.000  -0.000   3.117   0.000  -0.003  -0.000  -0.000
  0.000   0.000  -0.010   0.000   0.000  -0.147  -0.000  -0.000   0.000   0.003  -0.000   0.000   1.934   0.000  -0.003  -0.000
  0.000   0.000  -0.000  -0.000   0.001   0.000   0.000   0.172  -2.198  -0.000   0.000  -0.003   0.000   3.266   0.000  -0.000
  0.000   0.000   0.000  -0.000  -0.000   0.000   0.000   0.000  -0.000  -3.921  -0.000  -0.000  -0.003   0.000   5.416  -0.000
  0.003   0.223   0.000  -0.000   0.000  -0.000   0.000   0.000   0.000   0.000  -1.679  -0.000  -0.000  -0.000  -0.000   2.683
 -0.000   0.000  -0.000  -0.000   0.000   0.000   0.000   0.000  -0.003  -0.000  -0.000  -3.921  -0.000   0.002   0.000   0.000
 -0.000   0.000   0.001  -0.000  -0.000   0.172   0.000   0.000   0.000  -0.003  -0.000  -0.000  -2.198  -0.000   0.002   0.000


------------------------ aborting loop because EDIFF is reached ----------------------------------------


    CHARGE:  cpu time      0.5988: real time      0.5989
    FORLOC:  cpu time      0.0297: real time      0.0297
    FORNL :  cpu time      2.0328: real time      2.0328
    STRESS:  cpu time      6.2917: real time      6.2926
    FORCOR:  cpu time      0.1316: real time      0.1316
    FORHAR:  cpu time      0.0514: real time      0.0514
    MIXING:  cpu time      0.0441: real time      0.0441
    OFIELD:  cpu time      0.0001: real time      0.0000

 ---------------------------------------------------------------------------------------------

         DFTD3 V3.0 Rev 1        
 DF pbe       
 parameters
 k1-k3        =   16.0000    1.3333   -4.0000
 Edisp (eV)  -20.73951

 E6    (eV) :   -11.6369
 E8    (eV) :    -9.1026
 % E8        : 43.89
    FORVDW:  cpu time      0.1460: real time      0.1460

  FORCE on cell =-STRESS in cart. coord.  units (eV):
  Direction    XX          YY          ZZ          XY          YZ          ZX
  --------------------------------------------------------------------------------------
  Alpha Z  1198.06821  1198.06821  1198.06821
  Ewald   67186.25895 67186.26059-91911.91943    -0.64837    -0.00231     0.44713
  Hartree 77592.90636 77592.90738-73223.78994    -0.23300    -0.00061     0.13086
  E(xc)   -1989.33878 -1989.33878 -1993.07770    -0.00083    -0.00000     0.00034
  Local  ************************156942.71956     0.86188     0.00276    -0.58149
  n-local  1792.98970  1792.99123  1886.29268    -0.01828    -0.00015     0.03569
  augment   514.74467   514.74477   499.85213    -0.00081     0.00003    -0.00023
  Kinetic  6582.47466  6582.47462  6616.71499     0.02513     0.00003     0.03178
  Fock        0.00000     0.00000     0.00000     0.00000     0.00000     0.00000
  vdW       -21.42680   -21.42680   -15.49390     0.00011     0.00000    -0.00010
  -------------------------------------------------------------------------------------
  Total     -19.35100   -19.34963    -0.63340    -0.01415    -0.00025     0.06397
  in kB     -18.79222   -18.79090    -0.61511    -0.01375    -0.00024     0.06212
  external pressure =      -12.73 kB  Pullay stress =        0.00 kB


 VOLUME and BASIS-vectors are now :
 -----------------------------------------------------------------------------
  energy-cutoff  :      520.00
  volume of cell :     1649.82
      direct lattice vectors                 reciprocal lattice vectors
     9.759724624  0.000000000  0.000000000     0.102461907 -0.059156410  0.000000000
     4.879862312  8.452169459  0.000000000     0.000000000  0.118312820  0.000000000
     0.000000000  0.000000000 20.000000000     0.000000000  0.000000000  0.050000000

  length of vectors
     9.759724624  9.759724624 20.000000000     0.118312820  0.118312820  0.050000000


 FORCES acting on ions
    electron-ion (+dipol)            ewald-force                    non-local-force                 convergence-correction
 -----------------------------------------------------------------------------------------------
   -.258E-02 -.253E-02 0.136E+04   0.300E-02 -.299E-11 -.136E+04   0.228E-04 -.674E-04 0.653E-02   -.427E-03 0.257E-02 -.903E-02
   -.483E-02 -.608E-03 0.136E+04   0.400E-02 0.128E-10 -.136E+04   0.279E-03 0.262E-04 0.859E-02   0.857E-03 0.658E-03 -.908E-02
   0.739E-02 0.441E-03 0.136E+04   -.700E-02 -.279E-10 -.136E+04   -.300E-03 0.534E-04 0.859E-02   -.422E-03 -.457E-03 -.902E-02
   -.190E-02 -.486E-02 0.136E+04   0.345E-02 0.349E-02 -.136E+04   0.255E-03 0.205E-03 0.858E-02   -.158E-02 0.140E-02 -.905E-02
   0.204E-02 0.848E-03 0.136E+04   -.139E-02 0.203E-05 -.136E+04   0.233E-04 0.454E-04 0.941E-02   -.717E-03 -.927E-03 -.906E-02
   -.127E-03 -.651E-02 0.136E+04   -.205E-02 0.603E-02 -.136E+04   -.260E-03 0.257E-03 0.861E-02   0.228E-02 0.429E-03 -.901E-02
   0.504E-02 0.707E-02 0.136E+04   -.205E-02 -.603E-02 -.136E+04   -.231E-04 -.274E-03 0.857E-02   -.307E-02 -.107E-02 -.901E-02
   -.530E-02 0.444E-02 0.136E+04   0.345E-02 -.349E-02 -.136E+04   0.710E-04 -.276E-03 0.861E-02   0.187E-02 -.891E-03 -.901E-02
   0.264E-03 0.174E-02 0.136E+04   -.139E-02 -.203E-05 -.136E+04   -.433E-04 0.387E-04 0.934E-02   0.122E-02 -.174E-02 -.902E-02
   -.574E-03 -.105E-02 0.119E+04   0.604E-03 0.128E-03 -.120E+04   0.165E-02 0.961E-03 0.241E+01   -.234E-03 0.784E-03 -.412E-02
   0.562E-03 -.394E-03 0.119E+04   -.463E-03 0.743E-04 -.120E+04   0.532E-05 -.911E-03 0.241E+01   -.103E-03 0.177E-03 -.453E-02
   0.125E-04 -.104E-02 0.119E+04   -.141E-03 0.302E-03 -.120E+04   -.166E-02 0.950E-03 0.241E+01   0.337E-03 0.594E-03 -.424E-02
   0.572E-03 0.720E-03 0.119E+04   0.203E-04 -.279E-03 -.120E+04   -.800E-03 0.441E-03 0.241E+01   -.697E-03 -.371E-03 -.406E-02
   -.268E-03 0.793E-03 0.119E+04   -.108E-03 0.205E-03 -.120E+04   0.785E-03 0.469E-03 0.241E+01   0.474E-03 -.909E-03 -.465E-02
   -.308E-03 -.971E-03 0.119E+04   0.875E-04 0.340E-03 -.120E+04   0.150E-04 0.118E-02 0.241E+01   0.225E-03 0.377E-03 -.298E-02
   0.205E-03 0.216E-03 0.119E+04   0.382E-03 -.430E-03 -.120E+04   0.195E-04 -.191E-02 0.241E+01   -.569E-03 0.457E-03 -.515E-02
   -.181E-02 0.471E-03 0.119E+04   0.103E-03 -.958E-05 -.120E+04   0.101E-02 -.595E-03 0.241E+01   0.146E-02 -.325E-03 -.441E-02
   0.161E-02 0.126E-02 0.119E+04   -.485E-03 -.331E-03 -.120E+04   -.103E-02 -.585E-03 0.241E+01   -.894E-03 -.781E-03 -.394E-02
   -.104E-01 -.503E-02 -.320E+02   0.106E-01 0.414E-02 0.345E+02   -.449E-04 -.561E-06 -.247E+01   -.277E-03 0.766E-03 -.424E-02
   0.387E-02 -.175E-02 -.320E+02   -.378E-02 0.138E-02 0.345E+02   -.530E-05 -.379E-02 -.248E+01   -.613E-04 0.151E-03 -.384E-02
   0.662E-02 -.656E-02 -.320E+02   -.681E-02 0.589E-02 0.345E+02   0.621E-04 -.566E-04 -.247E+01   0.339E-03 0.563E-03 -.401E-02
   -.262E-03 0.308E-02 -.320E+02   0.799E-03 -.264E-02 0.345E+02   -.329E-02 0.187E-02 -.248E+01   -.704E-03 -.315E-03 -.430E-02
   0.127E-02 -.254E-03 -.320E+02   -.158E-02 0.127E-02 0.345E+02   0.328E-02 0.192E-02 -.248E+01   0.491E-03 -.898E-03 -.369E-02
   -.103E-02 -.760E-02 -.320E+02   0.787E-03 0.702E-02 0.345E+02   0.623E-04 0.187E-02 -.248E+01   0.214E-03 0.392E-03 -.533E-02
   -.275E-02 0.975E-02 -.320E+02   0.339E-02 -.100E-01 0.345E+02   -.940E-05 0.626E-04 -.247E+01   -.603E-03 0.467E-03 -.309E-02
   -.605E-02 0.252E-02 -.320E+02   0.439E-02 -.208E-02 0.345E+02   0.163E-02 -.922E-03 -.248E+01   0.147E-02 -.347E-03 -.391E-02
   0.880E-02 0.585E-02 -.320E+02   -.777E-02 -.494E-02 0.345E+02   -.163E-02 -.955E-03 -.248E+01   -.868E-03 -.773E-03 -.429E-02
   -.779E+00 -.252E+00 -.136E+04   0.797E+00 0.264E+00 0.136E+04   -.805E-02 -.204E-02 -.524E-01   -.103E-02 -.536E-03 -.484E-02
   0.128E+00 -.143E-01 -.136E+04   -.128E+00 0.156E-01 0.136E+04   -.854E-03 -.892E-03 -.470E-01   0.100E-02 -.793E-03 -.476E-02
   0.108E+01 -.821E+00 -.136E+04   -.112E+01 0.843E+00 0.136E+04   -.723E-02 0.158E-02 -.637E-01   0.363E-04 -.985E-03 -.497E-02
   0.454E-02 0.704E-01 -.136E+04   -.401E-02 -.717E-01 0.136E+04   -.741E-03 -.878E-04 -.472E-01   -.246E-03 0.140E-02 -.478E-02
   0.300E-01 -.572E-01 -.136E+04   -.310E-01 0.563E-01 0.136E+04   0.828E-03 0.950E-03 -.468E-01   0.329E-03 0.329E-03 -.485E-02
   -.368E-01 -.143E+00 -.136E+04   0.385E-01 0.145E+00 0.136E+04   0.227E-03 -.164E-02 -.477E-01   -.896E-04 0.426E-03 -.490E-02
   -.343E+00 0.107E+01 -.136E+04   0.341E+00 -.111E+01 0.136E+04   -.451E-02 0.480E-03 -.581E-01   -.834E-03 0.379E-03 -.474E-02
   -.191E-01 -.981E-02 -.136E+04   0.202E-01 0.104E-01 0.136E+04   -.119E-02 0.832E-03 -.480E-01   0.206E-03 -.439E-03 -.483E-02
   0.228E+00 0.153E+00 -.136E+04   -.231E+00 -.156E+00 0.136E+04   0.163E-02 0.816E-03 -.475E-01   0.630E-03 0.216E-03 -.485E-02
   -.663E-01 0.307E-03 0.574E+02   0.676E-01 -.190E-11 -.623E+02   0.109E-03 -.184E-04 0.496E+01   -.477E-03 -.268E-03 -.312E-02
   -.353E-01 0.158E-02 0.571E+02   0.362E-01 0.189E-11 -.620E+02   -.137E-02 -.184E-02 0.497E+01   0.147E-04 -.311E-03 -.369E-02
   0.886E-01 0.205E-02 0.571E+02   -.900E-01 -.112E-10 -.621E+02   -.474E-03 -.361E-02 0.497E+01   0.466E-03 -.469E-03 -.318E-02
   -.349E-01 -.349E-01 0.571E+02   0.368E-01 0.361E-01 -.620E+02   -.197E-02 -.189E-02 0.497E+01   -.305E-03 0.225E-03 -.377E-02
   0.117E-01 -.183E-03 0.571E+02   -.120E-01 0.205E-04 -.620E+02   0.173E-05 0.155E-04 0.497E+01   0.204E-03 0.148E-03 -.375E-02
   0.244E-01 -.743E-01 0.571E+02   -.262E-01 0.732E-01 -.620E+02   0.317E-02 0.385E-02 0.496E+01   0.101E-03 -.220E-03 -.342E-02
   0.261E-01 0.705E-01 0.571E+02   -.262E-01 -.732E-01 -.620E+02   -.567E-03 0.231E-02 0.497E+01   -.182E-03 0.606E-03 -.305E-02
   -.384E-01 0.350E-01 0.571E+02   0.368E-01 -.361E-01 -.620E+02   0.367E-02 0.119E-02 0.497E+01   -.201E-03 0.155E-03 -.317E-02
   0.115E-01 -.134E-03 0.571E+02   -.120E-01 -.205E-04 -.620E+02   0.563E-04 0.117E-04 0.497E+01   0.382E-03 0.143E-03 -.333E-02
   -.659E+00 0.194E-02 -.122E+04   0.655E+00 -.150E-02 0.122E+04   0.522E-01 -.183E-03 -.485E+01   -.431E-03 -.346E-03 -.451E-03
   0.151E+00 -.291E-03 -.122E+04   -.152E+00 0.201E-11 0.122E+04   -.359E-02 0.239E-03 -.495E+01   -.199E-04 -.311E-03 0.146E-03
   0.151E+00 0.236E-03 -.122E+04   -.152E+00 -.955E-11 0.122E+04   -.664E-03 0.111E-03 -.495E+01   0.450E-03 -.470E-03 -.442E-03
   -.188E-02 0.888E-01 -.122E+04   0.208E-02 -.896E-01 0.122E+04   -.149E-02 -.222E-02 -.496E+01   -.262E-03 0.193E-03 0.952E-04
   0.281E-01 -.234E-03 -.122E+04   -.283E-01 0.531E-04 0.122E+04   0.203E-03 0.134E-04 -.496E+01   0.183E-03 0.169E-03 0.187E-03
   -.180E-02 -.883E-01 -.122E+04   0.283E-02 0.887E-01 0.122E+04   -.355E-03 -.492E-03 -.495E+01   0.782E-04 -.205E-03 -.267E-03
   -.249E-02 0.877E-01 -.122E+04   0.283E-02 -.887E-01 0.122E+04   0.734E-04 0.601E-03 -.496E+01   -.955E-04 0.612E-03 -.529E-03
   -.121E-02 -.883E-01 -.122E+04   0.208E-02 0.896E-01 0.122E+04   -.174E-02 0.176E-02 -.495E+01   -.260E-03 0.199E-03 -.298E-03
   0.279E-01 -.119E-03 -.122E+04   -.283E-01 -.531E-04 0.122E+04   0.293E-03 0.873E-05 -.495E+01   0.356E-03 0.166E-03 -.394E-03
 -----------------------------------------------------------------------------------------------
   -.292E-01 0.190E-03 0.102E+01   0.131E-12 0.364E-13 -.205E-11   0.277E-01 -.127E-03 -.782E+00   0.145E-04 -.977E-05 -.232E+00
 
 
 POSITION                                       TOTAL-FORCE (eV/Angst)
 -----------------------------------------------------------------------------------
      0.00000      0.00000     10.13660         0.000047     -0.000028     -0.003578
      3.25324      0.00000     10.13660         0.000334      0.000076     -0.001716
      6.50648      0.00000     10.13660        -0.000303      0.000036     -0.001711
      1.62662      2.81739     10.13660         0.000255      0.000231     -0.001707
      4.87986      2.81739     10.13660        -0.000020     -0.000033     -0.000950
      8.13310      2.81739     10.13660        -0.000130      0.000204     -0.001706
      3.25324      5.63478     10.13660        -0.000083     -0.000301     -0.001729
      6.50648      5.63478     10.13660         0.000109     -0.000223     -0.001705
      9.75972      5.63478     10.13660         0.000070      0.000032     -0.001024
      1.62662      0.93913      8.44958         0.001472      0.000822      0.000192
      4.87986      0.93913      8.44958         0.000029     -0.001055     -0.000072
      8.13310      0.93913      8.44958        -0.001422      0.000805      0.000197
      3.25324      3.75652      8.44958        -0.000877      0.000510     -0.000109
      6.50648      3.75652      8.44958         0.000911      0.000557     -0.000097
      9.75972      3.75652      8.44958         0.000047      0.000920     -0.000964
      4.87986      6.57391      8.44958         0.000064     -0.001666      0.000234
      8.13310      6.57391      8.44958         0.000797     -0.000459     -0.000899
     11.38635      6.57391      8.44958        -0.000775     -0.000437     -0.000909
      1.62662      0.93913     11.82231        -0.000183     -0.000129      0.006191
      4.87986      0.93913     11.82231         0.000050     -0.004011      0.003745
      8.13310      0.93913     11.82231         0.000239     -0.000161      0.006166
      3.25324      3.75652     11.82231        -0.003425      0.001992      0.003770
      6.50648      3.75652     11.82231         0.003479      0.002031      0.003775
      9.75972      3.75652     11.82231         0.000057      0.001685      0.000935
      4.87986      6.57391     11.82231         0.000061      0.000247      0.006136
      8.13310      6.57391     11.82231         0.001462     -0.000838      0.000850
     11.38635      6.57391     11.82231        -0.001433     -0.000820      0.000901
      1.62662      0.93913     16.36364         0.008417      0.008700     -0.033831
      4.87986      0.93913     16.36364        -0.000358     -0.000366     -0.009784
      8.13310      0.93913     16.36364        -0.046352      0.022945     -0.061264
      3.25324      3.75652     16.36364        -0.000427      0.000027     -0.009799
      6.50648      3.75652     16.36364         0.000228      0.000319     -0.009813
      9.75972      3.75652     16.36364         0.001845      0.000521     -0.010027
      4.87986      6.57391     16.36364        -0.006625     -0.031489     -0.047418
      8.13310      6.57391     16.36364         0.000086      0.001016     -0.009313
     11.38635      6.57391     16.36364        -0.000861     -0.001561     -0.010861
      0.00000      0.00000     14.82098         0.000960      0.000019     -0.013180
      3.25324      0.00000     14.82098        -0.000431     -0.000566      0.005751
      6.50648      0.00000     14.82098        -0.001228     -0.002033      0.004414
      1.62662      2.81739     14.82098        -0.000407     -0.000522      0.005896
      4.87986      2.81739     14.82098        -0.000037      0.000000      0.004432
      8.13310      2.81739     14.82098         0.001446      0.002528      0.004276
      3.25324      5.63478     14.82098        -0.000811      0.000256      0.005222
      6.50648      5.63478     14.82098         0.001872      0.000331      0.004946
      9.75972      5.63478     14.82098        -0.000032     -0.000001      0.004579
      9.75534      0.00000     17.89790         0.048733     -0.000093      0.134888
      3.25324      0.00000     17.90688        -0.004743     -0.000364      0.004737
      6.50648      0.00000     17.90688        -0.000999     -0.000125      0.003663
      1.62662      2.81739     17.90688        -0.001550     -0.002818      0.004366
      4.87986      2.81739     17.90688         0.000234     -0.000000      0.000706
      8.13310      2.81739     17.90688         0.000760     -0.000205      0.004024
      3.25324      5.63478     17.90688         0.000325      0.000196      0.003850
      6.50648      5.63478     17.90688        -0.001120      0.003297      0.004574
      9.75972      5.63478     17.90688         0.000243      0.000001      0.000752
 -----------------------------------------------------------------------------------
    total drift:                               -0.001478      0.000054      0.008692


--------------------------------------------------------------------------------------------------------



  FREE ENERGIE OF THE ION-ELECTRON SYSTEM (eV)
  ---------------------------------------------------
  free  energy   TOTEN  =      -412.39901102 eV

  energy  without entropy=     -412.39901102  energy(sigma->0) =     -412.39901102
 


--------------------------------------------------------------------------------------------------------


    POTLOK:  cpu time      0.2229: real time      0.2229


--------------------------------------------------------------------------------------------------------


     LOOP+:  cpu time    231.6134: real time    231.6443
    4ORBIT:  cpu time      0.0000: real time      0.0000

 total amount of memory used by VASP MPI-rank0   147274. kBytes
=======================================================================

   base                                    :      30000. kBytes
   nonlr-proj                              :      18792. kBytes
   fftplans                                :      13412. kBytes
   grid                                    :      23521. kBytes
   one-center                              :        217. kBytes
   wavefun                                 :      61332. kBytes
 
  
  
 General timing and accounting informations for this job:
 ========================================================
  
                  Total CPU time used (sec):      237.769
                            User time (sec):      232.561
                          System time (sec):        5.207
                         Elapsed time (sec):      239.387
  
                   Maximum memory used (kb):      449956.
                   Average memory used (kb):          N/A
  
                          Minor page faults:        47623
                          Major page faults:           54
                 Voluntary context switches:         1766
