  45  45   0   0
  0.3686441E+02  0.9786549E-09  0.9786549E-09  0.2000000E-08  0.5000000E-15
  1.000000000000000E-004
  CAR 
 WSe2_GaN_TM_TX phonon                   
      7.86480872    -78.28890107  301     -0.10440944      1.00000000
    -78.289  0.0000E+00  0.0000E+00
    -78.002  0.0000E+00  0.0000E+00
    -77.715  0.0000E+00  0.0000E+00
    -77.427  0.0000E+00  0.0000E+00
    -77.140  0.0000E+00  0.0000E+00
    -76.853  0.0000E+00  0.0000E+00
    -76.566  0.0000E+00  0.0000E+00
    -76.279  0.0000E+00  0.0000E+00
    -75.991  0.0000E+00  0.0000E+00
    -75.704  0.0000E+00  0.0000E+00
    -75.417  0.0000E+00  0.0000E+00
    -75.130  0.0000E+00  0.0000E+00
    -74.843  0.0000E+00  0.0000E+00
    -74.556  0.2284E-05  0.6560E-06
    -74.268  0.6246E+02  0.1794E+02
    -73.981  0.2199E+00  0.1800E+02
    -73.694  0.0000E+00  0.1800E+02
    -73.407  0.0000E+00  0.1800E+02
    -73.120  0.0000E+00  0.1800E+02
    -72.832  0.0000E+00  0.1800E+02
    -72.545  0.0000E+00  0.1800E+02
    -72.258  0.0000E+00  0.1800E+02
    -71.971  0.0000E+00  0.1800E+02
    -71.684  0.0000E+00  0.1800E+02
    -71.397  0.0000E+00  0.1800E+02
    -71.109  0.0000E+00  0.1800E+02
    -70.822  0.0000E+00  0.1800E+02
    -70.535  0.0000E+00  0.1800E+02
    -70.248  0.0000E+00  0.1800E+02
    -69.961  0.0000E+00  0.1800E+02
    -69.674  0.0000E+00  0.1800E+02
    -69.386  0.0000E+00  0.1800E+02
    -69.099  0.0000E+00  0.1800E+02
    -68.812  0.0000E+00  0.1800E+02
    -68.525  0.0000E+00  0.1800E+02
    -68.238  0.0000E+00  0.1800E+02
    -67.950  0.0000E+00  0.1800E+02
    -67.663  0.0000E+00  0.1800E+02
    -67.376  0.0000E+00  0.1800E+02
    -67.089  0.0000E+00  0.1800E+02
    -66.802  0.0000E+00  0.1800E+02
    -66.515  0.0000E+00  0.1800E+02
    -66.227  0.0000E+00  0.1800E+02
    -65.940  0.0000E+00  0.1800E+02
    -65.653  0.0000E+00  0.1800E+02
    -65.366  0.0000E+00  0.1800E+02
    -65.079  0.0000E+00  0.1800E+02
    -64.791  0.0000E+00  0.1800E+02
    -64.504  0.0000E+00  0.1800E+02
    -64.217  0.0000E+00  0.1800E+02
    -63.930  0.0000E+00  0.1800E+02
    -63.643  0.0000E+00  0.1800E+02
    -63.356  0.0000E+00  0.1800E+02
    -63.068  0.0000E+00  0.1800E+02
    -62.781  0.0000E+00  0.1800E+02
    -62.494  0.0000E+00  0.1800E+02
    -62.207  0.0000E+00  0.1800E+02
    -61.920  0.0000E+00  0.1800E+02
    -61.633  0.0000E+00  0.1800E+02
    -61.345  0.0000E+00  0.1800E+02
    -61.058  0.0000E+00  0.1800E+02
    -60.771  0.0000E+00  0.1800E+02
    -60.484  0.0000E+00  0.1800E+02
    -60.197  0.0000E+00  0.1800E+02
    -59.909  0.0000E+00  0.1800E+02
    -59.622  0.0000E+00  0.1800E+02
    -59.335  0.0000E+00  0.1800E+02
    -59.048  0.0000E+00  0.1800E+02
    -58.761  0.0000E+00  0.1800E+02
    -58.474  0.0000E+00  0.1800E+02
    -58.186  0.0000E+00  0.1800E+02
    -57.899  0.0000E+00  0.1800E+02
    -57.612  0.0000E+00  0.1800E+02
    -57.325  0.0000E+00  0.1800E+02
    -57.038  0.0000E+00  0.1800E+02
    -56.750  0.0000E+00  0.1800E+02
    -56.463  0.0000E+00  0.1800E+02
    -56.176  0.0000E+00  0.1800E+02
    -55.889  0.0000E+00  0.1800E+02
    -55.602  0.0000E+00  0.1800E+02
    -55.315  0.0000E+00  0.1800E+02
    -55.027  0.0000E+00  0.1800E+02
    -54.740  0.0000E+00  0.1800E+02
    -54.453  0.0000E+00  0.1800E+02
    -54.166  0.0000E+00  0.1800E+02
    -53.879  0.0000E+00  0.1800E+02
    -53.592  0.0000E+00  0.1800E+02
    -53.304  0.0000E+00  0.1800E+02
    -53.017  0.0000E+00  0.1800E+02
    -52.730  0.0000E+00  0.1800E+02
    -52.443  0.0000E+00  0.1800E+02
    -52.156  0.0000E+00  0.1800E+02
    -51.868  0.0000E+00  0.1800E+02
    -51.581  0.0000E+00  0.1800E+02
    -51.294  0.0000E+00  0.1800E+02
    -51.007  0.0000E+00  0.1800E+02
    -50.720  0.0000E+00  0.1800E+02
    -50.433  0.0000E+00  0.1800E+02
    -50.145  0.0000E+00  0.1800E+02
    -49.858  0.0000E+00  0.1800E+02
    -49.571  0.0000E+00  0.1800E+02
    -49.284  0.0000E+00  0.1800E+02
    -48.997  0.0000E+00  0.1800E+02
    -48.709  0.0000E+00  0.1800E+02
    -48.422  0.0000E+00  0.1800E+02
    -48.135  0.0000E+00  0.1800E+02
    -47.848  0.0000E+00  0.1800E+02
    -47.561  0.0000E+00  0.1800E+02
    -47.274  0.0000E+00  0.1800E+02
    -46.986  0.0000E+00  0.1800E+02
    -46.699  0.0000E+00  0.1800E+02
    -46.412  0.0000E+00  0.1800E+02
    -46.125  0.0000E+00  0.1800E+02
    -45.838  0.0000E+00  0.1800E+02
    -45.550  0.0000E+00  0.1800E+02
    -45.263  0.0000E+00  0.1800E+02
    -44.976  0.0000E+00  0.1800E+02
    -44.689  0.0000E+00  0.1800E+02
    -44.402  0.0000E+00  0.1800E+02
    -44.115  0.0000E+00  0.1800E+02
    -43.827  0.0000E+00  0.1800E+02
    -43.540  0.0000E+00  0.1800E+02
    -43.253  0.0000E+00  0.1800E+02
    -42.966  0.0000E+00  0.1800E+02
    -42.679  0.0000E+00  0.1800E+02
    -42.392  0.0000E+00  0.1800E+02
    -42.104  0.0000E+00  0.1800E+02
    -41.817  0.0000E+00  0.1800E+02
    -41.530  0.0000E+00  0.1800E+02
    -41.243  0.0000E+00  0.1800E+02
    -40.956  0.0000E+00  0.1800E+02
    -40.668  0.0000E+00  0.1800E+02
    -40.381  0.0000E+00  0.1800E+02
    -40.094  0.0000E+00  0.1800E+02
    -39.807  0.0000E+00  0.1800E+02
    -39.520  0.0000E+00  0.1800E+02
    -39.233  0.0000E+00  0.1800E+02
    -38.945  0.4741E-09  0.1800E+02
    -38.658  0.3650E+02  0.2848E+02
    -38.371  0.1515E+03  0.7200E+02
    -38.084  0.6122E-02  0.7200E+02
    -37.797  0.0000E+00  0.7200E+02
    -37.509  0.0000E+00  0.7200E+02
    -37.222  0.0000E+00  0.7200E+02
    -36.935  0.0000E+00  0.7200E+02
    -36.648  0.0000E+00  0.7200E+02
    -36.361  0.0000E+00  0.7200E+02
    -36.074  0.0000E+00  0.7200E+02
    -35.786  0.0000E+00  0.7200E+02
    -35.499  0.0000E+00  0.7200E+02
    -35.212  0.0000E+00  0.7200E+02
    -34.925  0.0000E+00  0.7200E+02
    -34.638  0.0000E+00  0.7200E+02
    -34.351  0.0000E+00  0.7200E+02
    -34.063  0.0000E+00  0.7200E+02
    -33.776  0.0000E+00  0.7200E+02
    -33.489  0.0000E+00  0.7200E+02
    -33.202  0.0000E+00  0.7200E+02
    -32.915  0.0000E+00  0.7200E+02
    -32.627  0.0000E+00  0.7200E+02
    -32.340  0.0000E+00  0.7200E+02
    -32.053  0.0000E+00  0.7200E+02
    -31.766  0.0000E+00  0.7200E+02
    -31.479  0.0000E+00  0.7200E+02
    -31.192  0.0000E+00  0.7200E+02
    -30.904  0.0000E+00  0.7200E+02
    -30.617  0.0000E+00  0.7200E+02
    -30.330  0.0000E+00  0.7200E+02
    -30.043  0.0000E+00  0.7200E+02
    -29.756  0.0000E+00  0.7200E+02
    -29.468  0.0000E+00  0.7200E+02
    -29.181  0.0000E+00  0.7200E+02
    -28.894  0.0000E+00  0.7200E+02
    -28.607  0.0000E+00  0.7200E+02
    -28.320  0.0000E+00  0.7200E+02
    -28.033  0.0000E+00  0.7200E+02
    -27.745  0.0000E+00  0.7200E+02
    -27.458  0.0000E+00  0.7200E+02
    -27.171  0.0000E+00  0.7200E+02
    -26.884  0.0000E+00  0.7200E+02
    -26.597  0.0000E+00  0.7200E+02
    -26.309  0.0000E+00  0.7200E+02
    -26.022  0.0000E+00  0.7200E+02
    -25.735  0.0000E+00  0.7200E+02
    -25.448  0.0000E+00  0.7200E+02
    -25.161  0.0000E+00  0.7200E+02
    -24.874  0.0000E+00  0.7200E+02
    -24.586  0.0000E+00  0.7200E+02
    -24.299  0.0000E+00  0.7200E+02
    -24.012  0.0000E+00  0.7200E+02
    -23.725  0.0000E+00  0.7200E+02
    -23.438  0.0000E+00  0.7200E+02
    -23.151  0.0000E+00  0.7200E+02
    -22.863  0.0000E+00  0.7200E+02
    -22.576  0.0000E+00  0.7200E+02
    -22.289  0.0000E+00  0.7200E+02
    -22.002  0.0000E+00  0.7200E+02
    -21.715  0.0000E+00  0.7200E+02
    -21.427  0.0000E+00  0.7200E+02
    -21.140  0.0000E+00  0.7200E+02
    -20.853  0.0000E+00  0.7200E+02
    -20.566  0.0000E+00  0.7200E+02
    -20.279  0.0000E+00  0.7200E+02
    -19.992  0.0000E+00  0.7200E+02
    -19.704  0.0000E+00  0.7200E+02
    -19.417  0.0000E+00  0.7200E+02
    -19.130  0.0000E+00  0.7200E+02
    -18.843  0.0000E+00  0.7200E+02
    -18.556  0.0000E+00  0.7200E+02
    -18.268  0.0000E+00  0.7200E+02
    -17.981  0.0000E+00  0.7200E+02
    -17.694  0.0000E+00  0.7200E+02
    -17.407  0.0000E+00  0.7200E+02
    -17.120  0.0000E+00  0.7200E+02
    -16.833  0.0000E+00  0.7200E+02
    -16.545  0.0000E+00  0.7200E+02
    -16.258  0.0000E+00  0.7200E+02
    -15.971  0.0000E+00  0.7200E+02
    -15.684  0.0000E+00  0.7200E+02
    -15.397  0.7553E-06  0.7200E+02
    -15.110  0.1885E+01  0.7254E+02
    -14.822  0.5314E+01  0.7407E+02
    -14.535  0.1118E+02  0.7728E+02
    -14.248  0.1299E+02  0.8101E+02
    -13.961  0.1513E+02  0.8536E+02
    -13.674  0.2344E+02  0.9209E+02
    -13.386  0.3188E+02  0.1012E+03
    -13.099  0.4366E+02  0.1138E+03
    -12.812  0.3906E+02  0.1250E+03
    -12.525  0.3480E+01  0.1260E+03
    -12.238  0.0000E+00  0.1260E+03
    -11.951  0.0000E+00  0.1260E+03
    -11.663  0.0000E+00  0.1260E+03
    -11.376  0.0000E+00  0.1260E+03
    -11.089  0.0000E+00  0.1260E+03
    -10.802  0.0000E+00  0.1260E+03
    -10.515  0.0000E+00  0.1260E+03
    -10.227  0.0000E+00  0.1260E+03
     -9.940  0.0000E+00  0.1260E+03
     -9.653  0.0000E+00  0.1260E+03
     -9.366  0.0000E+00  0.1260E+03
     -9.079  0.0000E+00  0.1260E+03
     -8.792  0.0000E+00  0.1260E+03
     -8.504  0.0000E+00  0.1260E+03
     -8.217  0.0000E+00  0.1260E+03
     -7.930  0.0000E+00  0.1260E+03
     -7.643  0.0000E+00  0.1260E+03
     -7.356  0.0000E+00  0.1260E+03
     -7.069  0.3000E-14  0.1260E+03
     -6.781  0.1875E+01  0.1265E+03
     -6.494  0.1678E+02  0.1314E+03
     -6.207  0.2499E+02  0.1385E+03
     -5.920  0.2421E+02  0.1455E+03
     -5.633  0.2569E+02  0.1529E+03
     -5.345  0.2940E+02  0.1613E+03
     -5.058  0.1312E+02  0.1651E+03
     -4.771  0.2098E+02  0.1711E+03
     -4.484  0.3847E+02  0.1822E+03
     -4.197  0.2083E+02  0.1881E+03
     -3.910  0.1736E+02  0.1931E+03
     -3.622  0.3384E+02  0.2028E+03
     -3.335  0.3511E+02  0.2129E+03
     -3.048  0.2641E+02  0.2205E+03
     -2.761  0.2002E+02  0.2263E+03
     -2.474  0.6030E+02  0.2436E+03
     -2.186  0.4004E+02  0.2551E+03
     -1.899  0.2872E+02  0.2633E+03
     -1.612  0.2680E+02  0.2710E+03
     -1.325  0.3313E+02  0.2805E+03
     -1.038  0.4232E+02  0.2927E+03
     -0.751  0.3745E+02  0.3034E+03
     -0.463  0.8005E+01  0.3057E+03
     -0.176  0.9144E+00  0.3060E+03
      0.111  0.0000E+00  0.3060E+03
      0.398  0.0000E+00  0.3060E+03
      0.685  0.0000E+00  0.3060E+03
      0.973  0.0000E+00  0.3060E+03
      1.260  0.1381E+01  0.3064E+03
      1.547  0.1922E+02  0.3119E+03
      1.834  0.2598E+02  0.3194E+03
      2.121  0.2744E+02  0.3273E+03
      2.408  0.4387E+02  0.3399E+03
      2.696  0.4340E+02  0.3523E+03
      2.983  0.2218E+02  0.3587E+03
      3.270  0.1994E+02  0.3644E+03
      3.557  0.1336E+02  0.3683E+03
      3.844  0.1718E+02  0.3732E+03
      4.131  0.2814E+01  0.3740E+03
      4.419  0.0000E+00  0.3740E+03
      4.706  0.0000E+00  0.3740E+03
      4.993  0.0000E+00  0.3740E+03
      5.280  0.0000E+00  0.3740E+03
      5.567  0.0000E+00  0.3740E+03
      5.855  0.0000E+00  0.3740E+03
      6.142  0.0000E+00  0.3740E+03
      6.429  0.0000E+00  0.3740E+03
      6.716  0.0000E+00  0.3740E+03
      7.003  0.0000E+00  0.3740E+03
      7.290  0.0000E+00  0.3740E+03
      7.578  0.0000E+00  0.3740E+03
      7.865  0.0000E+00  0.3740E+03
