Bilayer WS2/WTe2 2H (relaxed monolayers)
    1.000000000000000     
     3.3155139999999999    0.0000000000000000    0.0000000000000000
     1.6577569999999999    2.8713193506029588    0.0000000000000000
     0.0000000000000000    0.0000000000000000   20.0000000000000000
  W               S               Te            
     2     2     2
Direct
     0.0000000000000000   -0.0000000000000000    0.4980769511353981
     0.3333333333333357    0.3333333333333357    0.8233618397152187
     0.3333333333333357    0.3333333333333357    0.4219690100350323
     0.3333333333333357    0.3333333333333357    0.5742351408604272
    -0.0000000000000000   -0.0000000000000000    0.7279602809960202
     0.0000000000000000    0.0000000000000000    0.9186855864823976
 
  0.00000000E+00  0.00000000E+00  0.00000000E+00
  0.00000000E+00  0.00000000E+00  0.00000000E+00
  0.00000000E+00  0.00000000E+00  0.00000000E+00
  0.00000000E+00  0.00000000E+00  0.00000000E+00
  0.00000000E+00  0.00000000E+00  0.00000000E+00
  0.00000000E+00  0.00000000E+00  0.00000000E+00
