Bilayer GaSe/InSe BA (relaxed monolayers
   1.00000000000000     
     3.9071544397363169    0.0000000000000000    0.0000000000000000
     1.9535772198681585    3.3836950013208060    0.0000000000000000
     0.0000000000000000    0.0000000000000000   20.0000000000000000
   Ga   Se   In
     2     4     2
Direct
    -0.0000000000000000   -0.0000000000000000    0.4357013714647207
    -0.0000000000000000   -0.0000000000000000    0.5586717208084793
     0.3333333333333357    0.3333333333333357    0.3793607142935555
     0.3333333333333357    0.3333333333333357    0.6151213412376826
     0.0000000000000000    0.0000000000000000    0.9447785427576266
     0.0000000000000000   -0.0000000000000000    0.2219805110242722
     0.6666666666666643    0.6666666666666643    0.0138027865500479
     0.6666666666666643    0.6666666666666643    0.1531064103137386
 
  0.00000000E+00  0.00000000E+00  0.00000000E+00
  0.00000000E+00  0.00000000E+00  0.00000000E+00
  0.00000000E+00  0.00000000E+00  0.00000000E+00
  0.00000000E+00  0.00000000E+00  0.00000000E+00
  0.00000000E+00  0.00000000E+00  0.00000000E+00
  0.00000000E+00  0.00000000E+00  0.00000000E+00
  0.00000000E+00  0.00000000E+00  0.00000000E+00
  0.00000000E+00  0.00000000E+00  0.00000000E+00
