MoSe2 phonon                            
           1
     9.966781    0.000000    0.000000
     4.983390    8.631485    0.000000
     0.000000    0.000000   20.000000
   Mo   Se
     9    18
Direct configuration=     1
   0.00000000  0.00000000  0.50000000
   0.33333333  0.00000000  0.50000000
   0.66666667  0.00000000  0.50000000
   0.00000000  0.33333333  0.50000000
   0.33333333  0.33333333  0.50000000
   0.66666667  0.33333333  0.50000000
   0.00000000  0.66666667  0.50000000
   0.33333333  0.66666667  0.50000000
   0.66666667  0.66666667  0.50000000
   0.11155862  0.11111111  0.41728526
   0.44444444  0.11111111  0.41683775
   0.77777778  0.11111111  0.41683775
   0.11111111  0.44444444  0.41683775
   0.44444444  0.44444444  0.41683775
   0.77777778  0.44444444  0.41683775
   0.11111111  0.77777778  0.41683775
   0.44444444  0.77777778  0.41683775
   0.77777778  0.77777778  0.41683775
   0.11111111  0.11111111  0.58316225
   0.44444444  0.11111111  0.58316225
   0.77777778  0.11111111  0.58316225
   0.11111111  0.44444444  0.58316225
   0.44444444  0.44444444  0.58316225
   0.77777778  0.44444444  0.58316225
   0.11111111  0.77777778  0.58316225
   0.44444444  0.77777778  0.58316225
   0.77777778  0.77777778  0.58316225
