Bilayer WS2/WSe2 3R (relaxed monolayers)
   1.00000000000000     
     3.3171194664272798    0.0000000000000000    0.0000000000000000
     1.6585597332136399    2.8727097253139062    0.0000000000000000
     0.0000000000000000    0.0000000000000000   20.0000000000000000
   W    S    Se
     2     2     2
Direct
     0.0000000000000000   -0.0000000000000000    0.5092881381658453
     0.3333333333333357    0.3333333333333357    0.8157264909253650
     0.3333333333333357    0.3333333333333357    0.4331117140811616
     0.3333333333333357    0.3333333333333357    0.5852930748424017
     0.6666666666666714    0.6666666666666714    0.7320675442457499
     0.6666666666666714    0.6666666666666714    0.8995130377395130
 
  0.00000000E+00  0.00000000E+00  0.00000000E+00
  0.00000000E+00  0.00000000E+00  0.00000000E+00
  0.00000000E+00  0.00000000E+00  0.00000000E+00
  0.00000000E+00  0.00000000E+00  0.00000000E+00
  0.00000000E+00  0.00000000E+00  0.00000000E+00
  0.00000000E+00  0.00000000E+00  0.00000000E+00
