Mo1 Se2                                 
   1.00000000000000     
     3.2835826082764727    0.0000000000000000    0.0000000000000000
     1.6417913041382364    2.8436659541921920    0.0000000000000000
     0.0000000000000000    0.0000000000000000   20.4739381066415831
   Mo   Se
     1     2
Direct
     0.0000000000000000   -0.0000000000000000    0.5000000000000000
     0.3333333333333357    0.3333333333333357    0.4180808361977197
     0.3333333333333357    0.3333333333333357    0.5819191638022728
 
  0.00000000E+00  0.00000000E+00  0.00000000E+00
  0.00000000E+00  0.00000000E+00  0.00000000E+00
  0.00000000E+00  0.00000000E+00  0.00000000E+00
