Bilayer WSe2/WSe2 2H (relaxed monolayers
   1.00000000000000     
     3.2856090000000004    0.0000000000000018   -0.0000000000000004
     1.6428045000001912    2.8454208609028280    0.0000000000000001
     0.0000000000000001    0.0000000000000006   20.4212239042148518
   W    Se
     2     4
Direct
    -0.0000000000000000   -0.0000000000000000    0.5051515281708255
     0.3333333333333357    0.3333333333333357    0.8198484718291773
     0.3333333333333357    0.3333333333333357    0.4225313319883113
     0.3333333333333357    0.3333333333333357    0.5877287889619144
    -0.0000000000000000    0.0000000000000000    0.7372712110380885
     0.0000000000000000   -0.0000000000000000    0.9024686680117487
 
  0.00000000E+00  0.00000000E+00  0.00000000E+00
  0.00000000E+00  0.00000000E+00  0.00000000E+00
  0.00000000E+00  0.00000000E+00  0.00000000E+00
  0.00000000E+00  0.00000000E+00  0.00000000E+00
  0.00000000E+00  0.00000000E+00  0.00000000E+00
  0.00000000E+00  0.00000000E+00  0.00000000E+00
