  45  45   0   0
  0.3686441E+02  0.9786549E-09  0.9786549E-09  0.2000000E-08  0.5000000E-15
  1.000000000000000E-004
  CAR 
 WSe2_GaN_TM_TX phonon                   
      7.86186561    -78.28863256  301     -0.10705547      1.00000000
    -78.289  0.0000E+00  0.0000E+00
    -78.001  0.0000E+00  0.0000E+00
    -77.714  0.0000E+00  0.0000E+00
    -77.427  0.0000E+00  0.0000E+00
    -77.140  0.0000E+00  0.0000E+00
    -76.853  0.0000E+00  0.0000E+00
    -76.566  0.0000E+00  0.0000E+00
    -76.278  0.0000E+00  0.0000E+00
    -75.991  0.0000E+00  0.0000E+00
    -75.704  0.0000E+00  0.0000E+00
    -75.417  0.0000E+00  0.0000E+00
    -75.130  0.0000E+00  0.0000E+00
    -74.843  0.0000E+00  0.0000E+00
    -74.555  0.2287E-05  0.6567E-06
    -74.268  0.6246E+02  0.1794E+02
    -73.981  0.2200E+00  0.1800E+02
    -73.694  0.0000E+00  0.1800E+02
    -73.407  0.0000E+00  0.1800E+02
    -73.120  0.0000E+00  0.1800E+02
    -72.832  0.0000E+00  0.1800E+02
    -72.545  0.0000E+00  0.1800E+02
    -72.258  0.0000E+00  0.1800E+02
    -71.971  0.0000E+00  0.1800E+02
    -71.684  0.0000E+00  0.1800E+02
    -71.397  0.0000E+00  0.1800E+02
    -71.109  0.0000E+00  0.1800E+02
    -70.822  0.0000E+00  0.1800E+02
    -70.535  0.0000E+00  0.1800E+02
    -70.248  0.0000E+00  0.1800E+02
    -69.961  0.0000E+00  0.1800E+02
    -69.674  0.0000E+00  0.1800E+02
    -69.386  0.0000E+00  0.1800E+02
    -69.099  0.0000E+00  0.1800E+02
    -68.812  0.0000E+00  0.1800E+02
    -68.525  0.0000E+00  0.1800E+02
    -68.238  0.0000E+00  0.1800E+02
    -67.951  0.0000E+00  0.1800E+02
    -67.663  0.0000E+00  0.1800E+02
    -67.376  0.0000E+00  0.1800E+02
    -67.089  0.0000E+00  0.1800E+02
    -66.802  0.0000E+00  0.1800E+02
    -66.515  0.0000E+00  0.1800E+02
    -66.228  0.0000E+00  0.1800E+02
    -65.940  0.0000E+00  0.1800E+02
    -65.653  0.0000E+00  0.1800E+02
    -65.366  0.0000E+00  0.1800E+02
    -65.079  0.0000E+00  0.1800E+02
    -64.792  0.0000E+00  0.1800E+02
    -64.505  0.0000E+00  0.1800E+02
    -64.217  0.0000E+00  0.1800E+02
    -63.930  0.0000E+00  0.1800E+02
    -63.643  0.0000E+00  0.1800E+02
    -63.356  0.0000E+00  0.1800E+02
    -63.069  0.0000E+00  0.1800E+02
    -62.782  0.0000E+00  0.1800E+02
    -62.494  0.0000E+00  0.1800E+02
    -62.207  0.0000E+00  0.1800E+02
    -61.920  0.0000E+00  0.1800E+02
    -61.633  0.0000E+00  0.1800E+02
    -61.346  0.0000E+00  0.1800E+02
    -61.059  0.0000E+00  0.1800E+02
    -60.771  0.0000E+00  0.1800E+02
    -60.484  0.0000E+00  0.1800E+02
    -60.197  0.0000E+00  0.1800E+02
    -59.910  0.0000E+00  0.1800E+02
    -59.623  0.0000E+00  0.1800E+02
    -59.336  0.0000E+00  0.1800E+02
    -59.048  0.0000E+00  0.1800E+02
    -58.761  0.0000E+00  0.1800E+02
    -58.474  0.0000E+00  0.1800E+02
    -58.187  0.0000E+00  0.1800E+02
    -57.900  0.0000E+00  0.1800E+02
    -57.613  0.0000E+00  0.1800E+02
    -57.325  0.0000E+00  0.1800E+02
    -57.038  0.0000E+00  0.1800E+02
    -56.751  0.0000E+00  0.1800E+02
    -56.464  0.0000E+00  0.1800E+02
    -56.177  0.0000E+00  0.1800E+02
    -55.890  0.0000E+00  0.1800E+02
    -55.602  0.0000E+00  0.1800E+02
    -55.315  0.0000E+00  0.1800E+02
    -55.028  0.0000E+00  0.1800E+02
    -54.741  0.0000E+00  0.1800E+02
    -54.454  0.0000E+00  0.1800E+02
    -54.166  0.0000E+00  0.1800E+02
    -53.879  0.0000E+00  0.1800E+02
    -53.592  0.0000E+00  0.1800E+02
    -53.305  0.0000E+00  0.1800E+02
    -53.018  0.0000E+00  0.1800E+02
    -52.731  0.0000E+00  0.1800E+02
    -52.443  0.0000E+00  0.1800E+02
    -52.156  0.0000E+00  0.1800E+02
    -51.869  0.0000E+00  0.1800E+02
    -51.582  0.0000E+00  0.1800E+02
    -51.295  0.0000E+00  0.1800E+02
    -51.008  0.0000E+00  0.1800E+02
    -50.720  0.0000E+00  0.1800E+02
    -50.433  0.0000E+00  0.1800E+02
    -50.146  0.0000E+00  0.1800E+02
    -49.859  0.0000E+00  0.1800E+02
    -49.572  0.0000E+00  0.1800E+02
    -49.285  0.0000E+00  0.1800E+02
    -48.997  0.0000E+00  0.1800E+02
    -48.710  0.0000E+00  0.1800E+02
    -48.423  0.0000E+00  0.1800E+02
    -48.136  0.0000E+00  0.1800E+02
    -47.849  0.0000E+00  0.1800E+02
    -47.562  0.0000E+00  0.1800E+02
    -47.274  0.0000E+00  0.1800E+02
    -46.987  0.0000E+00  0.1800E+02
    -46.700  0.0000E+00  0.1800E+02
    -46.413  0.0000E+00  0.1800E+02
    -46.126  0.0000E+00  0.1800E+02
    -45.839  0.0000E+00  0.1800E+02
    -45.551  0.0000E+00  0.1800E+02
    -45.264  0.0000E+00  0.1800E+02
    -44.977  0.0000E+00  0.1800E+02
    -44.690  0.0000E+00  0.1800E+02
    -44.403  0.0000E+00  0.1800E+02
    -44.116  0.0000E+00  0.1800E+02
    -43.828  0.0000E+00  0.1800E+02
    -43.541  0.0000E+00  0.1800E+02
    -43.254  0.0000E+00  0.1800E+02
    -42.967  0.0000E+00  0.1800E+02
    -42.680  0.0000E+00  0.1800E+02
    -42.393  0.0000E+00  0.1800E+02
    -42.105  0.0000E+00  0.1800E+02
    -41.818  0.0000E+00  0.1800E+02
    -41.531  0.0000E+00  0.1800E+02
    -41.244  0.0000E+00  0.1800E+02
    -40.957  0.0000E+00  0.1800E+02
    -40.670  0.0000E+00  0.1800E+02
    -40.382  0.0000E+00  0.1800E+02
    -40.095  0.0000E+00  0.1800E+02
    -39.808  0.0000E+00  0.1800E+02
    -39.521  0.0000E+00  0.1800E+02
    -39.234  0.0000E+00  0.1800E+02
    -38.947  0.3706E-09  0.1800E+02
    -38.659  0.3570E+02  0.2825E+02
    -38.372  0.1523E+03  0.7200E+02
    -38.085  0.8174E-02  0.7200E+02
    -37.798  0.0000E+00  0.7200E+02
    -37.511  0.0000E+00  0.7200E+02
    -37.224  0.0000E+00  0.7200E+02
    -36.936  0.0000E+00  0.7200E+02
    -36.649  0.0000E+00  0.7200E+02
    -36.362  0.0000E+00  0.7200E+02
    -36.075  0.0000E+00  0.7200E+02
    -35.788  0.0000E+00  0.7200E+02
    -35.501  0.0000E+00  0.7200E+02
    -35.213  0.0000E+00  0.7200E+02
    -34.926  0.0000E+00  0.7200E+02
    -34.639  0.0000E+00  0.7200E+02
    -34.352  0.0000E+00  0.7200E+02
    -34.065  0.0000E+00  0.7200E+02
    -33.778  0.0000E+00  0.7200E+02
    -33.490  0.0000E+00  0.7200E+02
    -33.203  0.0000E+00  0.7200E+02
    -32.916  0.0000E+00  0.7200E+02
    -32.629  0.0000E+00  0.7200E+02
    -32.342  0.0000E+00  0.7200E+02
    -32.055  0.0000E+00  0.7200E+02
    -31.767  0.0000E+00  0.7200E+02
    -31.480  0.0000E+00  0.7200E+02
    -31.193  0.0000E+00  0.7200E+02
    -30.906  0.0000E+00  0.7200E+02
    -30.619  0.0000E+00  0.7200E+02
    -30.332  0.0000E+00  0.7200E+02
    -30.044  0.0000E+00  0.7200E+02
    -29.757  0.0000E+00  0.7200E+02
    -29.470  0.0000E+00  0.7200E+02
    -29.183  0.0000E+00  0.7200E+02
    -28.896  0.0000E+00  0.7200E+02
    -28.609  0.0000E+00  0.7200E+02
    -28.321  0.0000E+00  0.7200E+02
    -28.034  0.0000E+00  0.7200E+02
    -27.747  0.0000E+00  0.7200E+02
    -27.460  0.0000E+00  0.7200E+02
    -27.173  0.0000E+00  0.7200E+02
    -26.886  0.0000E+00  0.7200E+02
    -26.598  0.0000E+00  0.7200E+02
    -26.311  0.0000E+00  0.7200E+02
    -26.024  0.0000E+00  0.7200E+02
    -25.737  0.0000E+00  0.7200E+02
    -25.450  0.0000E+00  0.7200E+02
    -25.162  0.0000E+00  0.7200E+02
    -24.875  0.0000E+00  0.7200E+02
    -24.588  0.0000E+00  0.7200E+02
    -24.301  0.0000E+00  0.7200E+02
    -24.014  0.0000E+00  0.7200E+02
    -23.727  0.0000E+00  0.7200E+02
    -23.439  0.0000E+00  0.7200E+02
    -23.152  0.0000E+00  0.7200E+02
    -22.865  0.0000E+00  0.7200E+02
    -22.578  0.0000E+00  0.7200E+02
    -22.291  0.0000E+00  0.7200E+02
    -22.004  0.0000E+00  0.7200E+02
    -21.716  0.0000E+00  0.7200E+02
    -21.429  0.0000E+00  0.7200E+02
    -21.142  0.0000E+00  0.7200E+02
    -20.855  0.0000E+00  0.7200E+02
    -20.568  0.0000E+00  0.7200E+02
    -20.281  0.0000E+00  0.7200E+02
    -19.993  0.0000E+00  0.7200E+02
    -19.706  0.0000E+00  0.7200E+02
    -19.419  0.0000E+00  0.7200E+02
    -19.132  0.0000E+00  0.7200E+02
    -18.845  0.0000E+00  0.7200E+02
    -18.558  0.0000E+00  0.7200E+02
    -18.270  0.0000E+00  0.7200E+02
    -17.983  0.0000E+00  0.7200E+02
    -17.696  0.0000E+00  0.7200E+02
    -17.409  0.0000E+00  0.7200E+02
    -17.122  0.0000E+00  0.7200E+02
    -16.835  0.0000E+00  0.7200E+02
    -16.547  0.0000E+00  0.7200E+02
    -16.260  0.0000E+00  0.7200E+02
    -15.973  0.0000E+00  0.7200E+02
    -15.686  0.0000E+00  0.7200E+02
    -15.399  0.5656E-06  0.7200E+02
    -15.112  0.1870E+01  0.7254E+02
    -14.824  0.5269E+01  0.7405E+02
    -14.537  0.1117E+02  0.7726E+02
    -14.250  0.1299E+02  0.8099E+02
    -13.963  0.1505E+02  0.8531E+02
    -13.676  0.2338E+02  0.9203E+02
    -13.389  0.3182E+02  0.1012E+03
    -13.101  0.4369E+02  0.1137E+03
    -12.814  0.3915E+02  0.1250E+03
    -12.527  0.3642E+01  0.1260E+03
    -12.240  0.0000E+00  0.1260E+03
    -11.953  0.0000E+00  0.1260E+03
    -11.666  0.0000E+00  0.1260E+03
    -11.378  0.0000E+00  0.1260E+03
    -11.091  0.0000E+00  0.1260E+03
    -10.804  0.0000E+00  0.1260E+03
    -10.517  0.0000E+00  0.1260E+03
    -10.230  0.0000E+00  0.1260E+03
     -9.943  0.0000E+00  0.1260E+03
     -9.655  0.0000E+00  0.1260E+03
     -9.368  0.0000E+00  0.1260E+03
     -9.081  0.0000E+00  0.1260E+03
     -8.794  0.0000E+00  0.1260E+03
     -8.507  0.0000E+00  0.1260E+03
     -8.220  0.0000E+00  0.1260E+03
     -7.932  0.0000E+00  0.1260E+03
     -7.645  0.0000E+00  0.1260E+03
     -7.358  0.0000E+00  0.1260E+03
     -7.071  0.1794E-14  0.1260E+03
     -6.784  0.1789E+01  0.1265E+03
     -6.497  0.1664E+02  0.1313E+03
     -6.209  0.2506E+02  0.1385E+03
     -5.922  0.2413E+02  0.1454E+03
     -5.635  0.2561E+02  0.1528E+03
     -5.348  0.2963E+02  0.1613E+03
     -5.061  0.1311E+02  0.1650E+03
     -4.774  0.2074E+02  0.1710E+03
     -4.486  0.3833E+02  0.1820E+03
     -4.199  0.2111E+02  0.1881E+03
     -3.912  0.1738E+02  0.1931E+03
     -3.625  0.3367E+02  0.2027E+03
     -3.338  0.3522E+02  0.2129E+03
     -3.051  0.2651E+02  0.2205E+03
     -2.763  0.1985E+02  0.2262E+03
     -2.476  0.6030E+02  0.2435E+03
     -2.189  0.3994E+02  0.2550E+03
     -1.902  0.2888E+02  0.2632E+03
     -1.615  0.2684E+02  0.2710E+03
     -1.328  0.3321E+02  0.2805E+03
     -1.040  0.4199E+02  0.2925E+03
     -0.753  0.3768E+02  0.3034E+03
     -0.466  0.8202E+01  0.3057E+03
     -0.179  0.9647E+00  0.3060E+03
      0.108  0.0000E+00  0.3060E+03
      0.395  0.0000E+00  0.3060E+03
      0.683  0.0000E+00  0.3060E+03
      0.970  0.0000E+00  0.3060E+03
      1.257  0.1264E+01  0.3064E+03
      1.544  0.1917E+02  0.3119E+03
      1.831  0.2591E+02  0.3193E+03
      2.118  0.2712E+02  0.3271E+03
      2.406  0.4408E+02  0.3398E+03
      2.693  0.4347E+02  0.3522E+03
      2.980  0.2236E+02  0.3587E+03
      3.267  0.2001E+02  0.3644E+03
      3.554  0.1329E+02  0.3682E+03
      3.842  0.1723E+02  0.3732E+03
      4.129  0.2873E+01  0.3740E+03
      4.416  0.0000E+00  0.3740E+03
      4.703  0.0000E+00  0.3740E+03
      4.990  0.0000E+00  0.3740E+03
      5.277  0.0000E+00  0.3740E+03
      5.565  0.0000E+00  0.3740E+03
      5.852  0.0000E+00  0.3740E+03
      6.139  0.0000E+00  0.3740E+03
      6.426  0.0000E+00  0.3740E+03
      6.713  0.0000E+00  0.3740E+03
      7.000  0.0000E+00  0.3740E+03
      7.288  0.0000E+00  0.3740E+03
      7.575  0.0000E+00  0.3740E+03
      7.862  0.0000E+00  0.3740E+03
