generated by phonopy
   1.0
     9.7865487605270207    0.0000000000000000    0.0000000000000000
     4.8932743802635104    8.4753998419915106    0.0000000000000000
     0.0000000000000000    0.0000000000000000   20.0000000000000000
W Se Ga N
   9   18    9    9
Direct
  0.0000000000000000  0.0000000000000000  0.5237349478283720
  0.3333333333333333  0.0000000000000000  0.5237349478283720
  0.6666666666666666  0.0000000000000000  0.5237349478283720
  0.0000000000000000  0.3333333333333333  0.5237349478283720
  0.3333333333333333  0.3333333333333333  0.5237349478283720
  0.6666666666666666  0.3333333333333333  0.5237349478283720
  0.0000000000000000  0.6666666666666666  0.5237349478283720
  0.3333333333333333  0.6666666666666666  0.5237349478283720
  0.6666666666666666  0.6666666666666666  0.5237349478283720
  0.1111111111111119  0.1111111111111119  0.4388727040673764
  0.4444444444444451  0.1111111111111119  0.4388727040673764
  0.7777777777777786  0.1111111111111119  0.4388727040673764
  0.1111111111111119  0.4444444444444452  0.4388727040673764
  0.4444444444444451  0.4444444444444452  0.4388727040673764
  0.7777777777777787  0.4444444444444452  0.4388727040673764
  0.1111111111111120  0.7777777777777786  0.4388727040673764
  0.4444444444444452  0.7777777777777786  0.4388727040673764
  0.7777777777777786  0.7777777777777786  0.4388727040673764
  0.1111111111111119  0.1111111111111119  0.6086110610764881
  0.4444444444444451  0.1111111111111119  0.6086110610764881
  0.7777777777777786  0.1111111111111119  0.6086110610764881
  0.1111111111111119  0.4444444444444452  0.6086110610764881
  0.4444444444444451  0.4444444444444452  0.6086110610764881
  0.7777777777777787  0.4444444444444452  0.6086110610764881
  0.1111111111111120  0.7777777777777786  0.6086110610764881
  0.4444444444444452  0.7777777777777786  0.6086110610764881
  0.7777777777777786  0.7777777777777786  0.6086110610764881
  0.9995508855635555  0.0000000000000000  0.7885754741135282
  0.3333333333333333  0.0000000000000000  0.7890245885499727
  0.6666666666666666  0.0000000000000000  0.7890245885499727
  0.0000000000000000  0.3333333333333333  0.7890245885499727
  0.3333333333333333  0.3333333333333333  0.7890245885499727
  0.6666666666666666  0.3333333333333333  0.7890245885499727
  0.0000000000000000  0.6666666666666666  0.7890245885499727
  0.3333333333333333  0.6666666666666666  0.7890245885499727
  0.6666666666666666  0.6666666666666666  0.7890245885499727
  0.1111111111111119  0.1111111111111119  0.7897566984777856
  0.4444444444444451  0.1111111111111119  0.7897566984777856
  0.7777777777777786  0.1111111111111119  0.7897566984777856
  0.1111111111111119  0.4444444444444452  0.7897566984777856
  0.4444444444444451  0.4444444444444452  0.7897566984777856
  0.7777777777777787  0.4444444444444452  0.7897566984777856
  0.1111111111111120  0.7777777777777786  0.7897566984777856
  0.4444444444444452  0.7777777777777786  0.7897566984777856
  0.7777777777777786  0.7777777777777786  0.7897566984777856
