W1 Se2                                  
   1.00000000000000     
     3.2882910000000001    0.0000000000000010    0.0000000000000000
     1.6441455000000023    2.8477435410357468    0.0000000000000000
     0.0000000000000000    0.0000000000000000   20.0000000000000000
   W    Se
     1     2
Direct
     0.0000000000000000   -0.0000000000000000    0.5000000000000000
     0.3333333333333357    0.3333333333333357    0.4156631567144961
     0.3333333333333357    0.3333333333333357    0.5843368432855069
 
  0.00000000E+00  0.00000000E+00  0.00000000E+00
  0.00000000E+00  0.00000000E+00  0.00000000E+00
  0.00000000E+00  0.00000000E+00  0.00000000E+00
