  27  27   0   0
  0.6758054E+02  0.1026390E-08  0.1026390E-08  0.2000000E-08  0.5000000E-15
  1.000000000000000E-004
  CAR 
 NbSe2 phonon                            
      4.78189939    -59.82078173  301     -1.94379708      1.00000000
    -59.821  0.0000E+00  0.0000E+00
    -59.605  0.0000E+00  0.0000E+00
    -59.390  0.0000E+00  0.0000E+00
    -59.175  0.0000E+00  0.0000E+00
    -58.959  0.0000E+00  0.0000E+00
    -58.744  0.0000E+00  0.0000E+00
    -58.529  0.0000E+00  0.0000E+00
    -58.313  0.0000E+00  0.0000E+00
    -58.098  0.0000E+00  0.0000E+00
    -57.883  0.0000E+00  0.0000E+00
    -57.667  0.0000E+00  0.0000E+00
    -57.452  0.0000E+00  0.0000E+00
    -57.237  0.0000E+00  0.0000E+00
    -57.021  0.7385E-03  0.1590E-03
    -56.806  0.7939E+02  0.1710E+02
    -56.591  0.4198E+01  0.1800E+02
    -56.375  0.0000E+00  0.1800E+02
    -56.160  0.0000E+00  0.1800E+02
    -55.945  0.0000E+00  0.1800E+02
    -55.729  0.0000E+00  0.1800E+02
    -55.514  0.0000E+00  0.1800E+02
    -55.299  0.0000E+00  0.1800E+02
    -55.083  0.0000E+00  0.1800E+02
    -54.868  0.0000E+00  0.1800E+02
    -54.653  0.0000E+00  0.1800E+02
    -54.437  0.0000E+00  0.1800E+02
    -54.222  0.0000E+00  0.1800E+02
    -54.007  0.0000E+00  0.1800E+02
    -53.791  0.0000E+00  0.1800E+02
    -53.576  0.0000E+00  0.1800E+02
    -53.361  0.0000E+00  0.1800E+02
    -53.145  0.0000E+00  0.1800E+02
    -52.930  0.0000E+00  0.1800E+02
    -52.714  0.0000E+00  0.1800E+02
    -52.499  0.0000E+00  0.1800E+02
    -52.284  0.0000E+00  0.1800E+02
    -52.068  0.0000E+00  0.1800E+02
    -51.853  0.0000E+00  0.1800E+02
    -51.638  0.0000E+00  0.1800E+02
    -51.422  0.0000E+00  0.1800E+02
    -51.207  0.0000E+00  0.1800E+02
    -50.992  0.0000E+00  0.1800E+02
    -50.776  0.0000E+00  0.1800E+02
    -50.561  0.0000E+00  0.1800E+02
    -50.346  0.0000E+00  0.1800E+02
    -50.130  0.0000E+00  0.1800E+02
    -49.915  0.0000E+00  0.1800E+02
    -49.700  0.0000E+00  0.1800E+02
    -49.484  0.0000E+00  0.1800E+02
    -49.269  0.0000E+00  0.1800E+02
    -49.054  0.0000E+00  0.1800E+02
    -48.838  0.0000E+00  0.1800E+02
    -48.623  0.0000E+00  0.1800E+02
    -48.408  0.0000E+00  0.1800E+02
    -48.192  0.0000E+00  0.1800E+02
    -47.977  0.0000E+00  0.1800E+02
    -47.762  0.0000E+00  0.1800E+02
    -47.546  0.0000E+00  0.1800E+02
    -47.331  0.0000E+00  0.1800E+02
    -47.116  0.0000E+00  0.1800E+02
    -46.900  0.0000E+00  0.1800E+02
    -46.685  0.0000E+00  0.1800E+02
    -46.470  0.0000E+00  0.1800E+02
    -46.254  0.0000E+00  0.1800E+02
    -46.039  0.0000E+00  0.1800E+02
    -45.824  0.0000E+00  0.1800E+02
    -45.608  0.0000E+00  0.1800E+02
    -45.393  0.0000E+00  0.1800E+02
    -45.178  0.0000E+00  0.1800E+02
    -44.962  0.0000E+00  0.1800E+02
    -44.747  0.0000E+00  0.1800E+02
    -44.531  0.0000E+00  0.1800E+02
    -44.316  0.0000E+00  0.1800E+02
    -44.101  0.0000E+00  0.1800E+02
    -43.885  0.0000E+00  0.1800E+02
    -43.670  0.0000E+00  0.1800E+02
    -43.455  0.0000E+00  0.1800E+02
    -43.239  0.0000E+00  0.1800E+02
    -43.024  0.0000E+00  0.1800E+02
    -42.809  0.0000E+00  0.1800E+02
    -42.593  0.0000E+00  0.1800E+02
    -42.378  0.0000E+00  0.1800E+02
    -42.163  0.0000E+00  0.1800E+02
    -41.947  0.0000E+00  0.1800E+02
    -41.732  0.0000E+00  0.1800E+02
    -41.517  0.0000E+00  0.1800E+02
    -41.301  0.0000E+00  0.1800E+02
    -41.086  0.0000E+00  0.1800E+02
    -40.871  0.0000E+00  0.1800E+02
    -40.655  0.0000E+00  0.1800E+02
    -40.440  0.0000E+00  0.1800E+02
    -40.225  0.0000E+00  0.1800E+02
    -40.009  0.0000E+00  0.1800E+02
    -39.794  0.0000E+00  0.1800E+02
    -39.579  0.0000E+00  0.1800E+02
    -39.363  0.0000E+00  0.1800E+02
    -39.148  0.0000E+00  0.1800E+02
    -38.933  0.0000E+00  0.1800E+02
    -38.717  0.0000E+00  0.1800E+02
    -38.502  0.0000E+00  0.1800E+02
    -38.287  0.0000E+00  0.1800E+02
    -38.071  0.0000E+00  0.1800E+02
    -37.856  0.0000E+00  0.1800E+02
    -37.641  0.0000E+00  0.1800E+02
    -37.425  0.0000E+00  0.1800E+02
    -37.210  0.0000E+00  0.1800E+02
    -36.995  0.0000E+00  0.1800E+02
    -36.779  0.0000E+00  0.1800E+02
    -36.564  0.0000E+00  0.1800E+02
    -36.348  0.0000E+00  0.1800E+02
    -36.133  0.0000E+00  0.1800E+02
    -35.918  0.0000E+00  0.1800E+02
    -35.702  0.0000E+00  0.1800E+02
    -35.487  0.0000E+00  0.1800E+02
    -35.272  0.0000E+00  0.1800E+02
    -35.056  0.0000E+00  0.1800E+02
    -34.841  0.0000E+00  0.1800E+02
    -34.626  0.0000E+00  0.1800E+02
    -34.410  0.0000E+00  0.1800E+02
    -34.195  0.0000E+00  0.1800E+02
    -33.980  0.0000E+00  0.1800E+02
    -33.764  0.0000E+00  0.1800E+02
    -33.549  0.0000E+00  0.1800E+02
    -33.334  0.5635E-08  0.1800E+02
    -33.118  0.1083E+02  0.2033E+02
    -32.903  0.1676E+03  0.5642E+02
    -32.688  0.7233E+02  0.7200E+02
    -32.472  0.3194E-04  0.7200E+02
    -32.257  0.0000E+00  0.7200E+02
    -32.042  0.0000E+00  0.7200E+02
    -31.826  0.0000E+00  0.7200E+02
    -31.611  0.0000E+00  0.7200E+02
    -31.396  0.0000E+00  0.7200E+02
    -31.180  0.0000E+00  0.7200E+02
    -30.965  0.0000E+00  0.7200E+02
    -30.750  0.0000E+00  0.7200E+02
    -30.534  0.0000E+00  0.7200E+02
    -30.319  0.0000E+00  0.7200E+02
    -30.104  0.0000E+00  0.7200E+02
    -29.888  0.0000E+00  0.7200E+02
    -29.673  0.0000E+00  0.7200E+02
    -29.458  0.0000E+00  0.7200E+02
    -29.242  0.0000E+00  0.7200E+02
    -29.027  0.0000E+00  0.7200E+02
    -28.811  0.0000E+00  0.7200E+02
    -28.596  0.0000E+00  0.7200E+02
    -28.381  0.0000E+00  0.7200E+02
    -28.165  0.0000E+00  0.7200E+02
    -27.950  0.0000E+00  0.7200E+02
    -27.735  0.0000E+00  0.7200E+02
    -27.519  0.0000E+00  0.7200E+02
    -27.304  0.0000E+00  0.7200E+02
    -27.089  0.0000E+00  0.7200E+02
    -26.873  0.0000E+00  0.7200E+02
    -26.658  0.0000E+00  0.7200E+02
    -26.443  0.0000E+00  0.7200E+02
    -26.227  0.0000E+00  0.7200E+02
    -26.012  0.0000E+00  0.7200E+02
    -25.797  0.0000E+00  0.7200E+02
    -25.581  0.0000E+00  0.7200E+02
    -25.366  0.0000E+00  0.7200E+02
    -25.151  0.0000E+00  0.7200E+02
    -24.935  0.0000E+00  0.7200E+02
    -24.720  0.0000E+00  0.7200E+02
    -24.505  0.0000E+00  0.7200E+02
    -24.289  0.0000E+00  0.7200E+02
    -24.074  0.0000E+00  0.7200E+02
    -23.859  0.0000E+00  0.7200E+02
    -23.643  0.0000E+00  0.7200E+02
    -23.428  0.0000E+00  0.7200E+02
    -23.213  0.0000E+00  0.7200E+02
    -22.997  0.0000E+00  0.7200E+02
    -22.782  0.0000E+00  0.7200E+02
    -22.567  0.0000E+00  0.7200E+02
    -22.351  0.0000E+00  0.7200E+02
    -22.136  0.0000E+00  0.7200E+02
    -21.921  0.0000E+00  0.7200E+02
    -21.705  0.0000E+00  0.7200E+02
    -21.490  0.0000E+00  0.7200E+02
    -21.275  0.0000E+00  0.7200E+02
    -21.059  0.0000E+00  0.7200E+02
    -20.844  0.0000E+00  0.7200E+02
    -20.628  0.0000E+00  0.7200E+02
    -20.413  0.0000E+00  0.7200E+02
    -20.198  0.0000E+00  0.7200E+02
    -19.982  0.0000E+00  0.7200E+02
    -19.767  0.0000E+00  0.7200E+02
    -19.552  0.0000E+00  0.7200E+02
    -19.336  0.0000E+00  0.7200E+02
    -19.121  0.0000E+00  0.7200E+02
    -18.906  0.0000E+00  0.7200E+02
    -18.690  0.0000E+00  0.7200E+02
    -18.475  0.0000E+00  0.7200E+02
    -18.260  0.0000E+00  0.7200E+02
    -18.044  0.0000E+00  0.7200E+02
    -17.829  0.0000E+00  0.7200E+02
    -17.614  0.0000E+00  0.7200E+02
    -17.398  0.0000E+00  0.7200E+02
    -17.183  0.0000E+00  0.7200E+02
    -16.968  0.0000E+00  0.7200E+02
    -16.752  0.0000E+00  0.7200E+02
    -16.537  0.0000E+00  0.7200E+02
    -16.322  0.0000E+00  0.7200E+02
    -16.106  0.0000E+00  0.7200E+02
    -15.891  0.0000E+00  0.7200E+02
    -15.676  0.2565E-02  0.7200E+02
    -15.460  0.3036E+01  0.7265E+02
    -15.245  0.5699E+01  0.7388E+02
    -15.030  0.5763E+01  0.7512E+02
    -14.814  0.7791E+01  0.7680E+02
    -14.599  0.1031E+02  0.7902E+02
    -14.384  0.2272E+02  0.8391E+02
    -14.168  0.3146E+02  0.9069E+02
    -13.953  0.4936E+02  0.1013E+03
    -13.738  0.3100E+02  0.1080E+03
    -13.522  0.3165E-01  0.1080E+03
    -13.307  0.0000E+00  0.1080E+03
    -13.092  0.0000E+00  0.1080E+03
    -12.876  0.0000E+00  0.1080E+03
    -12.661  0.0000E+00  0.1080E+03
    -12.445  0.0000E+00  0.1080E+03
    -12.230  0.0000E+00  0.1080E+03
    -12.015  0.0000E+00  0.1080E+03
    -11.799  0.0000E+00  0.1080E+03
    -11.584  0.0000E+00  0.1080E+03
    -11.369  0.0000E+00  0.1080E+03
    -11.153  0.0000E+00  0.1080E+03
    -10.938  0.0000E+00  0.1080E+03
    -10.723  0.0000E+00  0.1080E+03
    -10.507  0.0000E+00  0.1080E+03
    -10.292  0.0000E+00  0.1080E+03
    -10.077  0.0000E+00  0.1080E+03
     -9.861  0.0000E+00  0.1080E+03
     -9.646  0.0000E+00  0.1080E+03
     -9.431  0.0000E+00  0.1080E+03
     -9.215  0.0000E+00  0.1080E+03
     -9.000  0.0000E+00  0.1080E+03
     -8.785  0.0000E+00  0.1080E+03
     -8.569  0.0000E+00  0.1080E+03
     -8.354  0.0000E+00  0.1080E+03
     -8.139  0.0000E+00  0.1080E+03
     -7.923  0.0000E+00  0.1080E+03
     -7.708  0.0000E+00  0.1080E+03
     -7.493  0.0000E+00  0.1080E+03
     -7.277  0.0000E+00  0.1080E+03
     -7.062  0.1327E-01  0.1080E+03
     -6.847  0.6078E+01  0.1093E+03
     -6.631  0.1394E+02  0.1123E+03
     -6.416  0.1959E+02  0.1165E+03
     -6.201  0.2863E+02  0.1227E+03
     -5.985  0.3998E+02  0.1313E+03
     -5.770  0.1381E+02  0.1343E+03
     -5.555  0.4770E+01  0.1353E+03
     -5.339  0.3000E+02  0.1418E+03
     -5.124  0.4869E+02  0.1523E+03
     -4.909  0.1140E+02  0.1547E+03
     -4.693  0.8786E+01  0.1566E+03
     -4.478  0.2760E+02  0.1625E+03
     -4.262  0.3549E+02  0.1702E+03
     -4.047  0.2415E+02  0.1754E+03
     -3.832  0.1543E+02  0.1787E+03
     -3.616  0.1290E+02  0.1815E+03
     -3.401  0.3829E+02  0.1897E+03
     -3.186  0.4422E+02  0.1993E+03
     -2.970  0.3234E+02  0.2062E+03
     -2.755  0.2303E+02  0.2112E+03
     -2.540  0.2085E+02  0.2157E+03
     -2.324  0.2424E+01  0.2162E+03
     -2.109  0.1683E+02  0.2198E+03
     -1.894  0.3089E+02  0.2265E+03
     -1.678  0.1815E+02  0.2304E+03
     -1.463  0.1259E+02  0.2331E+03
     -1.248  0.4241E+01  0.2340E+03
     -1.032  0.1241E-02  0.2340E+03
     -0.817  0.0000E+00  0.2340E+03
     -0.602  0.0000E+00  0.2340E+03
     -0.386  0.0000E+00  0.2340E+03
     -0.171  0.0000E+00  0.2340E+03
      0.044  0.3554E-05  0.2340E+03
      0.260  0.9867E+00  0.2342E+03
      0.475  0.2425E+02  0.2394E+03
      0.690  0.3857E+02  0.2477E+03
      0.906  0.5278E+02  0.2591E+03
      1.121  0.4668E+02  0.2692E+03
      1.336  0.3214E+02  0.2761E+03
      1.552  0.2540E+02  0.2815E+03
      1.767  0.1713E+02  0.2852E+03
      1.982  0.3536E+01  0.2860E+03
      2.198  0.3953E-04  0.2860E+03
      2.413  0.0000E+00  0.2860E+03
      2.628  0.0000E+00  0.2860E+03
      2.844  0.0000E+00  0.2860E+03
      3.059  0.0000E+00  0.2860E+03
      3.275  0.0000E+00  0.2860E+03
      3.490  0.0000E+00  0.2860E+03
      3.705  0.0000E+00  0.2860E+03
      3.921  0.0000E+00  0.2860E+03
      4.136  0.0000E+00  0.2860E+03
      4.351  0.0000E+00  0.2860E+03
      4.567  0.0000E+00  0.2860E+03
      4.782  0.0000E+00  0.2860E+03
