   27   27    1    1
  0.6758054E+02  0.1026390E-08  0.1026390E-08  0.2000000E-08  0.5000000E-15
  1.000000000000000E-004
  CAR 
 NbSe2 phonon                            
    225     13    143
 
  0.1276756E-14  0.1276756E-14  0.1276756E-14  0.4000000E-01
      1        -56.884296   1.000000
      2        -56.865916   1.000000
      3        -56.865784   1.000000
      4        -56.865668   1.000000
      5        -56.865573   1.000000
      6        -56.864987   1.000000
      7        -56.864400   1.000000
      8        -56.856085   1.000000
      9        -56.855604   1.000000
     10        -33.057752   1.000000
     11        -33.057412   1.000000
     12        -33.055943   1.000000
     13        -33.055792   1.000000
     14        -33.055707   1.000000
     15        -33.055660   1.000000
     16        -33.055524   1.000000
     17        -33.055084   1.000000
     18        -33.018700   1.000000
     19        -33.018639   1.000000
     20        -32.972547   1.000000
     21        -32.924524   1.000000
     22        -32.924420   1.000000
     23        -32.924307   1.000000
     24        -32.924192   1.000000
     25        -32.924055   1.000000
     26        -32.923592   1.000000
     27        -32.900099   1.000000
     28        -32.899749   1.000000
     29        -32.889924   1.000000
     30        -32.889800   1.000000
     31        -32.889799   1.000000
     32        -32.889556   1.000000
     33        -32.889468   1.000000
     34        -32.889101   1.000000
     35        -32.840975   1.000000
     36        -32.840787   1.000000
     37        -15.588185   1.000000
     38        -14.609087   1.000000
     39        -14.544831   1.000000
     40        -14.537300   1.000000
     41        -14.537226   1.000000
     42        -14.537150   1.000000
     43        -14.537020   1.000000
     44        -14.536934   1.000000
     45        -14.128312   1.000000
     46        -14.125041   1.000000
     47        -14.124925   1.000000
     48        -14.124886   1.000000
     49        -14.124777   1.000000
     50        -14.124585   1.000000
     51        -13.894418   1.000000
     52        -13.891849   1.000000
     53        -13.812144   1.000000
     54        -13.810550   1.000000
     55         -6.853003   1.000000
     56         -6.389652   1.000000
     57         -6.388276   1.000000
     58         -6.355699   1.000000
     59         -6.354066   1.000000
     60         -6.353350   1.000000
     61         -6.351124   1.000000
     62         -6.351115   1.000000
     63         -6.350591   1.000000
     64         -5.911179   1.000000
     65         -5.909092   1.000000
     66         -5.449898   1.000000
     67         -5.449392   1.000000
     68         -5.448171   1.000000
     69         -5.447219   1.000000
     70         -5.446779   1.000000
     71         -5.446493   1.000000
     72         -5.433448   1.000000
     73         -5.431542   1.000000
     74         -5.417896   1.000000
     75         -5.415294   1.000000
     76         -5.415279   1.000000
     77         -5.414226   1.000000
     78         -5.413773   1.000000
     79         -5.413446   1.000000
     80         -4.993629   1.000000
     81         -4.991501   1.000000
     82         -4.432359   1.000000
     83         -4.430450   1.000000
     84         -3.967774   1.000000
     85         -3.965413   1.000000
     86         -3.961805   1.000000
     87         -3.961442   1.000000
     88         -3.961356   1.000000
     89         -3.961218   1.000000
     90         -3.671854   1.000000
     91         -3.671398   1.000000
     92         -3.629423   1.000000
     93         -3.628108   1.000000
     94         -3.413698   1.000000
     95         -3.256237   1.000000
     96         -3.255976   1.000000
     97         -3.255741   1.000000
     98         -3.255225   1.000000
     99         -3.255036   1.000000
    100         -3.250297   1.000000
    101         -2.777684   1.000000
    102         -2.777513   1.000000
    103         -2.772795   1.000000
    104         -2.772649   1.000000
    105         -2.772534   1.000000
    106         -2.772461   1.000000
    107         -2.677419   1.000000
    108         -2.675657   1.000000
    109         -2.308931   1.000000
    110         -2.307772   1.000000
    111         -2.307431   1.000000
    112         -2.307396   1.000000
    113         -2.307135   1.000000
    114         -2.305107   1.000000
    115         -1.416834   0.000000
    116         -1.351653   0.000000
    117         -1.351230   0.000000
    118          0.200639   0.000000
    119          0.201127   0.000000
    120          0.668895   0.000000
    121          0.668994   0.000000
    122          0.669493   0.000000
    123          0.669663   0.000000
    124          0.671322   0.000000
    125          0.671703   0.000000
    126          0.716585   0.000000
    127          0.716671   0.000000
    128          0.716888   0.000000
    129          0.718557   0.000000
    130          0.719403   0.000000
    131          0.720244   0.000000
    132          1.144415   0.000000
    133          1.146584   0.000000
    134          1.308330   0.000000
    135          1.309288   0.000000
    136          1.409540   0.000000
    137          1.410745   0.000000
    138          1.535461   0.000000
    139          1.536025   0.000000
    140          1.536455   0.000000
    141          1.537516   0.000000
    142          1.538263   0.000000
    143          1.540982   0.000000
 
  0.2000000E+00  0.1302127E-14  0.1276756E-14  0.8000000E-01
      1        -56.883212   1.000000
      2        -56.870442   1.000000
      3        -56.867564   1.000000
      4        -56.867117   1.000000
      5        -56.863088   1.000000
      6        -56.862773   1.000000
      7        -56.861360   1.000000
      8        -56.856628   1.000000
      9        -56.856133   1.000000
     10        -33.098869   1.000000
     11        -33.077770   1.000000
     12        -33.077437   1.000000
     13        -33.072606   1.000000
     14        -33.072271   1.000000
     15        -33.029669   1.000000
     16        -33.029264   1.000000
     17        -32.999976   1.000000
     18        -32.996219   1.000000
     19        -32.996080   1.000000
     20        -32.969772   1.000000
     21        -32.936977   1.000000
     22        -32.929346   1.000000
     23        -32.929042   1.000000
     24        -32.917942   1.000000
     25        -32.917624   1.000000
     26        -32.914147   1.000000
     27        -32.901969   1.000000
     28        -32.901863   1.000000
     29        -32.901464   1.000000
     30        -32.901081   1.000000
     31        -32.899469   1.000000
     32        -32.889255   1.000000
     33        -32.889107   1.000000
     34        -32.876736   1.000000
     35        -32.853593   1.000000
     36        -32.843626   1.000000
     37        -15.534819   1.000000
     38        -14.846133   1.000000
     39        -14.664513   1.000000
     40        -14.661760   1.000000
     41        -14.584266   1.000000
     42        -14.376012   1.000000
     43        -14.373299   1.000000
     44        -14.275094   1.000000
     45        -14.265611   1.000000
     46        -14.181486   1.000000
     47        -14.180537   1.000000
     48        -14.050807   1.000000
     49        -14.049587   1.000000
     50        -14.007803   1.000000
     51        -13.933197   1.000000
     52        -13.930675   1.000000
     53        -13.832622   1.000000
     54        -13.831066   1.000000
     55         -6.782312   1.000000
     56         -6.737522   1.000000
     57         -6.516591   1.000000
     58         -6.516053   1.000000
     59         -6.322591   1.000000
     60         -6.321394   1.000000
     61         -6.184606   1.000000
     62         -6.183538   1.000000
     63         -6.153385   1.000000
     64         -6.152225   1.000000
     65         -6.114119   1.000000
     66         -5.849358   1.000000
     67         -5.675447   1.000000
     68         -5.674781   1.000000
     69         -5.427672   1.000000
     70         -5.426898   1.000000
     71         -5.354941   1.000000
     72         -5.350213   1.000000
     73         -5.348347   1.000000
     74         -5.337706   1.000000
     75         -5.199128   1.000000
     76         -5.198753   1.000000
     77         -5.185922   1.000000
     78         -5.184754   1.000000
     79         -4.939708   1.000000
     80         -4.840144   1.000000
     81         -4.839235   1.000000
     82         -4.473886   1.000000
     83         -4.472127   1.000000
     84         -4.208069   1.000000
     85         -4.206157   1.000000
     86         -4.153905   1.000000
     87         -4.052818   1.000000
     88         -4.051212   1.000000
     89         -3.848618   1.000000
     90         -3.693230   1.000000
     91         -3.618571   1.000000
     92         -3.579565   1.000000
     93         -3.542698   1.000000
     94         -3.541519   1.000000
     95         -3.363796   1.000000
     96         -3.232304   1.000000
     97         -3.230763   1.000000
     98         -3.073285   1.000000
     99         -3.045642   1.000000
    100         -3.043777   1.000000
    101         -3.027983   1.000000
    102         -3.026713   1.000000
    103         -2.996808   1.000000
    104         -2.987413   1.000000
    105         -2.985933   1.000000
    106         -2.779366   1.000000
    107         -2.632125   1.000000
    108         -2.619476   1.000000
    109         -2.275231   1.000000
    110         -2.174579   1.000000
    111         -2.174087   1.000000
    112         -2.159868   1.000000
    113         -2.158753   1.000000
    114         -2.129678   1.000000
    115         -1.478742   0.000000
    116         -1.478448   0.000000
    117         -1.444774   0.000000
    118          0.349812   0.000000
    119          0.350448   0.000000
    120          0.466314   0.000000
    121          0.466821   0.000000
    122          0.540335   0.000000
    123          0.601128   0.000000
    124          0.603010   0.000000
    125          0.707350   0.000000
    126          0.720279   0.000000
    127          0.813128   0.000000
    128          0.814718   0.000000
    129          0.919950   0.000000
    130          0.920862   0.000000
    131          0.948126   0.000000
    132          1.018150   0.000000
    133          1.083357   0.000000
    134          1.200215   0.000000
    135          1.239823   0.000000
    136          1.254852   0.000000
    137          1.280228   0.000000
    138          1.280637   0.000000
    139          1.461062   0.000000
    140          1.462350   0.000000
    141          1.626130   0.000000
    142          1.627235   0.000000
    143          1.673200   0.000000
 
  0.2000000E+00  0.2000000E+00  0.1276756E-14  0.8000000E-01
      1        -56.883213   1.000000
      2        -56.870412   1.000000
      3        -56.867543   1.000000
      4        -56.867200   1.000000
      5        -56.863115   1.000000
      6        -56.862672   1.000000
      7        -56.861398   1.000000
      8        -56.856627   1.000000
      9        -56.856137   1.000000
     10        -33.098685   1.000000
     11        -33.077739   1.000000
     12        -33.077580   1.000000
     13        -33.072592   1.000000
     14        -33.072316   1.000000
     15        -33.029651   1.000000
     16        -33.029543   1.000000
     17        -32.999806   1.000000
     18        -32.996191   1.000000
     19        -32.996085   1.000000
     20        -32.969773   1.000000
     21        -32.936983   1.000000
     22        -32.929370   1.000000
     23        -32.929009   1.000000
     24        -32.917957   1.000000
     25        -32.917598   1.000000
     26        -32.914163   1.000000
     27        -32.901963   1.000000
     28        -32.901759   1.000000
     29        -32.901422   1.000000
     30        -32.901122   1.000000
     31        -32.899633   1.000000
     32        -32.889206   1.000000
     33        -32.888918   1.000000
     34        -32.876897   1.000000
     35        -32.853429   1.000000
     36        -32.843788   1.000000
     37        -15.534825   1.000000
     38        -14.846235   1.000000
     39        -14.664331   1.000000
     40        -14.661771   1.000000
     41        -14.584257   1.000000
     42        -14.375881   1.000000
     43        -14.373312   1.000000
     44        -14.275292   1.000000
     45        -14.265465   1.000000
     46        -14.181774   1.000000
     47        -14.180503   1.000000
     48        -14.050998   1.000000
     49        -14.049553   1.000000
     50        -14.007522   1.000000
     51        -13.933186   1.000000
     52        -13.930677   1.000000
     53        -13.832641   1.000000
     54        -13.831062   1.000000
     55         -6.782322   1.000000
     56         -6.737399   1.000000
     57         -6.516663   1.000000
     58         -6.516101   1.000000
     59         -6.322559   1.000000
     60         -6.321457   1.000000
     61         -6.184691   1.000000
     62         -6.183595   1.000000
     63         -6.153507   1.000000
     64         -6.151964   1.000000
     65         -6.114272   1.000000
     66         -5.849622   1.000000
     67         -5.675459   1.000000
     68         -5.674918   1.000000
     69         -5.427609   1.000000
     70         -5.426578   1.000000
     71         -5.355033   1.000000
     72         -5.349744   1.000000
     73         -5.348590   1.000000
     74         -5.338056   1.000000
     75         -5.199202   1.000000
     76         -5.198535   1.000000
     77         -5.185637   1.000000
     78         -5.184589   1.000000
     79         -4.939338   1.000000
     80         -4.840789   1.000000
     81         -4.838928   1.000000
     82         -4.473728   1.000000
     83         -4.472029   1.000000
     84         -4.206838   1.000000
     85         -4.206174   1.000000
     86         -4.154588   1.000000
     87         -4.052666   1.000000
     88         -4.051371   1.000000
     89         -3.848985   1.000000
     90         -3.694107   1.000000
     91         -3.618190   1.000000
     92         -3.579205   1.000000
     93         -3.542871   1.000000
     94         -3.541578   1.000000
     95         -3.363225   1.000000
     96         -3.232308   1.000000
     97         -3.231656   1.000000
     98         -3.073277   1.000000
     99         -3.045495   1.000000
    100         -3.043742   1.000000
    101         -3.027966   1.000000
    102         -3.026285   1.000000
    103         -2.996630   1.000000
    104         -2.987820   1.000000
    105         -2.986188   1.000000
    106         -2.780864   1.000000
    107         -2.631055   1.000000
    108         -2.619552   1.000000
    109         -2.274431   1.000000
    110         -2.175199   1.000000
    111         -2.174742   1.000000
    112         -2.160100   1.000000
    113         -2.158482   1.000000
    114         -2.128975   1.000000
    115         -1.478836   0.000000
    116         -1.478418   0.000000
    117         -1.444715   0.000000
    118          0.349993   0.000000
    119          0.350276   0.000000
    120          0.466768   0.000000
    121          0.467375   0.000000
    122          0.540247   0.000000
    123          0.601078   0.000000
    124          0.602515   0.000000
    125          0.707509   0.000000
    126          0.719998   0.000000
    127          0.812713   0.000000
    128          0.814298   0.000000
    129          0.920329   0.000000
    130          0.921286   0.000000
    131          0.948013   0.000000
    132          1.016525   0.000000
    133          1.084032   0.000000
    134          1.199598   0.000000
    135          1.238937   0.000000
    136          1.256606   0.000000
    137          1.280068   0.000000
    138          1.280856   0.000000
    139          1.461289   0.000000
    140          1.462340   0.000000
    141          1.625975   0.000000
    142          1.632434   0.000000
    143          1.702108   0.000000
 
  0.1276756E-14  0.2000000E+00  0.1276756E-14  0.8000000E-01
      1        -56.883212   1.000000
      2        -56.870434   1.000000
      3        -56.867553   1.000000
      4        -56.867146   1.000000
      5        -56.863103   1.000000
      6        -56.862733   1.000000
      7        -56.861374   1.000000
      8        -56.856627   1.000000
      9        -56.856134   1.000000
     10        -33.098778   1.000000
     11        -33.077782   1.000000
     12        -33.077478   1.000000
     13        -33.072620   1.000000
     14        -33.072276   1.000000
     15        -33.029679   1.000000
     16        -33.029385   1.000000
     17        -32.999890   1.000000
     18        -32.996246   1.000000
     19        -32.996043   1.000000
     20        -32.969773   1.000000
     21        -32.936981   1.000000
     22        -32.929353   1.000000
     23        -32.929028   1.000000
     24        -32.917945   1.000000
     25        -32.917619   1.000000
     26        -32.914153   1.000000
     27        -32.902001   1.000000
     28        -32.901785   1.000000
     29        -32.901433   1.000000
     30        -32.901103   1.000000
     31        -32.899547   1.000000
     32        -32.889269   1.000000
     33        -32.888975   1.000000
     34        -32.876817   1.000000
     35        -32.853511   1.000000
     36        -32.843707   1.000000
     37        -15.534822   1.000000
     38        -14.846184   1.000000
     39        -14.664505   1.000000
     40        -14.661684   1.000000
     41        -14.584261   1.000000
     42        -14.375986   1.000000
     43        -14.373265   1.000000
     44        -14.275186   1.000000
     45        -14.265548   1.000000
     46        -14.181719   1.000000
     47        -14.180429   1.000000
     48        -14.050944   1.000000
     49        -14.049527   1.000000
     50        -14.007663   1.000000
     51        -13.933193   1.000000
     52        -13.930675   1.000000
     53        -13.832634   1.000000
     54        -13.831062   1.000000
     55         -6.782316   1.000000
     56         -6.737464   1.000000
     57         -6.516720   1.000000
     58         -6.515981   1.000000
     59         -6.322582   1.000000
     60         -6.321418   1.000000
     61         -6.185067   1.000000
     62         -6.183145   1.000000
     63         -6.153482   1.000000
     64         -6.152062   1.000000
     65         -6.114191   1.000000
     66         -5.849491   1.000000
     67         -5.675516   1.000000
     68         -5.674781   1.000000
     69         -5.427685   1.000000
     70         -5.426693   1.000000
     71         -5.354994   1.000000
     72         -5.350012   1.000000
     73         -5.348431   1.000000
     74         -5.337881   1.000000
     75         -5.199253   1.000000
     76         -5.198554   1.000000
     77         -5.185877   1.000000
     78         -5.184579   1.000000
     79         -4.939524   1.000000
     80         -4.840702   1.000000
     81         -4.838844   1.000000
     82         -4.473839   1.000000
     83         -4.472044   1.000000
     84         -4.207579   1.000000
     85         -4.206051   1.000000
     86         -4.154239   1.000000
     87         -4.052825   1.000000
     88         -4.051210   1.000000
     89         -3.848801   1.000000
     90         -3.693664   1.000000
     91         -3.618390   1.000000
     92         -3.579380   1.000000
     93         -3.542796   1.000000
     94         -3.541533   1.000000
     95         -3.363512   1.000000
     96         -3.232319   1.000000
     97         -3.231196   1.000000
     98         -3.073276   1.000000
     99         -3.045680   1.000000
    100         -3.043642   1.000000
    101         -3.027987   1.000000
    102         -3.026494   1.000000
    103         -2.996702   1.000000
    104         -2.987889   1.000000
    105         -2.985812   1.000000
    106         -2.780114   1.000000
    107         -2.631598   1.000000
    108         -2.619503   1.000000
    109         -2.274828   1.000000
    110         -2.175099   1.000000
    111         -2.174224   1.000000
    112         -2.160084   1.000000
    113         -2.158502   1.000000
    114         -2.129325   1.000000
    115         -1.478829   0.000000
    116         -1.478393   0.000000
    117         -1.444745   0.000000
    118          0.349851   0.000000
    119          0.350413   0.000000
    120          0.466397   0.000000
    121          0.467237   0.000000
    122          0.540296   0.000000
    123          0.601098   0.000000
    124          0.602767   0.000000
    125          0.707440   0.000000
    126          0.720131   0.000000
    127          0.812899   0.000000
    128          0.814531   0.000000
    129          0.920101   0.000000
    130          0.921107   0.000000
    131          0.948072   0.000000
    132          1.017338   0.000000
    133          1.083695   0.000000
    134          1.199881   0.000000
    135          1.239406   0.000000
    136          1.255748   0.000000
    137          1.279995   0.000000
    138          1.280883   0.000000
    139          1.461075   0.000000
    140          1.462412   0.000000
    141          1.625834   0.000000
    142          1.631300   0.000000
    143          1.668196   0.000000
 
  0.4000000E+00  0.8394274E-14  0.1276756E-14  0.8000000E-01
      1        -56.880145   1.000000
      2        -56.875617   1.000000
      3        -56.868623   1.000000
      4        -56.868188   1.000000
      5        -56.860512   1.000000
      6        -56.860244   1.000000
      7        -56.859322   1.000000
      8        -56.858140   1.000000
      9        -56.857531   1.000000
     10        -33.122336   1.000000
     11        -33.089277   1.000000
     12        -33.088968   1.000000
     13        -33.087286   1.000000
     14        -33.086947   1.000000
     15        -33.010197   1.000000
     16        -33.009741   1.000000
     17        -32.961927   1.000000
     18        -32.960005   1.000000
     19        -32.959865   1.000000
     20        -32.950323   1.000000
     21        -32.941028   1.000000
     22        -32.932085   1.000000
     23        -32.931784   1.000000
     24        -32.926453   1.000000
     25        -32.926321   1.000000
     26        -32.911259   1.000000
     27        -32.910940   1.000000
     28        -32.908657   1.000000
     29        -32.905468   1.000000
     30        -32.905091   1.000000
     31        -32.904890   1.000000
     32        -32.894286   1.000000
     33        -32.894092   1.000000
     34        -32.889115   1.000000
     35        -32.863324   1.000000
     36        -32.851595   1.000000
     37        -15.380202   1.000000
     38        -15.141001   1.000000
     39        -14.731496   1.000000
     40        -14.728751   1.000000
     41        -14.512526   1.000000
     42        -14.401663   1.000000
     43        -14.211200   1.000000
     44        -14.209970   1.000000
     45        -14.199406   1.000000
     46        -14.196987   1.000000
     47        -14.120179   1.000000
     48        -14.042089   1.000000
     49        -14.039490   1.000000
     50        -13.966858   1.000000
     51        -13.965531   1.000000
     52        -13.939792   1.000000
     53        -13.888665   1.000000
     54        -13.887246   1.000000
     55         -6.972156   1.000000
     56         -6.583455   1.000000
     57         -6.565241   1.000000
     58         -6.564601   1.000000
     59         -6.456556   1.000000
     60         -6.455813   1.000000
     61         -6.306700   1.000000
     62         -6.143169   1.000000
     63         -6.142077   1.000000
     64         -6.070248   1.000000
     65         -6.024349   1.000000
     66         -6.021846   1.000000
     67         -5.908350   1.000000
     68         -5.907449   1.000000
     69         -5.393556   1.000000
     70         -5.390486   1.000000
     71         -5.316034   1.000000
     72         -5.259250   1.000000
     73         -5.256987   1.000000
     74         -5.179066   1.000000
     75         -5.176906   1.000000
     76         -4.952273   1.000000
     77         -4.951680   1.000000
     78         -4.874351   1.000000
     79         -4.514877   1.000000
     80         -4.513207   1.000000
     81         -4.439469   1.000000
     82         -4.437715   1.000000
     83         -4.415600   1.000000
     84         -4.311889   1.000000
     85         -4.310193   1.000000
     86         -4.302091   1.000000
     87         -4.252582   1.000000
     88         -4.225152   1.000000
     89         -4.224018   1.000000
     90         -3.947750   1.000000
     91         -3.543343   1.000000
     92         -3.542080   1.000000
     93         -3.467687   1.000000
     94         -3.412171   1.000000
     95         -3.371103   1.000000
     96         -3.370673   1.000000
     97         -3.369595   1.000000
     98         -3.306457   1.000000
     99         -3.303873   1.000000
    100         -3.245649   1.000000
    101         -3.242799   1.000000
    102         -3.241628   1.000000
    103         -3.041840   1.000000
    104         -2.840070   1.000000
    105         -2.761153   1.000000
    106         -2.760577   1.000000
    107         -2.656523   1.000000
    108         -2.544695   1.000000
    109         -2.163886   1.000000
    110         -2.069557   0.999812
    111         -2.069091   0.999803
    112         -1.936295   0.415974
    113         -1.935570   0.408000
    114         -1.820191   0.000236
    115         -1.716146   0.000000
    116         -1.715843   0.000000
    117         -1.563564   0.000000
    118          0.315166   0.000000
    119          0.315621   0.000000
    120          0.510493   0.000000
    121          0.591912   0.000000
    122          0.593323   0.000000
    123          0.646795   0.000000
    124          0.649143   0.000000
    125          0.713096   0.000000
    126          0.762899   0.000000
    127          0.858255   0.000000
    128          0.867688   0.000000
    129          0.879083   0.000000
    130          0.880707   0.000000
    131          0.926017   0.000000
    132          1.006860   0.000000
    133          1.007453   0.000000
    134          1.066701   0.000000
    135          1.081417   0.000000
    136          1.082540   0.000000
    137          1.130828   0.000000
    138          1.329829   0.000000
    139          1.330518   0.000000
    140          1.529707   0.000000
    141          1.577588   0.000000
    142          1.580244   0.000000
    143          1.649823   0.000000
 
  0.4000000E+00  0.4000000E+00  0.1276756E-14  0.8000000E-01
      1        -56.880158   1.000000
      2        -56.875583   1.000000
      3        -56.868611   1.000000
      4        -56.868240   1.000000
      5        -56.860528   1.000000
      6        -56.860174   1.000000
      7        -56.859331   1.000000
      8        -56.858122   1.000000
      9        -56.857572   1.000000
     10        -33.122149   1.000000
     11        -33.089242   1.000000
     12        -33.089052   1.000000
     13        -33.087269   1.000000
     14        -33.087041   1.000000
     15        -33.010205   1.000000
     16        -33.010082   1.000000
     17        -32.961928   1.000000
     18        -32.959987   1.000000
     19        -32.959845   1.000000
     20        -32.950325   1.000000
     21        -32.940859   1.000000
     22        -32.932110   1.000000
     23        -32.931746   1.000000
     24        -32.926439   1.000000
     25        -32.926266   1.000000
     26        -32.911266   1.000000
     27        -32.910924   1.000000
     28        -32.908672   1.000000
     29        -32.905442   1.000000
     30        -32.905258   1.000000
     31        -32.904905   1.000000
     32        -32.894209   1.000000
     33        -32.893857   1.000000
     34        -32.888938   1.000000
     35        -32.863487   1.000000
     36        -32.851755   1.000000
     37        -15.380228   1.000000
     38        -15.141059   1.000000
     39        -14.731311   1.000000
     40        -14.728760   1.000000
     41        -14.512487   1.000000
     42        -14.401576   1.000000
     43        -14.211538   1.000000
     44        -14.209935   1.000000
     45        -14.199300   1.000000
     46        -14.196998   1.000000
     47        -14.120403   1.000000
     48        -14.042026   1.000000
     49        -14.039496   1.000000
     50        -13.966975   1.000000
     51        -13.965504   1.000000
     52        -13.939489   1.000000
     53        -13.888735   1.000000
     54        -13.887232   1.000000
     55         -6.971955   1.000000
     56         -6.583515   1.000000
     57         -6.565299   1.000000
     58         -6.564729   1.000000
     59         -6.456652   1.000000
     60         -6.455909   1.000000
     61         -6.306822   1.000000
     62         -6.143060   1.000000
     63         -6.142307   1.000000
     64         -6.070654   1.000000
     65         -6.024226   1.000000
     66         -6.021822   1.000000
     67         -5.908169   1.000000
     68         -5.907808   1.000000
     69         -5.393131   1.000000
     70         -5.390352   1.000000
     71         -5.316577   1.000000
     72         -5.258459   1.000000
     73         -5.257224   1.000000
     74         -5.178395   1.000000
     75         -5.177098   1.000000
     76         -4.952263   1.000000
     77         -4.951353   1.000000
     78         -4.874583   1.000000
     79         -4.514282   1.000000
     80         -4.513056   1.000000
     81         -4.438391   1.000000
     82         -4.437665   1.000000
     83         -4.414946   1.000000
     84         -4.312206   1.000000
     85         -4.310287   1.000000
     86         -4.302275   1.000000
     87         -4.253245   1.000000
     88         -4.225466   1.000000
     89         -4.224039   1.000000
     90         -3.947053   1.000000
     91         -3.543685   1.000000
     92         -3.542217   1.000000
     93         -3.467359   1.000000
     94         -3.411476   1.000000
     95         -3.372472   1.000000
     96         -3.370703   1.000000
     97         -3.369879   1.000000
     98         -3.306539   1.000000
     99         -3.303966   1.000000
    100         -3.245449   1.000000
    101         -3.243035   1.000000
    102         -3.242256   1.000000
    103         -3.043095   1.000000
    104         -2.840114   1.000000
    105         -2.761538   1.000000
    106         -2.759551   1.000000
    107         -2.656206   1.000000
    108         -2.544856   1.000000
    109         -2.163139   1.000000
    110         -2.070120   0.999824
    111         -2.069776   0.999817
    112         -1.936491   0.418141
    113         -1.935407   0.406205
    114         -1.819696   0.000224
    115         -1.716356   0.000000
    116         -1.715752   0.000000
    117         -1.563330   0.000000
    118          0.315559   0.000000
    119          0.316215   0.000000
    120          0.510645   0.000000
    121          0.592157   0.000000
    122          0.592995   0.000000
    123          0.646896   0.000000
    124          0.648710   0.000000
    125          0.713537   0.000000
    126          0.763145   0.000000
    127          0.857188   0.000000
    128          0.867257   0.000000
    129          0.878543   0.000000
    130          0.880310   0.000000
    131          0.925265   0.000000
    132          1.006291   0.000000
    133          1.007867   0.000000
    134          1.066054   0.000000
    135          1.081704   0.000000
    136          1.082902   0.000000
    137          1.130853   0.000000
    138          1.330060   0.000000
    139          1.330651   0.000000
    140          1.531033   0.000000
    141          1.578435   0.000000
    142          1.606428   0.000000
    143          1.651073   0.000000
 
  0.1276756E-14  0.4000000E+00  0.1276756E-14  0.8000000E-01
      1        -56.880148   1.000000
      2        -56.875607   1.000000
      3        -56.868616   1.000000
      4        -56.868206   1.000000
      5        -56.860523   1.000000
      6        -56.860208   1.000000
      7        -56.859336   1.000000
      8        -56.858134   1.000000
      9        -56.857541   1.000000
     10        -33.122243   1.000000
     11        -33.089287   1.000000
     12        -33.088974   1.000000
     13        -33.087305   1.000000
     14        -33.086974   1.000000
     15        -33.010209   1.000000
     16        -33.009903   1.000000
     17        -32.961927   1.000000
     18        -32.960037   1.000000
     19        -32.959815   1.000000
     20        -32.950325   1.000000
     21        -32.940945   1.000000
     22        -32.932091   1.000000
     23        -32.931770   1.000000
     24        -32.926489   1.000000
     25        -32.926249   1.000000
     26        -32.911260   1.000000
     27        -32.910938   1.000000
     28        -32.908663   1.000000
     29        -32.905457   1.000000
     30        -32.905170   1.000000
     31        -32.904898   1.000000
     32        -32.894278   1.000000
     33        -32.893947   1.000000
     34        -32.889024   1.000000
     35        -32.863405   1.000000
     36        -32.851676   1.000000
     37        -15.380215   1.000000
     38        -15.141030   1.000000
     39        -14.731496   1.000000
     40        -14.728664   1.000000
     41        -14.512505   1.000000
     42        -14.401620   1.000000
     43        -14.211465   1.000000
     44        -14.209852   1.000000
     45        -14.199374   1.000000
     46        -14.196973   1.000000
     47        -14.120292   1.000000
     48        -14.042063   1.000000
     49        -14.039487   1.000000
     50        -13.966938   1.000000
     51        -13.965495   1.000000
     52        -13.939642   1.000000
     53        -13.888710   1.000000
     54        -13.887230   1.000000
     55         -6.972058   1.000000
     56         -6.583490   1.000000
     57         -6.565490   1.000000
     58         -6.564437   1.000000
     59         -6.456974   1.000000
     60         -6.455492   1.000000
     61         -6.306761   1.000000
     62         -6.143155   1.000000
     63         -6.142148   1.000000
     64         -6.070444   1.000000
     65         -6.024323   1.000000
     66         -6.021807   1.000000
     67         -5.908357   1.000000
     68         -5.907527   1.000000
     69         -5.393357   1.000000
     70         -5.390407   1.000000
     71         -5.316307   1.000000
     72         -5.258867   1.000000
     73         -5.257088   1.000000
     74         -5.178737   1.000000
     75         -5.176997   1.000000
     76         -4.952444   1.000000
     77         -4.951341   1.000000
     78         -4.874469   1.000000
     79         -4.514692   1.000000
     80         -4.513020   1.000000
     81         -4.439096   1.000000
     82         -4.437520   1.000000
     83         -4.415285   1.000000
     84         -4.312139   1.000000
     85         -4.310144   1.000000
     86         -4.302184   1.000000
     87         -4.252898   1.000000
     88         -4.225830   1.000000
     89         -4.223520   1.000000
     90         -3.947404   1.000000
     91         -3.544014   1.000000
     92         -3.541651   1.000000
     93         -3.467527   1.000000
     94         -3.411828   1.000000
     95         -3.371803   1.000000
     96         -3.370773   1.000000
     97         -3.369628   1.000000
     98         -3.306614   1.000000
     99         -3.303797   1.000000
    100         -3.245610   1.000000
    101         -3.242958   1.000000
    102         -3.241841   1.000000
    103         -3.042466   1.000000
    104         -2.840091   1.000000
    105         -2.761353   1.000000
    106         -2.760054   1.000000
    107         -2.656369   1.000000
    108         -2.544772   1.000000
    109         -2.163510   1.000000
    110         -2.069974   0.999821
    111         -2.069303   0.999807
    112         -1.936478   0.417995
    113         -1.935400   0.406138
    114         -1.819944   0.000230
    115         -1.716330   0.000000
    116         -1.715718   0.000000
    117         -1.563447   0.000000
    118          0.315188   0.000000
    119          0.316089   0.000000
    120          0.510573   0.000000
    121          0.592006   0.000000
    122          0.593188   0.000000
    123          0.646846   0.000000
    124          0.648925   0.000000
    125          0.713317   0.000000
    126          0.763024   0.000000
    127          0.857686   0.000000
    128          0.867519   0.000000
    129          0.878772   0.000000
    130          0.880546   0.000000
    131          0.925635   0.000000
    132          1.006701   0.000000
    133          1.007527   0.000000
    134          1.066377   0.000000
    135          1.081526   0.000000
    136          1.082759   0.000000
    137          1.130841   0.000000
    138          1.329878   0.000000
    139          1.330610   0.000000
    140          1.530734   0.000000
    141          1.578872   0.000000
    142          1.590750   0.000000
    143          1.650387   0.000000
 
  0.4000000E+00  0.2000000E+00  0.1276756E-14  0.8000000E-01
      1        -56.881139   1.000000
      2        -56.872671   1.000000
      3        -56.872235   1.000000
      4        -56.864081   1.000000
      5        -56.863661   1.000000
      6        -56.860100   1.000000
      7        -56.859658   1.000000
      8        -56.857856   1.000000
      9        -56.856920   1.000000
     10        -33.110118   1.000000
     11        -33.109924   1.000000
     12        -33.092810   1.000000
     13        -33.075093   1.000000
     14        -33.054807   1.000000
     15        -33.054552   1.000000
     16        -32.973969   1.000000
     17        -32.973761   1.000000
     18        -32.973564   1.000000
     19        -32.966320   1.000000
     20        -32.964448   1.000000
     21        -32.942316   1.000000
     22        -32.942209   1.000000
     23        -32.920328   1.000000
     24        -32.920157   1.000000
     25        -32.912315   1.000000
     26        -32.912064   1.000000
     27        -32.910577   1.000000
     28        -32.910333   1.000000
     29        -32.910060   1.000000
     30        -32.909900   1.000000
     31        -32.904984   1.000000
     32        -32.902966   1.000000
     33        -32.877189   1.000000
     34        -32.874586   1.000000
     35        -32.874384   1.000000
     36        -32.849517   1.000000
     37        -15.430814   1.000000
     38        -14.967305   1.000000
     39        -14.964763   1.000000
     40        -14.535997   1.000000
     41        -14.443579   1.000000
     42        -14.441125   1.000000
     43        -14.320777   1.000000
     44        -14.320084   1.000000
     45        -14.163295   1.000000
     46        -14.160790   1.000000
     47        -14.078287   1.000000
     48        -14.077141   1.000000
     49        -14.036023   1.000000
     50        -13.975212   1.000000
     51        -13.956003   1.000000
     52        -13.954802   1.000000
     53        -13.882834   1.000000
     54        -13.857309   1.000000
     55         -6.828774   1.000000
     56         -6.827254   1.000000
     57         -6.647046   1.000000
     58         -6.500658   1.000000
     59         -6.289165   1.000000
     60         -6.260167   1.000000
     61         -6.259106   1.000000
     62         -6.251899   1.000000
     63         -6.143769   1.000000
     64         -6.142132   1.000000
     65         -6.139750   1.000000
     66         -6.000154   1.000000
     67         -5.998851   1.000000
     68         -5.487970   1.000000
     69         -5.486519   1.000000
     70         -5.339367   1.000000
     71         -5.338309   1.000000
     72         -5.303477   1.000000
     73         -5.301353   1.000000
     74         -5.203013   1.000000
     75         -5.179998   1.000000
     76         -5.179568   1.000000
     77         -5.103551   1.000000
     78         -4.666824   1.000000
     79         -4.665623   1.000000
     80         -4.570724   1.000000
     81         -4.551362   1.000000
     82         -4.472380   1.000000
     83         -4.423078   1.000000
     84         -4.420867   1.000000
     85         -4.292267   1.000000
     86         -4.290677   1.000000
     87         -4.275612   1.000000
     88         -4.158855   1.000000
     89         -3.824329   1.000000
     90         -3.801078   1.000000
     91         -3.799822   1.000000
     92         -3.521250   1.000000
     93         -3.472857   1.000000
     94         -3.447828   1.000000
     95         -3.445560   1.000000
     96         -3.363709   1.000000
     97         -3.362574   1.000000
     98         -3.357916   1.000000
     99         -3.170804   1.000000
    100         -3.170064   1.000000
    101         -3.026936   1.000000
    102         -3.005681   1.000000
    103         -3.003551   1.000000
    104         -2.935708   1.000000
    105         -2.934508   1.000000
    106         -2.792423   1.000000
    107         -2.790008   1.000000
    108         -2.575405   1.000000
    109         -2.063796   0.999656
    110         -2.062899   0.999622
    111         -2.033516   0.994420
    112         -2.031683   0.993537
    113         -1.983893   0.871621
    114         -1.982609   0.863848
    115         -1.690614   0.000000
    116         -1.610020   0.000000
    117         -1.517853   0.000000
    118          0.427784   0.000000
    119          0.429617   0.000000
    120          0.442541   0.000000
    121          0.443590   0.000000
    122          0.532674   0.000000
    123          0.536249   0.000000
    124          0.732802   0.000000
    125          0.733567   0.000000
    126          0.805227   0.000000
    127          0.806489   0.000000
    128          0.808091   0.000000
    129          0.860505   0.000000
    130          0.961917   0.000000
    131          0.962604   0.000000
    132          0.972443   0.000000
    133          0.973209   0.000000
    134          1.080210   0.000000
    135          1.081182   0.000000
    136          1.110127   0.000000
    137          1.318598   0.000000
    138          1.319307   0.000000
    139          1.361114   0.000000
    140          1.446519   0.000000
    141          1.463726   0.000000
    142          1.488343   0.000000
    143          1.651389   0.000000
 
  0.2000000E+00  0.4000000E+00  0.1276756E-14  0.8000000E-01
      1        -56.881140   1.000000
      2        -56.872600   1.000000
      3        -56.872305   1.000000
      4        -56.864009   1.000000
      5        -56.863750   1.000000
      6        -56.860017   1.000000
      7        -56.859712   1.000000
      8        -56.857875   1.000000
      9        -56.856913   1.000000
     10        -33.110068   1.000000
     11        -33.109867   1.000000
     12        -33.092899   1.000000
     13        -33.075003   1.000000
     14        -33.054848   1.000000
     15        -33.054672   1.000000
     16        -32.973987   1.000000
     17        -32.973736   1.000000
     18        -32.973636   1.000000
     19        -32.966237   1.000000
     20        -32.964451   1.000000
     21        -32.942352   1.000000
     22        -32.942172   1.000000
     23        -32.920337   1.000000
     24        -32.920139   1.000000
     25        -32.912235   1.000000
     26        -32.911999   1.000000
     27        -32.910561   1.000000
     28        -32.910445   1.000000
     29        -32.910070   1.000000
     30        -32.909895   1.000000
     31        -32.904986   1.000000
     32        -32.902963   1.000000
     33        -32.877126   1.000000
     34        -32.874565   1.000000
     35        -32.874397   1.000000
     36        -32.849600   1.000000
     37        -15.430823   1.000000
     38        -14.967400   1.000000
     39        -14.964677   1.000000
     40        -14.535984   1.000000
     41        -14.443574   1.000000
     42        -14.441013   1.000000
     43        -14.320874   1.000000
     44        -14.319977   1.000000
     45        -14.163469   1.000000
     46        -14.160740   1.000000
     47        -14.078579   1.000000
     48        -14.077012   1.000000
     49        -14.036060   1.000000
     50        -13.975131   1.000000
     51        -13.955876   1.000000
     52        -13.954783   1.000000
     53        -13.882766   1.000000
     54        -13.857399   1.000000
     55         -6.828948   1.000000
     56         -6.827006   1.000000
     57         -6.647066   1.000000
     58         -6.500745   1.000000
     59         -6.289199   1.000000
     60         -6.260375   1.000000
     61         -6.258803   1.000000
     62         -6.251818   1.000000
     63         -6.143897   1.000000
     64         -6.142307   1.000000
     65         -6.139692   1.000000
     66         -6.000437   1.000000
     67         -5.998835   1.000000
     68         -5.487945   1.000000
     69         -5.486401   1.000000
     70         -5.339362   1.000000
     71         -5.337979   1.000000
     72         -5.303938   1.000000
     73         -5.301118   1.000000
     74         -5.202862   1.000000
     75         -5.179871   1.000000
     76         -5.179670   1.000000
     77         -5.103466   1.000000
     78         -4.666513   1.000000
     79         -4.665706   1.000000
     80         -4.570884   1.000000
     81         -4.551254   1.000000
     82         -4.472170   1.000000
     83         -4.422790   1.000000
     84         -4.420952   1.000000
     85         -4.292386   1.000000
     86         -4.290623   1.000000
     87         -4.275628   1.000000
     88         -4.159030   1.000000
     89         -3.823981   1.000000
     90         -3.801433   1.000000
     91         -3.799857   1.000000
     92         -3.521067   1.000000
     93         -3.473114   1.000000
     94         -3.448164   1.000000
     95         -3.445442   1.000000
     96         -3.363618   1.000000
     97         -3.362497   1.000000
     98         -3.357940   1.000000
     99         -3.170641   1.000000
    100         -3.170151   1.000000
    101         -3.027590   1.000000
    102         -3.005629   1.000000
    103         -3.003697   1.000000
    104         -2.935689   1.000000
    105         -2.934621   1.000000
    106         -2.792563   1.000000
    107         -2.789782   1.000000
    108         -2.575174   1.000000
    109         -2.064039   0.999664
    110         -2.063008   0.999627
    111         -2.033293   0.994318
    112         -2.031502   0.993443
    113         -1.983953   0.871977
    114         -1.982585   0.863696
    115         -1.690599   0.000000
    116         -1.610097   0.000000
    117         -1.517759   0.000000
    118          0.427953   0.000000
    119          0.429726   0.000000
    120          0.442891   0.000000
    121          0.443332   0.000000
    122          0.532600   0.000000
    123          0.536307   0.000000
    124          0.732864   0.000000
    125          0.733474   0.000000
    126          0.805285   0.000000
    127          0.806256   0.000000
    128          0.808118   0.000000
    129          0.859829   0.000000
    130          0.962017   0.000000
    131          0.962434   0.000000
    132          0.972388   0.000000
    133          0.973121   0.000000
    134          1.080399   0.000000
    135          1.081226   0.000000
    136          1.109851   0.000000
    137          1.318611   0.000000
    138          1.319401   0.000000
    139          1.361316   0.000000
    140          1.446721   0.000000
    141          1.464578   0.000000
    142          1.488214   0.000000
    143          1.650805   0.000000
 
 -0.2000000E+00  0.2000000E+00  0.1276756E-14  0.8000000E-01
      1        -56.881136   1.000000
      2        -56.872792   1.000000
      3        -56.872113   1.000000
      4        -56.864200   1.000000
      5        -56.863500   1.000000
      6        -56.860225   1.000000
      7        -56.859617   1.000000
      8        -56.857796   1.000000
      9        -56.856942   1.000000
     10        -33.110124   1.000000
     11        -33.110025   1.000000
     12        -33.092721   1.000000
     13        -33.075181   1.000000
     14        -33.054830   1.000000
     15        -33.054371   1.000000
     16        -32.973910   1.000000
     17        -32.973786   1.000000
     18        -32.973530   1.000000
     19        -32.966403   1.000000
     20        -32.964445   1.000000
     21        -32.942392   1.000000
     22        -32.942132   1.000000
     23        -32.920395   1.000000
     24        -32.920093   1.000000
     25        -32.912413   1.000000
     26        -32.912091   1.000000
     27        -32.910603   1.000000
     28        -32.910242   1.000000
     29        -32.910132   1.000000
     30        -32.909820   1.000000
     31        -32.904975   1.000000
     32        -32.902972   1.000000
     33        -32.877261   1.000000
     34        -32.874566   1.000000
     35        -32.874400   1.000000
     36        -32.849436   1.000000
     37        -15.430804   1.000000
     38        -14.967315   1.000000
     39        -14.964742   1.000000
     40        -14.536014   1.000000
     41        -14.443719   1.000000
     42        -14.441098   1.000000
     43        -14.320858   1.000000
     44        -14.320011   1.000000
     45        -14.163125   1.000000
     46        -14.160841   1.000000
     47        -14.078108   1.000000
     48        -14.077147   1.000000
     49        -14.035988   1.000000
     50        -13.975291   1.000000
     51        -13.956115   1.000000
     52        -13.954840   1.000000
     53        -13.882905   1.000000
     54        -13.857216   1.000000
     55         -6.828600   1.000000
     56         -6.827505   1.000000
     57         -6.647029   1.000000
     58         -6.500570   1.000000
     59         -6.289135   1.000000
     60         -6.259942   1.000000
     61         -6.259401   1.000000
     62         -6.251993   1.000000
     63         -6.143550   1.000000
     64         -6.142081   1.000000
     65         -6.139768   1.000000
     66         -5.999845   1.000000
     67         -5.998896   1.000000
     68         -5.488234   1.000000
     69         -5.486395   1.000000
     70         -5.339359   1.000000
     71         -5.338631   1.000000
     72         -5.302980   1.000000
     73         -5.301636   1.000000
     74         -5.203171   1.000000
     75         -5.180180   1.000000
     76         -5.179411   1.000000
     77         -5.103636   1.000000
     78         -4.667259   1.000000
     79         -4.665429   1.000000
     80         -4.570572   1.000000
     81         -4.551475   1.000000
     82         -4.472575   1.000000
     83         -4.423443   1.000000
     84         -4.420712   1.000000
     85         -4.292061   1.000000
     86         -4.290786   1.000000
     87         -4.275614   1.000000
     88         -4.158683   1.000000
     89         -3.824667   1.000000
     90         -3.801191   1.000000
     91         -3.799324   1.000000
     92         -3.521445   1.000000
     93         -3.472591   1.000000
     94         -3.447506   1.000000
     95         -3.445675   1.000000
     96         -3.363679   1.000000
     97         -3.362743   1.000000
     98         -3.357931   1.000000
     99         -3.170967   1.000000
    100         -3.169968   1.000000
    101         -3.026276   1.000000
    102         -3.005719   1.000000
    103         -3.003422   1.000000
    104         -2.935756   1.000000
    105         -2.934355   1.000000
    106         -2.792280   1.000000
    107         -2.790239   1.000000
    108         -2.575641   1.000000
    109         -2.063515   0.999646
    110         -2.062852   0.999621
    111         -2.033706   0.994505
    112         -2.031871   0.993633
    113         -1.983791   0.871013
    114         -1.982678   0.864274
    115         -1.690629   0.000000
    116         -1.609944   0.000000
    117         -1.517946   0.000000
    118          0.427580   0.000000
    119          0.429530   0.000000
    120          0.442201   0.000000
    121          0.443847   0.000000
    122          0.532737   0.000000
    123          0.536203   0.000000
    124          0.732769   0.000000
    125          0.733640   0.000000
    126          0.805320   0.000000
    127          0.806802   0.000000
    128          0.807837   0.000000
    129          0.861196   0.000000
    130          0.961662   0.000000
    131          0.962884   0.000000
    132          0.972553   0.000000
    133          0.973267   0.000000
    134          1.079961   0.000000
    135          1.081187   0.000000
    136          1.110413   0.000000
    137          1.318484   0.000000
    138          1.319322   0.000000
    139          1.360879   0.000000
    140          1.446293   0.000000
    141          1.462894   0.000000
    142          1.488443   0.000000
    143          1.651019   0.000000
 
 -0.4000000E+00  0.2000000E+00  0.1276756E-14  0.8000000E-01
      1        -56.877472   1.000000
      2        -56.877220   1.000000
      3        -56.873144   1.000000
      4        -56.864215   1.000000
      5        -56.860689   1.000000
      6        -56.860438   1.000000
      7        -56.858992   1.000000
      8        -56.858393   1.000000
      9        -56.857761   1.000000
     10        -33.121525   1.000000
     11        -33.107909   1.000000
     12        -33.107699   1.000000
     13        -33.070524   1.000000
     14        -33.070316   1.000000
     15        -33.043687   1.000000
     16        -32.962426   1.000000
     17        -32.954827   1.000000
     18        -32.954642   1.000000
     19        -32.944152   1.000000
     20        -32.942583   1.000000
     21        -32.942401   1.000000
     22        -32.934272   1.000000
     23        -32.934139   1.000000
     24        -32.921118   1.000000
     25        -32.919919   1.000000
     26        -32.919825   1.000000
     27        -32.918687   1.000000
     28        -32.913411   1.000000
     29        -32.911762   1.000000
     30        -32.911583   1.000000
     31        -32.907287   1.000000
     32        -32.906147   1.000000
     33        -32.905946   1.000000
     34        -32.875727   1.000000
     35        -32.860544   1.000000
     36        -32.860248   1.000000
     37        -15.235097   1.000000
     38        -15.232338   1.000000
     39        -15.007659   1.000000
     40        -14.466439   1.000000
     41        -14.444858   1.000000
     42        -14.444075   1.000000
     43        -14.339311   1.000000
     44        -14.220707   1.000000
     45        -14.218080   1.000000
     46        -14.087272   1.000000
     47        -14.082733   1.000000
     48        -14.057151   1.000000
     49        -14.054657   1.000000
     50        -13.972278   1.000000
     51        -13.970825   1.000000
     52        -13.920818   1.000000
     53        -13.902444   1.000000
     54        -13.901182   1.000000
     55         -6.944482   1.000000
     56         -6.748619   1.000000
     57         -6.747186   1.000000
     58         -6.405652   1.000000
     59         -6.403190   1.000000
     60         -6.325754   1.000000
     61         -6.325114   1.000000
     62         -6.158430   1.000000
     63         -6.137897   1.000000
     64         -6.134909   1.000000
     65         -6.134611   1.000000
     66         -6.113940   1.000000
     67         -5.833567   1.000000
     68         -5.831142   1.000000
     69         -5.384675   1.000000
     70         -5.327309   1.000000
     71         -5.297548   1.000000
     72         -5.252676   1.000000
     73         -5.249790   1.000000
     74         -5.196501   1.000000
     75         -5.194941   1.000000
     76         -5.088351   1.000000
     77         -4.657823   1.000000
     78         -4.655132   1.000000
     79         -4.574673   1.000000
     80         -4.573906   1.000000
     81         -4.550441   1.000000
     82         -4.486424   1.000000
     83         -4.422431   1.000000
     84         -4.421498   1.000000
     85         -4.318263   1.000000
     86         -4.193178   1.000000
     87         -4.191711   1.000000
     88         -4.018309   1.000000
     89         -4.017385   1.000000
     90         -3.978065   1.000000
     91         -3.653832   1.000000
     92         -3.566353   1.000000
     93         -3.564984   1.000000
     94         -3.432091   1.000000
     95         -3.429806   1.000000
     96         -3.407953   1.000000
     97         -3.392802   1.000000
     98         -3.391216   1.000000
     99         -3.356408   1.000000
    100         -3.352779   1.000000
    101         -3.267270   1.000000
    102         -3.137396   1.000000
    103         -3.135775   1.000000
    104         -2.910197   1.000000
    105         -2.896321   1.000000
    106         -2.612345   1.000000
    107         -2.609207   1.000000
    108         -2.606007   1.000000
    109         -2.035601   0.995293
    110         -1.959863   0.675229
    111         -1.917425   0.227855
    112         -1.907947   0.155293
    113         -1.907069   0.149442
    114         -1.797319   0.000017
    115         -1.795877   0.000014
    116         -1.707736   0.000000
    117         -1.705647   0.000000
    118          0.372512   0.000000
    119          0.377656   0.000000
    120          0.537787   0.000000
    121          0.538614   0.000000
    122          0.569815   0.000000
    123          0.570698   0.000000
    124          0.710346   0.000000
    125          0.710685   0.000000
    126          0.773756   0.000000
    127          0.795870   0.000000
    128          0.798145   0.000000
    129          0.812505   0.000000
    130          0.838411   0.000000
    131          0.925824   0.000000
    132          0.927961   0.000000
    133          0.995168   0.000000
    134          1.102231   0.000000
    135          1.102509   0.000000
    136          1.168516   0.000000
    137          1.180631   0.000000
    138          1.251768   0.000000
    139          1.252513   0.000000
    140          1.391201   0.000000
    141          1.392969   0.000000
    142          1.787798   0.000000
    143          1.845414   0.000000
 
  0.4000000E+00 -0.4000000E+00  0.1276756E-14  0.8000000E-01
      1        -56.877666   1.000000
      2        -56.876996   1.000000
      3        -56.873174   1.000000
      4        -56.864228   1.000000
      5        -56.860856   1.000000
      6        -56.860224   1.000000
      7        -56.858830   1.000000
      8        -56.858623   1.000000
      9        -56.857727   1.000000
     10        -33.121339   1.000000
     11        -33.107931   1.000000
     12        -33.107827   1.000000
     13        -33.070503   1.000000
     14        -33.070257   1.000000
     15        -33.043873   1.000000
     16        -32.962604   1.000000
     17        -32.954860   1.000000
     18        -32.954611   1.000000
     19        -32.944143   1.000000
     20        -32.942610   1.000000
     21        -32.942448   1.000000
     22        -32.934294   1.000000
     23        -32.933997   1.000000
     24        -32.921108   1.000000
     25        -32.919988   1.000000
     26        -32.919528   1.000000
     27        -32.918462   1.000000
     28        -32.913576   1.000000
     29        -32.911832   1.000000
     30        -32.911510   1.000000
     31        -32.907287   1.000000
     32        -32.906225   1.000000
     33        -32.905879   1.000000
     34        -32.875559   1.000000
     35        -32.860700   1.000000
     36        -32.860354   1.000000
     37        -15.235112   1.000000
     38        -15.232392   1.000000
     39        -15.007595   1.000000
     40        -14.466324   1.000000
     41        -14.444768   1.000000
     42        -14.444070   1.000000
     43        -14.339415   1.000000
     44        -14.220653   1.000000
     45        -14.218181   1.000000
     46        -14.087527   1.000000
     47        -14.082884   1.000000
     48        -14.056859   1.000000
     49        -14.054767   1.000000
     50        -13.972088   1.000000
     51        -13.970936   1.000000
     52        -13.920518   1.000000
     53        -13.902578   1.000000
     54        -13.901259   1.000000
     55         -6.944275   1.000000
     56         -6.748357   1.000000
     57         -6.747658   1.000000
     58         -6.405772   1.000000
     59         -6.403208   1.000000
     60         -6.325944   1.000000
     61         -6.325058   1.000000
     62         -6.158339   1.000000
     63         -6.137198   1.000000
     64         -6.135504   1.000000
     65         -6.134455   1.000000
     66         -6.114346   1.000000
     67         -5.833963   1.000000
     68         -5.831220   1.000000
     69         -5.384119   1.000000
     70         -5.327081   1.000000
     71         -5.298080   1.000000
     72         -5.251777   1.000000
     73         -5.250145   1.000000
     74         -5.196251   1.000000
     75         -5.194977   1.000000
     76         -5.088050   1.000000
     77         -4.658393   1.000000
     78         -4.654994   1.000000
     79         -4.574109   1.000000
     80         -4.573757   1.000000
     81         -4.550889   1.000000
     82         -4.486976   1.000000
     83         -4.421930   1.000000
     84         -4.421220   1.000000
     85         -4.318869   1.000000
     86         -4.191995   1.000000
     87         -4.191610   1.000000
     88         -4.018482   1.000000
     89         -4.017475   1.000000
     90         -3.977447   1.000000
     91         -3.653892   1.000000
     92         -3.566538   1.000000
     93         -3.565007   1.000000
     94         -3.434049   1.000000
     95         -3.429609   1.000000
     96         -3.407239   1.000000
     97         -3.392956   1.000000
     98         -3.391900   1.000000
     99         -3.355724   1.000000
    100         -3.352944   1.000000
    101         -3.267475   1.000000
    102         -3.137455   1.000000
    103         -3.136162   1.000000
    104         -2.910153   1.000000
    105         -2.896072   1.000000
    106         -2.612177   1.000000
    107         -2.609595   1.000000
    108         -2.605664   1.000000
    109         -2.035992   0.995442
    110         -1.959373   0.670232
    111         -1.918055   0.233277
    112         -1.908061   0.156062
    113         -1.906907   0.148382
    114         -1.797362   0.000017
    115         -1.796059   0.000015
    116         -1.707027   0.000000
    117         -1.705710   0.000000
    118          0.373027   0.000000
    119          0.377882   0.000000
    120          0.537766   0.000000
    121          0.538857   0.000000
    122          0.569358   0.000000
    123          0.571034   0.000000
    124          0.710029   0.000000
    125          0.710721   0.000000
    126          0.774028   0.000000
    127          0.796163   0.000000
    128          0.796648   0.000000
    129          0.812836   0.000000
    130          0.838131   0.000000
    131          0.925954   0.000000
    132          0.927236   0.000000
    133          0.994702   0.000000
    134          1.102519   0.000000
    135          1.102773   0.000000
    136          1.168133   0.000000
    137          1.180731   0.000000
    138          1.252066   0.000000
    139          1.252305   0.000000
    140          1.391198   0.000000
    141          1.393908   0.000000
    142          1.787578   0.000000
    143          1.791892   0.000000
 
 -0.2000000E+00  0.4000000E+00  0.1276756E-14  0.8000000E-01
      1        -56.877548   1.000000
      2        -56.877136   1.000000
      3        -56.873152   1.000000
      4        -56.864219   1.000000
      5        -56.860750   1.000000
      6        -56.860361   1.000000
      7        -56.858965   1.000000
      8        -56.858444   1.000000
      9        -56.857749   1.000000
     10        -33.121432   1.000000
     11        -33.107946   1.000000
     12        -33.107736   1.000000
     13        -33.070519   1.000000
     14        -33.070281   1.000000
     15        -33.043780   1.000000
     16        -32.962515   1.000000
     17        -32.954786   1.000000
     18        -32.954685   1.000000
     19        -32.944146   1.000000
     20        -32.942608   1.000000
     21        -32.942417   1.000000
     22        -32.934278   1.000000
     23        -32.934069   1.000000
     24        -32.921113   1.000000
     25        -32.919963   1.000000
     26        -32.919674   1.000000
     27        -32.918571   1.000000
     28        -32.913491   1.000000
     29        -32.911757   1.000000
     30        -32.911589   1.000000
     31        -32.907294   1.000000
     32        -32.906139   1.000000
     33        -32.905950   1.000000
     34        -32.875642   1.000000
     35        -32.860619   1.000000
     36        -32.860305   1.000000
     37        -15.235039   1.000000
     38        -15.232431   1.000000
     39        -15.007627   1.000000
     40        -14.466386   1.000000
     41        -14.444651   1.000000
     42        -14.444232   1.000000
     43        -14.339360   1.000000
     44        -14.220640   1.000000
     45        -14.218171   1.000000
     46        -14.087401   1.000000
     47        -14.082808   1.000000
     48        -14.056998   1.000000
     49        -14.054718   1.000000
     50        -13.972154   1.000000
     51        -13.970909   1.000000
     52        -13.920670   1.000000
     53        -13.902513   1.000000
     54        -13.901217   1.000000
     55         -6.944381   1.000000
     56         -6.748495   1.000000
     57         -6.747414   1.000000
     58         -6.405684   1.000000
     59         -6.403228   1.000000
     60         -6.325794   1.000000
     61         -6.325140   1.000000
     62         -6.158385   1.000000
     63         -6.137559   1.000000
     64         -6.135061   1.000000
     65         -6.134651   1.000000
     66         -6.114156   1.000000
     67         -5.833750   1.000000
     68         -5.831194   1.000000
     69         -5.384401   1.000000
     70         -5.327196   1.000000
     71         -5.297814   1.000000
     72         -5.252233   1.000000
     73         -5.249956   1.000000
     74         -5.196382   1.000000
     75         -5.194955   1.000000
     76         -5.088201   1.000000
     77         -4.658096   1.000000
     78         -4.655076   1.000000
     79         -4.574376   1.000000
     80         -4.573853   1.000000
     81         -4.550660   1.000000
     82         -4.486704   1.000000
     83         -4.422199   1.000000
     84         -4.421341   1.000000
     85         -4.318562   1.000000
     86         -4.192574   1.000000
     87         -4.191674   1.000000
     88         -4.018388   1.000000
     89         -4.017431   1.000000
     90         -3.977768   1.000000
     91         -3.653861   1.000000
     92         -3.566412   1.000000
     93         -3.565027   1.000000
     94         -3.432997   1.000000
     95         -3.429787   1.000000
     96         -3.407591   1.000000
     97         -3.392924   1.000000
     98         -3.391520   1.000000
     99         -3.356060   1.000000
    100         -3.352860   1.000000
    101         -3.267372   1.000000
    102         -3.137425   1.000000
    103         -3.135968   1.000000
    104         -2.910167   1.000000
    105         -2.896199   1.000000
    106         -2.612200   1.000000
    107         -2.609454   1.000000
    108         -2.605845   1.000000
    109         -2.035798   0.995368
    110         -1.959616   0.672720
    111         -1.917754   0.230681
    112         -1.908004   0.155678
    113         -1.906972   0.148805
    114         -1.797338   0.000017
    115         -1.795972   0.000015
    116         -1.707366   0.000000
    117         -1.705694   0.000000
    118          0.372736   0.000000
    119          0.377798   0.000000
    120          0.537863   0.000000
    121          0.538661   0.000000
    122          0.569607   0.000000
    123          0.570841   0.000000
    124          0.710175   0.000000
    125          0.710713   0.000000
    126          0.773897   0.000000
    127          0.796038   0.000000
    128          0.797373   0.000000
    129          0.812671   0.000000
    130          0.838263   0.000000
    131          0.925925   0.000000
    132          0.927569   0.000000
    133          0.994935   0.000000
    134          1.102269   0.000000
    135          1.102746   0.000000
    136          1.168330   0.000000
    137          1.180675   0.000000
    138          1.251900   0.000000
    139          1.252424   0.000000
    140          1.391191   0.000000
    141          1.393446   0.000000
    142          1.787748   0.000000
    143          1.798416   0.000000
