NbSe2 phonon                            
           1
    10.263900    0.000000    0.000000
     5.131950    8.888798    0.000000
     0.000000    0.000000   20.000000
   Nb   Se
     9    18
Direct configuration=     1
   0.00000000  0.00000000  0.50000000
   0.33333333  0.00000000  0.50000000
   0.66666667  0.00000000  0.50000000
   0.00000000  0.33333333  0.50000000
   0.33333333  0.33333333  0.50000000
   0.66666667  0.33333333  0.50000000
   0.00000000  0.66666667  0.50000000
   0.33333333  0.66666667  0.50000000
   0.66666667  0.66666667  0.50000000
   0.11155595  0.11111111  0.41596975
   0.44444444  0.11111111  0.41552491
   0.77777778  0.11111111  0.41552491
   0.11111111  0.44444444  0.41552491
   0.44444444  0.44444444  0.41552491
   0.77777778  0.44444444  0.41552491
   0.11111111  0.77777778  0.41552491
   0.44444444  0.77777778  0.41552491
   0.77777778  0.77777778  0.41552491
   0.11111111  0.11111111  0.58447509
   0.44444444  0.11111111  0.58447509
   0.77777778  0.11111111  0.58447509
   0.11111111  0.44444444  0.58447509
   0.44444444  0.44444444  0.58447509
   0.77777778  0.44444444  0.58447509
   0.11111111  0.77777778  0.58447509
   0.44444444  0.77777778  0.58447509
   0.77777778  0.77777778  0.58447509
