Bilayer MoSe2/WS2 2H (relaxed monolayers
   1.00000000000000     
     3.2157439999999999    0.0000000000000000    0.0000000000000000
     1.6078720000000000    2.7849159960673857    0.0000000000000000
     0.0000000000000000    0.0000000000000000   20.0000000000000000
   Mo   Se   W    S 
     1     2     1     2
Direct
     0.0000000000000000    0.0000000000000000    0.4992143886811885
     0.3333333333333357    0.3333333333333357    0.4142040221834676
     0.3333333333333357    0.3333333333333357    0.5841884481725883
     0.3333333333333357    0.3333333333333357    0.8107088442493764
    -0.0000000000000000   -0.0000000000000000    0.7329748511242811
     0.0000000000000000   -0.0000000000000000    0.8884862313154900
 
  0.00000000E+00  0.00000000E+00  0.00000000E+00
  0.00000000E+00  0.00000000E+00  0.00000000E+00
  0.00000000E+00  0.00000000E+00  0.00000000E+00
  0.00000000E+00  0.00000000E+00  0.00000000E+00
  0.00000000E+00  0.00000000E+00  0.00000000E+00
  0.00000000E+00  0.00000000E+00  0.00000000E+00
