  54  54   0   0
  0.3055217E+02  0.9759725E-09  0.9759725E-09  0.2000000E-08  0.5000000E-15
  1.000000000000000E-004
  CAR 
 MoSe2_WS2_2H phonon                     
      9.44348857    -76.35433789  301      2.65116064      1.00000000
    -76.354  0.0000E+00  0.0000E+00
    -76.068  0.0000E+00  0.0000E+00
    -75.782  0.0000E+00  0.0000E+00
    -75.496  0.0000E+00  0.0000E+00
    -75.210  0.0000E+00  0.0000E+00
    -74.924  0.0000E+00  0.0000E+00
    -74.638  0.0000E+00  0.0000E+00
    -74.352  0.0000E+00  0.0000E+00
    -74.066  0.0000E+00  0.0000E+00
    -73.780  0.0000E+00  0.0000E+00
    -73.494  0.0000E+00  0.0000E+00
    -73.208  0.0000E+00  0.0000E+00
    -72.922  0.0000E+00  0.0000E+00
    -72.636  0.2475E-05  0.7078E-06
    -72.350  0.6270E+02  0.1793E+02
    -72.064  0.2368E+00  0.1800E+02
    -71.778  0.0000E+00  0.1800E+02
    -71.492  0.0000E+00  0.1800E+02
    -71.206  0.0000E+00  0.1800E+02
    -70.920  0.0000E+00  0.1800E+02
    -70.634  0.0000E+00  0.1800E+02
    -70.348  0.0000E+00  0.1800E+02
    -70.062  0.0000E+00  0.1800E+02
    -69.777  0.0000E+00  0.1800E+02
    -69.491  0.0000E+00  0.1800E+02
    -69.205  0.0000E+00  0.1800E+02
    -68.919  0.0000E+00  0.1800E+02
    -68.633  0.0000E+00  0.1800E+02
    -68.347  0.0000E+00  0.1800E+02
    -68.061  0.0000E+00  0.1800E+02
    -67.775  0.0000E+00  0.1800E+02
    -67.489  0.0000E+00  0.1800E+02
    -67.203  0.0000E+00  0.1800E+02
    -66.917  0.0000E+00  0.1800E+02
    -66.631  0.0000E+00  0.1800E+02
    -66.345  0.0000E+00  0.1800E+02
    -66.059  0.0000E+00  0.1800E+02
    -65.773  0.0000E+00  0.1800E+02
    -65.487  0.0000E+00  0.1800E+02
    -65.201  0.0000E+00  0.1800E+02
    -64.915  0.0000E+00  0.1800E+02
    -64.629  0.0000E+00  0.1800E+02
    -64.343  0.0000E+00  0.1800E+02
    -64.057  0.0000E+00  0.1800E+02
    -63.771  0.0000E+00  0.1800E+02
    -63.485  0.0000E+00  0.1800E+02
    -63.199  0.0000E+00  0.1800E+02
    -62.913  0.0000E+00  0.1800E+02
    -62.627  0.0000E+00  0.1800E+02
    -62.341  0.0000E+00  0.1800E+02
    -62.055  0.0000E+00  0.1800E+02
    -61.769  0.0000E+00  0.1800E+02
    -61.483  0.0000E+00  0.1800E+02
    -61.197  0.0000E+00  0.1800E+02
    -60.911  0.0000E+00  0.1800E+02
    -60.625  0.0000E+00  0.1800E+02
    -60.339  0.0000E+00  0.1800E+02
    -60.053  0.0000E+00  0.1800E+02
    -59.767  0.0000E+00  0.1800E+02
    -59.481  0.0000E+00  0.1800E+02
    -59.195  0.0000E+00  0.1800E+02
    -58.909  0.6558E-12  0.1800E+02
    -58.623  0.3616E+02  0.2834E+02
    -58.337  0.2678E+02  0.3600E+02
    -58.051  0.0000E+00  0.3600E+02
    -57.765  0.0000E+00  0.3600E+02
    -57.479  0.0000E+00  0.3600E+02
    -57.193  0.0000E+00  0.3600E+02
    -56.907  0.0000E+00  0.3600E+02
    -56.621  0.0000E+00  0.3600E+02
    -56.335  0.0000E+00  0.3600E+02
    -56.049  0.0000E+00  0.3600E+02
    -55.763  0.0000E+00  0.3600E+02
    -55.477  0.0000E+00  0.3600E+02
    -55.191  0.0000E+00  0.3600E+02
    -54.905  0.0000E+00  0.3600E+02
    -54.619  0.0000E+00  0.3600E+02
    -54.333  0.0000E+00  0.3600E+02
    -54.047  0.0000E+00  0.3600E+02
    -53.761  0.0000E+00  0.3600E+02
    -53.475  0.0000E+00  0.3600E+02
    -53.189  0.0000E+00  0.3600E+02
    -52.903  0.0000E+00  0.3600E+02
    -52.617  0.0000E+00  0.3600E+02
    -52.331  0.0000E+00  0.3600E+02
    -52.045  0.0000E+00  0.3600E+02
    -51.759  0.0000E+00  0.3600E+02
    -51.473  0.0000E+00  0.3600E+02
    -51.187  0.0000E+00  0.3600E+02
    -50.901  0.0000E+00  0.3600E+02
    -50.615  0.0000E+00  0.3600E+02
    -50.329  0.0000E+00  0.3600E+02
    -50.043  0.0000E+00  0.3600E+02
    -49.757  0.0000E+00  0.3600E+02
    -49.471  0.0000E+00  0.3600E+02
    -49.185  0.0000E+00  0.3600E+02
    -48.899  0.0000E+00  0.3600E+02
    -48.613  0.0000E+00  0.3600E+02
    -48.327  0.0000E+00  0.3600E+02
    -48.041  0.0000E+00  0.3600E+02
    -47.755  0.0000E+00  0.3600E+02
    -47.469  0.0000E+00  0.3600E+02
    -47.183  0.0000E+00  0.3600E+02
    -46.897  0.0000E+00  0.3600E+02
    -46.611  0.0000E+00  0.3600E+02
    -46.325  0.0000E+00  0.3600E+02
    -46.039  0.0000E+00  0.3600E+02
    -45.753  0.0000E+00  0.3600E+02
    -45.467  0.0000E+00  0.3600E+02
    -45.181  0.0000E+00  0.3600E+02
    -44.895  0.0000E+00  0.3600E+02
    -44.609  0.0000E+00  0.3600E+02
    -44.323  0.0000E+00  0.3600E+02
    -44.037  0.0000E+00  0.3600E+02
    -43.751  0.0000E+00  0.3600E+02
    -43.465  0.0000E+00  0.3600E+02
    -43.179  0.0000E+00  0.3600E+02
    -42.893  0.0000E+00  0.3600E+02
    -42.607  0.0000E+00  0.3600E+02
    -42.321  0.0000E+00  0.3600E+02
    -42.035  0.0000E+00  0.3600E+02
    -41.749  0.0000E+00  0.3600E+02
    -41.463  0.0000E+00  0.3600E+02
    -41.177  0.0000E+00  0.3600E+02
    -40.891  0.0000E+00  0.3600E+02
    -40.605  0.0000E+00  0.3600E+02
    -40.319  0.0000E+00  0.3600E+02
    -40.033  0.0000E+00  0.3600E+02
    -39.747  0.0000E+00  0.3600E+02
    -39.461  0.0000E+00  0.3600E+02
    -39.175  0.0000E+00  0.3600E+02
    -38.889  0.0000E+00  0.3600E+02
    -38.603  0.0000E+00  0.3600E+02
    -38.317  0.0000E+00  0.3600E+02
    -38.031  0.0000E+00  0.3600E+02
    -37.745  0.0000E+00  0.3600E+02
    -37.459  0.0000E+00  0.3600E+02
    -37.173  0.0000E+00  0.3600E+02
    -36.887  0.2618E+00  0.3607E+02
    -36.601  0.1346E+03  0.7458E+02
    -36.315  0.5391E+02  0.9000E+02
    -36.029  0.0000E+00  0.9000E+02
    -35.743  0.0000E+00  0.9000E+02
    -35.457  0.0000E+00  0.9000E+02
    -35.171  0.0000E+00  0.9000E+02
    -34.885  0.0000E+00  0.9000E+02
    -34.599  0.0000E+00  0.9000E+02
    -34.313  0.0000E+00  0.9000E+02
    -34.027  0.0000E+00  0.9000E+02
    -33.741  0.0000E+00  0.9000E+02
    -33.455  0.0000E+00  0.9000E+02
    -33.169  0.4025E-13  0.9000E+02
    -32.883  0.1222E+02  0.9350E+02
    -32.597  0.1723E+03  0.1428E+03
    -32.311  0.4316E+01  0.1440E+03
    -32.025  0.0000E+00  0.1440E+03
    -31.739  0.0000E+00  0.1440E+03
    -31.453  0.0000E+00  0.1440E+03
    -31.167  0.0000E+00  0.1440E+03
    -30.881  0.0000E+00  0.1440E+03
    -30.595  0.0000E+00  0.1440E+03
    -30.310  0.0000E+00  0.1440E+03
    -30.024  0.0000E+00  0.1440E+03
    -29.738  0.0000E+00  0.1440E+03
    -29.452  0.0000E+00  0.1440E+03
    -29.166  0.0000E+00  0.1440E+03
    -28.880  0.0000E+00  0.1440E+03
    -28.594  0.0000E+00  0.1440E+03
    -28.308  0.0000E+00  0.1440E+03
    -28.022  0.0000E+00  0.1440E+03
    -27.736  0.0000E+00  0.1440E+03
    -27.450  0.0000E+00  0.1440E+03
    -27.164  0.0000E+00  0.1440E+03
    -26.878  0.0000E+00  0.1440E+03
    -26.592  0.0000E+00  0.1440E+03
    -26.306  0.0000E+00  0.1440E+03
    -26.020  0.0000E+00  0.1440E+03
    -25.734  0.0000E+00  0.1440E+03
    -25.448  0.0000E+00  0.1440E+03
    -25.162  0.0000E+00  0.1440E+03
    -24.876  0.0000E+00  0.1440E+03
    -24.590  0.0000E+00  0.1440E+03
    -24.304  0.0000E+00  0.1440E+03
    -24.018  0.0000E+00  0.1440E+03
    -23.732  0.0000E+00  0.1440E+03
    -23.446  0.0000E+00  0.1440E+03
    -23.160  0.0000E+00  0.1440E+03
    -22.874  0.0000E+00  0.1440E+03
    -22.588  0.0000E+00  0.1440E+03
    -22.302  0.0000E+00  0.1440E+03
    -22.016  0.0000E+00  0.1440E+03
    -21.730  0.0000E+00  0.1440E+03
    -21.444  0.0000E+00  0.1440E+03
    -21.158  0.0000E+00  0.1440E+03
    -20.872  0.0000E+00  0.1440E+03
    -20.586  0.0000E+00  0.1440E+03
    -20.300  0.0000E+00  0.1440E+03
    -20.014  0.0000E+00  0.1440E+03
    -19.728  0.0000E+00  0.1440E+03
    -19.442  0.0000E+00  0.1440E+03
    -19.156  0.0000E+00  0.1440E+03
    -18.870  0.0000E+00  0.1440E+03
    -18.584  0.0000E+00  0.1440E+03
    -18.298  0.0000E+00  0.1440E+03
    -18.012  0.0000E+00  0.1440E+03
    -17.726  0.0000E+00  0.1440E+03
    -17.440  0.0000E+00  0.1440E+03
    -17.154  0.0000E+00  0.1440E+03
    -16.868  0.0000E+00  0.1440E+03
    -16.582  0.0000E+00  0.1440E+03
    -16.296  0.0000E+00  0.1440E+03
    -16.010  0.0000E+00  0.1440E+03
    -15.724  0.0000E+00  0.1440E+03
    -15.438  0.0000E+00  0.1440E+03
    -15.152  0.0000E+00  0.1440E+03
    -14.866  0.0000E+00  0.1440E+03
    -14.580  0.0000E+00  0.1440E+03
    -14.294  0.0000E+00  0.1440E+03
    -14.008  0.0000E+00  0.1440E+03
    -13.722  0.0000E+00  0.1440E+03
    -13.436  0.0000E+00  0.1440E+03
    -13.150  0.7190E-09  0.1440E+03
    -12.864  0.1342E+01  0.1444E+03
    -12.578  0.4004E+01  0.1455E+03
    -12.292  0.5040E+01  0.1470E+03
    -12.006  0.9954E+01  0.1498E+03
    -11.720  0.1232E+02  0.1533E+03
    -11.434  0.1313E+02  0.1571E+03
    -11.148  0.2469E+02  0.1642E+03
    -10.862  0.4824E+02  0.1780E+03
    -10.576  0.5709E+02  0.1943E+03
    -10.290  0.3538E+02  0.2044E+03
    -10.004  0.3943E+02  0.2157E+03
     -9.718  0.1138E+01  0.2160E+03
     -9.432  0.0000E+00  0.2160E+03
     -9.146  0.0000E+00  0.2160E+03
     -8.860  0.0000E+00  0.2160E+03
     -8.574  0.0000E+00  0.2160E+03
     -8.288  0.0000E+00  0.2160E+03
     -8.002  0.0000E+00  0.2160E+03
     -7.716  0.0000E+00  0.2160E+03
     -7.430  0.0000E+00  0.2160E+03
     -7.144  0.0000E+00  0.2160E+03
     -6.858  0.0000E+00  0.2160E+03
     -6.572  0.0000E+00  0.2160E+03
     -6.286  0.0000E+00  0.2160E+03
     -6.000  0.0000E+00  0.2160E+03
     -5.714  0.0000E+00  0.2160E+03
     -5.428  0.0000E+00  0.2160E+03
     -5.142  0.0000E+00  0.2160E+03
     -4.856  0.3939E-09  0.2160E+03
     -4.570  0.3313E+01  0.2169E+03
     -4.284  0.1305E+02  0.2207E+03
     -3.998  0.1836E+02  0.2259E+03
     -3.712  0.2917E+02  0.2343E+03
     -3.426  0.2116E+02  0.2403E+03
     -3.140  0.2771E+02  0.2483E+03
     -2.854  0.5447E+02  0.2638E+03
     -2.568  0.5242E+02  0.2788E+03
     -2.282  0.3679E+02  0.2893E+03
     -1.996  0.1688E+02  0.2942E+03
     -1.710  0.5746E+02  0.3106E+03
     -1.424  0.5956E+02  0.3276E+03
     -1.138  0.2993E+02  0.3362E+03
     -0.852  0.5357E+02  0.3515E+03
     -0.566  0.4128E+02  0.3633E+03
     -0.280  0.4505E+02  0.3762E+03
      0.006  0.4161E+02  0.3881E+03
      0.292  0.5212E+02  0.4030E+03
      0.578  0.4335E+02  0.4154E+03
      0.864  0.4784E+02  0.4291E+03
      1.150  0.4169E+02  0.4410E+03
      1.436  0.3785E+02  0.4518E+03
      1.722  0.3471E+02  0.4618E+03
      2.008  0.1600E+02  0.4663E+03
      2.294  0.5601E+01  0.4679E+03
      2.580  0.1916E+00  0.4680E+03
      2.866  0.0000E+00  0.4680E+03
      3.152  0.1990E+00  0.4681E+03
      3.438  0.2751E+01  0.4688E+03
      3.724  0.1478E+02  0.4731E+03
      4.010  0.3989E+02  0.4845E+03
      4.296  0.8233E+02  0.5080E+03
      4.582  0.8500E+02  0.5323E+03
      4.868  0.6138E+02  0.5499E+03
      5.154  0.3648E+02  0.5603E+03
      5.440  0.3733E+02  0.5710E+03
      5.726  0.3496E+01  0.5720E+03
      6.012  0.0000E+00  0.5720E+03
      6.298  0.0000E+00  0.5720E+03
      6.584  0.0000E+00  0.5720E+03
      6.870  0.0000E+00  0.5720E+03
      7.156  0.0000E+00  0.5720E+03
      7.442  0.0000E+00  0.5720E+03
      7.728  0.0000E+00  0.5720E+03
      8.014  0.0000E+00  0.5720E+03
      8.300  0.0000E+00  0.5720E+03
      8.586  0.0000E+00  0.5720E+03
      8.872  0.0000E+00  0.5720E+03
      9.157  0.0000E+00  0.5720E+03
      9.443  0.0000E+00  0.5720E+03
