  27  27   0   0
  0.7340369E+02  0.1069696E-08  0.1069696E-08  0.2000000E-08  0.5000000E-15
  1.000000000000000E-004
  CAR 
 MoTe2 phonon                            
      5.74206977    -64.39712825  301     -0.27821139      1.00000000
    -64.397  0.0000E+00  0.0000E+00
    -64.163  0.0000E+00  0.0000E+00
    -63.930  0.0000E+00  0.0000E+00
    -63.696  0.0000E+00  0.0000E+00
    -63.462  0.0000E+00  0.0000E+00
    -63.228  0.0000E+00  0.0000E+00
    -62.994  0.0000E+00  0.0000E+00
    -62.761  0.0000E+00  0.0000E+00
    -62.527  0.0000E+00  0.0000E+00
    -62.293  0.0000E+00  0.0000E+00
    -62.059  0.0000E+00  0.0000E+00
    -61.825  0.0000E+00  0.0000E+00
    -61.592  0.0000E+00  0.0000E+00
    -61.358  0.4788E-03  0.1119E-03
    -61.124  0.7598E+02  0.1776E+02
    -60.890  0.1005E+01  0.1800E+02
    -60.656  0.0000E+00  0.1800E+02
    -60.423  0.0000E+00  0.1800E+02
    -60.189  0.0000E+00  0.1800E+02
    -59.955  0.0000E+00  0.1800E+02
    -59.721  0.0000E+00  0.1800E+02
    -59.487  0.0000E+00  0.1800E+02
    -59.254  0.0000E+00  0.1800E+02
    -59.020  0.0000E+00  0.1800E+02
    -58.786  0.0000E+00  0.1800E+02
    -58.552  0.0000E+00  0.1800E+02
    -58.318  0.0000E+00  0.1800E+02
    -58.085  0.0000E+00  0.1800E+02
    -57.851  0.0000E+00  0.1800E+02
    -57.617  0.0000E+00  0.1800E+02
    -57.383  0.0000E+00  0.1800E+02
    -57.149  0.0000E+00  0.1800E+02
    -56.916  0.0000E+00  0.1800E+02
    -56.682  0.0000E+00  0.1800E+02
    -56.448  0.0000E+00  0.1800E+02
    -56.214  0.0000E+00  0.1800E+02
    -55.980  0.0000E+00  0.1800E+02
    -55.747  0.0000E+00  0.1800E+02
    -55.513  0.0000E+00  0.1800E+02
    -55.279  0.0000E+00  0.1800E+02
    -55.045  0.0000E+00  0.1800E+02
    -54.811  0.0000E+00  0.1800E+02
    -54.578  0.0000E+00  0.1800E+02
    -54.344  0.0000E+00  0.1800E+02
    -54.110  0.0000E+00  0.1800E+02
    -53.876  0.0000E+00  0.1800E+02
    -53.642  0.0000E+00  0.1800E+02
    -53.409  0.0000E+00  0.1800E+02
    -53.175  0.0000E+00  0.1800E+02
    -52.941  0.0000E+00  0.1800E+02
    -52.707  0.0000E+00  0.1800E+02
    -52.473  0.0000E+00  0.1800E+02
    -52.240  0.0000E+00  0.1800E+02
    -52.006  0.0000E+00  0.1800E+02
    -51.772  0.0000E+00  0.1800E+02
    -51.538  0.0000E+00  0.1800E+02
    -51.304  0.0000E+00  0.1800E+02
    -51.071  0.0000E+00  0.1800E+02
    -50.837  0.0000E+00  0.1800E+02
    -50.603  0.0000E+00  0.1800E+02
    -50.369  0.0000E+00  0.1800E+02
    -50.135  0.0000E+00  0.1800E+02
    -49.902  0.0000E+00  0.1800E+02
    -49.668  0.0000E+00  0.1800E+02
    -49.434  0.0000E+00  0.1800E+02
    -49.200  0.0000E+00  0.1800E+02
    -48.967  0.0000E+00  0.1800E+02
    -48.733  0.0000E+00  0.1800E+02
    -48.499  0.0000E+00  0.1800E+02
    -48.265  0.0000E+00  0.1800E+02
    -48.031  0.0000E+00  0.1800E+02
    -47.798  0.0000E+00  0.1800E+02
    -47.564  0.0000E+00  0.1800E+02
    -47.330  0.0000E+00  0.1800E+02
    -47.096  0.0000E+00  0.1800E+02
    -46.862  0.0000E+00  0.1800E+02
    -46.629  0.0000E+00  0.1800E+02
    -46.395  0.0000E+00  0.1800E+02
    -46.161  0.0000E+00  0.1800E+02
    -45.927  0.0000E+00  0.1800E+02
    -45.693  0.0000E+00  0.1800E+02
    -45.460  0.0000E+00  0.1800E+02
    -45.226  0.0000E+00  0.1800E+02
    -44.992  0.0000E+00  0.1800E+02
    -44.758  0.0000E+00  0.1800E+02
    -44.524  0.0000E+00  0.1800E+02
    -44.291  0.0000E+00  0.1800E+02
    -44.057  0.0000E+00  0.1800E+02
    -43.823  0.0000E+00  0.1800E+02
    -43.589  0.0000E+00  0.1800E+02
    -43.355  0.0000E+00  0.1800E+02
    -43.122  0.0000E+00  0.1800E+02
    -42.888  0.0000E+00  0.1800E+02
    -42.654  0.0000E+00  0.1800E+02
    -42.420  0.0000E+00  0.1800E+02
    -42.186  0.0000E+00  0.1800E+02
    -41.953  0.0000E+00  0.1800E+02
    -41.719  0.0000E+00  0.1800E+02
    -41.485  0.0000E+00  0.1800E+02
    -41.251  0.0000E+00  0.1800E+02
    -41.017  0.0000E+00  0.1800E+02
    -40.784  0.0000E+00  0.1800E+02
    -40.550  0.0000E+00  0.1800E+02
    -40.316  0.0000E+00  0.1800E+02
    -40.082  0.0000E+00  0.1800E+02
    -39.848  0.0000E+00  0.1800E+02
    -39.615  0.0000E+00  0.1800E+02
    -39.381  0.0000E+00  0.1800E+02
    -39.147  0.0000E+00  0.1800E+02
    -38.913  0.0000E+00  0.1800E+02
    -38.679  0.0000E+00  0.1800E+02
    -38.446  0.0000E+00  0.1800E+02
    -38.212  0.0000E+00  0.1800E+02
    -37.978  0.0000E+00  0.1800E+02
    -37.744  0.0000E+00  0.1800E+02
    -37.510  0.0000E+00  0.1800E+02
    -37.277  0.0000E+00  0.1800E+02
    -37.043  0.0000E+00  0.1800E+02
    -36.809  0.0000E+00  0.1800E+02
    -36.575  0.0000E+00  0.1800E+02
    -36.341  0.0000E+00  0.1800E+02
    -36.108  0.0000E+00  0.1800E+02
    -35.874  0.0000E+00  0.1800E+02
    -35.640  0.5733E-13  0.1800E+02
    -35.406  0.5246E+01  0.1923E+02
    -35.172  0.2256E+03  0.7197E+02
    -34.939  0.1477E+00  0.7200E+02
    -34.705  0.0000E+00  0.7200E+02
    -34.471  0.0000E+00  0.7200E+02
    -34.237  0.0000E+00  0.7200E+02
    -34.003  0.0000E+00  0.7200E+02
    -33.770  0.0000E+00  0.7200E+02
    -33.536  0.0000E+00  0.7200E+02
    -33.302  0.0000E+00  0.7200E+02
    -33.068  0.0000E+00  0.7200E+02
    -32.834  0.0000E+00  0.7200E+02
    -32.601  0.0000E+00  0.7200E+02
    -32.367  0.0000E+00  0.7200E+02
    -32.133  0.0000E+00  0.7200E+02
    -31.899  0.0000E+00  0.7200E+02
    -31.666  0.0000E+00  0.7200E+02
    -31.432  0.0000E+00  0.7200E+02
    -31.198  0.0000E+00  0.7200E+02
    -30.964  0.0000E+00  0.7200E+02
    -30.730  0.0000E+00  0.7200E+02
    -30.497  0.0000E+00  0.7200E+02
    -30.263  0.0000E+00  0.7200E+02
    -30.029  0.0000E+00  0.7200E+02
    -29.795  0.0000E+00  0.7200E+02
    -29.561  0.0000E+00  0.7200E+02
    -29.328  0.0000E+00  0.7200E+02
    -29.094  0.0000E+00  0.7200E+02
    -28.860  0.0000E+00  0.7200E+02
    -28.626  0.0000E+00  0.7200E+02
    -28.392  0.0000E+00  0.7200E+02
    -28.159  0.0000E+00  0.7200E+02
    -27.925  0.0000E+00  0.7200E+02
    -27.691  0.0000E+00  0.7200E+02
    -27.457  0.0000E+00  0.7200E+02
    -27.223  0.0000E+00  0.7200E+02
    -26.990  0.0000E+00  0.7200E+02
    -26.756  0.0000E+00  0.7200E+02
    -26.522  0.0000E+00  0.7200E+02
    -26.288  0.0000E+00  0.7200E+02
    -26.054  0.0000E+00  0.7200E+02
    -25.821  0.0000E+00  0.7200E+02
    -25.587  0.0000E+00  0.7200E+02
    -25.353  0.0000E+00  0.7200E+02
    -25.119  0.0000E+00  0.7200E+02
    -24.885  0.0000E+00  0.7200E+02
    -24.652  0.0000E+00  0.7200E+02
    -24.418  0.0000E+00  0.7200E+02
    -24.184  0.0000E+00  0.7200E+02
    -23.950  0.0000E+00  0.7200E+02
    -23.716  0.0000E+00  0.7200E+02
    -23.483  0.0000E+00  0.7200E+02
    -23.249  0.0000E+00  0.7200E+02
    -23.015  0.0000E+00  0.7200E+02
    -22.781  0.0000E+00  0.7200E+02
    -22.547  0.0000E+00  0.7200E+02
    -22.314  0.0000E+00  0.7200E+02
    -22.080  0.0000E+00  0.7200E+02
    -21.846  0.0000E+00  0.7200E+02
    -21.612  0.0000E+00  0.7200E+02
    -21.378  0.0000E+00  0.7200E+02
    -21.145  0.0000E+00  0.7200E+02
    -20.911  0.0000E+00  0.7200E+02
    -20.677  0.0000E+00  0.7200E+02
    -20.443  0.0000E+00  0.7200E+02
    -20.209  0.0000E+00  0.7200E+02
    -19.976  0.0000E+00  0.7200E+02
    -19.742  0.0000E+00  0.7200E+02
    -19.508  0.0000E+00  0.7200E+02
    -19.274  0.0000E+00  0.7200E+02
    -19.040  0.0000E+00  0.7200E+02
    -18.807  0.0000E+00  0.7200E+02
    -18.573  0.0000E+00  0.7200E+02
    -18.339  0.0000E+00  0.7200E+02
    -18.105  0.0000E+00  0.7200E+02
    -17.871  0.0000E+00  0.7200E+02
    -17.638  0.0000E+00  0.7200E+02
    -17.404  0.0000E+00  0.7200E+02
    -17.170  0.0000E+00  0.7200E+02
    -16.936  0.0000E+00  0.7200E+02
    -16.702  0.0000E+00  0.7200E+02
    -16.469  0.0000E+00  0.7200E+02
    -16.235  0.0000E+00  0.7200E+02
    -16.001  0.0000E+00  0.7200E+02
    -15.767  0.0000E+00  0.7200E+02
    -15.533  0.0000E+00  0.7200E+02
    -15.300  0.0000E+00  0.7200E+02
    -15.066  0.0000E+00  0.7200E+02
    -14.832  0.0000E+00  0.7200E+02
    -14.598  0.0000E+00  0.7200E+02
    -14.365  0.0000E+00  0.7200E+02
    -14.131  0.0000E+00  0.7200E+02
    -13.897  0.0000E+00  0.7200E+02
    -13.663  0.0000E+00  0.7200E+02
    -13.429  0.0000E+00  0.7200E+02
    -13.196  0.1905E-05  0.7200E+02
    -12.962  0.1791E+01  0.7242E+02
    -12.728  0.4705E+01  0.7352E+02
    -12.494  0.5828E+01  0.7488E+02
    -12.260  0.6307E+01  0.7636E+02
    -12.027  0.5809E+01  0.7771E+02
    -11.793  0.1403E+02  0.8099E+02
    -11.559  0.1812E+02  0.8523E+02
    -11.325  0.1766E+02  0.8936E+02
    -11.091  0.2718E+02  0.9571E+02
    -10.858  0.2984E+02  0.1027E+03
    -10.624  0.2099E+02  0.1076E+03
    -10.390  0.1724E+01  0.1080E+03
    -10.156  0.0000E+00  0.1080E+03
     -9.922  0.0000E+00  0.1080E+03
     -9.689  0.0000E+00  0.1080E+03
     -9.455  0.0000E+00  0.1080E+03
     -9.221  0.0000E+00  0.1080E+03
     -8.987  0.0000E+00  0.1080E+03
     -8.753  0.0000E+00  0.1080E+03
     -8.520  0.0000E+00  0.1080E+03
     -8.286  0.0000E+00  0.1080E+03
     -8.052  0.0000E+00  0.1080E+03
     -7.818  0.0000E+00  0.1080E+03
     -7.584  0.0000E+00  0.1080E+03
     -7.351  0.0000E+00  0.1080E+03
     -7.117  0.0000E+00  0.1080E+03
     -6.883  0.0000E+00  0.1080E+03
     -6.649  0.0000E+00  0.1080E+03
     -6.415  0.0000E+00  0.1080E+03
     -6.182  0.0000E+00  0.1080E+03
     -5.948  0.1164E-04  0.1080E+03
     -5.714  0.4028E+01  0.1089E+03
     -5.480  0.8566E+01  0.1109E+03
     -5.246  0.1360E+02  0.1141E+03
     -5.013  0.1824E+02  0.1184E+03
     -4.779  0.3547E+02  0.1267E+03
     -4.545  0.2785E+02  0.1332E+03
     -4.311  0.8905E+01  0.1353E+03
     -4.077  0.6108E+01  0.1367E+03
     -3.844  0.2751E+02  0.1431E+03
     -3.610  0.3698E+02  0.1518E+03
     -3.376  0.1786E+02  0.1560E+03
     -3.142  0.2654E+02  0.1622E+03
     -2.908  0.2850E+02  0.1688E+03
     -2.675  0.2706E+02  0.1752E+03
     -2.441  0.1469E+02  0.1786E+03
     -2.207  0.2019E+02  0.1833E+03
     -1.973  0.4338E+02  0.1935E+03
     -1.739  0.3163E+02  0.2008E+03
     -1.506  0.3300E+02  0.2086E+03
     -1.272  0.2406E+02  0.2142E+03
     -1.038  0.3379E+02  0.2221E+03
     -0.804  0.3461E+02  0.2302E+03
     -0.570  0.1544E+02  0.2338E+03
     -0.337  0.9202E+00  0.2340E+03
     -0.103  0.0000E+00  0.2340E+03
      0.131  0.0000E+00  0.2340E+03
      0.365  0.8938E-05  0.2340E+03
      0.599  0.1453E+01  0.2343E+03
      0.832  0.1685E+02  0.2383E+03
      1.066  0.4635E+02  0.2491E+03
      1.300  0.3985E+02  0.2584E+03
      1.534  0.3118E+02  0.2657E+03
      1.768  0.3610E+02  0.2742E+03
      2.001  0.2277E+02  0.2795E+03
      2.235  0.1466E+02  0.2829E+03
      2.469  0.8798E+01  0.2850E+03
      2.703  0.4420E+01  0.2860E+03
      2.937  0.2382E-04  0.2860E+03
      3.170  0.0000E+00  0.2860E+03
      3.404  0.0000E+00  0.2860E+03
      3.638  0.0000E+00  0.2860E+03
      3.872  0.0000E+00  0.2860E+03
      4.105  0.0000E+00  0.2860E+03
      4.339  0.0000E+00  0.2860E+03
      4.573  0.0000E+00  0.2860E+03
      4.807  0.0000E+00  0.2860E+03
      5.041  0.0000E+00  0.2860E+03
      5.274  0.0000E+00  0.2860E+03
      5.508  0.0000E+00  0.2860E+03
      5.742  0.0000E+00  0.2860E+03
