MoTe2 phonon                            
           1
    10.696964    0.000000    0.000000
     5.348482    9.263842    0.000000
     0.000000    0.000000   20.000000
   Mo   Te
     9    18
Direct configuration=     1
   0.00000000  0.00000000  0.50000000
   0.33333333  0.00000000  0.50000000
   0.66666667  0.00000000  0.50000000
   0.00000000  0.33333333  0.50000000
   0.33333333  0.33333333  0.50000000
   0.66666667  0.33333333  0.50000000
   0.00000000  0.66666667  0.50000000
   0.33333333  0.66666667  0.50000000
   0.66666667  0.66666667  0.50000000
   0.11155201  0.11111111  0.41067312
   0.44444444  0.11111111  0.41023222
   0.77777778  0.11111111  0.41023222
   0.11111111  0.44444444  0.41023222
   0.44444444  0.44444444  0.41023222
   0.77777778  0.44444444  0.41023222
   0.11111111  0.77777778  0.41023222
   0.44444444  0.77777778  0.41023222
   0.77777778  0.77777778  0.41023222
   0.11111111  0.11111111  0.58976778
   0.44444444  0.11111111  0.58976778
   0.77777778  0.11111111  0.58976778
   0.11111111  0.44444444  0.58976778
   0.44444444  0.44444444  0.58976778
   0.77777778  0.44444444  0.58976778
   0.11111111  0.77777778  0.58976778
   0.44444444  0.77777778  0.58976778
   0.77777778  0.77777778  0.58976778
