cpu-bind=MASK - c132, task  0  0 [258419]: mask 0x7ffefffefffe set
 running  264 mpi-ranks, with    1 threads/rank, on    6 nodes
 distrk:  each k-point on   44 cores,    6 groups
 distr:  one band on    4 cores,   11 groups
 vasp.6.5.1 10Mar25 (build Aug 29 2025 00:30:47) complex                        
  
 POSCAR found type information on POSCAR MoSeW S 
 POSCAR found :  4 types and      54 ions
 scaLAPACK will be used
 LDA part: xc-table for (Slater+PW92), standard interpolation
 POSCAR, INCAR and KPOINTS ok, starting setup
 FFT: planning ... GRIDC
 FFT: planning ... GRID_SOFT
 FFT: planning ... GRID
 WAVECAR not read
 entering main loop
       N       E                     dE             d eps       ncg     rms          rms(c)
DAV:   1     0.457364901996E+04    0.45736E+04   -0.24738E+05  8855   0.147E+03
DAV:   2    -0.364852438524E+02   -0.46101E+04   -0.44810E+04  8822   0.375E+02
DAV:   3    -0.397113992660E+03   -0.36063E+03   -0.35387E+03  8833   0.986E+01
DAV:   4    -0.413378363229E+03   -0.16264E+02   -0.16140E+02  9911   0.192E+01
DAV:   5    -0.413854361289E+03   -0.47600E+00   -0.47415E+00 10120   0.337E+00    0.919E+01
DAV:   6    -0.396440570621E+03    0.17414E+02   -0.11778E+02  8811   0.211E+01    0.374E+01
DAV:   7    -0.395004404578E+03    0.14362E+01   -0.50540E+01  8723   0.126E+01    0.206E+01
DAV:   8    -0.391814424000E+03    0.31900E+01   -0.12153E+01  8459   0.665E+00    0.540E+00
DAV:   9    -0.391725991939E+03    0.88432E-01   -0.12995E+00  9218   0.196E+00    0.228E+00
DAV:  10    -0.391699539218E+03    0.26453E-01   -0.12054E-01  9460   0.702E-01    0.112E+00
DAV:  11    -0.391683477960E+03    0.16061E-01   -0.42935E-02  9625   0.538E-01    0.541E-01
DAV:  12    -0.391674216312E+03    0.92616E-02   -0.20846E-02  9295   0.377E-01    0.296E-01
DAV:  13    -0.391663337684E+03    0.10879E-01   -0.60334E-03  9372   0.220E-01    0.160E-01
DAV:  14    -0.391657014204E+03    0.63235E-02   -0.64740E-03  9306   0.221E-01    0.189E-01
DAV:  15    -0.391651722490E+03    0.52917E-02   -0.54329E-03  9405   0.209E-01    0.112E-01
DAV:  16    -0.391650403226E+03    0.13193E-02   -0.36049E-03  9097   0.154E-01    0.985E-02
DAV:  17    -0.391652468144E+03   -0.20649E-02   -0.29086E-03  9207   0.108E-01    0.929E-02
DAV:  18    -0.391654388244E+03   -0.19201E-02   -0.59381E-04  9174   0.591E-02    0.727E-02
DAV:  19    -0.391656102219E+03   -0.17140E-02   -0.23285E-04  8822   0.423E-02    0.419E-02
DAV:  20    -0.391658747382E+03   -0.26452E-02   -0.41829E-04  8613   0.455E-02    0.382E-02
DAV:  21    -0.391659361868E+03   -0.61449E-03   -0.75191E-05  9207   0.281E-02    0.264E-02
DAV:  22    -0.391659857559E+03   -0.49569E-03   -0.29783E-05  8294   0.201E-02    0.155E-02
DAV:  23    -0.391660428052E+03   -0.57049E-03   -0.57217E-05  8877   0.267E-02    0.185E-02
DAV:  24    -0.391660506080E+03   -0.78028E-04   -0.48492E-05  7612   0.154E-02    0.183E-02
DAV:  25    -0.391660475517E+03    0.30563E-04   -0.13865E-05  7711   0.670E-03    0.117E-02
DAV:  26    -0.391660459228E+03    0.16289E-04   -0.25550E-06  6853   0.626E-03    0.478E-03
DAV:  27    -0.391660454347E+03    0.48810E-05   -0.25105E-06  6941   0.552E-03    0.458E-03
DAV:  28    -0.391660458302E+03   -0.39554E-05   -0.24428E-06  7161   0.290E-03    0.712E-03
DAV:  29    -0.391660466071E+03   -0.77682E-05   -0.52668E-07  5863   0.192E-03    0.455E-03
DAV:  30    -0.391660499454E+03   -0.33384E-04   -0.67486E-06  6446   0.269E-03    0.157E-03
DAV:  31    -0.391660502744E+03   -0.32894E-05   -0.86908E-07  6215   0.131E-03    0.149E-03
DAV:  32    -0.391660503597E+03   -0.85283E-06   -0.99886E-08  4994   0.594E-04
   1 F= -.41239918E+03 E0= -.41239918E+03  d E =-.336357E-23
