generated by phonopy
   1.0
     9.5767137363913584    0.0000000000000000    0.0000000000000000
     4.7883568681956792    8.2936773804863044    0.0000000000000000
     0.0000000000000000    0.0000000000000000   20.0000000000000000
Mo S
  18   36
Direct
  0.0000000000000000  0.0000000000000000  0.5129683447884864
  0.3333333333333333  0.0000000000000000  0.5129683447884864
  0.6666666666666665  0.0000000000000000  0.5129683447884864
  0.0000000000000000  0.3333333333333333  0.5129683447884864
  0.3333333333333333  0.3333333333333333  0.5129683447884864
  0.6666666666666666  0.3333333333333333  0.5129683447884864
  0.0000000000000000  0.6666666666666666  0.5129683447884864
  0.3333333333333332  0.6666666666666666  0.5129683447884864
  0.6666666666666666  0.6666666666666666  0.5129683447884864
  0.1111111111111119  0.1111111111111119  0.8120690216594282
  0.4444444444444453  0.1111111111111119  0.8120690216594282
  0.7777777777777786  0.1111111111111119  0.8120690216594282
  0.1111111111111119  0.4444444444444452  0.8120690216594282
  0.4444444444444452  0.4444444444444452  0.8120690216594282
  0.7777777777777786  0.4444444444444452  0.8120690216594282
  0.1111111111111120  0.7777777777777786  0.8120690216594282
  0.4444444444444453  0.7777777777777786  0.8120690216594282
  0.7777777777777786  0.7777777777777786  0.8120690216594282
  0.1106601449472489  0.1111111111111119  0.4348119642955635
  0.4444444444444453  0.1111111111111119  0.4352629304594265
  0.7777777777777786  0.1111111111111119  0.4352629304594265
  0.1111111111111119  0.4444444444444452  0.4352629304594265
  0.4444444444444452  0.4444444444444452  0.4352629304594265
  0.7777777777777786  0.4444444444444452  0.4352629304594265
  0.1111111111111120  0.7777777777777786  0.4352629304594265
  0.4444444444444453  0.7777777777777786  0.4352629304594265
  0.7777777777777786  0.7777777777777786  0.4352629304594265
  0.1111111111111119  0.1111111111111119  0.5904744585542366
  0.4444444444444453  0.1111111111111119  0.5904744585542366
  0.7777777777777786  0.1111111111111119  0.5904744585542366
  0.1111111111111119  0.4444444444444452  0.5904744585542366
  0.4444444444444452  0.4444444444444452  0.5904744585542366
  0.7777777777777786  0.4444444444444452  0.5904744585542366
  0.1111111111111120  0.7777777777777786  0.5904744585542366
  0.4444444444444453  0.7777777777777786  0.5904744585542366
  0.7777777777777786  0.7777777777777786  0.5904744585542366
  0.2222222222222238  0.2222222222222238  0.7344992179761803
  0.5555555555555571  0.2222222222222238  0.7344992179761803
  0.8888888888888905  0.2222222222222238  0.7344992179761803
  0.2222222222222238  0.5555555555555571  0.7344992179761803
  0.5555555555555571  0.5555555555555571  0.7344992179761803
  0.8888888888888904  0.5555555555555571  0.7344992179761803
  0.2222222222222238  0.8888888888888904  0.7344992179761803
  0.5555555555555574  0.8888888888888904  0.7344992179761803
  0.8888888888888904  0.8888888888888904  0.7344992179761803
  0.2222222222222238  0.2222222222222238  0.8897260265622965
  0.5555555555555571  0.2222222222222238  0.8897260265622965
  0.8888888888888905  0.2222222222222238  0.8897260265622965
  0.2222222222222238  0.5555555555555571  0.8897260265622965
  0.5555555555555571  0.5555555555555571  0.8897260265622965
  0.8888888888888904  0.5555555555555571  0.8897260265622965
  0.2222222222222238  0.8888888888888904  0.8897260265622965
  0.5555555555555574  0.8888888888888904  0.8897260265622965
  0.8888888888888904  0.8888888888888904  0.8897260265622965
